<?xml version="1.0"?>
<VTKFile type="UnstructuredGrid" version="0.1" byte_order="LittleEndian">
<UnstructuredGrid>
<Piece NumberOfPoints="30618" NumberOfCells="10744">
<Points>
<DataArray type="Float64" NumberOfComponents="3" format="ascii">
-0.49427958746526202 -0.49999999999999512 0 -0.4943900888896422 -0.47349089190363358 0 -0.49427958746526202 -0.49999999999999512 0 -0.5 -0.5 0 -0.4943900888896422 -0.47349089190363358 0 -0.5 -0.5 0 -0.4943900888896422 -0.47349089190363358 0 -0.5 -0.44150235328842258 0 -0.49427958746526202 -0.49999999999999512 0 -0.4943900888896422 -0.47349089190363358 0 -0.48436842240857858 -0.48714093788813112 0 -0.49427958746526202 -0.49999999999999512 0 -0.47650045540741742 -0.5 0 -0.48436842240857858 -0.48714093788813112 0 -0.4943900888896422 -0.47349089190363358 0 -0.47066899942757451 -0.47576530412887819 0 -0.48436842240857858 -0.48714093788813112 0 -0.47066899942757451 -0.47576530412887819 0 -0.47650045540741742 -0.5 0 -0.48436842240857858 -0.48714093788813112 0 -0.47066899942757451 -0.47576530412887819 0 -0.45872132334957288 -0.49999999999999928 0 -0.45242967983978871 -0.4846708604340636 0 -0.47066899942757451 -0.47576530412887819 0 -0.47650045540741742 -0.5 0 -0.45872132334957288 -0.49999999999999928 0 -0.47066899942757451 -0.47576530412887819 0 -0.45872132334957288 -0.49999999999999928 0 -0.47066899942757451 -0.47576530412887819 0 -0.45242967983978871 -0.4846708604340636 0 -0.45249717469141032 -0.46588444847215849 0 -0.43763952177061649 -0.47770500498713542 0 -0.45242967983978871 -0.4846708604340636 0 -0.45249717469141032 -0.46588444847215849 0 -0.43763952177061649 -0.47770500498713542 0 -0.44291044788006362 -0.49999999999999939 0 -0.45242967983978871 -0.4846708604340636 0 -0.43763952177061649 -0.47770500498713542 0 -0.44291044788006362 -0.49999999999999939 0 -0.45872132334957288 -0.49999999999999928 0 -0.44291044788006362 -0.49999999999999939 0 -0.45242967983978871 -0.4846708604340636 0 -0.44838221886832419 -0.4464230337388379 0 -0.4323685956611692 -0.45541000997427139 0 -0.435988539966085 -0.44148905847597392 0 -0.44838221886832419 -0.4464230337388379 0 -0.44213238819953832 -0.43491600865963681 0 -0.435988539966085 -0.44148905847597392 0 -0.44838221886832419 -0.4464230337388379 0 -0.45249717469141032 -0.46588444847215849 0 -0.45755175660874181 -0.45423607616472811 0 -0.44838221886832419 -0.4464230337388379 0 -0.45249717469141032 -0.46588444847215849 0 -0.4323685956611692 -0.45541000997427139 0 -0.43763952177061649 -0.47770500498713542 0 -0.45249717469141032 -0.46588444847215849 0 -0.4323685956611692 -0.45541000997427139 0 -0.47066899942757451 -0.47576530412887819 0 -0.45249717469141032 -0.46588444847215849 0 -0.4675747862741928 -0.45726336772241771 0 -0.45249717469141032 -0.46588444847215849 0 -0.45755175660874181 -0.45423607616472811 0 -0.4675747862741928 -0.45726336772241771 0 -0.44838221886832419 -0.4464230337388379 0 -0.46897642374787268 -0.44262015471777721 0 -0.45660235518767722 -0.42786105997071933 0 -0.44838221886832419 -0.4464230337388379 0 -0.45755175660874181 -0.45423607616472811 0 -0.46897642374787268 -0.44262015471777721 0 -0.45755175660874181 -0.45423607616472811 0 -0.4675747862741928 -0.45726336772241771 0 -0.46897642374787268 -0.44262015471777721 0 -0.4943900888896422 -0.47349089190363358 0 -0.5 -0.44150235328842258 0 -0.49450059031402238 -0.44698178380727199 0 -0.46897642374787268 -0.44262015471777721 0 -0.48473746643246862 -0.43972512984246093 0 -0.48043585850414389 -0.43127077967876992 0 -0.46897642374787268 -0.44262015471777721 0 -0.4826166755055763 -0.45153060825775743 0 -0.48473746643246862 -0.43972512984246093 0 -0.4675747862741928 -0.45726336772241771 0 -0.46897642374787268 -0.44262015471777721 0 -0.4826166755055763 -0.45153060825775743 0 -0.47066899942757451 -0.47576530412887819 0 -0.4826166755055763 -0.45153060825775743 0 -0.4943900888896422 -0.47349089190363358 0 -0.47066899942757451 -0.47576530412887819 0 -0.4826166755055763 -0.45153060825775743 0 -0.47066899942757451 -0.47576530412887819 0 -0.4675747862741928 -0.45726336772241771 0 -0.4826166755055763 -0.45153060825775743 0 -0.4943900888896422 -0.47349089190363358 0 -0.49450059031402238 -0.44698178380727199 0 -0.4943900888896422 -0.47349089190363358 0 -0.4826166755055763 -0.45153060825775743 0 -0.49450059031402238 -0.44698178380727199 0 -0.4826166755055763 -0.45153060825775743 0 -0.48473746643246862 -0.43972512984246093 0 -0.49450059031402238 -0.44698178380727199 0 -0.5 -0.44150235328842258 0 -0.49461109173840262 -0.42047267571091063 0 -0.5 -0.39656953661894012 0 -0.49450059031402238 -0.44698178380727199 0 -0.49461109173840262 -0.42047267571091063 0 -0.48473746643246862 -0.43972512984246093 0 -0.49461109173840262 -0.42047267571091063 0 -0.48043585850414389 -0.43127077967876992 0 -0.5 -0.44150235328842258 0 -0.49450059031402238 -0.44698178380727199 0 -0.49461109173840262 -0.42047267571091063 0 -0.48473746643246862 -0.43972512984246093 0 -0.49450059031402238 -0.44698178380727199 0 -0.49461109173840262 -0.42047267571091063 0 -0.49461109173840262 -0.42047267571091063 0 -0.4947215931627828 -0.39396356761454909 0 -0.49461109173840262 -0.42047267571091063 0 -0.48393842445605872 -0.40713040098299402 0 -0.4947215931627828 -0.39396356761454909 0 -0.49461109173840262 -0.42047267571091063 0 -0.48393842445605872 -0.40713040098299402 0 -0.47214510592166908 -0.41939033492402211 0 -0.48393842445605872 -0.40713040098299402 0 -0.47214510592166908 -0.41939033492402211 0 -0.47427590700138023 -0.39469502568249409 0 -0.46897642374787268 -0.44262015471777721 0 -0.47214510592166908 -0.41939033492402211 0 -0.48043585850414389 -0.43127077967876992 0 -0.49461109173840262 -0.42047267571091063 0 -0.47214510592166908 -0.41939033492402211 0 -0.48043585850414389 -0.43127077967876992 0 -0.5 -0.39656953661894012 0 -0.4947215931627828 -0.39396356761454909 0 -0.48030453056746109 -0.36861144308094029 0 -0.49461109173840262 -0.42047267571091063 0 -0.5 -0.39656953661894012 0 -0.4947215931627828 -0.39396356761454909 0 -0.48393842445605872 -0.40713040098299402 0 -0.4947215931627828 -0.39396356761454909 0 -0.47427590700138023 -0.39469502568249409 0 -0.47427590700138023 -0.39469502568249409 0 -0.48030453056746109 -0.36861144308094029 0 -0.4947215931627828 -0.39396356761454909 0 -0.47427590700138023 -0.39469502568249409 0 -0.48030453056746109 -0.36861144308094029 0 -0.47427590700138023 -0.39469502568249409 0 -0.46334377193483078 -0.37842983215876019 0 -0.48030453056746109 -0.36861144308094029 0 -0.46334377193483078 -0.37842983215876019 0 -0.45726543839001688 -0.40541672899881109 0 -0.44416021803808919 -0.38243724496113263 0 -0.47427590700138023 -0.39469502568249409 0 -0.46334377193483078 -0.37842983215876019 0 -0.45726543839001688 -0.40541672899881109 0 -0.45726543839001688 -0.40541672899881109 0 -0.43814282409564848 -0.40387353522152758 0 -0.44416021803808919 -0.38243724496113263 0 -0.43814282409564848 -0.40387353522152758 0 -0.44416021803808919 -0.38243724496113263 0 -0.4329908326547659 -0.40007252460533121 0 -0.43814282409564848 -0.40387353522152758 0 -0.44416021803808919 -0.38243724496113263 0 -0.46897642374787268 -0.44262015471777721 0 -0.47214510592166908 -0.41939033492402211 0 -0.45660235518767722 -0.42786105997071933 0 -0.47214510592166908 -0.41939033492402211 0 -0.47427590700138023 -0.39469502568249409 0 -0.45726543839001688 -0.40541672899881109 0 -0.47214510592166908 -0.41939033492402211 0 -0.45726543839001688 -0.40541672899881109 0 -0.45660235518767722 -0.42786105997071933 0 -0.45726543839001688 -0.40541672899881109 0 -0.45660235518767722 -0.42786105997071933 0 -0.44309263043645408 -0.41812298423377797 0 -0.45726543839001688 -0.40541672899881109 0 -0.43814282409564848 -0.40387353522152758 0 -0.44309263043645408 -0.41812298423377797 0 -0.43814282409564848 -0.40387353522152758 0 -0.44309263043645408 -0.41812298423377797 0 -0.43209373842114163 -0.42530092927673752 0 -0.44838221886832419 -0.4464230337388379 0 -0.45660235518767722 -0.42786105997071933 0 -0.44213238819953832 -0.43491600865963681 0 -0.45660235518767722 -0.42786105997071933 0 -0.44213238819953832 -0.43491600865963681 0 -0.43132710435572019 -0.42815377149591122 0 -0.45660235518767722 -0.42786105997071933 0 -0.44309263043645408 -0.41812298423377797 0 -0.43132710435572019 -0.42815377149591122 0 -0.45660235518767722 -0.42786105997071933 0 -0.43132710435572019 -0.42815377149591122 0 -0.44213238819953832 -0.43491600865963681 0 -0.42986244815509678 -0.43337144475258638 0 -0.435988539966085 -0.44148905847597392 0 -0.44213238819953832 -0.43491600865963681 0 -0.42986244815509678 -0.43337144475258638 0 -0.43132710435572019 -0.42815377149591122 0 -0.42986244815509678 -0.43337144475258638 0 -0.43132710435572019 -0.42815377149591122 0 -0.42986244815509678 -0.43337144475258638 0 -0.42494843276815808 -0.42822764260015772 0 -0.42026026496879931 -0.43681168621285732 0 -0.42986244815509678 -0.43337144475258638 0 -0.42494843276815808 -0.42822764260015772 0 -0.43132710435572019 -0.42815377149591122 0 -0.42494843276815808 -0.42822764260015772 0 -0.43209373842114163 -0.42530092927673752 0 -0.42214799869492048 -0.41876725226122891 0 -0.42494843276815808 -0.42822764260015772 0 -0.43209373842114163 -0.42530092927673752 0 -0.42494843276815808 -0.42822764260015772 0 -0.43209373842114163 -0.42530092927673752 0 -0.43132710435572019 -0.42815377149591122 0 -0.42494843276815808 -0.42822764260015772 0 -0.43132710435572019 -0.42815377149591122 0 -0.44309263043645408 -0.41812298423377797 0 -0.43209373842114163 -0.42530092927673752 0 -0.43132710435572019 -0.42815377149591122 0 -0.43209373842114163 -0.42530092927673752 0 -0.43132710435572019 -0.42815377149591122 0 -0.43814282409564848 -0.40387353522152758 0 -0.43209373842114163 -0.42530092927673752 0 -0.43814282409564848 -0.40387353522152758 0 -0.43209373842114163 -0.42530092927673752 0 -0.42736227186559528 -0.41250939947999687 0 -0.43814282409564848 -0.40387353522152758 0 -0.42736227186559528 -0.41250939947999687 0 -0.42798743510346321 -0.40461924019690898 0 -0.42736227186559528 -0.41250939947999687 0 -0.42214799869492048 -0.41876725226122891 0 -0.41643936301280282 -0.409986040443582 0 -0.42736227186559528 -0.41250939947999687 0 -0.41643936301280282 -0.409986040443582 0 -0.42798743510346321 -0.40461924019690898 0 -0.43209373842114163 -0.42530092927673752 0 -0.42736227186559528 -0.41250939947999687 0 -0.42214799869492048 -0.41876725226122891 0 -0.41643936301280282 -0.409986040443582 0 -0.41319678457753078 -0.41966526467231158 0 -0.40068754056194861 -0.4128492080837643 0 -0.41643936301280282 -0.409986040443582 0 -0.40443020735863072 -0.40194112054031811 0 -0.40068754056194861 -0.4128492080837643 0 -0.42214799869492048 -0.41876725226122891 0 -0.41643936301280282 -0.409986040443582 0 -0.41319678457753078 -0.41966526467231158 0 -0.42494843276815808 -0.42822764260015772 0 -0.42026026496879931 -0.43681168621285732 0 -0.40375973713816599 -0.43690652084804732 0 -0.42494843276815808 -0.42822764260015772 0 -0.40375973713816599 -0.43690652084804732 0 -0.42494843276815808 -0.42822764260015772 0 -0.40375973713816599 -0.43690652084804732 0 -0.40176058784982421 -0.42849617997282502 0 -0.42494843276815808 -0.42822764260015772 0 -0.40176058784982421 -0.42849617997282502 0 -0.42494843276815808 -0.42822764260015772 0 -0.41319678457753078 -0.41966526467231158 0 -0.40176058784982421 -0.42849617997282502 0 -0.42494843276815808 -0.42822764260015772 0 -0.42214799869492048 -0.41876725226122891 0 -0.41319678457753078 -0.41966526467231158 0 -0.4329908326547659 -0.40007252460533121 0 -0.41903857325144328 -0.37691094697715488 0 -0.4329908326547659 -0.40007252460533121 0 -0.4179168883199279 -0.39116430956604842 0 -0.41903857325144328 -0.37691094697715488 0 -0.4326994291400702 -0.38209416684564063 0 -0.4329908326547659 -0.40007252460533121 0 -0.41903857325144328 -0.37691094697715488 0 -0.44416021803808919 -0.38243724496113263 0 -0.4326994291400702 -0.38209416684564063 0 -0.4329908326547659 -0.40007252460533121 0 -0.4326994291400702 -0.38209416684564063 0 -0.41903857325144328 -0.37691094697715488 0 -0.43460809261598232 -0.36895595083894339 0 -0.44416021803808919 -0.38243724496113263 0 -0.4326994291400702 -0.38209416684564063 0 -0.43460809261598232 -0.36895595083894339 0 -0.4329908326547659 -0.40007252460533121 0 -0.42169055226689678 -0.40123550737599678 0 -0.4179168883199279 -0.39116430956604842 0 -0.43814282409564848 -0.40387353522152758 0 -0.4329908326547659 -0.40007252460533121 0 -0.42798743510346321 -0.40461924019690898 0 -0.4329908326547659 -0.40007252460533121 0 -0.42798743510346321 -0.40461924019690898 0 -0.42169055226689678 -0.40123550737599678 0 -0.41643936301280282 -0.409986040443582 0 -0.42798743510346321 -0.40461924019690898 0 -0.42169055226689678 -0.40123550737599678 0 -0.40637138740796802 -0.39517449182144659 0 -0.4179168883199279 -0.39116430956604842 0 -0.40139199175968793 -0.38592718468705428 0 -0.41643936301280282 -0.409986040443582 0 -0.42169055226689678 -0.40123550737599678 0 -0.41336967967324528 -0.3999002939494784 0 -0.41643936301280282 -0.409986040443582 0 -0.41336967967324528 -0.3999002939494784 0 -0.40443020735863072 -0.40194112054031811 0 -0.41336967967324528 -0.3999002939494784 0 -0.40637138740796802 -0.39517449182144659 0 -0.40443020735863072 -0.40194112054031811 0 -0.41336967967324528 -0.3999002939494784 0 -0.40637138740796802 -0.39517449182144659 0 -0.4179168883199279 -0.39116430956604842 0 -0.42169055226689678 -0.40123550737599678 0 -0.41336967967324528 -0.3999002939494784 0 -0.4179168883199279 -0.39116430956604842 0 -0.4179168883199279 -0.39116430956604842 0 -0.40139199175968793 -0.38592718468705428 0 -0.4179168883199279 -0.39116430956604842 0 -0.41012997258942652 -0.38146265356513281 0 -0.40139199175968793 -0.38592718468705428 0 -0.4179168883199279 -0.39116430956604842 0 -0.41596140559408717 -0.38148427669336471 0 -0.41903857325144328 -0.37691094697715488 0 -0.4179168883199279 -0.39116430956604842 0 -0.41264357953851821 -0.38144664688815172 0 -0.41596140559408717 -0.38148427669336471 0 -0.4179168883199279 -0.39116430956604842 0 -0.41264357953851821 -0.38144664688815172 0 -0.41012997258942652 -0.38146265356513281 0 -0.41404820471788178 -0.37946069571912022 0 -0.41012997258942652 -0.38146265356513281 0 -0.41264357953851821 -0.38144664688815172 0 -0.41404820471788178 -0.37946069571912022 0 -0.41012997258942652 -0.38146265356513281 0 -0.41404820471788178 -0.37946069571912022 0 -0.41012997258942652 -0.38146265356513281 0 -0.40173768300816198 -0.36643993149899518 0 -0.41264357953851821 -0.38144664688815172 0 -0.41012997258942652 -0.38146265356513281 0 -0.41404820471788178 -0.37946069571912022 0 -0.41903857325144328 -0.37691094697715488 0 -0.41404820471788178 -0.37946069571912022 0 -0.41596140559408717 -0.38148427669336471 0 -0.41903857325144328 -0.37691094697715488 0 -0.41264357953851821 -0.38144664688815172 0 -0.41404820471788178 -0.37946069571912022 0 -0.41596140559408717 -0.38148427669336471 0 -0.41404820471788178 -0.37946069571912022 0 -0.41596140559408717 -0.38148427669336471 0 -0.41012997258942652 -0.38146265356513281 0 -0.39138945824891558 -0.38158199336868193 0 -0.40139199175968793 -0.38592718468705428 0 -0.39138945824891558 -0.38158199336868193 0 -0.40139199175968793 -0.38592718468705428 0 -0.38146018706309692 -0.39611102053173108 0 -0.41012997258942652 -0.38146265356513281 0 -0.39138945824891558 -0.38158199336868193 0 -0.40173768300816198 -0.36643993149899518 0 -0.41012997258942652 -0.38146265356513281 0 -0.39138945824891558 -0.38158199336868193 0 -0.41012997258942652 -0.38146265356513281 0 -0.40139199175968793 -0.38592718468705428 0 -0.39138945824891558 -0.38158199336868193 0 -0.40139199175968793 -0.38592718468705428 0 -0.40139199175968793 -0.38592718468705428 0 -0.39499960735806972 -0.39650442224569948 0 -0.38146018706309692 -0.39611102053173108 0 -0.40139199175968793 -0.38592718468705428 0 -0.38146018706309692 -0.39611102053173108 0 -0.40637138740796802 -0.39517449182144659 0 -0.39499960735806972 -0.39650442224569948 0 -0.40443020735863072 -0.40194112054031811 0 -0.40637138740796802 -0.39517449182144659 0 -0.40139199175968793 -0.38592718468705428 0 -0.39499960735806972 -0.39650442224569948 0 -0.39499960735806972 -0.39650442224569948 0 -0.40443020735863072 -0.40194112054031811 0 -0.39652584119055362 -0.40342912424259242 0 -0.40443020735863072 -0.40194112054031811 0 -0.39652584119055362 -0.40342912424259242 0 -0.40068754056194861 -0.4128492080837643 0 -0.39652584119055362 -0.40342912424259242 0 -0.38735877636819388 -0.40059869056111858 0 -0.38983809416569087 -0.40758335385593009 0 -0.39499960735806972 -0.39650442224569948 0 -0.39652584119055362 -0.40342912424259242 0 -0.38735877636819388 -0.40059869056111858 0 -0.38156916822041892 -0.40603200008561519 0 -0.38178229459812563 -0.40298695858946171 0 -0.38983809416569087 -0.40758335385593009 0 -0.38178229459812563 -0.40298695858946171 0 -0.38012172885428602 -0.39806952235009457 0 -0.38983809416569087 -0.40758335385593009 0 -0.38735877636819388 -0.40059869056111858 0 -0.38012172885428602 -0.39806952235009457 0 -0.38983809416569087 -0.40758335385593009 0 -0.38012172885428602 -0.39806952235009457 0 -0.38983809416569087 -0.40758335385593009 0 -0.38012172885428602 -0.39806952235009457 0 -0.37209094330423159 -0.40089808531996213 0 -0.37629487057870992 -0.40149067916431569 0 -0.38012172885428602 -0.39806952235009457 0 -0.37209094330423159 -0.40089808531996213 0 -0.38156916822041892 -0.40603200008561519 0 -0.38178229459812563 -0.40298695858946171 0 -0.37856432677971441 -0.40327293704996398 0 -0.38156916822041892 -0.40603200008561519 0 -0.37602613074463359 -0.40570926791912437 0 -0.37856432677971441 -0.40327293704996398 0 -0.37602613074463359 -0.40570926791912437 0 -0.37856432677971441 -0.40327293704996398 0 -0.37629487057870992 -0.40149067916431569 0 -0.37856432677971441 -0.40327293704996398 0 -0.37629487057870992 -0.40149067916431569 0 -0.37881815497051818 -0.39997697960570461 0 -0.37629487057870992 -0.40149067916431569 0 -0.37881815497051818 -0.39997697960570461 0 -0.38012172885428602 -0.39806952235009457 0 -0.37881815497051818 -0.39997697960570461 0 -0.38012172885428602 -0.39806952235009457 0 -0.38178229459812563 -0.40298695858946171 0 -0.37881815497051818 -0.39997697960570461 0 -0.38012172885428602 -0.39806952235009457 0 -0.38178229459812563 -0.40298695858946171 0 -0.37856432677971441 -0.40327293704996398 0 -0.37881815497051818 -0.39997697960570461 0 -0.38012172885428602 -0.39806952235009457 0 -0.37610551335983561 -0.39413702328477918 0 -0.37209094330423159 -0.40089808531996213 0 -0.38146018706309692 -0.39611102053173108 0 -0.37610551335983561 -0.39413702328477918 0 -0.38353069879127127 -0.38163203803623119 0 -0.38146018706309692 -0.39611102053173108 0 -0.38012172885428602 -0.39806952235009457 0 -0.37610551335983561 -0.39413702328477918 0 -0.38146018706309692 -0.39611102053173108 0 -0.38012172885428602 -0.39806952235009457 0 -0.38012172885428602 -0.39806952235009457 0 -0.37610551335983561 -0.39413702328477918 0 -0.39499960735806972 -0.39650442224569948 0 -0.38735877636819388 -0.40059869056111858 0 -0.38146018706309692 -0.39611102053173108 0 -0.38735877636819388 -0.40059869056111858 0 -0.38146018706309692 -0.39611102053173108 0 -0.38012172885428602 -0.39806952235009457 0 -0.39138945824891558 -0.38158199336868193 0 -0.38146018706309692 -0.39611102053173108 0 -0.38146018706309692 -0.39611102053173108 0 -0.38353069879127127 -0.38163203803623119 0 -0.38775448495095949 -0.38160514091903242 0 -0.39138945824891558 -0.38158199336868193 0 -0.38146018706309692 -0.39611102053173108 0 -0.38775448495095949 -0.38160514091903242 0 -0.37610551335983561 -0.39413702328477918 0 -0.38353069879127127 -0.38163203803623119 0 -0.38353069879127127 -0.38163203803623119 0 -0.36791003929668897 -0.37531597356073781 0 -0.38353069879127127 -0.38163203803623119 0 -0.37576852049830373 -0.37424143402576782 0 -0.36791003929668897 -0.37531597356073781 0 -0.38353069879127127 -0.38163203803623119 0 -0.38775448495095949 -0.38160514091903242 0 -0.39138945824891558 -0.38158199336868193 0 -0.38775448495095949 -0.38160514091903242 0 -0.39082733033514372 -0.43553780059387093 0 -0.40375973713816599 -0.43690652084804732 0 -0.40176058784982421 -0.42849617997282502 0 -0.41319678457753078 -0.41966526467231158 0 -0.40176058784982421 -0.42849617997282502 0 -0.40068754056194861 -0.4128492080837643 0 -0.40176058784982421 -0.42849617997282502 0 -0.40068754056194861 -0.4128492080837643 0 -0.38796072571873202 -0.41787067674187572 0 -0.40068754056194861 -0.4128492080837643 0 -0.38796072571873202 -0.41787067674187572 0 -0.38983809416569087 -0.40758335385593009 0 -0.39652584119055362 -0.40342912424259242 0 -0.40068754056194861 -0.4128492080837643 0 -0.38983809416569087 -0.40758335385593009 0 -0.38156916822041892 -0.40603200008561519 0 -0.38983809416569087 -0.40758335385593009 0 -0.38249496913699632 -0.41100015469591239 0 -0.38796072571873202 -0.41787067674187572 0 -0.38983809416569087 -0.40758335385593009 0 -0.38249496913699632 -0.41100015469591239 0 -0.38156916822041892 -0.40603200008561519 0 -0.37602613074463359 -0.40570926791912437 0 -0.38249496913699632 -0.41100015469591239 0 -0.38796072571873202 -0.41787067674187572 0 -0.38249496913699632 -0.41100015469591239 0 -0.37441041966644201 -0.41853044649732968 0 -0.38796072571873202 -0.41787067674187572 0 -0.37857274293149029 -0.42876471734549271 0 -0.37441041966644201 -0.41853044649732968 0 -0.39082733033514372 -0.43553780059387093 0 -0.37857274293149029 -0.42876471734549271 0 -0.38257104150817378 -0.44558539909593659 0 -0.40176058784982421 -0.42849617997282502 0 -0.38796072571873202 -0.41787067674187572 0 -0.37857274293149029 -0.42876471734549271 0 -0.40176058784982421 -0.42849617997282502 0 -0.37857274293149029 -0.42876471734549271 0 -0.39082733033514372 -0.43553780059387093 0 -0.40176058784982421 -0.42849617997282502 0 -0.37857274293149029 -0.42876471734549271 0 -0.37857274293149029 -0.42876471734549271 0 -0.38257104150817378 -0.44558539909593659 0 -0.36466736862266619 -0.43929361107495862 0 -0.40375973713816599 -0.43690652084804732 0 -0.38257104150817378 -0.44558539909593659 0 -0.40375973713816599 -0.43690652084804732 0 -0.38257104150817378 -0.44558539909593659 0 -0.39873322217020901 -0.44879301705899238 0 -0.38257104150817378 -0.44558539909593659 0 -0.39873322217020901 -0.44879301705899238 0 -0.39185116602312342 -0.46040899195533008 0 -0.39082733033514372 -0.43553780059387093 0 -0.40375973713816599 -0.43690652084804732 0 -0.38257104150817378 -0.44558539909593659 0 -0.39873322217020901 -0.44879301705899238 0 -0.40884565752670138 -0.44739205870809717 0 -0.40642776429331862 -0.45699343118294727 0 -0.40375973713816599 -0.43690652084804732 0 -0.39873322217020901 -0.44879301705899238 0 -0.40884565752670138 -0.44739205870809717 0 -0.39185116602312342 -0.46040899195533008 0 -0.40182839360969391 -0.46973105278735439 0 -0.40642776429331862 -0.45699343118294727 0 -0.39873322217020901 -0.44879301705899238 0 -0.39185116602312342 -0.46040899195533008 0 -0.40642776429331862 -0.45699343118294727 0 -0.38257104150817378 -0.44558539909593659 0 -0.39185116602312342 -0.46040899195533008 0 -0.3749125057523493 -0.4641870694620962 0 -0.39185116602312342 -0.46040899195533008 0 -0.38739682711329992 -0.47637139398093842 0 -0.3749125057523493 -0.4641870694620962 0 -0.38739682711329992 -0.47637139398093842 0 -0.36650464836053492 -0.47758333459014829 0 -0.3749125057523493 -0.4641870694620962 0 -0.38739682711329992 -0.47637139398093842 0 -0.38649563617076049 -0.5 0 -0.36650464836053492 -0.47758333459014829 0 -0.38649563617076049 -0.5 0 -0.40221786754911548 -0.48468690862955621 0 -0.41470304202541208 -0.5 0 -0.38739682711329992 -0.47637139398093842 0 -0.38649563617076049 -0.5 0 -0.40221786754911548 -0.48468690862955621 0 -0.39185116602312342 -0.46040899195533008 0 -0.38739682711329992 -0.47637139398093842 0 -0.40182839360969391 -0.46973105278735439 0 -0.38739682711329992 -0.47637139398093842 0 -0.40221786754911548 -0.48468690862955621 0 -0.40182839360969391 -0.46973105278735439 0 -0.40221786754911548 -0.48468690862955621 0 -0.40182839360969391 -0.46973105278735439 0 -0.41640034518153801 -0.4710884416934209 0 -0.40221786754911548 -0.48468690862955621 0 -0.41640034518153801 -0.4710884416934209 0 -0.41470304202541208 -0.5 0 -0.43763952177061649 -0.47770500498713542 0 -0.44291044788006362 -0.49999999999999939 0 -0.41470304202541208 -0.5 0 -0.43763952177061649 -0.47770500498713542 0 -0.41640034518153801 -0.4710884416934209 0 -0.41470304202541208 -0.5 0 -0.43763952177061649 -0.47770500498713542 0 -0.41640034518153801 -0.4710884416934209 0 -0.4323685956611692 -0.45541000997427139 0 -0.43763952177061649 -0.47770500498713542 0 -0.4323685956611692 -0.45541000997427139 0 -0.41640034518153801 -0.4710884416934209 0 -0.4323685956611692 -0.45541000997427139 0 -0.41872867018542492 -0.45179192289975101 0 -0.4323685956611692 -0.45541000997427139 0 -0.435988539966085 -0.44148905847597392 0 -0.42615181293618792 -0.44307742131274741 0 -0.42986244815509678 -0.43337144475258638 0 -0.435988539966085 -0.44148905847597392 0 -0.42615181293618792 -0.44307742131274741 0 -0.42986244815509678 -0.43337144475258638 0 -0.42026026496879931 -0.43681168621285732 0 -0.42615181293618792 -0.44307742131274741 0 -0.4323685956611692 -0.45541000997427139 0 -0.42615181293618792 -0.44307742131274741 0 -0.41872867018542492 -0.45179192289975101 0 -0.41872867018542492 -0.45179192289975101 0 -0.41657889384638791 -0.4424754015507481 0 -0.40884565752670138 -0.44739205870809717 0 -0.42026026496879931 -0.43681168621285732 0 -0.40375973713816599 -0.43690652084804732 0 -0.41657889384638791 -0.4424754015507481 0 -0.42615181293618792 -0.44307742131274741 0 -0.41872867018542492 -0.45179192289975101 0 -0.41657889384638791 -0.4424754015507481 0 -0.42026026496879931 -0.43681168621285732 0 -0.42615181293618792 -0.44307742131274741 0 -0.41657889384638791 -0.4424754015507481 0 -0.40375973713816599 -0.43690652084804732 0 -0.41657889384638791 -0.4424754015507481 0 -0.40884565752670138 -0.44739205870809717 0 -0.41872867018542492 -0.45179192289975101 0 -0.40884565752670138 -0.44739205870809717 0 -0.40642776429331862 -0.45699343118294727 0 -0.41640034518153801 -0.4710884416934209 0 -0.41872867018542492 -0.45179192289975101 0 -0.40642776429331862 -0.45699343118294727 0 -0.40182839360969391 -0.46973105278735439 0 -0.41640034518153801 -0.4710884416934209 0 -0.40642776429331862 -0.45699343118294727 0 -0.45211818340539273 -0.26309076008929921 0 -0.44165736388207272 -0.25360003737878889 0 -0.46465652818918263 -0.24483730068029039 0 -0.45211818340539273 -0.26309076008929921 0 -0.44165736388207272 -0.25360003737878889 0 -0.43680511815892142 -0.2660007677910407 0 -0.45211818340539273 -0.26309076008929921 0 -0.43957983862160288 -0.2813442194983079 0 -0.45211818340539273 -0.26309076008929921 0 -0.45386615352933152 -0.26317791563468229 0 -0.44300193479902689 -0.28147468360283379 0 -0.45211818340539273 -0.26309076008929921 0 -0.43957983862160288 -0.2813442194983079 0 -0.44300193479902689 -0.28147468360283379 0 -0.45386615352933152 -0.26317791563468229 0 -0.44300193479902689 -0.28147468360283379 0 -0.45211818340539273 -0.26309076008929921 0 -0.43957983862160288 -0.2813442194983079 0 -0.43680511815892142 -0.2660007677910407 0 -0.46540099386590911 -0.27613459344745273 0 -0.45386615352933152 -0.26317791563468229 0 -0.47789920225856231 -0.2654141115859287 0 -0.46540099386590911 -0.27613459344745273 0 -0.45386615352933152 -0.26317791563468229 0 -0.44300193479902689 -0.28147468360283379 0 -0.45211818340539273 -0.26309076008929921 0 -0.45386615352933152 -0.26317791563468229 0 -0.46465652818918263 -0.24483730068029039 0 -0.45211818340539273 -0.26309076008929921 0 -0.46465652818918263 -0.24483730068029039 0 -0.45386615352933152 -0.26317791563468229 0 -0.46465652818918263 -0.24483730068029039 0 -0.45386615352933152 -0.26317791563468229 0 -0.47789920225856231 -0.2654141115859287 0 -0.46465652818918263 -0.24483730068029039 0 -0.47789920225856231 -0.2654141115859287 0 -0.48570939693172899 -0.24902992718248729 0 -0.46465652818918263 -0.24483730068029039 0 -0.47789920225856231 -0.2654141115859287 0 -0.4909021497975728 -0.26136593096020788 0 -0.48570939693172899 -0.24902992718248729 0 -0.4909021497975728 -0.26136593096020788 0 -0.5 -0.25150281007534703 0 -0.5 -0.27951687499706851 0 -0.4909021497975728 -0.26136593096020788 0 -0.5 -0.25150281007534703 0 -0.48570939693172899 -0.24902992718248729 0 -0.47789920225856231 -0.2654141115859287 0 -0.5 -0.27951687499706851 0 -0.48508449486424082 -0.28732415172015657 0 -0.47789920225856231 -0.2654141115859287 0 -0.4909021497975728 -0.26136593096020788 0 -0.5 -0.27951687499706851 0 -0.46540099386590911 -0.27613459344745273 0 -0.47789920225856231 -0.2654141115859287 0 -0.48508449486424082 -0.28732415172015657 0 -0.46540099386590911 -0.27613459344745273 0 -0.4692524708352519 -0.29304891184013099 0 -0.48508449486424082 -0.28732415172015657 0 -0.4692524708352519 -0.29304891184013099 0 -0.48508449486424082 -0.28732415172015657 0 -0.48342094646859679 -0.29729694551662461 0 -0.5 -0.27951687499706851 0 -0.5 -0.30753093991878988 0 -0.49616219239740023 -0.30000131546641939 0 -0.5 -0.27951687499706851 0 -0.48508449486424082 -0.28732415172015657 0 -0.49616219239740023 -0.30000131546641939 0 -0.48508449486424082 -0.28732415172015657 0 -0.49616219239740023 -0.30000131546641939 0 -0.48342094646859679 -0.29729694551662461 0 -0.49616219239740023 -0.30000131546641939 0 -0.47988752038114357 -0.30743937284698208 0 -0.49124767326547109 -0.32126458797290303 0 -0.49616219239740023 -0.30000131546641939 0 -0.47988752038114357 -0.30743937284698208 0 -0.48342094646859679 -0.29729694551662461 0 -0.49616219239740023 -0.30000131546641939 0 -0.49124767326547109 -0.32126458797290303 0 -0.5 -0.30753093991878988 0 -0.49616219239740023 -0.30000131546641939 0 -0.49124767326547109 -0.32126458797290303 0 -0.4692524708352519 -0.29304891184013099 0 -0.47988752038114357 -0.30743937284698208 0 -0.46289418455034459 -0.31569959279366661 0 -0.4692524708352519 -0.29304891184013099 0 -0.47988752038114357 -0.30743937284698208 0 -0.48342094646859679 -0.29729694551662461 0 -0.4692524708352519 -0.29304891184013099 0 -0.46289418455034459 -0.31569959279366661 0 -0.4692524708352519 -0.29304891184013099 0 -0.45610231338702439 -0.30058860430122147 0 -0.46289418455034459 -0.31569959279366661 0 -0.45610231338702439 -0.30058860430122147 0 -0.44586848524951039 -0.31314063422893113 0 -0.46289418455034459 -0.31569959279366661 0 -0.46540099386590911 -0.27613459344745273 0 -0.45701344915610581 -0.28694014007387803 0 -0.44300193479902689 -0.28147468360283379 0 -0.46540099386590911 -0.27613459344745273 0 -0.4692524708352519 -0.29304891184013099 0 -0.45701344915610581 -0.28694014007387803 0 -0.4692524708352519 -0.29304891184013099 0 -0.45610231338702439 -0.30058860430122147 0 -0.45701344915610581 -0.28694014007387803 0 -0.45610231338702439 -0.30058860430122147 0 -0.44300193479902689 -0.28147468360283379 0 -0.43213771606872631 -0.29977145157098772 0 -0.43957983862160288 -0.2813442194983079 0 -0.44300193479902689 -0.28147468360283379 0 -0.43213771606872631 -0.29977145157098772 0 -0.45610231338702439 -0.30058860430122147 0 -0.45701344915610581 -0.28694014007387803 0 -0.44300193479902689 -0.28147468360283379 0 -0.44300193479902689 -0.28147468360283379 0 -0.43213771606872631 -0.29977145157098772 0 -0.45610231338702439 -0.30058860430122147 0 -0.43213771606872631 -0.29977145157098772 0 -0.45610231338702439 -0.30058860430122147 0 -0.44586848524951039 -0.31314063422893113 0 -0.43213771606872631 -0.29977145157098772 0 -0.44586848524951039 -0.31314063422893113 0 -0.44476508916493912 -0.32800798766852468 0 -0.46289418455034459 -0.31569959279366661 0 -0.44586848524951039 -0.31314063422893113 0 -0.44476508916493912 -0.32800798766852468 0 -0.43268999707831379 -0.32114889215997511 0 -0.44476508916493912 -0.32800798766852468 0 -0.45653589826543722 -0.33835027374720222 0 -0.43854709093312078 -0.34551838447463762 0 -0.44476508916493912 -0.32800798766852468 0 -0.43854709093312078 -0.34551838447463762 0 -0.43403437847741988 -0.33354869747312299 0 -0.45653589826543722 -0.33835027374720222 0 -0.47228809685679413 -0.34052311598912072 0 -0.46825538305703029 -0.35176440759005828 0 -0.45653589826543722 -0.33835027374720222 0 -0.47506093156469842 -0.3287229684348516 0 -0.47228809685679413 -0.34052311598912072 0 -0.44476508916493912 -0.32800798766852468 0 -0.45653589826543722 -0.33835027374720222 0 -0.46289418455034459 -0.31569959279366661 0 -0.45653589826543722 -0.33835027374720222 0 -0.46289418455034459 -0.31569959279366661 0 -0.47506093156469842 -0.3287229684348516 0 -0.45653589826543722 -0.33835027374720222 0 -0.46289418455034459 -0.31569959279366661 0 -0.4772725774404144 -0.31828163051210079 0 -0.49124767326547109 -0.32126458797290303 0 -0.47506093156469842 -0.3287229684348516 0 -0.47988752038114357 -0.30743937284698208 0 -0.46289418455034459 -0.31569959279366661 0 -0.4772725774404144 -0.31828163051210079 0 -0.46289418455034459 -0.31569959279366661 0 -0.4772725774404144 -0.31828163051210079 0 -0.47506093156469842 -0.3287229684348516 0 -0.47988752038114357 -0.30743937284698208 0 -0.4772725774404144 -0.31828163051210079 0 -0.49124767326547109 -0.32126458797290303 0 -0.5 -0.30753093991878988 0 -0.49124767326547109 -0.32126458797290303 0 -0.49999999999999961 -0.33554500484051131 0 -0.49124767326547109 -0.32126458797290303 0 -0.48633315413354011 -0.3425278604793861 0 -0.49124767326547109 -0.32126458797290303 0 -0.49999999999999961 -0.33554500484051131 0 -0.48633315413354011 -0.3425278604793861 0 -0.49999999999999961 -0.33554500484051131 0 -0.48633315413354011 -0.3425278604793861 0 -0.48633315413354011 -0.3425278604793861 0 -0.47506093156469842 -0.3287229684348516 0 -0.47228809685679413 -0.34052311598912072 0 -0.49124767326547109 -0.32126458797290303 0 -0.48633315413354011 -0.3425278604793861 0 -0.47506093156469842 -0.3287229684348516 0 -0.48633315413354011 -0.3425278604793861 0 -0.47228809685679413 -0.34052311598912072 0 -0.46825538305703029 -0.35176440759005828 0 -0.49999999999999961 -0.33554500484051131 0 -0.48633315413354011 -0.3425278604793861 0 -0.48030453056746109 -0.36861144308094029 0 -0.48633315413354011 -0.3425278604793861 0 -0.48030453056746109 -0.36861144308094029 0 -0.46825538305703029 -0.35176440759005828 0 -0.48633315413354011 -0.3425278604793861 0 -0.46825538305703029 -0.35176440759005828 0 -0.48633315413354011 -0.3425278604793861 0 -0.48030453056746109 -0.36861144308094029 0 -0.5 -0.39656953661894012 0 -0.49999999999999961 -0.33554500484051131 0 -0.48030453056746109 -0.36861144308094029 0 -0.46334377193483078 -0.37842983215876019 0 -0.48030453056746109 -0.36861144308094029 0 -0.46825538305703029 -0.35176440759005828 0 -0.46334377193483078 -0.37842983215876019 0 -0.46825538305703029 -0.35176440759005828 0 -0.45017761198052331 -0.36100095470073579 0 -0.45653589826543722 -0.33835027374720222 0 -0.45017761198052331 -0.36100095470073579 0 -0.45653589826543722 -0.33835027374720222 0 -0.46825538305703029 -0.35176440759005828 0 -0.45017761198052331 -0.36100095470073579 0 -0.46825538305703029 -0.35176440759005828 0 -0.45017761198052331 -0.36100095470073579 0 -0.45653589826543722 -0.33835027374720222 0 -0.43854709093312078 -0.34551838447463762 0 -0.45017761198052331 -0.36100095470073579 0 -0.43854709093312078 -0.34551838447463762 0 -0.45017761198052331 -0.36100095470073579 0 -0.43688840964749209 -0.35781554759345557 0 -0.45017761198052331 -0.36100095470073579 0 -0.43460809261598232 -0.36895595083894339 0 -0.43688840964749209 -0.35781554759345557 0 -0.45017761198052331 -0.36100095470073579 0 -0.43460809261598232 -0.36895595083894339 0 -0.44416021803808919 -0.38243724496113263 0 -0.45017761198052331 -0.36100095470073579 0 -0.43460809261598232 -0.36895595083894339 0 -0.44416021803808919 -0.38243724496113263 0 -0.45017761198052331 -0.36100095470073579 0 -0.46334377193483078 -0.37842983215876019 0 -0.44416021803808919 -0.38243724496113263 0 -0.45017761198052331 -0.36100095470073579 0 -0.41903857325144328 -0.37691094697715488 0 -0.43460809261598232 -0.36895595083894339 0 -0.42422084306034402 -0.35578690035950972 0 -0.41903857325144328 -0.37691094697715488 0 -0.43460809261598232 -0.36895595083894339 0 -0.43460809261598232 -0.36895595083894339 0 -0.43688840964749209 -0.35781554759345557 0 -0.42422084306034402 -0.35578690035950972 0 -0.43854709093312078 -0.34551838447463762 0 -0.42422084306034402 -0.35578690035950972 0 -0.42013533673330578 -0.33951952558935461 0 -0.43854709093312078 -0.34551838447463762 0 -0.43688840964749209 -0.35781554759345557 0 -0.42422084306034402 -0.35578690035950972 0 -0.40758067638829881 -0.35789015901873489 0 -0.42013533673330578 -0.33951952558935461 0 -0.42422084306034402 -0.35578690035950972 0 -0.40758067638829881 -0.35789015901873489 0 -0.42013533673330578 -0.33951952558935461 0 -0.40758067638829881 -0.35789015901873489 0 -0.4025685708709531 -0.34956976676792401 0 -0.42013533673330578 -0.33951952558935461 0 -0.41903857325144328 -0.37691094697715488 0 -0.40758067638829881 -0.35789015901873489 0 -0.40173768300816198 -0.36643993149899518 0 -0.41404820471788178 -0.37946069571912022 0 -0.41903857325144328 -0.37691094697715488 0 -0.40173768300816198 -0.36643993149899518 0 -0.41903857325144328 -0.37691094697715488 0 -0.42422084306034402 -0.35578690035950972 0 -0.40758067638829881 -0.35789015901873489 0 -0.41903857325144328 -0.37691094697715488 0 -0.40758067638829881 -0.35789015901873489 0 -0.41404820471788178 -0.37946069571912022 0 -0.40173768300816198 -0.36643993149899518 0 -0.39138945824891558 -0.38158199336868193 0 -0.38775448495095949 -0.38160514091903242 0 -0.39609514899832238 -0.36047185746617882 0 -0.39138945824891558 -0.38158199336868193 0 -0.40173768300816198 -0.36643993149899518 0 -0.39609514899832238 -0.36047185746617882 0 -0.40758067638829881 -0.35789015901873489 0 -0.40173768300816198 -0.36643993149899518 0 -0.40758067638829881 -0.35789015901873489 0 -0.40173768300816198 -0.36643993149899518 0 -0.39609514899832238 -0.36047185746617882 0 -0.40173768300816198 -0.36643993149899518 0 -0.39609514899832238 -0.36047185746617882 0 -0.39138945824891558 -0.38158199336868193 0 -0.40173768300816198 -0.36643993149899518 0 -0.38353069879127127 -0.38163203803623119 0 -0.38775448495095949 -0.38160514091903242 0 -0.39609514899832238 -0.36047185746617882 0 -0.38353069879127127 -0.38163203803623119 0 -0.39609514899832238 -0.36047185746617882 0 -0.37576852049830373 -0.37424143402576782 0 -0.37576852049830373 -0.37424143402576782 0 -0.38980029292032681 -0.3538138263344407 0 -0.39609514899832238 -0.36047185746617882 0 -0.37576852049830373 -0.37424143402576782 0 -0.38980029292032681 -0.3538138263344407 0 -0.38353069879127127 -0.38163203803623119 0 -0.39609514899832238 -0.36047185746617882 0 -0.37576852049830373 -0.37424143402576782 0 -0.38980029292032681 -0.3538138263344407 0 -0.37245563567842283 -0.36342144099550278 0 -0.37501505732771462 -0.35270295609204683 0 -0.38980029292032681 -0.3538138263344407 0 -0.37245563567842283 -0.36342144099550278 0 -0.37501505732771462 -0.35270295609204683 0 -0.38980029292032681 -0.3538138263344407 0 -0.37630104444955431 -0.33953575302191552 0 -0.38980029292032681 -0.3538138263344407 0 -0.3874425906513701 -0.34245666632481359 0 -0.37630104444955431 -0.33953575302191552 0 -0.38980029292032681 -0.3538138263344407 0 -0.37630104444955431 -0.33953575302191552 0 -0.38980029292032681 -0.3538138263344407 0 -0.39796499687501963 -0.34192756105832428 0 -0.3874425906513701 -0.34245666632481359 0 -0.38980029292032681 -0.3538138263344407 0 -0.39796499687501963 -0.34192756105832428 0 -0.38980029292032681 -0.3538138263344407 0 -0.4025685708709531 -0.34956976676792401 0 -0.39796499687501963 -0.34192756105832428 0 -0.39609514899832238 -0.36047185746617882 0 -0.38980029292032681 -0.3538138263344407 0 -0.4025685708709531 -0.34956976676792401 0 -0.39609514899832238 -0.36047185746617882 0 -0.38980029292032681 -0.3538138263344407 0 -0.40758067638829881 -0.35789015901873489 0 -0.4025685708709531 -0.34956976676792401 0 -0.39609514899832238 -0.36047185746617882 0 -0.4025685708709531 -0.34956976676792401 0 -0.40758067638829881 -0.35789015901873489 0 -0.39609514899832238 -0.36047185746617882 0 -0.4025685708709531 -0.34956976676792401 0 -0.4025685708709531 -0.34956976676792401 0 -0.39796499687501963 -0.34192756105832428 0 -0.39796499687501963 -0.34192756105832428 0 -0.38707883306085727 -0.32310268074594539 0 -0.39302444192435521 -0.32665020523696531 0 -0.39796499687501963 -0.34192756105832428 0 -0.41250324535641603 -0.32076261998282041 0 -0.39796499687501963 -0.34192756105832428 0 -0.38707883306085727 -0.32310268074594539 0 -0.39796499687501963 -0.34192756105832428 0 -0.39861901303234393 -0.32526976222302811 0 -0.41250324535641603 -0.32076261998282041 0 -0.4025685708709531 -0.34956976676792401 0 -0.39796499687501963 -0.34192756105832428 0 -0.4173531434698371 -0.32467060916945428 0 -0.39796499687501963 -0.34192756105832428 0 -0.39302444192435521 -0.32665020523696531 0 -0.39861901303234393 -0.32526976222302811 0 -0.39796499687501963 -0.34192756105832428 0 -0.3874425906513701 -0.34245666632481359 0 -0.38570402836057949 -0.33454952488457412 0 -0.39796499687501963 -0.34192756105832428 0 -0.38570402836057949 -0.33454952488457412 0 -0.38707883306085727 -0.32310268074594539 0 -0.3874425906513701 -0.34245666632481359 0 -0.38570402836057949 -0.33454952488457412 0 -0.37630104444955431 -0.33953575302191552 0 -0.38570402836057949 -0.33454952488457412 0 -0.38257566477560778 -0.32750665689071978 0 -0.38707883306085727 -0.32310268074594539 0 -0.38570402836057949 -0.33454952488457412 0 -0.37746168828861648 -0.32880316406910598 0 -0.37630104444955431 -0.33953575302191552 0 -0.38570402836057949 -0.33454952488457412 0 -0.37746168828861648 -0.32880316406910598 0 -0.38257566477560778 -0.32750665689071978 0 -0.38707883306085727 -0.32310268074594539 0 -0.37576395745092178 -0.3050725196501074 0 -0.38707883306085727 -0.32310268074594539 0 -0.37576395745092178 -0.3050725196501074 0 -0.37719713711566749 -0.31197748083789167 0 -0.37972485618422192 -0.31952152903519548 0 -0.38707883306085727 -0.32310268074594539 0 -0.37719713711566749 -0.31197748083789167 0 -0.37972485618422192 -0.31952152903519548 0 -0.37719713711566749 -0.31197748083789167 0 -0.37456534516798468 -0.31943469669369101 0 -0.37972485618422192 -0.31952152903519548 0 -0.38027246529026432 -0.32317389825498388 0 -0.37456534516798468 -0.31943469669369101 0 -0.37746168828861648 -0.32880316406910598 0 -0.38027246529026432 -0.32317389825498388 0 -0.37456534516798468 -0.31943469669369101 0 -0.37746168828861648 -0.32880316406910598 0 -0.38257566477560778 -0.32750665689071978 0 -0.38027246529026432 -0.32317389825498388 0 -0.37972485618422192 -0.31952152903519548 0 -0.38027246529026432 -0.32317389825498388 0 -0.38707883306085727 -0.32310268074594539 0 -0.38257566477560778 -0.32750665689071978 0 -0.38027246529026432 -0.32317389825498388 0 -0.38707883306085727 -0.32310268074594539 0 -0.3895493280880703 -0.32181092315052368 0 -0.38707883306085727 -0.32310268074594539 0 -0.39302444192435521 -0.32665020523696531 0 -0.3895493280880703 -0.32181092315052368 0 -0.38817922209955419 -0.31487003622919818 0 -0.39292420471281692 -0.32089260507692741 0 -0.3895493280880703 -0.32181092315052368 0 -0.3854068594836183 -0.31441721296606712 0 -0.38817922209955419 -0.31487003622919818 0 -0.3895493280880703 -0.32181092315052368 0 -0.38707883306085727 -0.32310268074594539 0 -0.3854068594836183 -0.31441721296606712 0 -0.38817922209955419 -0.31487003622919818 0 -0.39233623022453079 -0.31589900304218349 0 -0.38828454910218052 -0.30906118598004451 0 -0.39233623022453079 -0.31589900304218349 0 -0.39756756003884308 -0.31679974746756201 0 -0.39292420471281692 -0.32089260507692741 0 -0.38817922209955419 -0.31487003622919818 0 -0.39233623022453079 -0.31589900304218349 0 -0.39292420471281692 -0.32089260507692741 0 -0.39233623022453079 -0.31589900304218349 0 -0.39756756003884308 -0.31679974746756201 0 -0.39384318992161488 -0.31092517799495939 0 -0.39756756003884308 -0.31679974746756201 0 -0.39292420471281692 -0.32089260507692741 0 -0.39861901303234393 -0.32526976222302811 0 -0.3895493280880703 -0.32181092315052368 0 -0.39302444192435521 -0.32665020523696531 0 -0.39292420471281692 -0.32089260507692741 0 -0.39302444192435521 -0.32665020523696531 0 -0.39292420471281692 -0.32089260507692741 0 -0.39861901303234393 -0.32526976222302811 0 -0.39756756003884308 -0.31679974746756201 0 -0.39861901303234393 -0.32526976222302811 0 -0.41250324535641603 -0.32076261998282041 0 -0.39756756003884308 -0.31679974746756201 0 -0.41250324535641603 -0.32076261998282041 0 -0.39943253357619768 -0.3092473730742562 0 -0.4173531434698371 -0.32467060916945428 0 -0.41250324535641603 -0.32076261998282041 0 -0.42704149383781292 -0.2995976789073167 0 -0.39796499687501963 -0.34192756105832428 0 -0.4173531434698371 -0.32467060916945428 0 -0.41250324535641603 -0.32076261998282041 0 -0.4025685708709531 -0.34956976676792401 0 -0.4173531434698371 -0.32467060916945428 0 -0.42013533673330578 -0.33951952558935461 0 -0.4025685708709531 -0.34956976676792401 0 -0.4173531434698371 -0.32467060916945428 0 -0.4173531434698371 -0.32467060916945428 0 -0.42013533673330578 -0.33951952558935461 0 -0.43268999707831379 -0.32114889215997511 0 -0.42013533673330578 -0.33951952558935461 0 -0.43268999707831379 -0.32114889215997511 0 -0.42013533673330578 -0.33951952558935461 0 -0.43403437847741988 -0.33354869747312299 0 -0.43268999707831379 -0.32114889215997511 0 -0.43854709093312078 -0.34551838447463762 0 -0.42013533673330578 -0.33951952558935461 0 -0.43403437847741988 -0.33354869747312299 0 -0.44476508916493912 -0.32800798766852468 0 -0.43403437847741988 -0.33354869747312299 0 -0.43268999707831379 -0.32114889215997511 0 -0.4173531434698371 -0.32467060916945428 0 -0.43268999707831379 -0.32114889215997511 0 -0.43213771606872631 -0.29977145157098772 0 -0.44586848524951039 -0.31314063422893113 0 -0.43268999707831379 -0.32114889215997511 0 -0.43213771606872631 -0.29977145157098772 0 -0.4173531434698371 -0.32467060916945428 0 -0.43213771606872631 -0.29977145157098772 0 -0.4173531434698371 -0.32467060916945428 0 -0.42704149383781292 -0.2995976789073167 0 -0.43213771606872631 -0.29977145157098772 0 -0.42704149383781292 -0.2995976789073167 0 -0.43213771606872631 -0.29977145157098772 0 -0.43957983862160288 -0.2813442194983079 0 -0.42704149383781292 -0.2995976789073167 0 -0.41620122749958632 -0.28481054703811581 0 -0.43957983862160288 -0.2813442194983079 0 -0.42704149383781292 -0.2995976789073167 0 -0.43213771606872631 -0.29977145157098772 0 -0.43957983862160288 -0.2813442194983079 0 -0.42704149383781292 -0.2995976789073167 0 -0.42704149383781292 -0.2995976789073167 0 -0.40925521843592683 -0.29219363385722402 0 -0.40193077426190232 -0.29874144532295899 0 -0.42704149383781292 -0.2995976789073167 0 -0.41620122749958632 -0.28481054703811581 0 -0.40925521843592683 -0.29219363385722402 0 -0.41620122749958632 -0.28481054703811581 0 -0.4064106314034665 -0.28786033749410611 0 -0.40925521843592683 -0.29219363385722402 0 -0.41620122749958632 -0.28481054703811581 0 -0.4064106314034665 -0.28786033749410611 0 -0.40459857025975621 -0.28097081354976228 0 -0.42704149383781292 -0.2995976789073167 0 -0.40193077426190232 -0.29874144532295899 0 -0.41250324535641603 -0.32076261998282041 0 -0.42704149383781292 -0.2995976789073167 0 -0.40193077426190232 -0.29874144532295899 0 -0.41250324535641603 -0.32076261998282041 0 -0.42704149383781292 -0.2995976789073167 0 -0.41250324535641603 -0.32076261998282041 0 -0.39943253357619768 -0.3092473730742562 0 -0.40193077426190232 -0.29874144532295899 0 -0.40193077426190232 -0.29874144532295899 0 -0.39397115466413868 -0.30315074537586811 0 -0.37682005468599161 -0.29788521173860111 0 -0.39943253357619768 -0.3092473730742562 0 -0.40193077426190232 -0.29874144532295899 0 -0.39397115466413868 -0.30315074537586811 0 -0.39756756003884308 -0.31679974746756201 0 -0.39943253357619768 -0.3092473730742562 0 -0.39384318992161488 -0.31092517799495939 0 -0.39943253357619768 -0.3092473730742562 0 -0.39515669063330172 -0.30691697672544133 0 -0.39384318992161488 -0.31092517799495939 0 -0.39943253357619768 -0.3092473730742562 0 -0.39397115466413868 -0.30315074537586811 0 -0.39515669063330172 -0.30691697672544133 0 -0.39515669063330172 -0.30691697672544133 0 -0.39384318992161488 -0.31092517799495939 0 -0.39024404857921102 -0.30572650089527997 0 -0.39397115466413868 -0.30315074537586811 0 -0.39515669063330172 -0.30691697672544133 0 -0.39024404857921102 -0.30572650089527997 0 -0.39384318992161488 -0.31092517799495939 0 -0.38828454910218052 -0.30906118598004451 0 -0.39024404857921102 -0.30572650089527997 0 -0.39233623022453079 -0.31589900304218349 0 -0.39384318992161488 -0.31092517799495939 0 -0.38828454910218052 -0.30906118598004451 0 -0.38817922209955419 -0.31487003622919818 0 -0.38828454910218052 -0.30906118598004451 0 -0.37682005468599161 -0.29788521173860111 0 -0.3854068594836183 -0.31441721296606712 0 -0.38817922209955419 -0.31487003622919818 0 -0.37682005468599161 -0.29788521173860111 0 -0.39397115466413868 -0.30315074537586811 0 -0.39024404857921102 -0.30572650089527997 0 -0.37682005468599161 -0.29788521173860111 0 -0.40193077426190232 -0.29874144532295899 0 -0.37682005468599161 -0.29788521173860111 0 -0.38707883306085727 -0.32310268074594539 0 -0.3854068594836183 -0.31441721296606712 0 -0.37682005468599161 -0.29788521173860111 0 -0.38707883306085727 -0.32310268074594539 0 -0.37682005468599161 -0.29788521173860111 0 -0.37576395745092178 -0.3050725196501074 0 -0.38707883306085727 -0.32310268074594539 0 -0.37682005468599161 -0.29788521173860111 0 -0.38828454910218052 -0.30906118598004451 0 -0.39024404857921102 -0.30572650089527997 0 -0.37682005468599161 -0.29788521173860111 0 -0.40193077426190232 -0.29874144532295899 0 -0.37682005468599161 -0.29788521173860111 0 -0.38727793942999461 -0.29143138054805301 0 -0.37682005468599161 -0.29788521173860111 0 -0.37992505739110077 -0.285327891268156 0 -0.37089355010314762 -0.28331705945197572 0 -0.37682005468599161 -0.29788521173860111 0 -0.37992505739110077 -0.285327891268156 0 -0.38727793942999461 -0.29143138054805301 0 -0.38727793942999461 -0.29143138054805301 0 -0.3924898948206727 -0.28599182426682918 0 -0.38684870024465262 -0.28019709009285709 0 -0.37992505739110077 -0.285327891268156 0 -0.38727793942999461 -0.29143138054805301 0 -0.38684870024465262 -0.28019709009285709 0 -0.3924898948206727 -0.28599182426682918 0 -0.39318539860325191 -0.27833553320660309 0 -0.38684870024465262 -0.28019709009285709 0 -0.3924898948206727 -0.28599182426682918 0 -0.39946484360203771 -0.29301209464503369 0 -0.39318539860325191 -0.27833553320660309 0 -0.38727793942999461 -0.29143138054805301 0 -0.3924898948206727 -0.28599182426682918 0 -0.39529086302865168 -0.29229418619571867 0 -0.40193077426190232 -0.29874144532295899 0 -0.38727793942999461 -0.29143138054805301 0 -0.39529086302865168 -0.29229418619571867 0 -0.3924898948206727 -0.28599182426682918 0 -0.39529086302865168 -0.29229418619571867 0 -0.39946484360203771 -0.29301209464503369 0 -0.4064106314034665 -0.28786033749410611 0 -0.40925521843592683 -0.29219363385722402 0 -0.39946484360203771 -0.29301209464503369 0 -0.40925521843592683 -0.29219363385722402 0 -0.40193077426190232 -0.29874144532295899 0 -0.39946484360203771 -0.29301209464503369 0 -0.40193077426190232 -0.29874144532295899 0 -0.39529086302865168 -0.29229418619571867 0 -0.39946484360203771 -0.29301209464503369 0 -0.4064106314034665 -0.28786033749410611 0 -0.39946484360203771 -0.29301209464503369 0 -0.40459857025975621 -0.28097081354976228 0 -0.40459857025975621 -0.28097081354976228 0 -0.39871653422275 -0.26477063034798642 0 -0.40644367116261759 -0.26933550009943341 0 -0.39946484360203771 -0.29301209464503369 0 -0.40459857025975621 -0.28097081354976228 0 -0.39871653422275 -0.26477063034798642 0 -0.39946484360203771 -0.29301209464503369 0 -0.39871653422275 -0.26477063034798642 0 -0.39946484360203771 -0.29301209464503369 0 -0.39318539860325191 -0.27833553320660309 0 -0.39871653422275 -0.26477063034798642 0 -0.39318539860325191 -0.27833553320660309 0 -0.38840702012614647 -0.26770602668030929 0 -0.39871653422275 -0.26477063034798642 0 -0.39318539860325191 -0.27833553320660309 0 -0.38684870024465262 -0.28019709009285709 0 -0.38840702012614647 -0.26770602668030929 0 -0.38684870024465262 -0.28019709009285709 0 -0.38840702012614647 -0.26770602668030929 0 -0.37812768531643998 -0.2740521224023964 0 -0.38840702012614647 -0.26770602668030929 0 -0.37812768531643998 -0.2740521224023964 0 -0.37969836118369482 -0.26041778922000308 0 -0.37992505739110077 -0.285327891268156 0 -0.37812768531643998 -0.2740521224023964 0 -0.37089355010314762 -0.28331705945197572 0 -0.37992505739110077 -0.285327891268156 0 -0.38684870024465262 -0.28019709009285709 0 -0.37812768531643998 -0.2740521224023964 0 -0.37969836118369482 -0.26041778922000308 0 -0.39442967684708991 -0.25208667127465478 0 -0.37872015884544641 -0.2435614714605657 0 -0.37969836118369482 -0.26041778922000308 0 -0.36999160380854529 -0.25160890498862648 0 -0.37872015884544641 -0.2435614714605657 0 -0.38840702012614647 -0.26770602668030929 0 -0.37969836118369482 -0.26041778922000308 0 -0.39442967684708991 -0.25208667127465478 0 -0.37969836118369482 -0.26041778922000308 0 -0.39442967684708991 -0.25208667127465478 0 -0.39442967684708991 -0.25208667127465478 0 -0.39871653422275 -0.26477063034798642 0 -0.39796822484346261 -0.23652916605093899 0 -0.40220594800304021 -0.25293233307518609 0 -0.39871653422275 -0.26477063034798642 0 -0.40644367116261759 -0.26933550009943341 0 -0.40220594800304021 -0.25293233307518609 0 -0.39871653422275 -0.26477063034798642 0 -0.39796822484346261 -0.23652916605093899 0 -0.40220594800304021 -0.25293233307518609 0 -0.40644367116261759 -0.26933550009943341 0 -0.39871653422275 -0.26477063034798642 0 -0.39796822484346261 -0.23652916605093899 0 -0.38840702012614647 -0.26770602668030929 0 -0.39442967684708991 -0.25208667127465478 0 -0.39871653422275 -0.26477063034798642 0 -0.40220594800304021 -0.25293233307518609 0 -0.41459928595597673 -0.25790967448939001 0 -0.40644367116261759 -0.26933550009943341 0 -0.40220594800304021 -0.25293233307518609 0 -0.41459928595597673 -0.25790967448939001 0 -0.41466813127082142 -0.24184035413310251 0 -0.41459928595597673 -0.25790967448939001 0 -0.42775875008346192 -0.25507980811954323 0 -0.41466813127082142 -0.24184035413310251 0 -0.41459928595597673 -0.25790967448939001 0 -0.42191992925994232 -0.27036037701968468 0 -0.42775875008346192 -0.25507980811954323 0 -0.40644367116261759 -0.26933550009943341 0 -0.41206191028808969 -0.27659566112432887 0 -0.42191992925994232 -0.27036037701968468 0 -0.40459857025975621 -0.28097081354976228 0 -0.40644367116261759 -0.26933550009943341 0 -0.41206191028808969 -0.27659566112432887 0 -0.41620122749958632 -0.28481054703811581 0 -0.40459857025975621 -0.28097081354976228 0 -0.41206191028808969 -0.27659566112432887 0 -0.41620122749958632 -0.28481054703811581 0 -0.41206191028808969 -0.27659566112432887 0 -0.42191992925994232 -0.27036037701968468 0 -0.41459928595597673 -0.25790967448939001 0 -0.40644367116261759 -0.26933550009943341 0 -0.42191992925994232 -0.27036037701968468 0 -0.43957983862160288 -0.2813442194983079 0 -0.42191992925994232 -0.27036037701968468 0 -0.43680511815892142 -0.2660007677910407 0 -0.43957983862160288 -0.2813442194983079 0 -0.41620122749958632 -0.28481054703811581 0 -0.42191992925994232 -0.27036037701968468 0 -0.44165736388207272 -0.25360003737878889 0 -0.43680511815892142 -0.2660007677910407 0 -0.42775875008346192 -0.25507980811954323 0 -0.42191992925994232 -0.27036037701968468 0 -0.43680511815892142 -0.2660007677910407 0 -0.42775875008346192 -0.25507980811954323 0 -0.32577683519746242 -0.25897579210934468 0 -0.30798481169360081 -0.26465381523239789 0 -0.31421725341188372 -0.24977587129631751 0 -0.32577683519746242 -0.25897579210934468 0 -0.31511343508082401 -0.27781322935613839 0 -0.33065211668571071 -0.27437360408278932 0 -0.32577683519746242 -0.25897579210934468 0 -0.31511343508082401 -0.27781322935613839 0 -0.30798481169360081 -0.26465381523239789 0 -0.31511343508082401 -0.27781322935613839 0 -0.33065211668571071 -0.27437360408278932 0 -0.32673865940135971 -0.29036850998253821 0 -0.33065211668571071 -0.27437360408278932 0 -0.3425640544848888 -0.26114950363554529 0 -0.3458528524608297 -0.27955870857394483 0 -0.32577683519746242 -0.25897579210934468 0 -0.33065211668571071 -0.27437360408278932 0 -0.3425640544848888 -0.26114950363554529 0 -0.32577683519746242 -0.25897579210934468 0 -0.3425640544848888 -0.26114950363554529 0 -0.34161545739809862 -0.2441761224370865 0 -0.3425640544848888 -0.26114950363554529 0 -0.35707845064694121 -0.24935767075674509 0 -0.34161545739809862 -0.2441761224370865 0 -0.3425640544848888 -0.26114950363554529 0 -0.3649670455202999 -0.26874890716535171 0 -0.35707845064694121 -0.24935767075674509 0 -0.3649670455202999 -0.26874890716535171 0 -0.35707845064694121 -0.24935767075674509 0 -0.37969836118369482 -0.26041778922000308 0 -0.36999160380854529 -0.25160890498862648 0 -0.3649670455202999 -0.26874890716535171 0 -0.36999160380854529 -0.25160890498862648 0 -0.3649670455202999 -0.26874890716535171 0 -0.35707845064694121 -0.24935767075674509 0 -0.37969836118369482 -0.26041778922000308 0 -0.3649670455202999 -0.26874890716535171 0 -0.3649670455202999 -0.26874890716535171 0 -0.3458528524608297 -0.27955870857394483 0 -0.37089355010314762 -0.28331705945197572 0 -0.37812768531643998 -0.2740521224023964 0 -0.3649670455202999 -0.26874890716535171 0 -0.37089355010314762 -0.28331705945197572 0 -0.3649670455202999 -0.26874890716535171 0 -0.37089355010314762 -0.28331705945197572 0 -0.37812768531643998 -0.2740521224023964 0 -0.37969836118369482 -0.26041778922000308 0 -0.3649670455202999 -0.26874890716535171 0 -0.3649670455202999 -0.26874890716535171 0 -0.3458528524608297 -0.27955870857394483 0 -0.3425640544848888 -0.26114950363554529 0 -0.3649670455202999 -0.26874890716535171 0 -0.3458528524608297 -0.27955870857394483 0 -0.3458528524608297 -0.27955870857394483 0 -0.35490209917173382 -0.29713784607450577 0 -0.33298414365747597 -0.29639048041041038 0 -0.3458528524608297 -0.27955870857394483 0 -0.37089355010314762 -0.28331705945197572 0 -0.35490209917173382 -0.29713784607450577 0 -0.35490209917173382 -0.29713784607450577 0 -0.33298414365747597 -0.29639048041041038 0 -0.37682005468599161 -0.29788521173860111 0 -0.37089355010314762 -0.28331705945197572 0 -0.35490209917173382 -0.29713784607450577 0 -0.37682005468599161 -0.29788521173860111 0 -0.37089355010314762 -0.28331705945197572 0 -0.37682005468599161 -0.29788521173860111 0 -0.35490209917173382 -0.29713784607450577 0 -0.37682005468599161 -0.29788521173860111 0 -0.36188894867209143 -0.31041699320339777 0 -0.35490209917173382 -0.29713784607450577 0 -0.37576395745092178 -0.3050725196501074 0 -0.36188894867209143 -0.31041699320339777 0 -0.37031507652163809 -0.31287943285871039 0 -0.37576395745092178 -0.3050725196501074 0 -0.37719713711566749 -0.31197748083789167 0 -0.37031507652163809 -0.31287943285871039 0 -0.37682005468599161 -0.29788521173860111 0 -0.37576395745092178 -0.3050725196501074 0 -0.36188894867209143 -0.31041699320339777 0 -0.36188894867209143 -0.31041699320339777 0 -0.35490209917173382 -0.29713784607450577 0 -0.34709214139205768 -0.31270838654372951 0 -0.35490209917173382 -0.29713784607450577 0 -0.34179204247812539 -0.30372858581904438 0 -0.34709214139205768 -0.31270838654372951 0 -0.35490209917173382 -0.29713784607450577 0 -0.34179204247812539 -0.30372858581904438 0 -0.33298414365747597 -0.29639048041041038 0 -0.33218978569123447 -0.30867763024753198 0 -0.34179204247812539 -0.30372858581904438 0 -0.34709214139205768 -0.31270838654372951 0 -0.33218978569123447 -0.30867763024753198 0 -0.34179204247812539 -0.30372858581904438 0 -0.33298414365747597 -0.29639048041041038 0 -0.33218978569123447 -0.30867763024753198 0 -0.33298414365747597 -0.29639048041041038 0 -0.32551389594434832 -0.29891105756718273 0 -0.3458528524608297 -0.27955870857394483 0 -0.32673865940135971 -0.29036850998253821 0 -0.3458528524608297 -0.27955870857394483 0 -0.33298414365747597 -0.29639048041041038 0 -0.32673865940135971 -0.29036850998253821 0 -0.33065211668571071 -0.27437360408278932 0 -0.3458528524608297 -0.27955870857394483 0 -0.32673865940135971 -0.29036850998253821 0 -0.33298414365747597 -0.29639048041041038 0 -0.32673865940135971 -0.29036850998253821 0 -0.32551389594434832 -0.29891105756718273 0 -0.32673865940135971 -0.29036850998253821 0 -0.31615320843671613 -0.29356321322440693 0 -0.32551389594434832 -0.29891105756718273 0 -0.31511343508082401 -0.27781322935613839 0 -0.32673865940135971 -0.29036850998253821 0 -0.31615320843671613 -0.29356321322440693 0 -0.31615320843671613 -0.29356321322440693 0 -0.31950368253495531 -0.30555545397102613 0 -0.30878428388507118 -0.30170417431472779 0 -0.31950368253495531 -0.30555545397102613 0 -0.3116392313269683 -0.31227800665128408 0 -0.30878428388507118 -0.30170417431472779 0 -0.31950368253495531 -0.30555545397102613 0 -0.32244955285570731 -0.31946983399639112 0 -0.3116392313269683 -0.31227800665128408 0 -0.33218978569123447 -0.30867763024753198 0 -0.31950368253495531 -0.30555545397102613 0 -0.32244955285570731 -0.31946983399639112 0 -0.33218978569123447 -0.30867763024753198 0 -0.31950368253495531 -0.30555545397102613 0 -0.32551389594434832 -0.29891105756718273 0 -0.31615320843671613 -0.29356321322440693 0 -0.31950368253495531 -0.30555545397102613 0 -0.32551389594434832 -0.29891105756718273 0 -0.32244955285570731 -0.31946983399639112 0 -0.30629799224095122 -0.32640742927921629 0 -0.3116392313269683 -0.31227800665128408 0 -0.32244955285570731 -0.31946983399639112 0 -0.32074380139974629 -0.33343701228721029 0 -0.30629799224095122 -0.32640742927921629 0 -0.32244955285570731 -0.31946983399639112 0 -0.32074380139974629 -0.33343701228721029 0 -0.33561670872011118 -0.32538867032004731 0 -0.32074380139974629 -0.33343701228721029 0 -0.33040605641151349 -0.34939015350577979 0 -0.304947043925899 -0.34335287533409059 0 -0.32074380139974629 -0.33343701228721029 0 -0.33267344648675012 -0.33694306544023261 0 -0.33040605641151349 -0.34939015350577979 0 -0.32074380139974629 -0.33343701228721029 0 -0.33267344648675012 -0.33694306544023261 0 -0.33561670872011118 -0.32538867032004731 0 -0.33267344648675012 -0.33694306544023261 0 -0.34392721941562959 -0.33955642564789279 0 -0.33040605641151349 -0.34939015350577979 0 -0.33561670872011118 -0.32538867032004731 0 -0.349287455364583 -0.32600753078393868 0 -0.34392721941562959 -0.33955642564789279 0 -0.33267344648675012 -0.33694306544023261 0 -0.33561670872011118 -0.32538867032004731 0 -0.34392721941562959 -0.33955642564789279 0 -0.33218978569123447 -0.30867763024753198 0 -0.33561670872011118 -0.32538867032004731 0 -0.34709214139205768 -0.31270838654372951 0 -0.33218978569123447 -0.30867763024753198 0 -0.32244955285570731 -0.31946983399639112 0 -0.33561670872011118 -0.32538867032004731 0 -0.33561670872011118 -0.32538867032004731 0 -0.34709214139205768 -0.31270838654372951 0 -0.349287455364583 -0.32600753078393868 0 -0.36188894867209143 -0.31041699320339777 0 -0.349287455364583 -0.32600753078393868 0 -0.36280179597878331 -0.32525767970938912 0 -0.36188894867209143 -0.31041699320339777 0 -0.34709214139205768 -0.31270838654372951 0 -0.349287455364583 -0.32600753078393868 0 -0.36188894867209143 -0.31041699320339777 0 -0.36280179597878331 -0.32525767970938912 0 -0.37031507652163809 -0.31287943285871039 0 -0.37746168828861648 -0.32880316406910598 0 -0.36280179597878331 -0.32525767970938912 0 -0.37456534516798468 -0.31943469669369101 0 -0.36280179597878331 -0.32525767970938912 0 -0.37456534516798468 -0.31943469669369101 0 -0.37031507652163809 -0.31287943285871039 0 -0.37719713711566749 -0.31197748083789167 0 -0.37456534516798468 -0.31943469669369101 0 -0.37031507652163809 -0.31287943285871039 0 -0.37630104444955431 -0.33953575302191552 0 -0.36280179597878331 -0.32525767970938912 0 -0.35900277781907919 -0.33873387737807908 0 -0.37630104444955431 -0.33953575302191552 0 -0.35900277781907919 -0.33873387737807908 0 -0.3662355090989915 -0.348226851570058 0 -0.37746168828861648 -0.32880316406910598 0 -0.37630104444955431 -0.33953575302191552 0 -0.36280179597878331 -0.32525767970938912 0 -0.37630104444955431 -0.33953575302191552 0 -0.36280179597878331 -0.32525767970938912 0 -0.349287455364583 -0.32600753078393868 0 -0.36280179597878331 -0.32525767970938912 0 -0.35900277781907919 -0.33873387737807908 0 -0.349287455364583 -0.32600753078393868 0 -0.35900277781907919 -0.33873387737807908 0 -0.34392721941562959 -0.33955642564789279 0 -0.34392721941562959 -0.33955642564789279 0 -0.34378478126742867 -0.35168705731137051 0 -0.35474622765707731 -0.3530842238088211 0 -0.34378478126742867 -0.35168705731137051 0 -0.35474622765707731 -0.3530842238088211 0 -0.34605962158549469 -0.3647174262829882 0 -0.35474622765707731 -0.3530842238088211 0 -0.34605962158549469 -0.3647174262829882 0 -0.35474622765707731 -0.3530842238088211 0 -0.3645004591251928 -0.35797240650737622 0 -0.3557305472228397 -0.36248105220686111 0 -0.35900277781907919 -0.33873387737807908 0 -0.34392721941562959 -0.33955642564789279 0 -0.35474622765707731 -0.3530842238088211 0 -0.35900277781907919 -0.33873387737807908 0 -0.35474622765707731 -0.3530842238088211 0 -0.3662355090989915 -0.348226851570058 0 -0.35474622765707731 -0.3530842238088211 0 -0.3662355090989915 -0.348226851570058 0 -0.3645004591251928 -0.35797240650737622 0 -0.37501505732771462 -0.35270295609204683 0 -0.3662355090989915 -0.348226851570058 0 -0.3645004591251928 -0.35797240650737622 0 -0.37501505732771462 -0.35270295609204683 0 -0.3645004591251928 -0.35797240650737622 0 -0.37245563567842283 -0.36342144099550278 0 -0.37501505732771462 -0.35270295609204683 0 -0.37630104444955431 -0.33953575302191552 0 -0.3662355090989915 -0.348226851570058 0 -0.35160698284412462 -0.37014915498247181 0 -0.36791003929668897 -0.37531597356073781 0 -0.3617394449023093 -0.36648204945264778 0 -0.35160698284412462 -0.37014915498247181 0 -0.36791003929668897 -0.37531597356073781 0 -0.37245563567842283 -0.36342144099550278 0 -0.3617394449023093 -0.36648204945264778 0 -0.36791003929668897 -0.37531597356073781 0 -0.37576852049830373 -0.37424143402576782 0 -0.37245563567842283 -0.36342144099550278 0 -0.36791003929668897 -0.37531597356073781 0 -0.3645004591251928 -0.35797240650737622 0 -0.3617394449023093 -0.36648204945264778 0 -0.3557305472228397 -0.36248105220686111 0 -0.3645004591251928 -0.35797240650737622 0 -0.37245563567842283 -0.36342144099550278 0 -0.3617394449023093 -0.36648204945264778 0 -0.35474622765707731 -0.3530842238088211 0 -0.3557305472228397 -0.36248105220686111 0 -0.34605962158549469 -0.3647174262829882 0 -0.3617394449023093 -0.36648204945264778 0 -0.35160698284412462 -0.37014915498247181 0 -0.3557305472228397 -0.36248105220686111 0 -0.35160698284412462 -0.37014915498247181 0 -0.3557305472228397 -0.36248105220686111 0 -0.34605962158549469 -0.3647174262829882 0 -0.34605962158549469 -0.3647174262829882 0 -0.34384142010082153 -0.36768806715090302 0 -0.34148886242004811 -0.36564807466747679 0 -0.34605962158549469 -0.3647174262829882 0 -0.34384142010082153 -0.36768806715090302 0 -0.35160698284412462 -0.37014915498247181 0 -0.34384142010082153 -0.36768806715090302 0 -0.3473193197300139 -0.3757558619871843 0 -0.35160698284412462 -0.37014915498247181 0 -0.34384142010082153 -0.36768806715090302 0 -0.35160698284412462 -0.37014915498247181 0 -0.34605962158549469 -0.3647174262829882 0 -0.35160698284412462 -0.37014915498247181 0 -0.34605962158549469 -0.3647174262829882 0 -0.34384142010082153 -0.36768806715090302 0 -0.34384142010082153 -0.36768806715090302 0 -0.3394050004453173 -0.36792428240374231 0 -0.33667947897576161 -0.37727942084292682 0 -0.34384142010082153 -0.36768806715090302 0 -0.33667947897576161 -0.37727942084292682 0 -0.34384142010082153 -0.36768806715090302 0 -0.3473193197300139 -0.3757558619871843 0 -0.33667947897576161 -0.37727942084292682 0 -0.32081326145083022 -0.36031614808850881 0 -0.33667947897576161 -0.37727942084292682 0 -0.3394050004453173 -0.36792428240374231 0 -0.33336643958396978 -0.36601612799497002 0 -0.33667947897576161 -0.37727942084292682 0 -0.33336643958396978 -0.36601612799497002 0 -0.32081326145083022 -0.36031614808850881 0 -0.33667947897576161 -0.37727942084292682 0 -0.33132451367914112 -0.3606866026678322 0 -0.33336643958396978 -0.36601612799497002 0 -0.32081326145083022 -0.36031614808850881 0 -0.33132451367914112 -0.3606866026678322 0 -0.33336643958396978 -0.36601612799497002 0 -0.33697234037925838 -0.36236486777317728 0 -0.34605962158549469 -0.3647174262829882 0 -0.33697234037925838 -0.36236486777317728 0 -0.34148886242004811 -0.36564807466747679 0 -0.3394050004453173 -0.36792428240374231 0 -0.33697234037925838 -0.36236486777317728 0 -0.34148886242004811 -0.36564807466747679 0 -0.3394050004453173 -0.36792428240374231 0 -0.33336643958396978 -0.36601612799497002 0 -0.33697234037925838 -0.36236486777317728 0 -0.34384142010082153 -0.36768806715090302 0 -0.3394050004453173 -0.36792428240374231 0 -0.34148886242004811 -0.36564807466747679 0 -0.34605962158549469 -0.3647174262829882 0 -0.33040605641151349 -0.34939015350577979 0 -0.34378478126742867 -0.35168705731137051 0 -0.34605962158549469 -0.3647174262829882 0 -0.33040605641151349 -0.34939015350577979 0 -0.34605962158549469 -0.3647174262829882 0 -0.33697234037925838 -0.36236486777317728 0 -0.33040605641151349 -0.34939015350577979 0 -0.34392721941562959 -0.33955642564789279 0 -0.34378478126742867 -0.35168705731137051 0 -0.33040605641151349 -0.34939015350577979 0 -0.33132451367914112 -0.3606866026678322 0 -0.33697234037925838 -0.36236486777317728 0 -0.33040605641151349 -0.34939015350577979 0 -0.33040605641151349 -0.34939015350577979 0 -0.32081326145083022 -0.36031614808850881 0 -0.304947043925899 -0.34335287533409059 0 -0.32081326145083022 -0.36031614808850881 0 -0.304947043925899 -0.34335287533409059 0 -0.33132451367914112 -0.3606866026678322 0 -0.33040605641151349 -0.34939015350577979 0 -0.32081326145083022 -0.36031614808850881 0 -0.32440986188565729 -0.37270080156259489 0 -0.32081326145083022 -0.36031614808850881 0 -0.31106328263090982 -0.36800475596674848 0 -0.32440986188565729 -0.37270080156259489 0 -0.32081326145083022 -0.36031614808850881 0 -0.33667947897576161 -0.37727942084292682 0 -0.32440986188565729 -0.37270080156259489 0 -0.31106328263090982 -0.36800475596674848 0 -0.31317375432424149 -0.38208007184035081 0 -0.31106328263090982 -0.36800475596674848 0 -0.30477466129399572 -0.35837215094430408 0 -0.2945929359319488 -0.36760614731534108 0 -0.32081326145083022 -0.36031614808850881 0 -0.31106328263090982 -0.36800475596674848 0 -0.30477466129399572 -0.35837215094430408 0 -0.2945929359319488 -0.36760614731534108 0 -0.31317375432424149 -0.38208007184035081 0 -0.31106328263090982 -0.36800475596674848 0 -0.2945929359319488 -0.36760614731534108 0 -0.31317375432424149 -0.38208007184035081 0 -0.30477466129399572 -0.35837215094430408 0 -0.29245678253039098 -0.35258082801683138 0 -0.2945929359319488 -0.36760614731534108 0 -0.32081326145083022 -0.36031614808850881 0 -0.30477466129399572 -0.35837215094430408 0 -0.304947043925899 -0.34335287533409059 0 -0.30477466129399572 -0.35837215094430408 0 -0.29245678253039098 -0.35258082801683138 0 -0.304947043925899 -0.34335287533409059 0 -0.29245678253039098 -0.35258082801683138 0 -0.27601211753965582 -0.35313222279033191 0 -0.28440521569258082 -0.34149228361744682 0 -0.29245678253039098 -0.35258082801683138 0 -0.2945929359319488 -0.36760614731534108 0 -0.27601211753965582 -0.35313222279033191 0 -0.29245678253039098 -0.35258082801683138 0 -0.28440521569258082 -0.34149228361744682 0 -0.304947043925899 -0.34335287533409059 0 -0.2945929359319488 -0.36760614731534108 0 -0.27987861861344199 -0.36674592141788198 0 -0.27601211753965582 -0.35313222279033191 0 -0.2945929359319488 -0.36760614731534108 0 -0.27601211753965582 -0.35313222279033191 0 -0.2945929359319488 -0.36760614731534108 0 -0.27987861861344199 -0.36674592141788198 0 -0.2808665902171914 -0.38228580422035652 0 -0.26678221966742222 -0.3646399338773868 0 -0.2808665902171914 -0.38228580422035652 0 -0.27987861861344199 -0.36674592141788198 0 -0.26678221966742222 -0.3646399338773868 0 -0.2808665902171914 -0.38228580422035652 0 -0.27987861861344199 -0.36674592141788198 0 -0.26678221966742222 -0.3646399338773868 0 -0.27601211753965582 -0.35313222279033191 0 -0.26678221966742222 -0.3646399338773868 0 -0.25938421221386299 -0.38242260424217978 0 -0.2452998416640946 -0.36477673389921211 0 -0.25269784911765092 -0.34699406353441858 0 -0.27601211753965582 -0.35313222279033191 0 -0.25743129914736268 -0.33865829826532268 0 -0.26678221966742222 -0.3646399338773868 0 -0.25269784911765092 -0.34699406353441858 0 -0.27601211753965582 -0.35313222279033191 0 -0.26678221966742222 -0.3646399338773868 0 -0.25269784911765092 -0.34699406353441858 0 -0.26678221966742222 -0.3646399338773868 0 -0.25269784911765092 -0.34699406353441858 0 -0.2452998416640946 -0.36477673389921211 0 -0.27601211753965582 -0.35313222279033191 0 -0.25743129914736268 -0.33865829826532268 0 -0.27601211753965582 -0.35313222279033191 0 -0.27044436538280059 -0.34111632069956299 0 -0.25743129914736268 -0.33865829826532268 0 -0.27601211753965582 -0.35313222279033191 0 -0.27044436538280059 -0.34111632069956299 0 -0.28440521569258082 -0.34149228361744682 0 -0.27621603835147168 -0.33027839755104138 0 -0.27044436538280059 -0.34111632069956299 0 -0.28440521569258082 -0.34149228361744682 0 -0.27621603835147168 -0.33027839755104138 0 -0.26858322842119509 -0.33433735121453573 0 -0.26421331744216298 -0.32943061110636401 0 -0.27621603835147168 -0.33027839755104138 0 -0.26858322842119509 -0.33433735121453573 0 -0.27044436538280059 -0.34111632069956299 0 -0.26858322842119509 -0.33433735121453573 0 -0.27044436538280059 -0.34111632069956299 0 -0.26348614366539269 -0.33464536090729041 0 -0.25269784911765092 -0.34699406353441858 0 -0.2601150759189611 -0.3291651954159735 0 -0.25269784911765092 -0.34699406353441858 0 -0.2601150759189611 -0.3291651954159735 0 -0.25743129914736268 -0.33865829826532268 0 -0.27044436538280059 -0.34111632069956299 0 -0.26348614366539269 -0.33464536090729041 0 -0.25743129914736268 -0.33865829826532268 0 -0.26348614366539269 -0.33464536090729041 0 -0.2601150759189611 -0.3291651954159735 0 -0.25743129914736268 -0.33865829826532268 0 -0.26858322842119509 -0.33433735121453573 0 -0.26348614366539269 -0.33464536090729041 0 -0.26421331744216298 -0.32943061110636401 0 -0.26348614366539269 -0.33464536090729041 0 -0.26421331744216298 -0.32943061110636401 0 -0.2601150759189611 -0.3291651954159735 0 -0.25993101682886932 -0.31889206187407287 0 -0.25469452373499762 -0.30722313484128749 0 -0.2494260049788683 -0.31746489113439402 0 -0.2601150759189611 -0.3291651954159735 0 -0.25993101682886932 -0.31889206187407287 0 -0.2494260049788683 -0.31746489113439402 0 -0.26421331744216298 -0.32943061110636401 0 -0.2601150759189611 -0.3291651954159735 0 -0.25993101682886932 -0.31889206187407287 0 -0.26421331744216298 -0.32943061110636401 0 -0.25993101682886932 -0.31889206187407287 0 -0.27321460887603632 -0.30942632982525498 0 -0.27621603835147168 -0.33027839755104138 0 -0.28908082640096788 -0.32638960257967248 0 -0.27321460887603632 -0.30942632982525498 0 -0.26421331744216298 -0.32943061110636401 0 -0.27321460887603632 -0.30942632982525498 0 -0.28908082640096788 -0.32638960257967248 0 -0.27321460887603632 -0.30942632982525498 0 -0.27621603835147168 -0.33027839755104138 0 -0.26421331744216298 -0.32943061110636401 0 -0.27321460887603632 -0.30942632982525498 0 -0.28908082640096788 -0.32638960257967248 0 -0.29608772242085762 -0.30837888524759871 0 -0.27321460887603632 -0.30942632982525498 0 -0.28908082640096788 -0.32638960257967248 0 -0.28440521569258082 -0.34149228361744682 0 -0.304947043925899 -0.34335287533409059 0 -0.27621603835147168 -0.33027839755104138 0 -0.28908082640096788 -0.32638960257967248 0 -0.28440521569258082 -0.34149228361744682 0 -0.28908082640096788 -0.32638960257967248 0 -0.304947043925899 -0.34335287533409059 0 -0.32074380139974629 -0.33343701228721029 0 -0.304947043925899 -0.34335287533409059 0 -0.30629799224095122 -0.32640742927921629 0 -0.28908082640096788 -0.32638960257967248 0 -0.304947043925899 -0.34335287533409059 0 -0.30629799224095122 -0.32640742927921629 0 -0.30629799224095122 -0.32640742927921629 0 -0.3116392313269683 -0.31227800665128408 0 -0.29608772242085762 -0.30837888524759871 0 -0.28908082640096788 -0.32638960257967248 0 -0.30629799224095122 -0.32640742927921629 0 -0.29608772242085762 -0.30837888524759871 0 -0.30878428388507118 -0.30170417431472779 0 -0.30257535950331932 -0.29121923704559499 0 -0.29608772242085762 -0.30837888524759871 0 -0.3116392313269683 -0.31227800665128408 0 -0.30878428388507118 -0.30170417431472779 0 -0.29608772242085762 -0.30837888524759871 0 -0.31511343508082401 -0.27781322935613839 0 -0.31615320843671613 -0.29356321322440693 0 -0.30257535950331932 -0.29121923704559499 0 -0.31615320843671613 -0.29356321322440693 0 -0.30878428388507118 -0.30170417431472779 0 -0.30257535950331932 -0.29121923704559499 0 -0.31511343508082401 -0.27781322935613839 0 -0.30257535950331932 -0.29121923704559499 0 -0.30186967514470631 -0.27796386812733742 0 -0.30257535950331932 -0.29121923704559499 0 -0.28167541002104313 -0.29062322282537112 0 -0.29608772242085762 -0.30837888524759871 0 -0.30257535950331932 -0.29121923704559499 0 -0.28167541002104313 -0.29062322282537112 0 -0.30186967514470631 -0.27796386812733742 0 -0.28167541002104313 -0.29062322282537112 0 -0.29608772242085762 -0.30837888524759871 0 -0.27321460887603632 -0.30942632982525498 0 -0.28167541002104313 -0.29062322282537112 0 -0.27321460887603632 -0.30942632982525498 0 -0.28167541002104313 -0.29062322282537112 0 -0.27321460887603632 -0.30942632982525498 0 -0.25754389589834492 -0.29267207960278718 0 -0.27321460887603632 -0.30942632982525498 0 -0.25469452373499762 -0.30722313484128749 0 -0.25754389589834492 -0.29267207960278718 0 -0.27321460887603632 -0.30942632982525498 0 -0.25754389589834492 -0.29267207960278718 0 -0.25469452373499762 -0.30722313484128749 0 -0.25754389589834492 -0.29267207960278718 0 -0.24072416822125611 -0.30184362229434508 0 -0.25993101682886932 -0.31889206187407287 0 -0.27321460887603632 -0.30942632982525498 0 -0.25469452373499762 -0.30722313484128749 0 -0.28167541002104313 -0.29062322282537112 0 -0.25754389589834492 -0.29267207960278718 0 -0.26609549321717318 -0.27038600033383992 0 -0.28167541002104313 -0.29062322282537112 0 -0.26609549321717318 -0.27038600033383992 0 -0.29013621116605032 -0.27182011582548737 0 -0.25754389589834492 -0.29267207960278718 0 -0.26609549321717318 -0.27038600033383992 0 -0.24718685023563691 -0.27875123027958087 0 -0.26609549321717318 -0.27038600033383992 0 -0.2483490975252734 -0.26098873334868322 0 -0.24718685023563691 -0.27875123027958087 0 -0.26609549321717318 -0.27038600033383992 0 -0.2483490975252734 -0.26098873334868322 0 -0.2582168116042447 -0.2439014490639565 0 -0.26609549321717318 -0.27038600033383992 0 -0.28073519909821221 -0.25162370631188929 0 -0.2582168116042447 -0.2439014490639565 0 -0.26609549321717318 -0.27038600033383992 0 -0.28073519909821221 -0.25162370631188929 0 -0.29013621116605032 -0.27182011582548737 0 -0.28073519909821221 -0.25162370631188929 0 -0.29013621116605032 -0.27182011582548737 0 -0.29859701231105729 -0.25301700882560368 0 -0.29013621116605032 -0.27182011582548737 0 -0.29859701231105729 -0.25301700882560368 0 -0.28167541002104313 -0.29062322282537112 0 -0.29013621116605032 -0.27182011582548737 0 -0.28167541002104313 -0.29062322282537112 0 -0.29013621116605032 -0.27182011582548737 0 -0.30186967514470631 -0.27796386812733742 0 -0.29013621116605032 -0.27182011582548737 0 -0.30186967514470631 -0.27796386812733742 0 -0.30798481169360081 -0.26465381523239789 0 -0.31511343508082401 -0.27781322935613839 0 -0.30186967514470631 -0.27796386812733742 0 -0.30798481169360081 -0.26465381523239789 0 -0.29013621116605032 -0.27182011582548737 0 -0.30798481169360081 -0.26465381523239789 0 -0.29859701231105729 -0.25301700882560368 0 -0.30798481169360081 -0.26465381523239789 0 -0.29859701231105729 -0.25301700882560368 0 -0.31421725341188372 -0.24977587129631751 0 -0.33796228302189513 -0.4595255727132167 0 -0.33234589271538922 -0.44480996408757179 0 -0.32640026466812011 -0.46081896178250181 0 -0.33796228302189513 -0.4595255727132167 0 -0.33234589271538922 -0.44480996408757179 0 -0.35319602351827412 -0.45776170704885039 0 -0.33796228302189513 -0.4595255727132167 0 -0.32640026466812011 -0.46081896178250181 0 -0.33318196746883988 -0.47121638454265508 0 -0.33796228302189513 -0.4595255727132167 0 -0.33318196746883988 -0.47121638454265508 0 -0.34642386304625039 -0.46572223054776302 0 -0.33234589271538922 -0.44480996408757179 0 -0.35319602351827412 -0.45776170704885039 0 -0.34417399017822298 -0.44321594322297297 0 -0.33234589271538922 -0.44480996408757179 0 -0.35319602351827412 -0.45776170704885039 0 -0.33234589271538922 -0.44480996408757179 0 -0.34417399017822298 -0.44321594322297297 0 -0.3357600199570368 -0.42926052953436999 0 -0.33234589271538922 -0.44480996408757179 0 -0.3114957619125025 -0.43185822112629579 0 -0.33234589271538922 -0.44480996408757179 0 -0.31256905993156642 -0.45599936109409522 0 -0.3094409967240645 -0.4445248742670016 0 -0.33234589271538922 -0.44480996408757179 0 -0.3114957619125025 -0.43185822112629579 0 -0.3094409967240645 -0.4445248742670016 0 -0.31256905993156642 -0.45599936109409522 0 -0.32640026466812011 -0.46081896178250181 0 -0.31594212020290968 -0.47254352647497072 0 -0.32640026466812011 -0.46081896178250181 0 -0.31594212020290968 -0.47254352647497072 0 -0.33318196746883988 -0.47121638454265508 0 -0.33234589271538922 -0.44480996408757179 0 -0.31256905993156642 -0.45599936109409522 0 -0.32640026466812011 -0.46081896178250181 0 -0.31594212020290968 -0.47254352647497072 0 -0.32571643119753041 -0.48341426386358383 0 -0.33318196746883988 -0.47121638454265508 0 -0.31594212020290968 -0.47254352647497072 0 -0.32571643119753041 -0.48341426386358383 0 -0.3142379471820072 -0.49087834217350051 0 -0.32571643119753041 -0.48341426386358383 0 -0.3142379471820072 -0.49087834217350051 0 -0.33008082446145748 -0.5 0 -0.3142379471820072 -0.49087834217350051 0 -0.33008082446145748 -0.5 0 -0.30187341860680589 -0.5 0 -0.33008082446145748 -0.5 0 -0.33835912005968188 -0.48593346247900621 0 -0.35828823031610901 -0.5 0 -0.32571643119753041 -0.48341426386358383 0 -0.33008082446145748 -0.5 0 -0.33835912005968188 -0.48593346247900621 0 -0.33835912005968188 -0.48593346247900621 0 -0.33318196746883988 -0.47121638454265508 0 -0.35033712925844102 -0.47766396546025452 0 -0.33318196746883988 -0.47121638454265508 0 -0.35033712925844102 -0.47766396546025452 0 -0.34642386304625039 -0.46572223054776302 0 -0.32571643119753041 -0.48341426386358383 0 -0.33835912005968188 -0.48593346247900621 0 -0.33318196746883988 -0.47121638454265508 0 -0.35033712925844102 -0.47766396546025452 0 -0.36650464836053492 -0.47758333459014829 0 -0.36063794808603339 -0.46630538924086617 0 -0.35033712925844102 -0.47766396546025452 0 -0.36063794808603339 -0.46630538924086617 0 -0.34642386304625039 -0.46572223054776302 0 -0.33835912005968188 -0.48593346247900621 0 -0.35033712925844102 -0.47766396546025452 0 -0.35828823031610901 -0.5 0 -0.35033712925844102 -0.47766396546025452 0 -0.35828823031610901 -0.5 0 -0.36650464836053492 -0.47758333459014829 0 -0.38649563617076049 -0.5 0 -0.35828823031610901 -0.5 0 -0.36650464836053492 -0.47758333459014829 0 -0.36650464836053492 -0.47758333459014829 0 -0.3749125057523493 -0.4641870694620962 0 -0.36063794808603339 -0.46630538924086617 0 -0.38257104150817378 -0.44558539909593659 0 -0.3749125057523493 -0.4641870694620962 0 -0.36138234587818158 -0.45426427734382602 0 -0.3749125057523493 -0.4641870694620962 0 -0.36138234587818158 -0.45426427734382602 0 -0.36063794808603339 -0.46630538924086617 0 -0.36063794808603339 -0.46630538924086617 0 -0.35319602351827412 -0.45776170704885039 0 -0.34642386304625039 -0.46572223054776302 0 -0.36138234587818158 -0.45426427734382602 0 -0.35319602351827412 -0.45776170704885039 0 -0.35413130606104948 -0.44909707738868448 0 -0.36138234587818158 -0.45426427734382602 0 -0.36063794808603339 -0.46630538924086617 0 -0.35319602351827412 -0.45776170704885039 0 -0.33796228302189513 -0.4595255727132167 0 -0.35319602351827412 -0.45776170704885039 0 -0.34642386304625039 -0.46572223054776302 0 -0.34917789899954887 -0.43960621791601218 0 -0.34417399017822298 -0.44321594322297297 0 -0.3478317041277888 -0.43428891422125909 0 -0.34417399017822298 -0.44321594322297297 0 -0.35413130606104948 -0.44909707738868448 0 -0.35160182111049931 -0.44318126090920129 0 -0.34917789899954887 -0.43960621791601218 0 -0.34417399017822298 -0.44321594322297297 0 -0.35160182111049931 -0.44318126090920129 0 -0.34917789899954887 -0.43960621791601218 0 -0.35160182111049931 -0.44318126090920129 0 -0.35310408058168441 -0.43773875331061518 0 -0.35319602351827412 -0.45776170704885039 0 -0.34417399017822298 -0.44321594322297297 0 -0.35413130606104948 -0.44909707738868448 0 -0.36138234587818158 -0.45426427734382602 0 -0.35413130606104948 -0.44909707738868448 0 -0.3593008871480341 -0.44528990622411457 0 -0.35413130606104948 -0.44909707738868448 0 -0.35597289875446148 -0.442541016596669 0 -0.3593008871480341 -0.44528990622411457 0 -0.35597289875446148 -0.442541016596669 0 -0.3593008871480341 -0.44528990622411457 0 -0.35811375488379049 -0.43887755417772267 0 -0.35413130606104948 -0.44909707738868448 0 -0.35597289875446148 -0.442541016596669 0 -0.35160182111049931 -0.44318126090920129 0 -0.35597289875446148 -0.442541016596669 0 -0.35160182111049931 -0.44318126090920129 0 -0.35310408058168441 -0.43773875331061518 0 -0.35597289875446148 -0.442541016596669 0 -0.35310408058168441 -0.43773875331061518 0 -0.35811375488379049 -0.43887755417772267 0 -0.3593008871480341 -0.44528990622411457 0 -0.35811375488379049 -0.43887755417772267 0 -0.36466736862266619 -0.43929361107495862 0 -0.38257104150817378 -0.44558539909593659 0 -0.36138234587818158 -0.45426427734382602 0 -0.36466736862266619 -0.43929361107495862 0 -0.38257104150817378 -0.44558539909593659 0 -0.36138234587818158 -0.45426427734382602 0 -0.36138234587818158 -0.45426427734382602 0 -0.3593008871480341 -0.44528990622411457 0 -0.36466736862266619 -0.43929361107495862 0 -0.37857274293149029 -0.42876471734549271 0 -0.37441041966644201 -0.41853044649732968 0 -0.35538489801315631 -0.42903325471815951 0 -0.37857274293149029 -0.42876471734549271 0 -0.36466736862266619 -0.43929361107495862 0 -0.35538489801315631 -0.42903325471815951 0 -0.37857274293149029 -0.42876471734549271 0 -0.35538489801315631 -0.42903325471815951 0 -0.35811375488379049 -0.43887755417772267 0 -0.36466736862266619 -0.43929361107495862 0 -0.35620302754573391 -0.43383251126704991 0 -0.34839752669874718 -0.41300385642212029 0 -0.37209094330423159 -0.40089808531996213 0 -0.37441041966644201 -0.41853044649732968 0 -0.36549953895739912 -0.41199887396496521 0 -0.35538489801315631 -0.42903325471815951 0 -0.38249496913699632 -0.41100015469591239 0 -0.36549953895739912 -0.41199887396496521 0 -0.37602613074463359 -0.40570926791912437 0 -0.38249496913699632 -0.41100015469591239 0 -0.36549953895739912 -0.41199887396496521 0 -0.38249496913699632 -0.41100015469591239 0 -0.37441041966644201 -0.41853044649732968 0 -0.36549953895739912 -0.41199887396496521 0 -0.36549953895739912 -0.41199887396496521 0 -0.35538489801315631 -0.42903325471815951 0 -0.36549953895739912 -0.41199887396496521 0 -0.34839752669874718 -0.41300385642212029 0 -0.37209094330423159 -0.40089808531996213 0 -0.36549953895739912 -0.41199887396496521 0 -0.37209094330423159 -0.40089808531996213 0 -0.36549953895739912 -0.41199887396496521 0 -0.34839752669874718 -0.41300385642212029 0 -0.35538489801315631 -0.42903325471815951 0 -0.36549953895739912 -0.41199887396496521 0 -0.34839752669874718 -0.41300385642212029 0 -0.34839752669874718 -0.41300385642212029 0 -0.35538489801315631 -0.42903325471815951 0 -0.3357600199570368 -0.42926052953436999 0 -0.3478317041277888 -0.43428891422125909 0 -0.35538489801315631 -0.42903325471815951 0 -0.3357600199570368 -0.42926052953436999 0 -0.35538489801315631 -0.42903325471815951 0 -0.3357600199570368 -0.42926052953436999 0 -0.34917789899954887 -0.43960621791601218 0 -0.35310408058168441 -0.43773875331061518 0 -0.3478317041277888 -0.43428891422125909 0 -0.35310408058168441 -0.43773875331061518 0 -0.3478317041277888 -0.43428891422125909 0 -0.35306161513742162 -0.43384008959340059 0 -0.3478317041277888 -0.43428891422125909 0 -0.35306161513742162 -0.43384008959340059 0 -0.35538489801315631 -0.42903325471815951 0 -0.36466736862266619 -0.43929361107495862 0 -0.35620302754573391 -0.43383251126704991 0 -0.35538489801315631 -0.42903325471815951 0 -0.35306161513742162 -0.43384008959340059 0 -0.35620302754573391 -0.43383251126704991 0 -0.35538489801315631 -0.42903325471815951 0 -0.35310408058168441 -0.43773875331061518 0 -0.35306161513742162 -0.43384008959340059 0 -0.35620302754573391 -0.43383251126704991 0 -0.35310408058168441 -0.43773875331061518 0 -0.35811375488379049 -0.43887755417772267 0 -0.35620302754573391 -0.43383251126704991 0 -0.38353069879127127 -0.38163203803623119 0 -0.36346481754360999 -0.38175981779097429 0 -0.36791003929668897 -0.37531597356073781 0 -0.38353069879127127 -0.38163203803623119 0 -0.36346481754360999 -0.38175981779097429 0 -0.35160698284412462 -0.37014915498247181 0 -0.36346481754360999 -0.38175981779097429 0 -0.36791003929668897 -0.37531597356073781 0 -0.37610551335983561 -0.39413702328477918 0 -0.38353069879127127 -0.38163203803623119 0 -0.36346481754360999 -0.38175981779097429 0 -0.37610551335983561 -0.39413702328477918 0 -0.36346481754360999 -0.38175981779097429 0 -0.37610551335983561 -0.39413702328477918 0 -0.36346481754360999 -0.38175981779097429 0 -0.36560529781313122 -0.39247463880062672 0 -0.36346481754360999 -0.38175981779097429 0 -0.36560529781313122 -0.39247463880062672 0 -0.35703052239811178 -0.39769881565512172 0 -0.36560529781313122 -0.39247463880062672 0 -0.37209094330423159 -0.40089808531996213 0 -0.35703052239811178 -0.39769881565512172 0 -0.37610551335983561 -0.39413702328477918 0 -0.36560529781313122 -0.39247463880062672 0 -0.37209094330423159 -0.40089808531996213 0 -0.37610551335983561 -0.39413702328477918 0 -0.37209094330423159 -0.40089808531996213 0 -0.37602613074463359 -0.40570926791912437 0 -0.36549953895739912 -0.41199887396496521 0 -0.37209094330423159 -0.40089808531996213 0 -0.37602613074463359 -0.40570926791912437 0 -0.37629487057870992 -0.40149067916431569 0 -0.37209094330423159 -0.40089808531996213 0 -0.34839752669874718 -0.41300385642212029 0 -0.37209094330423159 -0.40089808531996213 0 -0.35703052239811178 -0.39769881565512172 0 -0.34839752669874718 -0.41300385642212029 0 -0.3475034212371978 -0.3977809036938752 0 -0.34022546423947331 -0.40183860272453797 0 -0.34839752669874718 -0.41300385642212029 0 -0.3475034212371978 -0.3977809036938752 0 -0.35703052239811178 -0.39769881565512172 0 -0.3475034212371978 -0.3977809036938752 0 -0.35703052239811178 -0.39769881565512172 0 -0.34623045780510991 -0.38749079344634257 0 -0.3475034212371978 -0.3977809036938752 0 -0.34623045780510991 -0.38749079344634257 0 -0.34159335278245839 -0.39476168625962771 0 -0.36346481754360999 -0.38175981779097429 0 -0.35703052239811178 -0.39769881565512172 0 -0.34623045780510991 -0.38749079344634257 0 -0.36346481754360999 -0.38175981779097429 0 -0.3473193197300139 -0.3757558619871843 0 -0.34100389918575219 -0.38190284916864559 0 -0.35160698284412462 -0.37014915498247181 0 -0.36346481754360999 -0.38175981779097429 0 -0.3473193197300139 -0.3757558619871843 0 -0.36346481754360999 -0.38175981779097429 0 -0.34100389918575219 -0.38190284916864559 0 -0.36346481754360999 -0.38175981779097429 0 -0.34623045780510991 -0.38749079344634257 0 -0.34100389918575219 -0.38190284916864559 0 -0.35160698284412462 -0.37014915498247181 0 -0.36346481754360999 -0.38175981779097429 0 -0.32440986188565729 -0.37270080156259489 0 -0.33318997219566882 -0.38195260834254191 0 -0.33667947897576161 -0.37727942084292682 0 -0.33318997219566882 -0.38195260834254191 0 -0.33667947897576161 -0.37727942084292682 0 -0.33318997219566882 -0.38195260834254191 0 -0.33667947897576161 -0.37727942084292682 0 -0.34100389918575219 -0.38190284916864559 0 -0.33318997219566882 -0.38195260834254191 0 -0.34100389918575219 -0.38190284916864559 0 -0.3473193197300139 -0.3757558619871843 0 -0.33667947897576161 -0.37727942084292682 0 -0.34100389918575219 -0.38190284916864559 0 -0.33667947897576161 -0.37727942084292682 0 -0.34100389918575219 -0.38190284916864559 0 -0.34623045780510991 -0.38749079344634257 0 -0.34100389918575219 -0.38190284916864559 0 -0.33841102596855821 -0.38947760426078792 0 -0.34623045780510991 -0.38749079344634257 0 -0.33841102596855821 -0.38947760426078792 0 -0.34159335278245839 -0.39476168625962771 0 -0.33318997219566882 -0.38195260834254191 0 -0.34100389918575219 -0.38190284916864559 0 -0.33841102596855821 -0.38947760426078792 0 -0.34623045780510991 -0.38749079344634257 0 -0.34100389918575219 -0.38190284916864559 0 -0.33318997219566882 -0.38195260834254191 0 -0.33841102596855821 -0.38947760426078792 0 -0.33274337939295218 -0.39158473010557698 0 -0.33318997219566882 -0.38195260834254191 0 -0.32576874152179608 -0.39189120557203078 0 -0.33318997219566882 -0.38195260834254191 0 -0.33274337939295218 -0.39158473010557698 0 -0.32576874152179608 -0.39189120557203078 0 -0.32912841244855839 -0.39450829284968242 0 -0.33559639466195301 -0.39722052717259471 0 -0.32788006366677641 -0.40250098545199881 0 -0.32912841244855839 -0.39450829284968242 0 -0.33274337939295218 -0.39158473010557698 0 -0.32576874152179608 -0.39189120557203078 0 -0.32912841244855839 -0.39450829284968242 0 -0.33559639466195301 -0.39722052717259471 0 -0.33274337939295218 -0.39158473010557698 0 -0.33841102596855821 -0.38947760426078792 0 -0.33559639466195301 -0.39722052717259471 0 -0.33274337939295218 -0.39158473010557698 0 -0.33841102596855821 -0.38947760426078792 0 -0.33559639466195301 -0.39722052717259471 0 -0.34159335278245839 -0.39476168625962771 0 -0.3475034212371978 -0.3977809036938752 0 -0.34159335278245839 -0.39476168625962771 0 -0.34022546423947331 -0.40183860272453797 0 -0.33559639466195301 -0.39722052717259471 0 -0.34159335278245839 -0.39476168625962771 0 -0.34022546423947331 -0.40183860272453797 0 -0.33559639466195301 -0.39722052717259471 0 -0.34022546423947331 -0.40183860272453797 0 -0.32788006366677641 -0.40250098545199881 0 -0.34022546423947331 -0.40183860272453797 0 -0.32788006366677641 -0.40250098545199881 0 -0.32831963194254171 -0.41418371360508938 0 -0.32788006366677641 -0.40250098545199881 0 -0.32576874152179608 -0.39189120557203078 0 -0.3082417371863363 -0.41536357078805991 0 -0.32576874152179608 -0.39189120557203078 0 -0.3082417371863363 -0.41536357078805991 0 -0.31067345205079122 -0.40297304657430971 0 -0.32576874152179608 -0.39189120557203078 0 -0.3082417371863363 -0.41536357078805991 0 -0.32576874152179608 -0.39189120557203078 0 -0.31035600328023122 -0.39454309529492188 0 -0.31067345205079122 -0.40297304657430971 0 -0.32912841244855839 -0.39450829284968242 0 -0.32788006366677641 -0.40250098545199881 0 -0.32576874152179608 -0.39189120557203078 0 -0.32912841244855839 -0.39450829284968242 0 -0.32576874152179608 -0.39189120557203078 0 -0.33318997219566882 -0.38195260834254191 0 -0.31317375432424149 -0.38208007184035081 0 -0.32440986188565729 -0.37270080156259489 0 -0.33318997219566882 -0.38195260834254191 0 -0.31317375432424149 -0.38208007184035081 0 -0.33318997219566882 -0.38195260834254191 0 -0.32576874152179608 -0.39189120557203078 0 -0.31317375432424149 -0.38208007184035081 0 -0.32576874152179608 -0.39189120557203078 0 -0.31317375432424149 -0.38208007184035081 0 -0.31035600328023122 -0.39454309529492188 0 -0.32576874152179608 -0.39189120557203078 0 -0.31317375432424149 -0.38208007184035081 0 -0.34417399017822298 -0.44321594322297297 0 -0.3478317041277888 -0.43428891422125909 0 -0.3357600199570368 -0.42926052953436999 0 -0.34839752669874718 -0.41300385642212029 0 -0.34022546423947331 -0.40183860272453797 0 -0.32831963194254171 -0.41418371360508938 0 -0.34839752669874718 -0.41300385642212029 0 -0.33226633429983238 -0.42124583038635088 0 -0.34839752669874718 -0.41300385642212029 0 -0.3357600199570368 -0.42926052953436999 0 -0.33226633429983238 -0.42124583038635088 0 -0.34839752669874718 -0.41300385642212029 0 -0.32831963194254171 -0.41418371360508938 0 -0.33226633429983238 -0.42124583038635088 0 -0.34839752669874718 -0.41300385642212029 0 -0.32831963194254171 -0.41418371360508938 0 -0.32831963194254171 -0.41418371360508938 0 -0.33226633429983238 -0.42124583038635088 0 -0.32271744639311822 -0.42156188657798022 0 -0.32788006366677641 -0.40250098545199881 0 -0.32831963194254171 -0.41418371360508938 0 -0.3082417371863363 -0.41536357078805991 0 -0.32831963194254171 -0.41418371360508938 0 -0.3142906732686378 -0.42168422233663161 0 -0.3082417371863363 -0.41536357078805991 0 -0.32831963194254171 -0.41418371360508938 0 -0.3082417371863363 -0.41536357078805991 0 -0.32831963194254171 -0.41418371360508938 0 -0.32271744639311822 -0.42156188657798022 0 -0.3142906732686378 -0.42168422233663161 0 -0.33234589271538922 -0.44480996408757179 0 -0.31613514190091718 -0.42948780435058093 0 -0.3114957619125025 -0.43185822112629579 0 -0.33234589271538922 -0.44480996408757179 0 -0.3357600199570368 -0.42926052953436999 0 -0.31613514190091718 -0.42948780435058093 0 -0.3142906732686378 -0.42168422233663161 0 -0.31613514190091718 -0.42948780435058093 0 -0.30783454039896002 -0.42958393323736038 0 -0.32271744639311822 -0.42156188657798022 0 -0.3142906732686378 -0.42168422233663161 0 -0.31613514190091718 -0.42948780435058093 0 -0.3357600199570368 -0.42926052953436999 0 -0.31613514190091718 -0.42948780435058093 0 -0.33226633429983238 -0.42124583038635088 0 -0.32271744639311822 -0.42156188657798022 0 -0.31613514190091718 -0.42948780435058093 0 -0.3357600199570368 -0.42926052953436999 0 -0.33226633429983238 -0.42124583038635088 0 -0.31613514190091718 -0.42948780435058093 0 -0.33226633429983238 -0.42124583038635088 0 -0.31613514190091718 -0.42948780435058093 0 -0.31613514190091718 -0.42948780435058093 0 -0.3114957619125025 -0.43185822112629579 0 -0.3114957619125025 -0.43185822112629579 0 -0.30783454039896002 -0.42958393323736038 0 -0.29634270858520939 -0.43960043062412468 0 -0.31613514190091718 -0.42948780435058093 0 -0.3114957619125025 -0.43185822112629579 0 -0.30783454039896002 -0.42958393323736038 0 -0.30331343782522491 -0.42196360581309772 0 -0.30783454039896002 -0.42958393323736038 0 -0.29157272882734891 -0.41634310820889481 0 -0.3114957619125025 -0.43185822112629579 0 -0.30783454039896002 -0.42958393323736038 0 -0.3114957619125025 -0.43185822112629579 0 -0.29634270858520939 -0.43960043062412468 0 -0.31613514190091718 -0.42948780435058093 0 -0.30783454039896002 -0.42958393323736038 0 -0.3142906732686378 -0.42168422233663161 0 -0.30331343782522491 -0.42196360581309772 0 -0.30783454039896002 -0.42958393323736038 0 -0.3142906732686378 -0.42168422233663161 0 -0.30331343782522491 -0.42196360581309772 0 -0.3082417371863363 -0.41536357078805991 0 -0.3082417371863363 -0.41536357078805991 0 -0.29157272882734891 -0.41634310820889481 0 -0.30331343782522491 -0.42196360581309772 0 -0.3082417371863363 -0.41536357078805991 0 -0.29157272882734891 -0.41634310820889481 0 -0.3082417371863363 -0.41536357078805991 0 -0.30512179815010648 -0.41267440077236472 0 -0.29157272882734891 -0.41634310820889481 0 -0.30331343782522491 -0.42196360581309772 0 -0.3082417371863363 -0.41536357078805991 0 -0.3082417371863363 -0.41536357078805991 0 -0.30512179815010648 -0.41267440077236472 0 -0.31067345205079122 -0.40297304657430971 0 -0.30512179815010648 -0.41267440077236472 0 -0.29157272882734891 -0.41634310820889481 0 -0.29482814950023328 -0.40830219942147938 0 -0.30783454039896002 -0.42958393323736038 0 -0.29157272882734891 -0.41634310820889481 0 -0.28412874470879912 -0.41485830032050902 0 -0.28962387683982849 -0.40671118620829788 0 -0.28412874470879912 -0.41485830032050902 0 -0.27887794756246431 -0.39894882893499961 0 -0.29157272882734891 -0.41634310820889481 0 -0.28962387683982849 -0.40671118620829788 0 -0.29482814950023328 -0.40830219942147938 0 -0.29157272882734891 -0.41634310820889481 0 -0.28962387683982849 -0.40671118620829788 0 -0.28412874470879912 -0.41485830032050902 0 -0.30783454039896002 -0.42958393323736038 0 -0.28525385456372598 -0.42984543912842699 0 -0.30783454039896002 -0.42958393323736038 0 -0.28412874470879912 -0.41485830032050902 0 -0.28525385456372598 -0.42984543912842699 0 -0.30783454039896002 -0.42958393323736038 0 -0.28525385456372598 -0.42984543912842699 0 -0.29634270858520939 -0.43960043062412468 0 -0.30783454039896002 -0.42958393323736038 0 -0.28412874470879912 -0.41485830032050902 0 -0.2945929359319488 -0.36760614731534108 0 -0.31317375432424149 -0.38208007184035081 0 -0.29702017227071648 -0.3821829380303548 0 -0.31317375432424149 -0.38208007184035081 0 -0.29702017227071648 -0.3821829380303548 0 -0.30212301116225498 -0.3917042965809297 0 -0.31317375432424149 -0.38208007184035081 0 -0.29702017227071648 -0.3821829380303548 0 -0.31317375432424149 -0.38208007184035081 0 -0.30212301116225498 -0.3917042965809297 0 -0.31035600328023122 -0.39454309529492188 0 -0.29702017227071648 -0.3821829380303548 0 -0.30212301116225498 -0.3917042965809297 0 -0.29299419418364941 -0.39748010249636018 0 -0.30212301116225498 -0.3917042965809297 0 -0.3038789801154857 -0.40039296044417289 0 -0.29299419418364941 -0.39748010249636018 0 -0.30212301116225498 -0.3917042965809297 0 -0.31035600328023122 -0.39454309529492188 0 -0.3038789801154857 -0.40039296044417289 0 -0.31035600328023122 -0.39454309529492188 0 -0.31067345205079122 -0.40297304657430971 0 -0.3038789801154857 -0.40039296044417289 0 -0.30512179815010648 -0.41267440077236472 0 -0.31067345205079122 -0.40297304657430971 0 -0.3038789801154857 -0.40039296044417289 0 -0.30512179815010648 -0.41267440077236472 0 -0.29482814950023328 -0.40830219942147938 0 -0.29299419418364941 -0.39748010249636018 0 -0.30512179815010648 -0.41267440077236472 0 -0.3038789801154857 -0.40039296044417289 0 -0.29299419418364941 -0.39748010249636018 0 -0.30512179815010648 -0.41267440077236472 0 -0.29299419418364941 -0.39748010249636018 0 -0.29299419418364941 -0.39748010249636018 0 -0.2808665902171914 -0.38228580422035652 0 -0.27887794756246431 -0.39894882893499961 0 -0.28962387683982849 -0.40671118620829788 0 -0.29482814950023328 -0.40830219942147938 0 -0.29299419418364941 -0.39748010249636018 0 -0.28962387683982849 -0.40671118620829788 0 -0.29299419418364941 -0.39748010249636018 0 -0.27887794756246431 -0.39894882893499961 0 -0.2945929359319488 -0.36760614731534108 0 -0.29702017227071648 -0.3821829380303548 0 -0.2808665902171914 -0.38228580422035652 0 -0.29702017227071648 -0.3821829380303548 0 -0.29299419418364941 -0.39748010249636018 0 -0.2808665902171914 -0.38228580422035652 0 -0.29702017227071648 -0.3821829380303548 0 -0.2808665902171914 -0.38228580422035652 0 -0.29299419418364941 -0.39748010249636018 0 -0.2808665902171914 -0.38228580422035652 0 -0.2808665902171914 -0.38228580422035652 0 -0.25938421221386299 -0.38242260424217978 0 -0.2808665902171914 -0.38228580422035652 0 -0.26988792475303891 -0.39094747620029929 0 -0.25938421221386299 -0.38242260424217978 0 -0.26678221966742222 -0.3646399338773868 0 -0.2808665902171914 -0.38228580422035652 0 -0.25938421221386299 -0.38242260424217978 0 -0.2808665902171914 -0.38228580422035652 0 -0.26988792475303891 -0.39094747620029929 0 -0.27887794756246431 -0.39894882893499961 0 -0.26988792475303891 -0.39094747620029929 0 -0.27887794756246431 -0.39894882893499961 0 -0.26042294901863672 -0.40013266740365983 0 -0.28412874470879912 -0.41485830032050902 0 -0.27887794756246431 -0.39894882893499961 0 -0.26042294901863672 -0.40013266740365983 0 -0.26988792475303891 -0.39094747620029929 0 -0.26042294901863672 -0.40013266740365983 0 -0.25938421221386299 -0.38242260424217978 0 -0.26042294901863672 -0.40013266740365983 0 -0.25613810139819221 -0.41434132836670989 0 -0.2431093376423632 -0.40266188506415568 0 -0.26042294901863672 -0.40013266740365983 0 -0.25938421221386299 -0.38242260424217978 0 -0.23671715332847421 -0.38540703448681102 0 -0.28525385456372598 -0.42984543912842699 0 -0.26866387832805422 -0.43084198424433162 0 -0.28118965525791628 -0.44734264012195318 0 -0.28525385456372598 -0.42984543912842699 0 -0.26866387832805422 -0.43084198424433162 0 -0.27009367185483962 -0.41675208124042978 0 -0.28412874470879912 -0.41485830032050902 0 -0.28525385456372598 -0.42984543912842699 0 -0.27009367185483962 -0.41675208124042978 0 -0.28412874470879912 -0.41485830032050902 0 -0.26042294901863672 -0.40013266740365983 0 -0.28412874470879912 -0.41485830032050902 0 -0.26042294901863672 -0.40013266740365983 0 -0.27009367185483962 -0.41675208124042978 0 -0.26866387832805422 -0.43084198424433162 0 -0.27009367185483962 -0.41675208124042978 0 -0.25613810139819221 -0.41434132836670989 0 -0.25613810139819221 -0.41434132836670989 0 -0.25359928648481211 -0.43037401697981981 0 -0.24230037244337599 -0.4175018590364884 0 -0.26042294901863672 -0.40013266740365983 0 -0.27009367185483962 -0.41675208124042978 0 -0.25613810139819221 -0.41434132836670989 0 -0.26866387832805422 -0.43084198424433162 0 -0.25613810139819221 -0.41434132836670989 0 -0.26866387832805422 -0.43084198424433162 0 -0.25613810139819221 -0.41434132836670989 0 -0.25359928648481211 -0.43037401697981981 0 -0.26866387832805422 -0.43084198424433162 0 -0.25359928648481211 -0.43037401697981981 0 -0.2656706707878026 -0.4425776952979022 0 -0.25359928648481211 -0.43037401697981981 0 -0.25354060653463212 -0.44613406553729051 0 -0.2656706707878026 -0.4425776952979022 0 -0.25359928648481211 -0.43037401697981981 0 -0.25354060653463212 -0.44613406553729051 0 -0.2438451496940687 -0.43907002470141299 0 -0.25354060653463212 -0.44613406553729051 0 -0.26694214283005818 -0.45462217802476412 0 -0.2656706707878026 -0.4425776952979022 0 -0.25354060653463212 -0.44613406553729051 0 -0.25269463040220203 -0.46190171592757828 0 -0.26694214283005818 -0.45462217802476412 0 -0.25269463040220203 -0.46190171592757828 0 -0.26694214283005818 -0.45462217802476412 0 -0.27127733714919139 -0.47586075624730118 0 -0.25269463040220203 -0.46190171592757828 0 -0.26694214283005818 -0.45462217802476412 0 -0.26694214283005818 -0.45462217802476412 0 -0.28051910777735523 -0.46464962051151848 0 -0.27127733714919139 -0.47586075624730118 0 -0.26694214283005818 -0.45462217802476412 0 -0.28051910777735523 -0.46464962051151848 0 -0.28118965525791628 -0.44734264012195318 0 -0.26866387832805422 -0.43084198424433162 0 -0.2656706707878026 -0.4425776952979022 0 -0.28118965525791628 -0.44734264012195318 0 -0.26866387832805422 -0.43084198424433162 0 -0.28118965525791628 -0.44734264012195318 0 -0.26694214283005818 -0.45462217802476412 0 -0.2656706707878026 -0.4425776952979022 0 -0.28118965525791628 -0.44734264012195318 0 -0.26694214283005818 -0.45462217802476412 0 -0.28118965525791628 -0.44734264012195318 0 -0.28525385456372598 -0.42984543912842699 0 -0.28118965525791628 -0.44734264012195318 0 -0.29634270858520939 -0.43960043062412468 0 -0.28118965525791628 -0.44734264012195318 0 -0.29634270858520939 -0.43960043062412468 0 -0.28118965525791628 -0.44734264012195318 0 -0.29634270858520939 -0.43960043062412468 0 -0.29945124434374348 -0.45131555945098001 0 -0.28118965525791628 -0.44734264012195318 0 -0.2977138012199616 -0.4691104911477269 0 -0.28118965525791628 -0.44734264012195318 0 -0.29945124434374348 -0.45131555945098001 0 -0.2977138012199616 -0.4691104911477269 0 -0.28051910777735523 -0.46464962051151848 0 -0.28118965525791628 -0.44734264012195318 0 -0.2977138012199616 -0.4691104911477269 0 -0.31256905993156642 -0.45599936109409522 0 -0.29945124434374348 -0.45131555945098001 0 -0.2977138012199616 -0.4691104911477269 0 -0.31256905993156642 -0.45599936109409522 0 -0.31594212020290968 -0.47254352647497072 0 -0.2977138012199616 -0.4691104911477269 0 -0.31256905993156642 -0.45599936109409522 0 -0.3094409967240645 -0.4445248742670016 0 -0.29945124434374348 -0.45131555945098001 0 -0.3114957619125025 -0.43185822112629579 0 -0.29634270858520939 -0.43960043062412468 0 -0.3094409967240645 -0.4445248742670016 0 -0.29634270858520939 -0.43960043062412468 0 -0.3094409967240645 -0.4445248742670016 0 -0.29945124434374348 -0.45131555945098001 0 -0.3142379471820072 -0.49087834217350051 0 -0.29783156266692112 -0.48522413338081982 0 -0.30187341860680589 -0.5 0 -0.3142379471820072 -0.49087834217350051 0 -0.29783156266692112 -0.48522413338081982 0 -0.2977138012199616 -0.4691104911477269 0 -0.31594212020290968 -0.47254352647497072 0 -0.3142379471820072 -0.49087834217350051 0 -0.2977138012199616 -0.4691104911477269 0 -0.3142379471820072 -0.49087834217350051 0 -0.2977138012199616 -0.4691104911477269 0 -0.28051910777735523 -0.46464962051151848 0 -0.2977138012199616 -0.4691104911477269 0 -0.28547260242964922 -0.47631203701584812 0 -0.29783156266692112 -0.48522413338081982 0 -0.2977138012199616 -0.4691104911477269 0 -0.28547260242964922 -0.47631203701584812 0 -0.28547260242964922 -0.47631203701584812 0 -0.28986004389618147 -0.48981979656702318 0 -0.27127733714919139 -0.47586075624730118 0 -0.29783156266692112 -0.48522413338081982 0 -0.28547260242964922 -0.47631203701584812 0 -0.28986004389618147 -0.48981979656702318 0 -0.30187341860680589 -0.5 0 -0.28986004389618147 -0.48981979656702318 0 -0.2736660127521543 -0.5 0 -0.29783156266692112 -0.48522413338081982 0 -0.30187341860680589 -0.5 0 -0.28986004389618147 -0.48981979656702318 0 -0.28986004389618147 -0.48981979656702318 0 -0.2736660127521543 -0.5 0 -0.27127733714919139 -0.47586075624730118 0 -0.2736660127521543 -0.5 0 -0.27127733714919139 -0.47586075624730118 0 -0.25894985238314572 -0.48237709588318323 0 -0.28986004389618147 -0.48981979656702318 0 -0.27127733714919139 -0.47586075624730118 0 -0.28051910777735523 -0.46464962051151848 0 -0.28547260242964922 -0.47631203701584812 0 -0.27127733714919139 -0.47586075624730118 0 -0.25269463040220203 -0.46190171592757828 0 -0.25894985238314572 -0.48237709588318323 0 -0.2452663440960669 -0.48013845744446582 0 -0.25269463040220203 -0.46190171592757828 0 -0.27127733714919139 -0.47586075624730118 0 -0.25269463040220203 -0.46190171592757828 0 -0.27127733714919139 -0.47586075624730118 0 -0.25894985238314572 -0.48237709588318323 0 -0.2736660127521543 -0.5 0 -0.25894985238314572 -0.48237709588318323 0 -0.2518449375161152 -0.49398454979657291 0 -0.2736660127521543 -0.5 0 -0.2518449375161152 -0.49398454979657291 0 -0.24545860689750271 -0.5 0 -0.25894985238314572 -0.48237709588318323 0 -0.2518449375161152 -0.49398454979657291 0 -0.2452663440960669 -0.48013845744446582 0 -0.2518449375161152 -0.49398454979657291 0 -0.2307928657777267 -0.48891641965364391 0 -0.2518449375161152 -0.49398454979657291 0 -0.2452663440960669 -0.48013845744446582 0 -0.2307928657777267 -0.48891641965364391 0 -0.2518449375161152 -0.49398454979657291 0 -0.24545860689750271 -0.5 0 -0.2307928657777267 -0.48891641965364391 0 -0.2452663440960669 -0.48013845744446582 0 -0.23121771222076951 -0.4728750027191454 0 -0.2307928657777267 -0.48891641965364391 0 -0.25269463040220203 -0.46190171592757828 0 -0.2452663440960669 -0.48013845744446582 0 -0.23121771222076951 -0.4728750027191454 0 -0.23121771222076951 -0.4728750027191454 0 -0.2307928657777267 -0.48891641965364391 0 -0.20974079403933829 -0.48384828951071468 0 -0.23121771222076951 -0.4728750027191454 0 -0.2159840481136181 -0.46956363033528908 0 -0.20974079403933829 -0.48384828951071468 0 -0.23121771222076951 -0.4728750027191454 0 -0.20974079403933829 -0.48384828951071468 0 -0.24545860689750271 -0.5 0 -0.2307928657777267 -0.48891641965364391 0 -0.21725120104285109 -0.5 0 -0.2307928657777267 -0.48891641965364391 0 -0.20974079403933829 -0.48384828951071468 0 -0.2307928657777267 -0.48891641965364391 0 -0.21725120104285109 -0.5 0 -0.20974079403933829 -0.48384828951071468 0 -0.25354060653463212 -0.44613406553729051 0 -0.25269463040220203 -0.46190171592757828 0 -0.23721599773282709 -0.450274407782012 0 -0.25354060653463212 -0.44613406553729051 0 -0.2438451496940687 -0.43907002470141299 0 -0.23721599773282709 -0.450274407782012 0 -0.2438451496940687 -0.43907002470141299 0 -0.23721599773282709 -0.450274407782012 0 -0.2347235744381061 -0.43699032632131868 0 -0.25269463040220203 -0.46190171592757828 0 -0.23721599773282709 -0.450274407782012 0 -0.23097902662785419 -0.46071537305467791 0 -0.25269463040220203 -0.46190171592757828 0 -0.23121771222076951 -0.4728750027191454 0 -0.23097902662785419 -0.46071537305467791 0 -0.25269463040220203 -0.46190171592757828 0 -0.23121771222076951 -0.4728750027191454 0 -0.25269463040220203 -0.46190171592757828 0 -0.23721599773282709 -0.450274407782012 0 -0.23097902662785419 -0.46071537305467791 0 -0.22320557245757189 -0.45136192584780271 0 -0.2159840481136181 -0.46956363033528908 0 -0.23121771222076951 -0.4728750027191454 0 -0.23097902662785419 -0.46071537305467791 0 -0.2159840481136181 -0.46956363033528908 0 -0.23721599773282709 -0.450274407782012 0 -0.23097902662785419 -0.46071537305467791 0 -0.22320557245757189 -0.45136192584780271 0 -0.22320557245757189 -0.45136192584780271 0 -0.22173736506345271 -0.43864709963644488 0 -0.21698213822720461 -0.43284430329106749 0 -0.22320557245757189 -0.45136192584780271 0 -0.21698213822720461 -0.43284430329106749 0 -0.23721599773282709 -0.450274407782012 0 -0.22320557245757189 -0.45136192584780271 0 -0.22173736506345271 -0.43864709963644488 0 -0.23721599773282709 -0.450274407782012 0 -0.22173736506345271 -0.43864709963644488 0 -0.23721599773282709 -0.450274407782012 0 -0.22173736506345271 -0.43864709963644488 0 -0.2347235744381061 -0.43699032632131868 0 -0.22320557245757189 -0.45136192584780271 0 -0.20700894554624619 -0.45681697418164519 0 -0.21698213822720461 -0.43284430329106749 0 -0.20700894554624619 -0.45681697418164519 0 -0.19303707249135671 -0.43059430015364047 0 -0.21698213822720461 -0.43284430329106749 0 -0.20700894554624619 -0.45681697418164519 0 -0.21698213822720461 -0.43284430329106749 0 -0.22320557245757189 -0.45136192584780271 0 -0.20700894554624619 -0.45681697418164519 0 -0.2159840481136181 -0.46956363033528908 0 -0.20700894554624619 -0.45681697418164519 0 -0.19703575286528649 -0.48078964507222238 0 -0.18502875603026461 -0.46494473610867582 0 -0.20700894554624619 -0.45681697418164519 0 -0.18502875603026461 -0.46494473610867582 0 -0.18271469687031749 -0.44845454828740711 0 -0.20700894554624619 -0.45681697418164519 0 -0.18271469687031749 -0.44845454828740711 0 -0.19303707249135671 -0.43059430015364047 0 -0.21725120104285109 -0.5 0 -0.20974079403933829 -0.48384828951071468 0 -0.19199021277984149 -0.49291766423347888 0 -0.20700894554624619 -0.45681697418164519 0 -0.2159840481136181 -0.46956363033528908 0 -0.19703575286528649 -0.48078964507222238 0 -0.2159840481136181 -0.46956363033528908 0 -0.20974079403933829 -0.48384828951071468 0 -0.19703575286528649 -0.48078964507222238 0 -0.20974079403933829 -0.48384828951071468 0 -0.19703575286528649 -0.48078964507222238 0 -0.20700894554624619 -0.45681697418164519 0 -0.19703575286528649 -0.48078964507222238 0 -0.21725120104285109 -0.5 0 -0.19199021277984149 -0.49291766423347888 0 -0.18904379518819939 -0.49999999999999578 0 -0.20974079403933829 -0.48384828951071468 0 -0.19703575286528649 -0.48078964507222238 0 -0.19199021277984149 -0.49291766423347888 0 -0.20974079403933829 -0.48384828951071468 0 -0.19199021277984149 -0.49291766423347888 0 -0.19703575286528649 -0.48078964507222238 0 -0.19199021277984149 -0.49291766423347888 0 -0.1806501400470899 -0.48733198327772198 0 -0.19703575286528649 -0.48078964507222238 0 -0.19199021277984149 -0.49291766423347888 0 -0.19199021277984149 -0.49291766423347888 0 -0.18904379518819939 -0.49999999999999578 0 -0.19199021277984149 -0.49291766423347888 0 -0.17812866439603481 -0.49999999999999267 0 -0.19199021277984149 -0.49291766423347888 0 -0.18904379518819939 -0.49999999999999578 0 -0.17812866439603481 -0.49999999999999267 0 -0.19199021277984149 -0.49291766423347888 0 -0.1806501400470899 -0.48733198327772198 0 -0.17812866439603481 -0.49999999999999267 0 -0.1806501400470899 -0.48733198327772198 0 -0.17812866439603481 -0.49999999999999267 0 -0.16526627315450881 -0.48681942287300078 0 -0.17812866439603481 -0.49999999999999267 0 -0.16526627315450881 -0.48681942287300078 0 -0.15384562597277671 -0.5 0 -0.16526627315450881 -0.48681942287300078 0 -0.15867829181438209 -0.47351517086903511 0 -0.14808882950896779 -0.48760950596642599 0 -0.16526627315450881 -0.48681942287300078 0 -0.15867829181438209 -0.47351517086903511 0 -0.17205258504960549 -0.47477513270279981 0 -0.15867829181438209 -0.47351517086903511 0 -0.17205258504960549 -0.47477513270279981 0 -0.1689107827671488 -0.46150338438528649 0 -0.19703575286528649 -0.48078964507222238 0 -0.17205258504960549 -0.47477513270279981 0 -0.19703575286528649 -0.48078964507222238 0 -0.17205258504960549 -0.47477513270279981 0 -0.18502875603026461 -0.46494473610867582 0 -0.19703575286528649 -0.48078964507222238 0 -0.1806501400470899 -0.48733198327772198 0 -0.17205258504960549 -0.47477513270279981 0 -0.1806501400470899 -0.48733198327772198 0 -0.16526627315450881 -0.48681942287300078 0 -0.17205258504960549 -0.47477513270279981 0 -0.17205258504960549 -0.47477513270279981 0 -0.18502875603026461 -0.46494473610867582 0 -0.1689107827671488 -0.46150338438528649 0 -0.18502875603026461 -0.46494473610867582 0 -0.18271469687031749 -0.44845454828740711 0 -0.1689107827671488 -0.46150338438528649 0 -0.18271469687031749 -0.44845454828740711 0 -0.16138963394859521 -0.44868252298987232 0 -0.1689107827671488 -0.46150338438528649 0 -0.18271469687031749 -0.44845454828740711 0 -0.16138963394859521 -0.44868252298987232 0 -0.16224644553901921 -0.42839564420087312 0 -0.16138963394859521 -0.44868252298987232 0 -0.1689107827671488 -0.46150338438528649 0 -0.15360073288972831 -0.45864819535392959 0 -0.15867829181438209 -0.47351517086903511 0 -0.1689107827671488 -0.46150338438528649 0 -0.15360073288972831 -0.45864819535392959 0 -0.15867829181438209 -0.47351517086903511 0 -0.14088984691242101 -0.46372891927135518 0 -0.15360073288972831 -0.45864819535392959 0 -0.14088984691242101 -0.46372891927135518 0 -0.15360073288972831 -0.45864819535392959 0 -0.14071409195337639 -0.4434269833400809 0 -0.16138963394859521 -0.44868252298987232 0 -0.15360073288972831 -0.45864819535392959 0 -0.14071409195337639 -0.4434269833400809 0 -0.16138963394859521 -0.44868252298987232 0 -0.14071409195337639 -0.4434269833400809 0 -0.16224644553901921 -0.42839564420087312 0 -0.14071409195337639 -0.4434269833400809 0 -0.11918173836773351 -0.45845832247928869 0 -0.14071409195337639 -0.4434269833400809 0 -0.11918173836773351 -0.45845832247928869 0 -0.1184149235461696 -0.43970471758753887 0 -0.14088984691242101 -0.46372891927135518 0 -0.14071409195337639 -0.4434269833400809 0 -0.11918173836773351 -0.45845832247928869 0 -0.14088984691242101 -0.46372891927135518 0 -0.1272556728232932 -0.47013049556587211 0 -0.11918173836773351 -0.45845832247928869 0 -0.13278436477725561 -0.4823434472460234 0 -0.1272556728232932 -0.47013049556587211 0 -0.1161667412357628 -0.47599129326682099 0 -0.14088984691242101 -0.46372891927135518 0 -0.13278436477725561 -0.4823434472460234 0 -0.1272556728232932 -0.47013049556587211 0 -0.13278436477725561 -0.4823434472460234 0 -0.12956258754951869 -0.5 0 -0.14808882950896779 -0.48760950596642599 0 -0.12956258754951869 -0.5 0 -0.15384562597277671 -0.5 0 -0.14808882950896779 -0.48760950596642599 0 -0.16526627315450881 -0.48681942287300078 0 -0.15384562597277671 -0.5 0 -0.14808882950896779 -0.48760950596642599 0 -0.15867829181438209 -0.47351517086903511 0 -0.14088984691242101 -0.46372891927135518 0 -0.13278436477725561 -0.4823434472460234 0 -0.15867829181438209 -0.47351517086903511 0 -0.13278436477725561 -0.4823434472460234 0 -0.14808882950896779 -0.48760950596642599 0 -0.15867829181438209 -0.47351517086903511 0 -0.13278436477725561 -0.4823434472460234 0 -0.15300746566076209 -0.38310001254620968 0 -0.12942966304821441 -0.38325015625522552 0 -0.14208280055258729 -0.40634727148710198 0 -0.15300746566076209 -0.38310001254620968 0 -0.14208280055258729 -0.40634727148710198 0 -0.1624749046322673 -0.40200193298372783 0 -0.15300746566076209 -0.38310001254620968 0 -0.12942966304821441 -0.38325015625522552 0 -0.15300746566076209 -0.38310001254620968 0 -0.12942966304821441 -0.38325015625522552 0 -0.13644034466196819 -0.36544341997203661 0 -0.12942966304821441 -0.38325015625522552 0 -0.14208280055258729 -0.40634727148710198 0 -0.1246151037146196 -0.40215144471962733 0 -0.13370262722300191 -0.42485153358840111 0 -0.14208280055258729 -0.40634727148710198 0 -0.1246151037146196 -0.40215144471962733 0 -0.14071409195337639 -0.4434269833400809 0 -0.13370262722300191 -0.42485153358840111 0 -0.1184149235461696 -0.43970471758753887 0 -0.14071409195337639 -0.4434269833400809 0 -0.13370262722300191 -0.42485153358840111 0 -0.16224644553901921 -0.42839564420087312 0 -0.14071409195337639 -0.4434269833400809 0 -0.16224644553901921 -0.42839564420087312 0 -0.14208280055258729 -0.40634727148710198 0 -0.16224644553901921 -0.42839564420087312 0 -0.1624749046322673 -0.40200193298372783 0 -0.13370262722300191 -0.42485153358840111 0 -0.14208280055258729 -0.40634727148710198 0 -0.16224644553901921 -0.42839564420087312 0 -0.16224644553901921 -0.42839564420087312 0 -0.180697604208819 -0.40923231675122879 0 -0.1624749046322673 -0.40200193298372783 0 -0.18271469687031749 -0.44845454828740711 0 -0.16224644553901921 -0.42839564420087312 0 -0.19303707249135671 -0.43059430015364047 0 -0.16224644553901921 -0.42839564420087312 0 -0.180697604208819 -0.40923231675122879 0 -0.19303707249135671 -0.43059430015364047 0 -0.180697604208819 -0.40923231675122879 0 -0.1624749046322673 -0.40200193298372783 0 -0.17658526827330981 -0.3829498688371939 0 -0.180697604208819 -0.40923231675122879 0 -0.17658526827330981 -0.3829498688371939 0 -0.19000778267581911 -0.39514046875386671 0 -0.15300746566076209 -0.38310001254620968 0 -0.1624749046322673 -0.40200193298372783 0 -0.17658526827330981 -0.3829498688371939 0 -0.15300746566076209 -0.38310001254620968 0 -0.17658526827330981 -0.3829498688371939 0 -0.17658526827330981 -0.3829498688371939 0 -0.20016307088585741 -0.38279972512817662 0 -0.19000778267581911 -0.39514046875386671 0 -0.17658526827330981 -0.3829498688371939 0 -0.20016307088585741 -0.38279972512817662 0 -0.20016307088585741 -0.38279972512817662 0 -0.19000778267581911 -0.39514046875386671 0 -0.2085726045565329 -0.4078220142096215 0 -0.180697604208819 -0.40923231675122879 0 -0.19000778267581911 -0.39514046875386671 0 -0.2085726045565329 -0.4078220142096215 0 -0.20016307088585741 -0.38279972512817662 0 -0.2085726045565329 -0.4078220142096215 0 -0.20016307088585741 -0.38279972512817662 0 -0.2161772785324636 -0.38269774647594651 0 -0.2085726045565329 -0.4078220142096215 0 -0.2161772785324636 -0.38269774647594651 0 -0.2085726045565329 -0.4078220142096215 0 -0.22410163367487609 -0.3935296463770066 0 -0.20016307088585741 -0.38279972512817662 0 -0.2161772785324636 -0.38269774647594651 0 -0.20016307088585741 -0.38279972512817662 0 -0.2161772785324636 -0.38269774647594651 0 -0.2146411550785581 -0.37365584976636601 0 -0.2161772785324636 -0.38269774647594651 0 -0.22424182443051541 -0.37765757455433779 0 -0.2146411550785581 -0.37365584976636601 0 -0.180697604208819 -0.40923231675122879 0 -0.19303707249135671 -0.43059430015364047 0 -0.2085726045565329 -0.4078220142096215 0 -0.2085726045565329 -0.4078220142096215 0 -0.21698213822720461 -0.43284430329106749 0 -0.2268496457778397 -0.40912566888893942 0 -0.2085726045565329 -0.4078220142096215 0 -0.21698213822720461 -0.43284430329106749 0 -0.19303707249135671 -0.43059430015364047 0 -0.2085726045565329 -0.4078220142096215 0 -0.21698213822720461 -0.43284430329106749 0 -0.21698213822720461 -0.43284430329106749 0 -0.22992583861702739 -0.42769779631454868 0 -0.2268496457778397 -0.40912566888893942 0 -0.22173736506345271 -0.43864709963644488 0 -0.22992583861702739 -0.42769779631454868 0 -0.2347235744381061 -0.43699032632131868 0 -0.22173736506345271 -0.43864709963644488 0 -0.21698213822720461 -0.43284430329106749 0 -0.22992583861702739 -0.42769779631454868 0 -0.22992583861702739 -0.42769779631454868 0 -0.2268496457778397 -0.40912566888893942 0 -0.24230037244337599 -0.4175018590364884 0 -0.21698213822720461 -0.43284430329106749 0 -0.2268496457778397 -0.40912566888893942 0 -0.2268496457778397 -0.40912566888893942 0 -0.24230037244337599 -0.4175018590364884 0 -0.2431093376423632 -0.40266188506415568 0 -0.25613810139819221 -0.41434132836670989 0 -0.24230037244337599 -0.4175018590364884 0 -0.2431093376423632 -0.40266188506415568 0 -0.22992583861702739 -0.42769779631454868 0 -0.24230037244337599 -0.4175018590364884 0 -0.24089352108315501 -0.42926230317217479 0 -0.25359928648481211 -0.43037401697981981 0 -0.24230037244337599 -0.4175018590364884 0 -0.24089352108315501 -0.42926230317217479 0 -0.25359928648481211 -0.43037401697981981 0 -0.2438451496940687 -0.43907002470141299 0 -0.24089352108315501 -0.42926230317217479 0 -0.22992583861702739 -0.42769779631454868 0 -0.24089352108315501 -0.42926230317217479 0 -0.2347235744381061 -0.43699032632131868 0 -0.2438451496940687 -0.43907002470141299 0 -0.24089352108315501 -0.42926230317217479 0 -0.2347235744381061 -0.43699032632131868 0 -0.2161772785324636 -0.38269774647594651 0 -0.23219148617906979 -0.38259576782371391 0 -0.22424182443051541 -0.37765757455433779 0 -0.2161772785324636 -0.38269774647594651 0 -0.23219148617906979 -0.38259576782371391 0 -0.22410163367487609 -0.3935296463770066 0 -0.2161772785324636 -0.38269774647594651 0 -0.23219148617906979 -0.38259576782371391 0 -0.23219148617906979 -0.38259576782371391 0 -0.22410163367487609 -0.3935296463770066 0 -0.23671715332847421 -0.38540703448681102 0 -0.23219148617906979 -0.38259576782371391 0 -0.22424182443051541 -0.37765757455433779 0 -0.23334431644894679 -0.37067442711117121 0 -0.23219148617906979 -0.38259576782371391 0 -0.22424182443051541 -0.37765757455433779 0 -0.2268496457778397 -0.40912566888893942 0 -0.23671715332847421 -0.38540703448681102 0 -0.2268496457778397 -0.40912566888893942 0 -0.22410163367487609 -0.3935296463770066 0 -0.23671715332847421 -0.38540703448681102 0 -0.2085726045565329 -0.4078220142096215 0 -0.2268496457778397 -0.40912566888893942 0 -0.22410163367487609 -0.3935296463770066 0 -0.2268496457778397 -0.40912566888893942 0 -0.2431093376423632 -0.40266188506415568 0 -0.23671715332847421 -0.38540703448681102 0 -0.26042294901863672 -0.40013266740365983 0 -0.2431093376423632 -0.40266188506415568 0 -0.23671715332847421 -0.38540703448681102 0 -0.26042294901863672 -0.40013266740365983 0 -0.23671715332847421 -0.38540703448681102 0 -0.25938421221386299 -0.38242260424217978 0 -0.23671715332847421 -0.38540703448681102 0 -0.23790183421053479 -0.38255940426400398 0 -0.25938421221386299 -0.38242260424217978 0 -0.23790183421053479 -0.38255940426400398 0 -0.25938421221386299 -0.38242260424217978 0 -0.23790183421053479 -0.38255940426400398 0 -0.2452998416640946 -0.36477673389921211 0 -0.23219148617906979 -0.38259576782371391 0 -0.23671715332847421 -0.38540703448681102 0 -0.23790183421053479 -0.38255940426400398 0 -0.23219148617906979 -0.38259576782371391 0 -0.23671715332847421 -0.38540703448681102 0 -0.23671715332847421 -0.38540703448681102 0 -0.23790183421053479 -0.38255940426400398 0 -0.23219148617906979 -0.38259576782371391 0 -0.23790183421053479 -0.38255940426400398 0 -0.23334431644894679 -0.37067442711117121 0 -0.23219148617906979 -0.38259576782371391 0 -0.23790183421053479 -0.38255940426400398 0 -0.2452998416640946 -0.36477673389921211 0 -0.23334431644894679 -0.37067442711117121 0 -0.236612272716479 -0.35196393625907768 0 -0.23790183421053479 -0.38255940426400398 0 -0.2452998416640946 -0.36477673389921211 0 -0.23790183421053479 -0.38255940426400398 0 -0.2452998416640946 -0.36477673389921211 0 -0.23334431644894679 -0.37067442711117121 0 -0.22424182443051541 -0.37765757455433779 0 -0.23334431644894679 -0.37067442711117121 0 -0.2233560944082246 -0.363712965125564 0 -0.23334431644894679 -0.37067442711117121 0 -0.2233560944082246 -0.363712965125564 0 -0.236612272716479 -0.35196393625907768 0 -0.22424182443051541 -0.37765757455433779 0 -0.2233560944082246 -0.363712965125564 0 -0.2146411550785581 -0.37365584976636601 0 -0.2233560944082246 -0.363712965125564 0 -0.22090871978274521 -0.34750939462453567 0 -0.236612272716479 -0.35196393625907768 0 -0.25269784911765092 -0.34699406353441858 0 -0.2452998416640946 -0.36477673389921211 0 -0.25269784911765092 -0.34699406353441858 0 -0.2452998416640946 -0.36477673389921211 0 -0.236612272716479 -0.35196393625907768 0 -0.25269784911765092 -0.34699406353441858 0 -0.2601150759189611 -0.3291651954159735 0 -0.2357068878863986 -0.32570661601735368 0 -0.25269784911765092 -0.34699406353441858 0 -0.236612272716479 -0.35196393625907768 0 -0.2357068878863986 -0.32570661601735368 0 -0.25269784911765092 -0.34699406353441858 0 -0.2357068878863986 -0.32570661601735368 0 -0.2601150759189611 -0.3291651954159735 0 -0.2357068878863986 -0.32570661601735368 0 -0.2494260049788683 -0.31746489113439402 0 -0.2357068878863986 -0.32570661601735368 0 -0.2494260049788683 -0.31746489113439402 0 -0.24072416822125611 -0.30184362229434508 0 -0.2357068878863986 -0.32570661601735368 0 -0.2119173650848751 -0.32804843985645959 0 -0.21871592665514519 -0.30441916850028972 0 -0.2357068878863986 -0.32570661601735368 0 -0.21871592665514519 -0.30441916850028972 0 -0.22090871978274521 -0.34750939462453567 0 -0.236612272716479 -0.35196393625907768 0 -0.2357068878863986 -0.32570661601735368 0 -0.22090871978274521 -0.34750939462453567 0 -0.2357068878863986 -0.32570661601735368 0 -0.2119173650848751 -0.32804843985645959 0 -0.22090871978274521 -0.34750939462453567 0 -0.2119173650848751 -0.32804843985645959 0 -0.20038300345158319 -0.34252625431289602 0 -0.2119173650848751 -0.32804843985645959 0 -0.19064882261902269 -0.32209845877770238 0 -0.21871592665514519 -0.30441916850028972 0 -0.2119173650848751 -0.32804843985645959 0 -0.19064882261902269 -0.32209845877770238 0 -0.20038300345158319 -0.34252625431289602 0 -0.19064882261902269 -0.32209845877770238 0 -0.20038300345158319 -0.34252625431289602 0 -0.1786038551756757 -0.34069824763179102 0 -0.20038300345158319 -0.34252625431289602 0 -0.19095175091145111 -0.35539174743908392 0 -0.20926750713572939 -0.36141123754780358 0 -0.20038300345158319 -0.34252625431289602 0 -0.19095175091145111 -0.35539174743908392 0 -0.1786038551756757 -0.34069824763179102 0 -0.20016307088585741 -0.38279972512817662 0 -0.19095175091145111 -0.35539174743908392 0 -0.20926750713572939 -0.36141123754780358 0 -0.17658526827330981 -0.3829498688371939 0 -0.20016307088585741 -0.38279972512817662 0 -0.19095175091145111 -0.35539174743908392 0 -0.20016307088585741 -0.38279972512817662 0 -0.19095175091145111 -0.35539174743908392 0 -0.20016307088585741 -0.38279972512817662 0 -0.20926750713572939 -0.36141123754780358 0 -0.2146411550785581 -0.37365584976636601 0 -0.2233560944082246 -0.363712965125564 0 -0.20926750713572939 -0.36141123754780358 0 -0.2146411550785581 -0.37365584976636601 0 -0.2233560944082246 -0.363712965125564 0 -0.22090871978274521 -0.34750939462453567 0 -0.20926750713572939 -0.36141123754780358 0 -0.22090871978274521 -0.34750939462453567 0 -0.20038300345158319 -0.34252625431289602 0 -0.20926750713572939 -0.36141123754780358 0 -0.23269942211958819 -0.26632599736311829 0 -0.2113475615474098 -0.26183595308539898 0 -0.22937054978906041 -0.24331512362502869 0 -0.2483490975252734 -0.26098873334868322 0 -0.23269942211958819 -0.26632599736311829 0 -0.22937054978906041 -0.24331512362502869 0 -0.2483490975252734 -0.26098873334868322 0 -0.24718685023563691 -0.27875123027958087 0 -0.23269942211958819 -0.26632599736311829 0 -0.24718685023563691 -0.27875123027958087 0 -0.23269942211958819 -0.26632599736311829 0 -0.22621925119092889 -0.28512311723799683 0 -0.23269942211958819 -0.26632599736311829 0 -0.22621925119092889 -0.28512311723799683 0 -0.2113475615474098 -0.26183595308539898 0 -0.24718685023563691 -0.27875123027958087 0 -0.22621925119092889 -0.28512311723799683 0 -0.24072416822125611 -0.30184362229434508 0 -0.25754389589834492 -0.29267207960278718 0 -0.24718685023563691 -0.27875123027958087 0 -0.24072416822125611 -0.30184362229434508 0 -0.25469452373499762 -0.30722313484128749 0 -0.2494260049788683 -0.31746489113439402 0 -0.24072416822125611 -0.30184362229434508 0 -0.22621925119092889 -0.28512311723799683 0 -0.24072416822125611 -0.30184362229434508 0 -0.21871592665514519 -0.30441916850028972 0 -0.2357068878863986 -0.32570661601735368 0 -0.24072416822125611 -0.30184362229434508 0 -0.21871592665514519 -0.30441916850028972 0 -0.21871592665514519 -0.30441916850028972 0 -0.20172496542389179 -0.28313172098322592 0 -0.18547182867621881 -0.29890397395307688 0 -0.19064882261902269 -0.32209845877770238 0 -0.21871592665514519 -0.30441916850028972 0 -0.18547182867621881 -0.29890397395307688 0 -0.20172496542389179 -0.28313172098322592 0 -0.17865973542483601 -0.28159672660659713 0 -0.18547182867621881 -0.29890397395307688 0 -0.22621925119092889 -0.28512311723799683 0 -0.21871592665514519 -0.30441916850028972 0 -0.20172496542389179 -0.28313172098322592 0 -0.21871592665514519 -0.30441916850028972 0 -0.20172496542389179 -0.28313172098322592 0 -0.22621925119092889 -0.28512311723799683 0 -0.20172496542389179 -0.28313172098322592 0 -0.2113475615474098 -0.26183595308539898 0 -0.20172496542389179 -0.28313172098322592 0 -0.2113475615474098 -0.26183595308539898 0 -0.18473400419263841 -0.26184427346616201 0 -0.20172496542389179 -0.28313172098322592 0 -0.18473400419263841 -0.26184427346616201 0 -0.20172496542389179 -0.28313172098322592 0 -0.18473400419263841 -0.26184427346616201 0 -0.17865973542483601 -0.28159672660659713 0 -0.2113475615474098 -0.26183595308539898 0 -0.18473400419263841 -0.26184427346616201 0 -0.1994177047143332 -0.2432145052078287 0 -0.18473400419263841 -0.26184427346616201 0 -0.15229660666407671 -0.25401824511238591 0 -0.16774304296138501 -0.24055682594909811 0 -0.18473400419263841 -0.26184427346616201 0 -0.1593348892574955 -0.27433293932196051 0 -0.15229660666407671 -0.25401824511238591 0 -0.18473400419263841 -0.26184427346616201 0 -0.16774304296138501 -0.24055682594909811 0 -0.18473400419263841 -0.26184427346616201 0 -0.1593348892574955 -0.27433293932196051 0 -0.17865973542483601 -0.28159672660659713 0 -0.1593348892574955 -0.27433293932196051 0 -0.17865973542483601 -0.28159672660659713 0 -0.1628273235241636 -0.29929742573166879 0 -0.17865973542483601 -0.28159672660659713 0 -0.18547182867621881 -0.29890397395307688 0 -0.1628273235241636 -0.29929742573166879 0 -0.18547182867621881 -0.29890397395307688 0 -0.1628273235241636 -0.29929742573166879 0 -0.16388410446163609 -0.32460269768425593 0 -0.1628273235241636 -0.29929742573166879 0 -0.13242221189995379 -0.30543756500551722 0 -0.16388410446163609 -0.32460269768425593 0 -0.13242221189995379 -0.30543756500551722 0 -0.14127367617284931 -0.28459822767558379 0 -0.1188334035936548 -0.28113848219864679 0 -0.1628273235241636 -0.29929742573166879 0 -0.13242221189995379 -0.30543756500551722 0 -0.14127367617284931 -0.28459822767558379 0 -0.1593348892574955 -0.27433293932196051 0 -0.1628273235241636 -0.29929742573166879 0 -0.14127367617284931 -0.28459822767558379 0 -0.1593348892574955 -0.27433293932196051 0 -0.14127367617284931 -0.28459822767558379 0 -0.132950552588979 -0.26278472612012599 0 -0.14127367617284931 -0.28459822767558379 0 -0.132950552588979 -0.26278472612012599 0 -0.1188334035936548 -0.28113848219864679 0 -0.132950552588979 -0.26278472612012599 0 -0.1192340303868117 -0.24478318800158869 0 -0.13450504990001219 -0.2438564190910647 0 -0.132950552588979 -0.26278472612012599 0 -0.15229660666407671 -0.25401824511238591 0 -0.13450504990001219 -0.2438564190910647 0 -0.1593348892574955 -0.27433293932196051 0 -0.132950552588979 -0.26278472612012599 0 -0.15229660666407671 -0.25401824511238591 0 -0.15300746566076209 -0.38310001254620968 0 -0.17658526827330981 -0.3829498688371939 0 -0.16187875486605491 -0.35541355732776547 0 -0.17658526827330981 -0.3829498688371939 0 -0.19095175091145111 -0.35539174743908392 0 -0.16187875486605491 -0.35541355732776547 0 -0.19095175091145111 -0.35539174743908392 0 -0.16187875486605491 -0.35541355732776547 0 -0.1786038551756757 -0.34069824763179102 0 -0.19064882261902269 -0.32209845877770238 0 -0.1786038551756757 -0.34069824763179102 0 -0.16388410446163609 -0.32460269768425593 0 -0.19064882261902269 -0.32209845877770238 0 -0.18547182867621881 -0.29890397395307688 0 -0.16388410446163609 -0.32460269768425593 0 -0.16187875486605491 -0.35541355732776547 0 -0.1786038551756757 -0.34069824763179102 0 -0.16388410446163609 -0.32460269768425593 0 -0.13242221189995379 -0.30543756500551722 0 -0.16388410446163609 -0.32460269768425593 0 -0.13821757510299509 -0.3384513750534191 0 -0.13242221189995379 -0.30543756500551722 0 -0.13821757510299509 -0.3384513750534191 0 -0.1101747460075988 -0.32953608121607292 0 -0.16187875486605491 -0.35541355732776547 0 -0.16388410446163609 -0.32460269768425593 0 -0.13821757510299509 -0.3384513750534191 0 -0.13821757510299509 -0.3384513750534191 0 -0.13644034466196819 -0.36544341997203661 0 -0.1196241940514999 -0.3542658853942362 0 -0.16187875486605491 -0.35541355732776547 0 -0.13821757510299509 -0.3384513750534191 0 -0.13644034466196819 -0.36544341997203661 0 -0.15300746566076209 -0.38310001254620968 0 -0.16187875486605491 -0.35541355732776547 0 -0.13644034466196819 -0.36544341997203661 0 -0.12942966304821441 -0.38325015625522552 0 -0.13644034466196819 -0.36544341997203661 0 -0.1177797586078463 -0.37381446098417098 0 -0.13644034466196819 -0.36544341997203661 0 -0.1177797586078463 -0.37381446098417098 0 -0.1196241940514999 -0.3542658853942362 0 -0.1177797586078463 -0.37381446098417098 0 -0.10407214500130089 -0.36661499140206938 0 -0.1196241940514999 -0.3542658853942362 0 -0.1177797586078463 -0.37381446098417098 0 -0.10407214500130089 -0.36661499140206938 0 -0.1034929330021967 -0.38313049756236911 0 -0.10407214500130089 -0.36661499140206938 0 -0.092143069441117886 -0.37288061806212591 0 -0.1034929330021967 -0.38313049756236911 0 -0.10407214500130089 -0.36661499140206938 0 -0.092143069441117886 -0.37288061806212591 0 -0.090292011953311629 -0.3597231114641114 0 -0.10407214500130089 -0.36661499140206938 0 -0.10297576120334009 -0.35054559799579871 0 -0.1196241940514999 -0.3542658853942362 0 -0.10297576120334009 -0.35054559799579871 0 -0.091874738774876785 -0.34065851114568052 0 -0.090292011953311629 -0.3597231114641114 0 -0.10407214500130089 -0.36661499140206938 0 -0.10297576120334009 -0.35054559799579871 0 -0.090292011953311629 -0.3597231114641114 0 -0.10297576120334009 -0.35054559799579871 0 -0.1196241940514999 -0.3542658853942362 0 -0.1101747460075988 -0.32953608121607292 0 -0.13821757510299509 -0.3384513750534191 0 -0.1196241940514999 -0.3542658853942362 0 -0.1101747460075988 -0.32953608121607292 0 -0.1101747460075988 -0.32953608121607292 0 -0.085227450549862166 -0.32028838060126541 0 -0.10233633129899709 -0.29788694174330338 0 -0.1101747460075988 -0.32953608121607292 0 -0.091874738774876785 -0.34065851114568052 0 -0.085227450549862166 -0.32028838060126541 0 -0.10297576120334009 -0.35054559799579871 0 -0.1101747460075988 -0.32953608121607292 0 -0.091874738774876785 -0.34065851114568052 0 -0.091874738774876785 -0.34065851114568052 0 -0.085227450549862166 -0.32028838060126541 0 -0.076063335717399538 -0.33750887212749098 0 -0.085227450549862166 -0.32028838060126541 0 -0.063011241542060503 -0.32804507108198161 0 -0.072947339386401744 -0.29815403057856332 0 -0.063011241542060503 -0.32804507108198161 0 -0.076063335717399538 -0.33750887212749098 0 -0.056103847272524453 -0.34401699257208418 0 -0.085227450549862166 -0.32028838060126541 0 -0.063011241542060503 -0.32804507108198161 0 -0.076063335717399538 -0.33750887212749098 0 -0.076063335717399538 -0.33750887212749098 0 -0.071250752086046532 -0.35335887697158019 0 -0.056103847272524453 -0.34401699257208418 0 -0.071250752086046532 -0.35335887697158019 0 -0.076899216694667677 -0.36865863427987439 0 -0.059008804616476777 -0.3736816009534113 0 -0.071250752086046532 -0.35335887697158019 0 -0.076899216694667677 -0.36865863427987439 0 -0.090292011953311629 -0.3597231114641114 0 -0.076899216694667677 -0.36865863427987439 0 -0.092143069441117886 -0.37288061806212591 0 -0.090292011953311629 -0.3597231114641114 0 -0.091874738774876785 -0.34065851114568052 0 -0.071250752086046532 -0.35335887697158019 0 -0.090292011953311629 -0.3597231114641114 0 -0.091874738774876785 -0.34065851114568052 0 -0.076063335717399538 -0.33750887212749098 0 -0.071250752086046532 -0.35335887697158019 0 -0.10928029933534041 -0.25911330461652088 0 -0.093765691765433312 -0.25258281812082478 0 -0.1064059993424292 -0.23999004584722569 0 -0.10928029933534041 -0.25911330461652088 0 -0.093765691765433312 -0.25258281812082478 0 -0.091378819945462819 -0.27405960529517892 0 -0.132950552588979 -0.26278472612012599 0 -0.10928029933534041 -0.25911330461652088 0 -0.1192340303868117 -0.24478318800158869 0 -0.132950552588979 -0.26278472612012599 0 -0.10928029933534041 -0.25911330461652088 0 -0.1188334035936548 -0.28113848219864679 0 -0.10928029933534041 -0.25911330461652088 0 -0.1188334035936548 -0.28113848219864679 0 -0.091378819945462819 -0.27405960529517892 0 -0.13242221189995379 -0.30543756500551722 0 -0.1101747460075988 -0.32953608121607292 0 -0.10233633129899709 -0.29788694174330338 0 -0.1188334035936548 -0.28113848219864679 0 -0.10233633129899709 -0.29788694174330338 0 -0.091378819945462819 -0.27405960529517892 0 -0.13242221189995379 -0.30543756500551722 0 -0.1188334035936548 -0.28113848219864679 0 -0.10233633129899709 -0.29788694174330338 0 -0.085227450549862166 -0.32028838060126541 0 -0.10233633129899709 -0.29788694174330338 0 -0.072947339386401744 -0.29815403057856332 0 -0.10233633129899709 -0.29788694174330338 0 -0.072947339386401744 -0.29815403057856332 0 -0.072947339386401744 -0.29815403057856332 0 -0.068721828444096633 -0.2698787542887045 0 -0.051386271478722378 -0.27925540101153468 0 -0.10233633129899709 -0.29788694174330338 0 -0.072947339386401744 -0.29815403057856332 0 -0.091378819945462819 -0.27405960529517892 0 -0.091378819945462819 -0.27405960529517892 0 -0.068721828444096633 -0.2698787542887045 0 -0.079465288233698042 -0.25846821731041458 0 -0.072947339386401744 -0.29815403057856332 0 -0.091378819945462819 -0.27405960529517892 0 -0.068721828444096633 -0.2698787542887045 0 -0.068721828444096633 -0.2698787542887045 0 -0.065421878849430556 -0.25167039592025259 0 -0.079465288233698042 -0.25846821731041458 0 -0.093765691765433312 -0.25258281812082478 0 -0.091378819945462819 -0.27405960529517892 0 -0.079465288233698042 -0.25846821731041458 0 -0.093765691765433312 -0.25258281812082478 0 -0.079465288233698042 -0.25846821731041458 0 -0.078278243085297239 -0.23951664672932549 0 -0.036856198389287782 -0.25899730250271491 0 -0.027326811110253871 -0.25121816526868662 0 -0.040785035177160277 -0.24958968680164759 0 -0.036856198389287782 -0.25899730250271491 0 -0.03708476385319625 -0.2699613192856723 0 -0.027769846617742091 -0.26444130564156609 0 -0.036856198389287782 -0.25899730250271491 0 -0.051314535188086402 -0.25977603551600209 0 -0.03708476385319625 -0.2699613192856723 0 -0.036856198389287782 -0.25899730250271491 0 -0.051314535188086402 -0.25977603551600209 0 -0.040785035177160277 -0.24958968680164759 0 -0.051314535188086402 -0.25977603551600209 0 -0.052406799216804557 -0.24459198769464191 0 -0.040785035177160277 -0.24958968680164759 0 -0.068721828444096633 -0.2698787542887045 0 -0.065421878849430556 -0.25167039592025259 0 -0.051314535188086402 -0.25977603551600209 0 -0.065421878849430556 -0.25167039592025259 0 -0.051314535188086402 -0.25977603551600209 0 -0.052406799216804557 -0.24459198769464191 0 -0.068721828444096633 -0.2698787542887045 0 -0.051314535188086402 -0.25977603551600209 0 -0.051386271478722378 -0.27925540101153468 0 -0.051386271478722378 -0.27925540101153468 0 -0.03708476385319625 -0.2699613192856723 0 -0.030508603843899348 -0.2838920637904252 0 -0.051314535188086402 -0.25977603551600209 0 -0.051386271478722378 -0.27925540101153468 0 -0.03708476385319625 -0.2699613192856723 0 -0.051386271478722378 -0.27925540101153468 0 -0.043558347473806387 -0.2984211194138231 0 -0.030508603843899348 -0.2838920637904252 0 -0.072947339386401744 -0.29815403057856332 0 -0.051386271478722378 -0.27925540101153468 0 -0.043558347473806387 -0.2984211194138231 0 -0.072947339386401744 -0.29815403057856332 0 -0.043558347473806387 -0.2984211194138231 0 -0.072947339386401744 -0.29815403057856332 0 -0.043558347473806387 -0.2984211194138231 0 -0.051420852876661483 -0.31380047181538612 0 -0.043558347473806387 -0.2984211194138231 0 -0.051420852876661483 -0.31380047181538612 0 -0.030582351458593698 -0.31403506648659951 0 -0.014169355561211039 -0.29868820824908299 0 -0.030582351458593698 -0.31403506648659951 0 -0.0093546214437348063 -0.3154421594820554 0 -0.043558347473806387 -0.2984211194138231 0 -0.014169355561211039 -0.29868820824908299 0 -0.030582351458593698 -0.31403506648659951 0 -0.043558347473806387 -0.2984211194138231 0 -0.014169355561211039 -0.29868820824908299 0 -0.014169355561211039 -0.29868820824908299 0 -0.0093546214437348063 -0.3154421594820554 0 0.0025702240157044749 -0.30194718224499639 0 -0.014169355561211039 -0.29868820824908299 0 0.0025702240157044749 -0.30194718224499639 0 0.001953977901653102 -0.28749824366549498 0 -0.014169355561211039 -0.29868820824908299 0 -0.01355692824822796 -0.28271954505438091 0 0.001953977901653102 -0.28749824366549498 0 -0.01355692824822796 -0.28271954505438091 0 -0.002131649244152236 -0.27375645946249172 0 0.001953977901653102 -0.28749824366549498 0 -0.014169355561211039 -0.29868820824908299 0 -0.01355692824822796 -0.28271954505438091 0 -0.030508603843899348 -0.2838920637904252 0 -0.043558347473806387 -0.2984211194138231 0 -0.014169355561211039 -0.29868820824908299 0 -0.030508603843899348 -0.2838920637904252 0 -0.01355692824822796 -0.28271954505438091 0 -0.030508603843899348 -0.2838920637904252 0 -0.0232959564482321 -0.27430678972805739 0 -0.03708476385319625 -0.2699613192856723 0 -0.030508603843899348 -0.2838920637904252 0 -0.0232959564482321 -0.27430678972805739 0 -0.03708476385319625 -0.2699613192856723 0 -0.0232959564482321 -0.27430678972805739 0 -0.027769846617742091 -0.26444130564156609 0 -0.0232959564482321 -0.27430678972805739 0 -0.01453475649827142 -0.26699160201657218 0 -0.027769846617742091 -0.26444130564156609 0 -0.0232959564482321 -0.27430678972805739 0 -0.01264771782334753 -0.27382178896806042 0 -0.01453475649827142 -0.26699160201657218 0 -0.01355692824822796 -0.28271954505438091 0 -0.0232959564482321 -0.27430678972805739 0 -0.01264771782334753 -0.27382178896806042 0 -0.01355692824822796 -0.28271954505438091 0 -0.01264771782334753 -0.27382178896806042 0 -0.002131649244152236 -0.27375645946249172 0 -0.002131649244152236 -0.27375645946249172 0 -0.0028944004114581372 -0.26277522582270341 0 0.0049597396345670026 -0.26452376434945218 0 -0.002131649244152236 -0.27375645946249172 0 -0.0081433199175628083 -0.26887389345264789 0 -0.0028944004114581372 -0.26277522582270341 0 -0.01264771782334753 -0.27382178896806042 0 -0.002131649244152236 -0.27375645946249172 0 -0.0081433199175628083 -0.26887389345264789 0 -0.01264771782334753 -0.27382178896806042 0 -0.0081433199175628083 -0.26887389345264789 0 -0.01453475649827142 -0.26699160201657218 0 -0.0081433199175628083 -0.26887389345264789 0 -0.01453475649827142 -0.26699160201657218 0 -0.012379740604400009 -0.25371681360357518 0 -0.0081433199175628083 -0.26887389345264789 0 -0.012379740604400009 -0.25371681360357518 0 -0.0081433199175628083 -0.26887389345264789 0 -0.0050603712554523096 -0.25502580822232418 0 -0.012379740604400009 -0.25371681360357518 0 -0.0081433199175628083 -0.26887389345264789 0 -0.0028944004114581372 -0.26277522582270341 0 -0.0050603712554523096 -0.25502580822232418 0 -0.0028944004114581372 -0.26277522582270341 0 -0.0050603712554523096 -0.25502580822232418 0 0.0049597396345670026 -0.26452376434945218 0 -0.0050603712554523096 -0.25502580822232418 0 -0.012379740604400009 -0.25371681360357518 0 -0.01487672558591642 -0.24478309253466149 0 -0.01453475649827142 -0.26699160201657218 0 -0.027326811110253871 -0.25121816526868662 0 -0.01453475649827142 -0.26699160201657218 0 -0.027769846617742091 -0.26444130564156609 0 -0.027326811110253871 -0.25121816526868662 0 -0.01453475649827142 -0.26699160201657218 0 -0.012379740604400009 -0.25371681360357518 0 -0.027326811110253871 -0.25121816526868662 0 -0.036856198389287782 -0.25899730250271491 0 -0.027769846617742091 -0.26444130564156609 0 -0.027326811110253871 -0.25121816526868662 0 -0.039399855887372083 -0.348894598899534 0 -0.034096369460313788 -0.36339656310703322 0 -0.051971925864546728 -0.35666972650072859 0 -0.039399855887372083 -0.348894598899534 0 -0.034096369460313788 -0.36339656310703322 0 -0.026210886027733249 -0.34369915139989571 0 -0.039399855887372083 -0.348894598899534 0 -0.034096369460313788 -0.36339656310703322 0 -0.034096369460313788 -0.36339656310703322 0 -0.059008804616476777 -0.3736816009534113 0 -0.034096369460313788 -0.36339656310703322 0 -0.059008804616476777 -0.3736816009534113 0 -0.054792379857709787 -0.38521108099946061 0 -0.071250752086046532 -0.35335887697158019 0 -0.059008804616476777 -0.3736816009534113 0 -0.051971925864546728 -0.35666972650072859 0 -0.034096369460313788 -0.36339656310703322 0 -0.059008804616476777 -0.3736816009534113 0 -0.051971925864546728 -0.35666972650072859 0 -0.039399855887372083 -0.348894598899534 0 -0.056103847272524453 -0.34401699257208418 0 -0.051971925864546728 -0.35666972650072859 0 -0.071250752086046532 -0.35335887697158019 0 -0.056103847272524453 -0.34401699257208418 0 -0.051971925864546728 -0.35666972650072859 0 -0.063011241542060503 -0.32804507108198161 0 -0.056103847272524453 -0.34401699257208418 0 -0.04119870814000013 -0.33100814093665459 0 -0.063011241542060503 -0.32804507108198161 0 -0.072947339386401744 -0.29815403057856332 0 -0.051420852876661483 -0.31380047181538612 0 -0.063011241542060503 -0.32804507108198161 0 -0.051420852876661483 -0.31380047181538612 0 -0.04119870814000013 -0.33100814093665459 0 -0.04119870814000013 -0.33100814093665459 0 -0.030582351458593698 -0.31403506648659951 0 -0.022582582343139011 -0.32698802181857289 0 -0.051420852876661483 -0.31380047181538612 0 -0.04119870814000013 -0.33100814093665459 0 -0.030582351458593698 -0.31403506648659951 0 -0.039399855887372083 -0.348894598899534 0 -0.04119870814000013 -0.33100814093665459 0 -0.026210886027733249 -0.34369915139989571 0 -0.039399855887372083 -0.348894598899534 0 -0.056103847272524453 -0.34401699257208418 0 -0.04119870814000013 -0.33100814093665459 0 -0.04119870814000013 -0.33100814093665459 0 -0.026210886027733249 -0.34369915139989571 0 -0.022582582343139011 -0.32698802181857289 0 -0.026210886027733249 -0.34369915139989571 0 -0.022582582343139011 -0.32698802181857289 0 -0.008605873932596356 -0.33624452634938418 0 -0.030582351458593698 -0.31403506648659951 0 -0.022582582343139011 -0.32698802181857289 0 -0.0093546214437348063 -0.3154421594820554 0 -0.022582582343139011 -0.32698802181857289 0 -0.0093546214437348063 -0.3154421594820554 0 -0.008605873932596356 -0.33624452634938418 0 -0.0093546214437348063 -0.3154421594820554 0 -0.008605873932596356 -0.33624452634938418 0 0.0035141492887302548 -0.32519051246028208 0 -0.0019921573348008 -0.35014241775074068 0 -0.018044263397557131 -0.35676949042888739 0 -0.0042332821090469977 -0.36931681778231101 0 -0.0019921573348008 -0.35014241775074068 0 -0.018044263397557131 -0.35676949042888739 0 -0.008605873932596356 -0.33624452634938418 0 -0.0019921573348008 -0.35014241775074068 0 -0.018044263397557131 -0.35676949042888739 0 -0.026210886027733249 -0.34369915139989571 0 -0.008605873932596356 -0.33624452634938418 0 -0.018044263397557131 -0.35676949042888739 0 -0.034096369460313788 -0.36339656310703322 0 -0.026210886027733249 -0.34369915139989571 0 -0.018044263397557131 -0.35676949042888739 0 -0.034096369460313788 -0.36339656310703322 0 -0.018044263397557131 -0.35676949042888739 0 -0.034096369460313788 -0.36339656310703322 0 -0.018686911073243041 -0.37245057318461761 0 -0.025663519942779139 -0.38645552319913151 0 -0.034096369460313788 -0.36339656310703322 0 -0.025663519942779139 -0.38645552319913151 0 -0.034096369460313788 -0.36339656310703322 0 -0.018044263397557131 -0.35676949042888739 0 -0.018686911073243041 -0.37245057318461761 0 -0.018044263397557131 -0.35676949042888739 0 -0.018686911073243041 -0.37245057318461761 0 -0.0042332821090469977 -0.36931681778231101 0 -0.0042332821090469977 -0.36931681778231101 0 -0.0014384839491562609 -0.38294108750953337 0 -0.01293018069981793 -0.38699951650140929 0 -0.018686911073243041 -0.37245057318461761 0 -0.0042332821090469977 -0.36931681778231101 0 -0.01293018069981793 -0.38699951650140929 0 -0.0014384839491562609 -0.38294108750953337 0 -0.01063129593948554 -0.39508981091663592 0 0.011472045166716269 -0.38952867199447438 0 -0.0014384839491562609 -0.38294108750953337 0 -0.01293018069981793 -0.38699951650140929 0 -0.01063129593948554 -0.39508981091663592 0 -0.01063129593948554 -0.39508981091663592 0 -0.0091670491733258502 -0.407137417147723 0 0.011472045166716269 -0.38952867199447438 0 -0.01063129593948554 -0.39508981091663592 0 -0.018873559194732051 -0.4050221338792524 0 -0.0091670491733258502 -0.407137417147723 0 -0.018873559194732051 -0.4050221338792524 0 -0.02836285586948685 -0.40056267234101323 0 -0.025663519942779139 -0.38645552319913151 0 -0.018873559194732051 -0.4050221338792524 0 -0.025663519942779139 -0.38645552319913151 0 -0.01063129593948554 -0.39508981091663592 0 -0.018873559194732051 -0.4050221338792524 0 -0.025663519942779139 -0.38645552319913151 0 -0.018873559194732051 -0.4050221338792524 0 -0.02836285586948685 -0.40056267234101323 0 -0.030977517198131951 -0.41001184184548872 0 -0.018686911073243041 -0.37245057318461761 0 -0.01293018069981793 -0.38699951650140929 0 -0.025663519942779139 -0.38645552319913151 0 -0.01293018069981793 -0.38699951650140929 0 -0.01063129593948554 -0.39508981091663592 0 -0.025663519942779139 -0.38645552319913151 0 -0.01293018069981793 -0.38699951650140929 0 -0.025663519942779139 -0.38645552319913151 0 -0.025663519942779139 -0.38645552319913151 0 -0.054792379857709787 -0.38521108099946061 0 -0.034096369460313788 -0.36339656310703322 0 -0.025663519942779139 -0.38645552319913151 0 -0.054792379857709787 -0.38521108099946061 0 -0.025663519942779139 -0.38645552319913151 0 -0.040378871001035203 -0.4023619242499753 0 -0.054792379857709787 -0.38521108099946061 0 -0.02836285586948685 -0.40056267234101323 0 -0.025663519942779139 -0.38645552319913151 0 -0.040378871001035203 -0.4023619242499753 0 -0.02836285586948685 -0.40056267234101323 0 -0.040378871001035203 -0.4023619242499753 0 -0.030977517198131951 -0.41001184184548872 0 -0.054792379857709787 -0.38521108099946061 0 -0.059825167014939118 -0.40722915412089022 0 -0.072775681732521871 -0.39584784537067902 0 -0.040378871001035203 -0.4023619242499753 0 -0.054792379857709787 -0.38521108099946061 0 -0.059825167014939118 -0.40722915412089022 0 -0.042229656958243142 -0.42347410177567479 0 -0.050515785400197619 -0.44529677996352279 0 -0.072027503688391378 -0.4304363902392051 0 -0.040378871001035203 -0.4023619242499753 0 -0.059825167014939118 -0.40722915412089022 0 -0.042229656958243142 -0.42347410177567479 0 -0.059825167014939118 -0.40722915412089022 0 -0.042229656958243142 -0.42347410177567479 0 -0.072027503688391378 -0.4304363902392051 0 -0.040378871001035203 -0.4023619242499753 0 -0.042229656958243142 -0.42347410177567479 0 -0.030977517198131951 -0.41001184184548872 0 -0.042229656958243142 -0.42347410177567479 0 -0.030977517198131951 -0.41001184184548872 0 -0.025042642967162548 -0.41863837698152778 0 -0.042229656958243142 -0.42347410177567479 0 -0.02466563579619491 -0.43258924065094212 0 -0.036391946892689743 -0.43794750258320281 0 -0.042229656958243142 -0.42347410177567479 0 -0.036391946892689743 -0.43794750258320281 0 -0.050515785400197619 -0.44529677996352279 0 -0.042229656958243142 -0.42347410177567479 0 -0.02466563579619491 -0.43258924065094212 0 -0.025042642967162548 -0.41863837698152778 0 -0.02466563579619491 -0.43258924065094212 0 -0.01208359844668536 -0.42358874455937362 0 -0.01135633175650611 -0.44080857306714882 0 -0.02466563579619491 -0.43258924065094212 0 -0.025042642967162548 -0.41863837698152778 0 -0.01208359844668536 -0.42358874455937362 0 -0.018873559194732051 -0.4050221338792524 0 -0.025042642967162548 -0.41863837698152778 0 -0.01208359844668536 -0.42358874455937362 0 -0.018873559194732051 -0.4050221338792524 0 -0.030977517198131951 -0.41001184184548872 0 -0.025042642967162548 -0.41863837698152778 0 -0.0091670491733258502 -0.407137417147723 0 -0.01208359844668536 -0.42358874455937362 0 0.0037810136158822729 -0.41791708709875131 0 -0.018873559194732051 -0.4050221338792524 0 -0.01208359844668536 -0.42358874455937362 0 -0.018873559194732051 -0.4050221338792524 0 -0.0091670491733258502 -0.407137417147723 0 -0.01208359844668536 -0.42358874455937362 0 -0.0091670491733258502 -0.407137417147723 0 0.005108664055598287 -0.40528738143041459 0 0.0037810136158822729 -0.41791708709875131 0 -0.01208359844668536 -0.42358874455937362 0 -0.01135633175650611 -0.44080857306714882 0 0.00079488181500260609 -0.42987501851034571 0 -0.01208359844668536 -0.42358874455937362 0 0.0037810136158822729 -0.41791708709875131 0 0.00079488181500260609 -0.42987501851034571 0 -0.01135633175650611 -0.44080857306714882 0 -0.0057475739345891896 -0.4549207533069245 0 -0.026821380350943221 -0.45052187300253432 0 -0.01135633175650611 -0.44080857306714882 0 -0.0057475739345891896 -0.4549207533069245 0 0.0068165806591294316 -0.44348526320397952 0 -0.01135633175650611 -0.44080857306714882 0 0.00079488181500260609 -0.42987501851034571 0 0.0068165806591294316 -0.44348526320397952 0 -0.0057475739345891896 -0.4549207533069245 0 -0.01053281578453142 -0.47284051234843588 0 0.013156077559905371 -0.46694754491252372 0 -0.0057475739345891896 -0.4549207533069245 0 -0.026821380350943221 -0.45052187300253432 0 -0.01053281578453142 -0.47284051234843588 0 -0.026821380350943221 -0.45052187300253432 0 -0.01053281578453142 -0.47284051234843588 0 -0.034221709128968207 -0.47873347978434821 0 -0.02466563579619491 -0.43258924065094212 0 -0.026821380350943221 -0.45052187300253432 0 -0.036391946892689743 -0.43794750258320281 0 -0.02466563579619491 -0.43258924065094212 0 -0.01135633175650611 -0.44080857306714882 0 -0.026821380350943221 -0.45052187300253432 0 -0.01053281578453142 -0.47284051234843588 0 -0.021528721160628209 -0.5 0 0.0082051736105589468 -0.5 0 -0.01053281578453142 -0.47284051234843588 0 -0.034221709128968207 -0.47873347978434821 0 -0.01053281578453142 -0.47284051234843588 0 -0.021528721160628209 -0.5 0 -0.034221709128968207 -0.47873347978434821 0 -0.021528721160628209 -0.5 0 -0.034221709128968207 -0.47873347978434821 0 -0.051262615931815303 -0.5 0 -0.059523740010860512 -0.4805696461841214 0 -0.046928985533113317 -0.46386793679958732 0 -0.064864185923778739 -0.46315270411222448 0 -0.034221709128968207 -0.47873347978434821 0 -0.059523740010860512 -0.4805696461841214 0 -0.046928985533113317 -0.46386793679958732 0 -0.034221709128968207 -0.47873347978434821 0 -0.059523740010860512 -0.4805696461841214 0 -0.051262615931815303 -0.5 0 -0.026821380350943221 -0.45052187300253432 0 -0.036391946892689743 -0.43794750258320281 0 -0.050515785400197619 -0.44529677996352279 0 -0.026821380350943221 -0.45052187300253432 0 -0.034221709128968207 -0.47873347978434821 0 -0.046928985533113317 -0.46386793679958732 0 -0.026821380350943221 -0.45052187300253432 0 -0.046928985533113317 -0.46386793679958732 0 -0.050515785400197619 -0.44529677996352279 0 -0.046928985533113317 -0.46386793679958732 0 -0.050515785400197619 -0.44529677996352279 0 -0.064864185923778739 -0.46315270411222448 0 -0.050515785400197619 -0.44529677996352279 0 -0.067207280617084753 -0.44732106669938188 0 -0.064864185923778739 -0.46315270411222448 0 -0.050515785400197619 -0.44529677996352279 0 -0.067207280617084753 -0.44732106669938188 0 -0.072027503688391378 -0.4304363902392051 0 -0.067207280617084753 -0.44732106669938188 0 -0.082815891533118816 -0.45534181676778152 0 -0.072027503688391378 -0.4304363902392051 0 -0.067207280617084753 -0.44732106669938188 0 -0.064864185923778739 -0.46315270411222448 0 -0.082815891533118816 -0.45534181676778152 0 -0.064864185923778739 -0.46315270411222448 0 -0.082815891533118816 -0.45534181676778152 0 -0.078868432844485067 -0.47766375640856817 0 -0.082815891533118816 -0.45534181676778152 0 -0.098405376953540707 -0.43777035074814158 0 -0.072027503688391378 -0.4304363902392051 0 -0.059523740010860512 -0.4805696461841214 0 -0.078868432844485067 -0.47766375640856817 0 -0.080996510703002414 -0.50000000000000011 0 -0.059523740010860512 -0.4805696461841214 0 -0.051262615931815303 -0.5 0 -0.080996510703002414 -0.50000000000000011 0 -0.059523740010860512 -0.4805696461841214 0 -0.064864185923778739 -0.46315270411222448 0 -0.078868432844485067 -0.47766375640856817 0 -0.082815891533118816 -0.45534181676778152 0 -0.078868432844485067 -0.47766375640856817 0 -0.097649384782090676 -0.47348966161849648 0 -0.078868432844485067 -0.47766375640856817 0 -0.091101191517426794 -0.4855812854125191 0 -0.097649384782090676 -0.47348966161849648 0 -0.080996510703002414 -0.50000000000000011 0 -0.091101191517426794 -0.4855812854125191 0 -0.106890437740129 -0.49117172362301192 0 -0.078868432844485067 -0.47766375640856817 0 -0.080996510703002414 -0.50000000000000011 0 -0.091101191517426794 -0.4855812854125191 0 -0.080996510703002414 -0.50000000000000011 0 -0.106890437740129 -0.49117172362301192 0 -0.080996510703002414 -0.50000000000000011 0 -0.1052795491262605 -0.5 0 -0.106890437740129 -0.49117172362301192 0 -0.091101191517426794 -0.4855812854125191 0 -0.106890437740129 -0.49117172362301192 0 -0.097649384782090676 -0.47348966161849648 0 -0.106890437740129 -0.49117172362301192 0 -0.097649384782090676 -0.47348966161849648 0 -0.1161667412357628 -0.47599129326682099 0 -0.097649384782090676 -0.47348966161849648 0 -0.1161667412357628 -0.47599129326682099 0 -0.11918173836773351 -0.45845832247928869 0 -0.13278436477725561 -0.4823434472460234 0 -0.106890437740129 -0.49117172362301192 0 -0.1161667412357628 -0.47599129326682099 0 -0.13278436477725561 -0.4823434472460234 0 -0.12956258754951869 -0.5 0 -0.106890437740129 -0.49117172362301192 0 -0.12956258754951869 -0.5 0 -0.1052795491262605 -0.5 0 -0.106890437740129 -0.49117172362301192 0 -0.13278436477725561 -0.4823434472460234 0 -0.106890437740129 -0.49117172362301192 0 -0.098405376953540707 -0.43777035074814158 0 -0.1032934630365307 -0.45295297384024952 0 -0.1184149235461696 -0.43970471758753887 0 -0.082815891533118816 -0.45534181676778152 0 -0.098405376953540707 -0.43777035074814158 0 -0.1032934630365307 -0.45295297384024952 0 -0.082815891533118816 -0.45534181676778152 0 -0.097649384782090676 -0.47348966161849648 0 -0.1032934630365307 -0.45295297384024952 0 -0.097649384782090676 -0.47348966161849648 0 -0.11918173836773351 -0.45845832247928869 0 -0.097649384782090676 -0.47348966161849648 0 -0.1032934630365307 -0.45295297384024952 0 -0.11918173836773351 -0.45845832247928869 0 -0.1272556728232932 -0.47013049556587211 0 -0.1161667412357628 -0.47599129326682099 0 -0.11918173836773351 -0.45845832247928869 0 -0.1032934630365307 -0.45295297384024952 0 -0.11918173836773351 -0.45845832247928869 0 -0.1184149235461696 -0.43970471758753887 0 -0.13370262722300191 -0.42485153358840111 0 -0.1184149235461696 -0.43970471758753887 0 -0.116306788879599 -0.41668109890019722 0 -0.098405376953540707 -0.43777035074814158 0 -0.1184149235461696 -0.43970471758753887 0 -0.116306788879599 -0.41668109890019722 0 -0.098405376953540707 -0.43777035074814158 0 -0.097023176649951706 -0.41709708103231641 0 -0.116306788879599 -0.41668109890019722 0 -0.097023176649951706 -0.41709708103231641 0 -0.116306788879599 -0.41668109890019722 0 -0.1080069522975812 -0.4033851446609884 0 -0.097023176649951706 -0.41709708103231641 0 -0.1080069522975812 -0.4033851446609884 0 -0.093849536080233595 -0.40171885712620059 0 -0.116306788879599 -0.41668109890019722 0 -0.1246151037146196 -0.40215144471962733 0 -0.1080069522975812 -0.4033851446609884 0 -0.13370262722300191 -0.42485153358840111 0 -0.116306788879599 -0.41668109890019722 0 -0.1246151037146196 -0.40215144471962733 0 -0.12942966304821441 -0.38325015625522552 0 -0.1246151037146196 -0.40215144471962733 0 -0.11435095473318441 -0.38971939249289739 0 -0.1246151037146196 -0.40215144471962733 0 -0.11435095473318441 -0.38971939249289739 0 -0.1080069522975812 -0.4033851446609884 0 -0.12942966304821441 -0.38325015625522552 0 -0.1177797586078463 -0.37381446098417098 0 -0.11435095473318441 -0.38971939249289739 0 -0.1177797586078463 -0.37381446098417098 0 -0.11435095473318441 -0.38971939249289739 0 -0.1034929330021967 -0.38313049756236911 0 -0.1034929330021967 -0.38313049756236911 0 -0.09434009405236482 -0.38826803727453157 0 -0.083921239772640238 -0.38396663879978871 0 -0.11435095473318441 -0.38971939249289739 0 -0.1034929330021967 -0.38313049756236911 0 -0.1028080940331122 -0.39324438582339738 0 -0.1034929330021967 -0.38313049756236911 0 -0.09434009405236482 -0.38826803727453157 0 -0.1028080940331122 -0.39324438582339738 0 -0.11435095473318441 -0.38971939249289739 0 -0.1080069522975812 -0.4033851446609884 0 -0.1028080940331122 -0.39324438582339738 0 -0.09434009405236482 -0.38826803727453157 0 -0.1028080940331122 -0.39324438582339738 0 -0.093849536080233595 -0.40171885712620059 0 -0.1080069522975812 -0.4033851446609884 0 -0.1028080940331122 -0.39324438582339738 0 -0.093849536080233595 -0.40171885712620059 0 -0.093849536080233595 -0.40171885712620059 0 -0.084931705096709012 -0.39557720875243713 0 -0.079771973845784508 -0.40808466519098552 0 -0.09434009405236482 -0.38826803727453157 0 -0.093849536080233595 -0.40171885712620059 0 -0.084931705096709012 -0.39557720875243713 0 -0.084931705096709012 -0.39557720875243713 0 -0.083921239772640238 -0.38396663879978871 0 -0.072775681732521871 -0.39584784537067902 0 -0.084931705096709012 -0.39557720875243713 0 -0.072775681732521871 -0.39584784537067902 0 -0.079771973845784508 -0.40808466519098552 0 -0.1034929330021967 -0.38313049756236911 0 -0.083921239772640238 -0.38396663879978871 0 -0.092143069441117886 -0.37288061806212591 0 -0.1034929330021967 -0.38313049756236911 0 -0.083921239772640238 -0.38396663879978871 0 -0.09434009405236482 -0.38826803727453157 0 -0.083921239772640238 -0.38396663879978871 0 -0.09434009405236482 -0.38826803727453157 0 -0.084931705096709012 -0.39557720875243713 0 -0.083921239772640238 -0.38396663879978871 0 -0.076899216694667677 -0.36865863427987439 0 -0.092143069441117886 -0.37288061806212591 0 -0.083921239772640238 -0.38396663879978871 0 -0.076899216694667677 -0.36865863427987439 0 -0.059008804616476777 -0.3736816009534113 0 -0.083921239772640238 -0.38396663879978871 0 -0.059008804616476777 -0.3736816009534113 0 -0.054792379857709787 -0.38521108099946061 0 -0.083921239772640238 -0.38396663879978871 0 -0.054792379857709787 -0.38521108099946061 0 -0.083921239772640238 -0.38396663879978871 0 -0.054792379857709787 -0.38521108099946061 0 -0.083921239772640238 -0.38396663879978871 0 -0.072775681732521871 -0.39584784537067902 0 -0.059008804616476777 -0.3736816009534113 0 -0.083921239772640238 -0.38396663879978871 0 -0.059825167014939118 -0.40722915412089022 0 -0.072775681732521871 -0.39584784537067902 0 -0.079771973845784508 -0.40808466519098552 0 -0.059825167014939118 -0.40722915412089022 0 -0.072027503688391378 -0.4304363902392051 0 -0.079771973845784508 -0.40808466519098552 0 -0.098405376953540707 -0.43777035074814158 0 -0.097023176649951706 -0.41709708103231641 0 -0.072027503688391378 -0.4304363902392051 0 -0.097023176649951706 -0.41709708103231641 0 -0.072027503688391378 -0.4304363902392051 0 -0.079771973845784508 -0.40808466519098552 0 -0.097023176649951706 -0.41709708103231641 0 -0.093849536080233595 -0.40171885712620059 0 -0.079771973845784508 -0.40808466519098552 0 -0.080332479827855185 -0.089132189148723034 0 -0.087659787804267197 -0.1053579589647711 0 -0.098653139325870498 -0.078072759780639212 0 -0.080332479827855185 -0.089132189148723034 0 -0.08392236851191634 -0.073343044769479643 0 -0.098653139325870498 -0.078072759780639212 0 -0.087659787804267197 -0.1053579589647711 0 -0.098653139325870498 -0.078072759780639212 0 -0.093078549589984544 -0.062615985124124363 0 -0.08392236851191634 -0.073343044769479643 0 -0.074194079442307964 -0.055813170303027348 0 -0.093078549589984544 -0.062615985124124363 0 -0.08392236851191634 -0.073343044769479643 0 -0.098653139325870498 -0.078072759780639212 0 -0.069502852475768331 -0.077808897141633637 0 -0.074194079442307964 -0.055813170303027348 0 -0.056896828677456698 -0.064957726782933892 0 -0.08392236851191634 -0.073343044769479643 0 -0.069502852475768331 -0.077808897141633637 0 -0.074194079442307964 -0.055813170303027348 0 -0.069502852475768331 -0.077808897141633637 0 -0.074194079442307964 -0.055813170303027348 0 -0.080332479827855185 -0.089132189148723034 0 -0.08392236851191634 -0.073343044769479643 0 -0.069502852475768331 -0.077808897141633637 0 -0.080332479827855185 -0.089132189148723034 0 -0.069502852475768331 -0.077808897141633637 0 -0.064978262980951509 -0.095744309556548293 0 -0.069502852475768331 -0.077808897141633637 0 -0.064978262980951509 -0.095744309556548293 0 -0.053466751150831528 -0.085728027791416223 0 -0.064978262980951509 -0.095744309556548293 0 -0.069413139924847295 -0.1120169614824971 0 -0.055973796613101583 -0.11154457769597879 0 -0.064978262980951509 -0.095744309556548293 0 -0.075595917634480286 -0.1005628547881349 0 -0.069413139924847295 -0.1120169614824971 0 -0.075595917634480286 -0.1005628547881349 0 -0.069413139924847295 -0.1120169614824971 0 -0.087659787804267197 -0.1053579589647711 0 -0.080332479827855185 -0.089132189148723034 0 -0.064978262980951509 -0.095744309556548293 0 -0.075595917634480286 -0.1005628547881349 0 -0.069413139924847295 -0.1120169614824971 0 -0.072499038737136423 -0.12336773177227039 0 -0.087659787804267197 -0.1053579589647711 0 -0.063965210873385206 -0.121372291062271 0 -0.069413139924847295 -0.1120169614824971 0 -0.072499038737136423 -0.12336773177227039 0 -0.063965210873385206 -0.121372291062271 0 -0.069413139924847295 -0.1120169614824971 0 -0.055973796613101583 -0.11154457769597879 0 -0.093729858762440374 -0.11631984424608149 0 -0.087659787804267197 -0.1053579589647711 0 -0.076666436282660663 -0.13264315814890179 0 -0.087659787804267197 -0.1053579589647711 0 -0.076666436282660663 -0.13264315814890179 0 -0.072499038737136423 -0.12336773177227039 0 -0.087659787804267197 -0.1053579589647711 0 -0.076666436282660663 -0.13264315814890179 0 -0.093729858762440374 -0.11631984424608149 0 -0.076666436282660663 -0.13264315814890179 0 -0.096101065320712109 -0.1258911452360538 0 -0.080332479827855185 -0.089132189148723034 0 -0.075595917634480286 -0.1005628547881349 0 -0.087659787804267197 -0.1053579589647711 0 -0.087659787804267197 -0.1053579589647711 0 -0.1004265812101162 -0.1089643198262948 0 -0.1006655882856296 -0.09175432640411825 0 -0.1004265812101162 -0.1089643198262948 0 -0.11487650466180439 -0.1160490357388697 0 -0.1006655882856296 -0.09175432640411825 0 -0.11487650466180439 -0.1160490357388697 0 -0.1117238545323833 -0.101270295352793 0 -0.1006655882856296 -0.09175432640411825 0 -0.11487650466180439 -0.1160490357388697 0 -0.1006655882856296 -0.09175432640411825 0 -0.10451846741591179 -0.1170766955469076 0 -0.11649007265168369 -0.1188075605425003 0 -0.096101065320712109 -0.1258911452360538 0 -0.11649007265168369 -0.1188075605425003 0 -0.096101065320712109 -0.1258911452360538 0 -0.093729858762440374 -0.11631984424608149 0 -0.10451846741591179 -0.1170766955469076 0 -0.096101065320712109 -0.1258911452360538 0 -0.093729858762440374 -0.11631984424608149 0 -0.087659787804267197 -0.1053579589647711 0 -0.1004265812101162 -0.1089643198262948 0 -0.093729858762440374 -0.11631984424608149 0 -0.1004265812101162 -0.1089643198262948 0 -0.10451846741591179 -0.1170766955469076 0 -0.1004265812101162 -0.1089643198262948 0 -0.10451846741591179 -0.1170766955469076 0 -0.11487650466180439 -0.1160490357388697 0 -0.10451846741591179 -0.1170766955469076 0 -0.11649007265168369 -0.1188075605425003 0 -0.11487650466180439 -0.1160490357388697 0 -0.11649007265168369 -0.1188075605425003 0 -0.11487650466180439 -0.1160490357388697 0 -0.11649007265168369 -0.1188075605425003 0 -0.11487650466180439 -0.1160490357388697 0 -0.12599987765418549 -0.11550364740632391 0 -0.11487650466180439 -0.1160490357388697 0 -0.12182531397588869 -0.1044134543712442 0 -0.12599987765418549 -0.11550364740632391 0 -0.11649007265168369 -0.1188075605425003 0 -0.12599987765418549 -0.11550364740632391 0 -0.11649007265168369 -0.1188075605425003 0 -0.12599987765418549 -0.11550364740632391 0 -0.1252704192176744 -0.1172440966648565 0 -0.11487650466180439 -0.1160490357388697 0 -0.1117238545323833 -0.101270295352793 0 -0.12182531397588869 -0.1044134543712442 0 -0.11487650466180439 -0.1160490357388697 0 -0.1117238545323833 -0.101270295352793 0 -0.1117238545323833 -0.101270295352793 0 -0.12182531397588869 -0.1044134543712442 0 -0.12067370026095731 -0.092005587950159118 0 -0.1117238545323833 -0.101270295352793 0 -0.12067370026095731 -0.092005587950159118 0 -0.1096737611153919 -0.085603154438093937 0 -0.12067370026095731 -0.092005587950159118 0 -0.1179915177927765 -0.081714148456293267 0 -0.12737817104852411 -0.080741270387750683 0 -0.1179915177927765 -0.081714148456293267 0 -0.1096737611153919 -0.085603154438093937 0 -0.1121838893690176 -0.075324773267663084 0 -0.12067370026095731 -0.092005587950159118 0 -0.1179915177927765 -0.081714148456293267 0 -0.1096737611153919 -0.085603154438093937 0 -0.087659787804267197 -0.1053579589647711 0 -0.1006655882856296 -0.09175432640411825 0 -0.098653139325870498 -0.078072759780639212 0 -0.1117238545323833 -0.101270295352793 0 -0.1096737611153919 -0.085603154438093937 0 -0.1006655882856296 -0.09175432640411825 0 -0.1096737611153919 -0.085603154438093937 0 -0.098653139325870498 -0.078072759780639212 0 -0.1121838893690176 -0.075324773267663084 0 -0.1096737611153919 -0.085603154438093937 0 -0.1006655882856296 -0.09175432640411825 0 -0.098653139325870498 -0.078072759780639212 0 -0.093078549589984544 -0.062615985124124363 0 -0.098653139325870498 -0.078072759780639212 0 -0.10811729135418539 -0.065091756711675844 0 -0.098653139325870498 -0.078072759780639212 0 -0.10811729135418539 -0.065091756711675844 0 -0.1121838893690176 -0.075324773267663084 0 -0.10811729135418539 -0.065091756711675844 0 -0.1121838893690176 -0.075324773267663084 0 -0.1232756904161693 -0.070411489051666373 0 -0.1179915177927765 -0.081714148456293267 0 -0.1121838893690176 -0.075324773267663084 0 -0.1232756904161693 -0.070411489051666373 0 -0.1179915177927765 -0.081714148456293267 0 -0.1232756904161693 -0.070411489051666373 0 -0.12737817104852411 -0.080741270387750683 0 -0.10811729135418539 -0.065091756711675844 0 -0.1232756904161693 -0.070411489051666373 0 -0.12131955324210091 -0.059181462630683621 0 -0.12131955324210091 -0.059181462630683621 0 -0.1197314047957487 -0.044466417495601512 0 -0.1050545945384474 -0.053665832172193451 0 -0.10811729135418539 -0.065091756711675844 0 -0.12131955324210091 -0.059181462630683621 0 -0.1050545945384474 -0.053665832172193451 0 -0.12131955324210091 -0.059181462630683621 0 -0.1197314047957487 -0.044466417495601512 0 -0.1315211872564446 -0.050314657740016588 0 -0.1197314047957487 -0.044466417495601512 0 -0.1068389650378473 -0.041887213400145028 0 -0.1185057960264221 -0.028529017004706999 0 -0.1197314047957487 -0.044466417495601512 0 -0.1185057960264221 -0.028529017004706999 0 -0.13361245343545181 -0.030305793086055629 0 -0.1197314047957487 -0.044466417495601512 0 -0.1068389650378473 -0.041887213400145028 0 -0.1050545945384474 -0.053665832172193451 0 -0.1068389650378473 -0.041887213400145028 0 -0.093783258566811134 -0.025165556691727101 0 -0.092485611966423034 -0.037114626304880938 0 -0.1068389650378473 -0.041887213400145028 0 -0.090434917852185284 -0.047588291663230448 0 -0.092485611966423034 -0.037114626304880938 0 -0.093078549589984544 -0.062615985124124363 0 -0.1050545945384474 -0.053665832172193451 0 -0.090434917852185284 -0.047588291663230448 0 -0.1068389650378473 -0.041887213400145028 0 -0.1050545945384474 -0.053665832172193451 0 -0.090434917852185284 -0.047588291663230448 0 -0.093078549589984544 -0.062615985124124363 0 -0.10811729135418539 -0.065091756711675844 0 -0.1050545945384474 -0.053665832172193451 0 -0.1236122261121546 -0.0078425818954372464 0 -0.10868121072477301 -0.016513669919031759 0 -0.1099986790197032 0.001632030897992919 0 -0.1236122261121546 -0.0078425818954372464 0 -0.10868121072477301 -0.016513669919031759 0 -0.1068389650378473 -0.041887213400145028 0 -0.1185057960264221 -0.028529017004706999 0 -0.10868121072477301 -0.016513669919031759 0 -0.1236122261121546 -0.0078425818954372464 0 -0.1185057960264221 -0.028529017004706999 0 -0.10868121072477301 -0.016513669919031759 0 -0.1068389650378473 -0.041887213400145028 0 -0.104837062895502 -0.02019526763349536 0 -0.10868121072477301 -0.016513669919031759 0 -0.1068389650378473 -0.041887213400145028 0 -0.10868121072477301 -0.016513669919031759 0 -0.1068389650378473 -0.041887213400145028 0 -0.093783258566811134 -0.025165556691727101 0 -0.104837062895502 -0.02019526763349536 0 -0.093783258566811134 -0.025165556691727101 0 -0.10868121072477301 -0.016513669919031759 0 -0.093783258566811134 -0.025165556691727101 0 -0.10868121072477301 -0.016513669919031759 0 -0.095747033840698895 -0.01524308727968717 0 -0.093783258566811134 -0.025165556691727101 0 -0.104837062895502 -0.02019526763349536 0 -0.10868121072477301 -0.016513669919031759 0 -0.104837062895502 -0.02019526763349536 0 -0.10868121072477301 -0.016513669919031759 0 -0.10868121072477301 -0.016513669919031759 0 -0.1099986790197032 0.001632030897992919 0 -0.10868121072477301 -0.016513669919031759 0 -0.097318817554363779 -0.0057286893867275063 0 -0.1099986790197032 0.001632030897992919 0 -0.10868121072477301 -0.016513669919031759 0 -0.095747033840698895 -0.01524308727968717 0 -0.097318817554363779 -0.0057286893867275063 0 -0.097318817554363779 -0.0057286893867275063 0 -0.083204848516847923 -0.01356443312126232 0 -0.087524390624848222 0.006688577221896419 0 -0.083204848516847923 -0.01356443312126232 0 -0.087524390624848222 0.006688577221896419 0 -0.083204848516847923 -0.01356443312126232 0 -0.065966226425225663 -0.0060274066981548767 0 -0.087524390624848222 0.006688577221896419 0 -0.095747033840698895 -0.01524308727968717 0 -0.097318817554363779 -0.0057286893867275063 0 -0.083204848516847923 -0.01356443312126232 0 -0.083204848516847923 -0.01356443312126232 0 -0.07434952191593272 -0.025061702399879319 0 -0.078885306408848499 -0.033817443464421199 0 -0.093783258566811134 -0.025165556691727101 0 -0.083204848516847923 -0.01356443312126232 0 -0.078885306408848499 -0.033817443464421199 0 -0.083204848516847923 -0.01356443312126232 0 -0.078885306408848499 -0.033817443464421199 0 -0.093783258566811134 -0.025165556691727101 0 -0.095747033840698895 -0.01524308727968717 0 -0.083204848516847923 -0.01356443312126232 0 -0.093783258566811134 -0.025165556691727101 0 -0.078885306408848499 -0.033817443464421199 0 -0.07434952191593272 -0.025061702399879319 0 -0.065966226425225663 -0.0060274066981548767 0 -0.069170669720302794 -0.035546986895945307 0 -0.065966226425225663 -0.0060274066981548767 0 -0.069170669720302794 -0.035546986895945307 0 -0.060499849025326763 -0.027113091598361162 0 -0.065966226425225663 -0.0060274066981548767 0 -0.069170669720302794 -0.035546986895945307 0 -0.083204848516847923 -0.01356443312126232 0 -0.07434952191593272 -0.025061702399879319 0 -0.065966226425225663 -0.0060274066981548767 0 -0.093078549589984544 -0.062615985124124363 0 -0.090434917852185284 -0.047588291663230448 0 -0.074194079442307964 -0.055813170303027348 0 -0.090434917852185284 -0.047588291663230448 0 -0.078885306408848499 -0.033817443464421199 0 -0.074194079442307964 -0.055813170303027348 0 -0.090434917852185284 -0.047588291663230448 0 -0.092485611966423034 -0.037114626304880938 0 -0.078885306408848499 -0.033817443464421199 0 -0.093783258566811134 -0.025165556691727101 0 -0.092485611966423034 -0.037114626304880938 0 -0.078885306408848499 -0.033817443464421199 0 -0.078885306408848499 -0.033817443464421199 0 -0.074194079442307964 -0.055813170303027348 0 -0.070330568719734213 -0.04601515277555971 0 -0.074520558508438778 -0.036352241819612927 0 -0.069170669720302794 -0.035546986895945307 0 -0.078885306408848499 -0.033817443464421199 0 -0.070330568719734213 -0.04601515277555971 0 -0.074194079442307964 -0.055813170303027348 0 -0.078885306408848499 -0.033817443464421199 0 -0.070330568719734213 -0.04601515277555971 0 -0.074520558508438778 -0.036352241819612927 0 -0.07434952191593272 -0.025061702399879319 0 -0.074520558508438778 -0.036352241819612927 0 -0.069170669720302794 -0.035546986895945307 0 -0.07434952191593272 -0.025061702399879319 0 -0.078885306408848499 -0.033817443464421199 0 -0.074520558508438778 -0.036352241819612927 0 -0.078885306408848499 -0.033817443464421199 0 -0.074520558508438778 -0.036352241819612927 0 -0.069170669720302794 -0.035546986895945307 0 -0.063362765034716981 -0.039125320738808887 0 -0.060499849025326763 -0.027113091598361162 0 -0.070330568719734213 -0.04601515277555971 0 -0.069170669720302794 -0.035546986895945307 0 -0.063362765034716981 -0.039125320738808887 0 -0.070330568719734213 -0.04601515277555971 0 -0.063362765034716981 -0.039125320738808887 0 -0.059858302453952031 -0.048952151576379901 0 -0.070330568719734213 -0.04601515277555971 0 -0.074194079442307964 -0.055813170303027348 0 -0.059858302453952031 -0.048952151576379901 0 -0.074194079442307964 -0.055813170303027348 0 -0.059858302453952031 -0.048952151576379901 0 -0.056896828677456698 -0.064957726782933892 0 -0.059858302453952031 -0.048952151576379901 0 -0.044923942794737923 -0.054691691027005551 0 -0.056896828677456698 -0.064957726782933892 0 -0.059858302453952031 -0.048952151576379901 0 -0.049734296148808359 -0.042485020192698987 0 -0.044923942794737923 -0.054691691027005551 0 -0.059858302453952031 -0.048952151576379901 0 -0.056954435254269083 -0.037999220847798339 0 -0.049734296148808359 -0.042485020192698987 0 -0.063362765034716981 -0.039125320738808887 0 -0.059858302453952031 -0.048952151576379901 0 -0.056954435254269083 -0.037999220847798339 0 -0.063362765034716981 -0.039125320738808887 0 -0.056954435254269083 -0.037999220847798339 0 -0.060499849025326763 -0.027113091598361162 0 -0.056954435254269083 -0.037999220847798339 0 -0.047200384798774982 -0.033276672805742737 0 -0.049734296148808359 -0.042485020192698987 0 -0.056954435254269083 -0.037999220847798339 0 -0.047200384798774982 -0.033276672805742737 0 -0.052646608023139009 -0.028133593701314161 0 -0.049734296148808359 -0.042485020192698987 0 -0.038309454021287423 -0.037485304465473157 0 -0.044923942794737923 -0.054691691027005551 0 -0.047200384798774982 -0.033276672805742737 0 -0.038309454021287423 -0.037485304465473157 0 -0.041340635405623813 -0.023634308371219701 0 -0.047200384798774982 -0.033276672805742737 0 -0.049734296148808359 -0.042485020192698987 0 -0.038309454021287423 -0.037485304465473157 0 -0.038309454021287423 -0.037485304465473157 0 -0.03208775864781041 -0.029071100487059381 0 -0.02346135141751398 -0.035355058972579741 0 -0.038309454021287423 -0.037485304465473157 0 -0.044923942794737923 -0.054691691027005551 0 -0.02964595896144296 -0.052602220053598318 0 -0.044923942794737923 -0.054691691027005551 0 -0.02964595896144296 -0.052602220053598318 0 -0.02933827121860667 -0.069671405985324328 0 -0.065966226425225663 -0.0060274066981548767 0 -0.052851520708108592 -0.013709279578128279 0 -0.060499849025326763 -0.027113091598361162 0 -0.065966226425225663 -0.0060274066981548767 0 -0.052851520708108592 -0.013709279578128279 0 -0.041285176168578859 0.002941795093874656 0 -0.052851520708108592 -0.013709279578128279 0 -0.052646608023139009 -0.028133593701314161 0 -0.041340635405623813 -0.023634308371219701 0 -0.052851520708108592 -0.013709279578128279 0 -0.060499849025326763 -0.027113091598361162 0 -0.052646608023139009 -0.028133593701314161 0 -0.056954435254269083 -0.037999220847798339 0 -0.060499849025326763 -0.027113091598361162 0 -0.052646608023139009 -0.028133593701314161 0 -0.047200384798774982 -0.033276672805742737 0 -0.052646608023139009 -0.028133593701314161 0 -0.041340635405623813 -0.023634308371219701 0 -0.041340635405623813 -0.023634308371219701 0 -0.03208775864781041 -0.029071100487059381 0 -0.025239593746816429 -0.019809730138964948 0 -0.041340635405623813 -0.023634308371219701 0 -0.035761471768298317 -0.01187809368403442 0 -0.025239593746816429 -0.019809730138964948 0 -0.052851520708108592 -0.013709279578128279 0 -0.041340635405623813 -0.023634308371219701 0 -0.035761471768298317 -0.01187809368403442 0 -0.038309454021287423 -0.037485304465473157 0 -0.041340635405623813 -0.023634308371219701 0 -0.03208775864781041 -0.029071100487059381 0 -0.052851520708108592 -0.013709279578128279 0 -0.035761471768298317 -0.01187809368403442 0 -0.041285176168578859 0.002941795093874656 0 -0.035761471768298317 -0.01187809368403442 0 -0.018090432812363919 -0.0051789454257338127 0 -0.041285176168578859 0.002941795093874656 0 -0.035761471768298317 -0.01187809368403442 0 -0.018090432812363919 -0.0051789454257338127 0 -0.025239593746816429 -0.019809730138964948 0 -0.018090432812363919 -0.0051789454257338127 0 -0.025239593746816429 -0.019809730138964948 0 -0.013061188317162169 -0.01291647294893521 0 -0.025239593746816429 -0.019809730138964948 0 -0.011210459174411659 -0.020702551241823321 0 -0.013061188317162169 -0.01291647294893521 0 -0.03208775864781041 -0.029071100487059381 0 -0.025239593746816429 -0.019809730138964948 0 -0.02346135141751398 -0.035355058972579741 0 -0.025239593746816429 -0.019809730138964948 0 -0.011210459174411659 -0.020702551241823321 0 -0.02346135141751398 -0.035355058972579741 0 -0.011210459174411659 -0.020702551241823321 0 -0.02346135141751398 -0.035355058972579741 0 -0.003476286599935095 -0.036271506326322138 0 -0.011210459174411659 -0.020702551241823321 0 -0.003476286599935095 -0.036271506326322138 0 0.0014199230119024339 -0.021574900853890581 0 -0.011210459174411659 -0.020702551241823321 0 0.0006213327713558641 -0.0089396406014967747 0 0.0014199230119024339 -0.021574900853890581 0 -0.001488115343110989 -0.0087397640735148233 0 -0.01693898921702304 0.0117618500821222 0 0.002394805847480138 -0.0071764921779012506 0 -0.018090432812363919 -0.0051789454257338127 0 -0.001488115343110989 -0.0087397640735148233 0 -0.01693898921702304 0.0117618500821222 0 -0.018090432812363919 -0.0051789454257338127 0 -0.013061188317162169 -0.01291647294893521 0 -0.001488115343110989 -0.0087397640735148233 0 -0.011210459174411659 -0.020702551241823321 0 -0.013061188317162169 -0.01291647294893521 0 -0.001488115343110989 -0.0087397640735148233 0 -0.011210459174411659 -0.020702551241823321 0 -0.001488115343110989 -0.0087397640735148233 0 0.0006213327713558641 -0.0089396406014967747 0 -0.011210459174411659 -0.020702551241823321 0 0.0006213327713558641 -0.0089396406014967747 0 -0.001488115343110989 -0.0087397640735148233 0 0.0006213327713558641 -0.0089396406014967747 0 -0.02964595896144296 -0.052602220053598318 0 -0.01526094355706222 -0.064007872731860899 0 -0.02933827121860667 -0.069671405985324328 0 -0.02964595896144296 -0.052602220053598318 0 -0.01441383554066036 -0.048546622235137428 0 -0.01526094355706222 -0.064007872731860899 0 -0.02964595896144296 -0.052602220053598318 0 -0.02346135141751398 -0.035355058972579741 0 -0.01441383554066036 -0.048546622235137428 0 -0.038309454021287423 -0.037485304465473157 0 -0.02964595896144296 -0.052602220053598318 0 -0.02346135141751398 -0.035355058972579741 0 -0.003476286599935095 -0.036271506326322138 0 -0.00022463716734756899 -0.054496453091326037 0 -0.01441383554066036 -0.048546622235137428 0 -0.02346135141751398 -0.035355058972579741 0 -0.003476286599935095 -0.036271506326322138 0 -0.01441383554066036 -0.048546622235137428 0 -0.00022463716734756899 -0.054496453091326037 0 -0.01441383554066036 -0.048546622235137428 0 -0.01526094355706222 -0.064007872731860899 0 -0.00022463716734756899 -0.054496453091326037 0 -0.01526094355706222 -0.064007872731860899 0 0.003886405537072308 -0.074985287574065307 0 -0.01526094355706222 -0.064007872731860899 0 -0.020242120847587721 -0.083511357097035596 0 0.003886405537072308 -0.074985287574065307 0 -0.0041979068999104599 -0.092692987180200151 0 -0.020242120847587721 -0.083511357097035596 0 0.003886405537072308 -0.074985287574065307 0 -0.020242120847587721 -0.083511357097035596 0 -0.037149979327061843 -0.086545702414286968 0 -0.027814197350204149 -0.1002222595639333 0 -0.020242120847587721 -0.083511357097035596 0 -0.02933827121860667 -0.069671405985324328 0 -0.037149979327061843 -0.086545702414286968 0 -0.0041979068999104599 -0.092692987180200151 0 -0.020242120847587721 -0.083511357097035596 0 -0.027814197350204149 -0.1002222595639333 0 -0.01526094355706222 -0.064007872731860899 0 -0.020242120847587721 -0.083511357097035596 0 -0.02933827121860667 -0.069671405985324328 0 -0.044923942794737923 -0.054691691027005551 0 -0.02933827121860667 -0.069671405985324328 0 -0.043795121567553899 -0.073512069705660321 0 -0.02933827121860667 -0.069671405985324328 0 -0.043795121567553899 -0.073512069705660321 0 -0.037149979327061843 -0.086545702414286968 0 -0.043795121567553899 -0.073512069705660321 0 -0.037149979327061843 -0.086545702414286968 0 -0.053466751150831528 -0.085728027791416223 0 -0.037149979327061843 -0.086545702414286968 0 -0.053466751150831528 -0.085728027791416223 0 -0.046895924631556341 -0.099640457450003272 0 -0.064978262980951509 -0.095744309556548293 0 -0.053466751150831528 -0.085728027791416223 0 -0.046895924631556341 -0.099640457450003272 0 -0.069502852475768331 -0.077808897141633637 0 -0.053466751150831528 -0.085728027791416223 0 -0.056896828677456698 -0.064957726782933892 0 -0.043795121567553899 -0.073512069705660321 0 -0.053466751150831528 -0.085728027791416223 0 -0.056896828677456698 -0.064957726782933892 0 -0.044923942794737923 -0.054691691027005551 0 -0.043795121567553899 -0.073512069705660321 0 -0.056896828677456698 -0.064957726782933892 0 -0.055973796613101583 -0.11154457769597879 0 -0.041972484009239593 -0.11125691353498 0 -0.051469099840166933 -0.12560748285855791 0 -0.063965210873385206 -0.121372291062271 0 -0.055973796613101583 -0.11154457769597879 0 -0.051469099840166933 -0.12560748285855791 0 -0.064978262980951509 -0.095744309556548293 0 -0.055973796613101583 -0.11154457769597879 0 -0.046895924631556341 -0.099640457450003272 0 -0.055973796613101583 -0.11154457769597879 0 -0.046895924631556341 -0.099640457450003272 0 -0.041972484009239593 -0.11125691353498 0 -0.046895924631556341 -0.099640457450003272 0 -0.041972484009239593 -0.11125691353498 0 -0.027814197350204149 -0.1002222595639333 0 -0.037149979327061843 -0.086545702414286968 0 -0.046895924631556341 -0.099640457450003272 0 -0.027814197350204149 -0.1002222595639333 0 -0.027958050649480481 -0.11798595469309241 0 -0.051469099840166933 -0.12560748285855791 0 -0.041972484009239593 -0.11125691353498 0 -0.027958050649480481 -0.11798595469309241 0 -0.051469099840166933 -0.12560748285855791 0 -0.041972484009239593 -0.11125691353498 0 -0.027958050649480481 -0.11798595469309241 0 -0.027814197350204149 -0.1002222595639333 0 -0.027958050649480481 -0.11798595469309241 0 -0.051469099840166933 -0.12560748285855791 0 -0.035009396245865847 -0.13138946507283039 0 -0.027958050649480481 -0.11798595469309241 0 -0.027814197350204149 -0.1002222595639333 0 -0.004447001458793981 -0.1103644265276268 0 -0.027958050649480481 -0.11798595469309241 0 -0.004447001458793981 -0.1103644265276268 0 -0.0041979068999104599 -0.092692987180200151 0 -0.027814197350204149 -0.1002222595639333 0 -0.004447001458793981 -0.1103644265276268 0 -0.027958050649480481 -0.11798595469309241 0 -0.004447001458793981 -0.1103644265276268 0 -0.0095835093286126792 -0.13067357323387099 0 -0.0095835093286126792 -0.13067357323387099 0 -0.02380622872257708 -0.13863305153198521 0 -0.011420010772425999 -0.14358906931216731 0 -0.0095835093286126792 -0.13067357323387099 0 -0.02380622872257708 -0.13863305153198521 0 -0.035009396245865847 -0.13138946507283039 0 -0.0095835093286126792 -0.13067357323387099 0 -0.035009396245865847 -0.13138946507283039 0 -0.027958050649480481 -0.11798595469309241 0 -0.0095835093286126792 -0.13067357323387099 0 -0.035009396245865847 -0.13138946507283039 0 -0.02380622872257708 -0.13863305153198521 0 -0.02156928320199206 -0.15178510772423359 0 -0.048274716116422638 -0.14250705937413011 0 -0.02380622872257708 -0.13863305153198521 0 -0.02156928320199206 -0.15178510772423359 0 -0.011420010772425999 -0.14358906931216731 0 -0.02156928320199206 -0.15178510772423359 0 0.0051361497124387812 -0.16106315607433669 0 0.00014451492137988051 -0.1496259991592768 0 -0.0095835093286126792 -0.13067357323387099 0 -0.011420010772425999 -0.14358906931216731 0 0.00014451492137988051 -0.1496259991592768 0 -0.02156928320199206 -0.15178510772423359 0 -0.011420010772425999 -0.14358906931216731 0 0.00014451492137988051 -0.1496259991592768 0 -0.011473423231508561 -0.16625464439919799 0 -0.001198061652550745 -0.17280609881212911 0 0.0051361497124387812 -0.16106315607433669 0 -0.011473423231508561 -0.16625464439919799 0 0.0051361497124387812 -0.16106315607433669 0 -0.02156928320199206 -0.15178510772423359 0 -0.011473423231508561 -0.16625464439919799 0 0.0051361497124387812 -0.16106315607433669 0 -0.02156928320199206 -0.15178510772423359 0 0.0051361497124387812 -0.16106315607433669 0 -0.011473423231508561 -0.16625464439919799 0 -0.011684220618858611 -0.1828185141711022 0 -0.001198061652550745 -0.17280609881212911 0 -0.011684220618858611 -0.1828185141711022 0 -0.001198061652550745 -0.17280609881212911 0 0.0039750345954989988 -0.18651425943902311 0 -0.011684220618858611 -0.1828185141711022 0 -0.028082996175455729 -0.1714461327240597 0 -0.02834353692262364 -0.19660149069868879 0 -0.011473423231508561 -0.16625464439919799 0 -0.011684220618858611 -0.1828185141711022 0 -0.028082996175455729 -0.1714461327240597 0 -0.028082996175455729 -0.1714461327240597 0 -0.035076942590977253 -0.17251068978070239 0 -0.02834353692262364 -0.19660149069868879 0 -0.011473423231508561 -0.16625464439919799 0 -0.028082996175455729 -0.1714461327240597 0 -0.011473423231508561 -0.16625464439919799 0 -0.022251169661310358 -0.16246870980996381 0 -0.028082996175455729 -0.1714461327240597 0 -0.02156928320199206 -0.15178510772423359 0 -0.011473423231508561 -0.16625464439919799 0 -0.022251169661310358 -0.16246870980996381 0 -0.022251169661310358 -0.16246870980996381 0 -0.028082996175455729 -0.1714461327240597 0 -0.031809345178707003 -0.1640816166355436 0 -0.02156928320199206 -0.15178510772423359 0 -0.022251169661310358 -0.16246870980996381 0 -0.031809345178707003 -0.1640816166355436 0 -0.02156928320199206 -0.15178510772423359 0 -0.031809345178707003 -0.1640816166355436 0 -0.040578875443760723 -0.15702635465982459 0 -0.031809345178707003 -0.1640816166355436 0 -0.043296803998745907 -0.16925270511447771 0 -0.040578875443760723 -0.15702635465982459 0 -0.031809345178707003 -0.1640816166355436 0 -0.043296803998745907 -0.16925270511447771 0 -0.035076942590977253 -0.17251068978070239 0 -0.028082996175455729 -0.1714461327240597 0 -0.031809345178707003 -0.1640816166355436 0 -0.035076942590977253 -0.17251068978070239 0 -0.043296803998745907 -0.16925270511447771 0 -0.040578875443760723 -0.15702635465982459 0 -0.04778301199147586 -0.16221110159835439 0 -0.035076942590977253 -0.17251068978070239 0 -0.045101912546314182 -0.17781348514508699 0 -0.045384173352602211 -0.1896086705553881 0 -0.035076942590977253 -0.17251068978070239 0 -0.02834353692262364 -0.19660149069868879 0 -0.035076942590977253 -0.17251068978070239 0 -0.02834353692262364 -0.19660149069868879 0 -0.045384173352602211 -0.1896086705553881 0 -0.043296803998745907 -0.16925270511447771 0 -0.035076942590977253 -0.17251068978070239 0 -0.045101912546314182 -0.17781348514508699 0 -0.043296803998745907 -0.16925270511447771 0 -0.045101912546314182 -0.17781348514508699 0 -0.050116399936897628 -0.17439367801967379 0 -0.053826302631423108 -0.18719098183538219 0 -0.0513777658433901 -0.18144884671813011 0 -0.045384173352602211 -0.1896086705553881 0 -0.045101912546314182 -0.17781348514508699 0 -0.0513777658433901 -0.18144884671813011 0 -0.045384173352602211 -0.1896086705553881 0 -0.053826302631423108 -0.18719098183538219 0 -0.0513777658433901 -0.18144884671813011 0 -0.05724186851000123 -0.18306086139846869 0 -0.050116399936897628 -0.17439367801967379 0 -0.056462731779267583 -0.17707926816758701 0 -0.053733136905861317 -0.1679726515631198 0 -0.0513777658433901 -0.18144884671813011 0 -0.050116399936897628 -0.17439367801967379 0 -0.056462731779267583 -0.17707926816758701 0 -0.045101912546314182 -0.17781348514508699 0 -0.0513777658433901 -0.18144884671813011 0 -0.050116399936897628 -0.17439367801967379 0 -0.061772453938110018 -0.1722676601875073 0 -0.056462731779267583 -0.17707926816758701 0 -0.064464826801710964 -0.18158017590305259 0 -0.061772453938110018 -0.1722676601875073 0 -0.056462731779267583 -0.17707926816758701 0 -0.053733136905861317 -0.1679726515631198 0 -0.056462731779267583 -0.17707926816758701 0 -0.05724186851000123 -0.18306086139846869 0 -0.064464826801710964 -0.18158017590305259 0 -0.0513777658433901 -0.18144884671813011 0 -0.056462731779267583 -0.17707926816758701 0 -0.05724186851000123 -0.18306086139846869 0 -0.05724186851000123 -0.18306086139846869 0 -0.060077715494214402 -0.1880050343681916 0 -0.064464826801710964 -0.18158017590305259 0 -0.053826302631423108 -0.18719098183538219 0 -0.05724186851000123 -0.18306086139846869 0 -0.060077715494214402 -0.1880050343681916 0 -0.04778301199147586 -0.16221110159835439 0 -0.053733136905861317 -0.1679726515631198 0 -0.054318116428342743 -0.1550095253668563 0 -0.040578875443760723 -0.15702635465982459 0 -0.04778301199147586 -0.16221110159835439 0 -0.054318116428342743 -0.1550095253668563 0 -0.043296803998745907 -0.16925270511447771 0 -0.04778301199147586 -0.16221110159835439 0 -0.053733136905861317 -0.1679726515631198 0 -0.043296803998745907 -0.16925270511447771 0 -0.050116399936897628 -0.17439367801967379 0 -0.053733136905861317 -0.1679726515631198 0 -0.061772453938110018 -0.1722676601875073 0 -0.053733136905861317 -0.1679726515631198 0 -0.064150653413557149 -0.1630994165534029 0 -0.053733136905861317 -0.1679726515631198 0 -0.054318116428342743 -0.1550095253668563 0 -0.064150653413557149 -0.1630994165534029 0 -0.054318116428342743 -0.1550095253668563 0 -0.06193597557114254 -0.14487761168208729 0 -0.07017092070895159 -0.14876485096333639 0 -0.040578875443760723 -0.15702635465982459 0 -0.054318116428342743 -0.1550095253668563 0 -0.048274716116422638 -0.14250705937413011 0 -0.054318116428342743 -0.1550095253668563 0 -0.048274716116422638 -0.14250705937413011 0 -0.06193597557114254 -0.14487761168208729 0 -0.048274716116422638 -0.14250705937413011 0 -0.06193597557114254 -0.14487761168208729 0 -0.074980149030852788 -0.13322901102402521 0 -0.048274716116422638 -0.14250705937413011 0 -0.074980149030852788 -0.13322901102402521 0 -0.048274716116422638 -0.14250705937413011 0 -0.060435283163119087 -0.13210535691178979 0 -0.035009396245865847 -0.13138946507283039 0 -0.060435283163119087 -0.13210535691178979 0 -0.051469099840166933 -0.12560748285855791 0 -0.035009396245865847 -0.13138946507283039 0 -0.060435283163119087 -0.13210535691178979 0 -0.051469099840166933 -0.12560748285855791 0 -0.074980149030852788 -0.13322901102402521 0 -0.048274716116422638 -0.14250705937413011 0 -0.060435283163119087 -0.13210535691178979 0 -0.074980149030852788 -0.13322901102402521 0 -0.060435283163119087 -0.13210535691178979 0 -0.035009396245865847 -0.13138946507283039 0 -0.02380622872257708 -0.13863305153198521 0 -0.048274716116422638 -0.14250705937413011 0 -0.035009396245865847 -0.13138946507283039 0 -0.02156928320199206 -0.15178510772423359 0 -0.048274716116422638 -0.14250705937413011 0 -0.02156928320199206 -0.15178510772423359 0 -0.040578875443760723 -0.15702635465982459 0 -0.048274716116422638 -0.14250705937413011 0 -0.012379740604400009 -0.25371681360357518 0 -0.01487672558591642 -0.24478309253466149 0 -0.032983601381048028 -0.2367885997845538 0 -0.012379740604400009 -0.25371681360357518 0 -0.032983601381048028 -0.2367885997845538 0 -0.012379740604400009 -0.25371681360357518 0 -0.027326811110253871 -0.25121816526868662 0 -0.032983601381048028 -0.2367885997845538 0 -0.012379740604400009 -0.25371681360357518 0 -0.01487672558591642 -0.24478309253466149 0 -0.0050603712554523096 -0.25502580822232418 0 -0.01487672558591642 -0.24478309253466149 0 -0.0012779613340340411 -0.24176494305706761 0 -0.01487672558591642 -0.24478309253466149 0 -0.0012779613340340411 -0.24176494305706761 0 -0.0098443816872556354 -0.23359128343904409 0 -0.01487672558591642 -0.24478309253466149 0 -0.0098443816872556354 -0.23359128343904409 0 -0.02161013125427003 -0.22069229161667511 0 -0.0098443816872556354 -0.23359128343904409 0 -0.0016127085748020571 -0.22712480654777251 0 -0.02161013125427003 -0.22069229161667511 0 -0.0012779613340340411 -0.24176494305706761 0 -0.0098443816872556354 -0.23359128343904409 0 -0.0016127085748020571 -0.22712480654777251 0 -0.02161013125427003 -0.22069229161667511 0 -0.037749047324124332 -0.2222456785719269 0 -0.032983601381048028 -0.2367885997845538 0 -0.01487672558591642 -0.24478309253466149 0 -0.02161013125427003 -0.22069229161667511 0 -0.01487672558591642 -0.24478309253466149 0 -0.02161013125427003 -0.22069229161667511 0 -0.032983601381048028 -0.2367885997845538 0 -0.02161013125427003 -0.22069229161667511 0 -0.0048422933519348798 -0.20657909219758999 0 -0.02834353692262364 -0.19660149069868879 0 -0.02161013125427003 -0.22069229161667511 0 -0.02834353692262364 -0.19660149069868879 0 -0.04042466355054887 -0.21142906939722611 0 -0.02161013125427003 -0.22069229161667511 0 -0.02834353692262364 -0.19660149069868879 0 -0.0016127085748020571 -0.22712480654777251 0 -0.02161013125427003 -0.22069229161667511 0 -0.0048422933519348798 -0.20657909219758999 0 -0.011684220618858611 -0.1828185141711022 0 -0.0048422933519348798 -0.20657909219758999 0 -0.02834353692262364 -0.19660149069868879 0 -0.011684220618858611 -0.1828185141711022 0 -0.0048422933519348798 -0.20657909219758999 0 0.0039750345954989988 -0.18651425943902311 0 -0.02834353692262364 -0.19660149069868879 0 -0.045384173352602211 -0.1896086705553881 0 -0.048680880466514129 -0.20143667782743011 0 -0.045384173352602211 -0.1896086705553881 0 -0.054600152190027743 -0.1938329285883432 0 -0.048680880466514129 -0.20143667782743011 0 -0.053826302631423108 -0.18719098183538219 0 -0.045384173352602211 -0.1896086705553881 0 -0.054600152190027743 -0.1938329285883432 0 -0.053826302631423108 -0.18719098183538219 0 -0.054600152190027743 -0.1938329285883432 0 -0.060077715494214402 -0.1880050343681916 0 -0.054600152190027743 -0.1938329285883432 0 -0.062207823669324508 -0.19415899925277841 0 -0.060077715494214402 -0.1880050343681916 0 -0.05727161150443684 -0.20059064904333551 0 -0.063912376375580449 -0.2061057797213553 0 -0.063099371948942468 -0.19895763039768499 0 -0.062207823669324508 -0.19415899925277841 0 -0.05727161150443684 -0.20059064904333551 0 -0.063099371948942468 -0.19895763039768499 0 -0.054600152190027743 -0.1938329285883432 0 -0.062207823669324508 -0.19415899925277841 0 -0.05727161150443684 -0.20059064904333551 0 -0.054600152190027743 -0.1938329285883432 0 -0.05727161150443684 -0.20059064904333551 0 -0.048680880466514129 -0.20143667782743011 0 -0.05727161150443684 -0.20059064904333551 0 -0.048680880466514129 -0.20143667782743011 0 -0.053253465001542127 -0.20792698589572001 0 -0.052910920334218993 -0.21967129177291539 0 -0.069612749235620427 -0.2166114240769427 0 -0.064663204576268285 -0.2095762323379651 0 -0.048680880466514129 -0.20143667782743011 0 -0.053253465001542127 -0.20792698589572001 0 -0.04042466355054887 -0.21142906939722611 0 -0.05727161150443684 -0.20059064904333551 0 -0.053253465001542127 -0.20792698589572001 0 -0.063912376375580449 -0.2061057797213553 0 -0.053253465001542127 -0.20792698589572001 0 -0.052910920334218993 -0.21967129177291539 0 -0.063912376375580449 -0.2061057797213553 0 -0.052910920334218993 -0.21967129177291539 0 -0.064663204576268285 -0.2095762323379651 0 -0.052910920334218993 -0.21967129177291539 0 -0.063912376375580449 -0.2061057797213553 0 -0.064663204576268285 -0.2095762323379651 0 -0.052910920334218993 -0.21967129177291539 0 -0.063912376375580449 -0.2061057797213553 0 -0.053253465001542127 -0.20792698589572001 0 -0.04042466355054887 -0.21142906939722611 0 -0.052910920334218993 -0.21967129177291539 0 -0.02834353692262364 -0.19660149069868879 0 -0.048680880466514129 -0.20143667782743011 0 -0.04042466355054887 -0.21142906939722611 0 -0.02161013125427003 -0.22069229161667511 0 -0.04042466355054887 -0.21142906939722611 0 -0.037749047324124332 -0.2222456785719269 0 -0.04042466355054887 -0.21142906939722611 0 -0.037749047324124332 -0.2222456785719269 0 -0.052910920334218993 -0.21967129177291539 0 -0.037749047324124332 -0.2222456785719269 0 -0.052910920334218993 -0.21967129177291539 0 -0.032983601381048028 -0.2367885997845538 0 -0.052910920334218993 -0.21967129177291539 0 -0.032983601381048028 -0.2367885997845538 0 -0.052910920334218993 -0.21967129177291539 0 -0.032983601381048028 -0.2367885997845538 0 -0.040118865722236351 -0.23544472852080089 0 -0.052910920334218993 -0.21967129177291539 0 -0.040118865722236351 -0.23544472852080089 0 -0.052910920334218993 -0.21967129177291539 0 -0.054603171266369793 -0.23243375726732241 0 -0.069083472660325121 -0.22748117926656231 0 -0.052910920334218993 -0.21967129177291539 0 -0.054603171266369793 -0.23243375726732241 0 -0.040118865722236351 -0.23544472852080089 0 -0.054603171266369793 -0.23243375726732241 0 -0.062344578928600528 -0.23779073398242739 0 -0.069083472660325121 -0.22748117926656231 0 -0.054603171266369793 -0.23243375726732241 0 -0.052406799216804557 -0.24459198769464191 0 -0.040118865722236351 -0.23544472852080089 0 -0.054603171266369793 -0.23243375726732241 0 -0.062344578928600528 -0.23779073398242739 0 -0.052406799216804557 -0.24459198769464191 0 -0.065421878849430556 -0.25167039592025259 0 -0.062344578928600528 -0.23779073398242739 0 -0.052406799216804557 -0.24459198769464191 0 -0.027326811110253871 -0.25121816526868662 0 -0.040785035177160277 -0.24958968680164759 0 -0.040118865722236351 -0.23544472852080089 0 -0.027326811110253871 -0.25121816526868662 0 -0.032983601381048028 -0.2367885997845538 0 -0.040118865722236351 -0.23544472852080089 0 -0.027326811110253871 -0.25121816526868662 0 -0.040118865722236351 -0.23544472852080089 0 -0.052406799216804557 -0.24459198769464191 0 -0.040785035177160277 -0.24958968680164759 0 -0.040118865722236351 -0.23544472852080089 0 -0.078278243085297239 -0.23951664672932549 0 -0.086153706899138552 -0.22983104630755541 0 -0.09423246880553815 -0.23787512664900909 0 -0.093765691765433312 -0.25258281812082478 0 -0.078278243085297239 -0.23951664672932549 0 -0.09423246880553815 -0.23787512664900909 0 -0.062344578928600528 -0.23779073398242739 0 -0.078278243085297239 -0.23951664672932549 0 -0.069083472660325121 -0.22748117926656231 0 -0.065421878849430556 -0.25167039592025259 0 -0.062344578928600528 -0.23779073398242739 0 -0.078278243085297239 -0.23951664672932549 0 -0.065421878849430556 -0.25167039592025259 0 -0.079465288233698042 -0.25846821731041458 0 -0.078278243085297239 -0.23951664672932549 0 -0.052910920334218993 -0.21967129177291539 0 -0.069083472660325121 -0.22748117926656231 0 -0.069612749235620427 -0.2166114240769427 0 -0.078278243085297239 -0.23951664672932549 0 -0.069083472660325121 -0.22748117926656231 0 -0.086153706899138552 -0.22983104630755541 0 -0.069083472660325121 -0.22748117926656231 0 -0.082890498454507591 -0.21890744373665691 0 -0.069612749235620427 -0.2166114240769427 0 -0.082890498454507591 -0.21890744373665691 0 -0.086153706899138552 -0.22983104630755541 0 -0.098908818798469189 -0.22405916704643611 0 -0.082890498454507591 -0.21890744373665691 0 -0.092414465742116453 -0.21356058677725129 0 -0.098908818798469189 -0.22405916704643611 0 -0.069083472660325121 -0.22748117926656231 0 -0.082890498454507591 -0.21890744373665691 0 -0.086153706899138552 -0.22983104630755541 0 -0.086153706899138552 -0.22983104630755541 0 -0.098908818798469189 -0.22405916704643611 0 -0.09423246880553815 -0.23787512664900909 0 -0.082890498454507591 -0.21890744373665691 0 -0.092414465742116453 -0.21356058677725129 0 -0.085039292724931326 -0.20636870672523311 0 -0.092414465742116453 -0.21356058677725129 0 -0.085039292724931326 -0.20636870672523311 0 -0.094924882140715844 -0.2023400251814354 0 -0.085039292724931326 -0.20636870672523311 0 -0.076791362556699633 -0.2103212049296195 0 -0.076415488818317417 -0.19948117290301459 0 -0.082890498454507591 -0.21890744373665691 0 -0.085039292724931326 -0.20636870672523311 0 -0.076791362556699633 -0.2103212049296195 0 -0.082890498454507591 -0.21890744373665691 0 -0.069612749235620427 -0.2166114240769427 0 -0.076791362556699633 -0.2103212049296195 0 -0.069612749235620427 -0.2166114240769427 0 -0.07187070129672643 -0.20899750856188551 0 -0.076791362556699633 -0.2103212049296195 0 -0.069612749235620427 -0.2166114240769427 0 -0.064663204576268285 -0.2095762323379651 0 -0.07187070129672643 -0.20899750856188551 0 -0.063912376375580449 -0.2061057797213553 0 -0.064663204576268285 -0.2095762323379651 0 -0.076415488818317417 -0.19948117290301459 0 -0.064663204576268285 -0.2095762323379651 0 -0.07187070129672643 -0.20899750856188551 0 -0.076415488818317417 -0.19948117290301459 0 -0.07187070129672643 -0.20899750856188551 0 -0.076791362556699633 -0.2103212049296195 0 -0.076415488818317417 -0.19948117290301459 0 -0.064663204576268285 -0.2095762323379651 0 -0.076415488818317417 -0.19948117290301459 0 -0.063912376375580449 -0.2061057797213553 0 -0.076415488818317417 -0.19948117290301459 0 -0.074913832416942036 -0.19254026766979529 0 -0.063912376375580449 -0.2061057797213553 0 -0.074913832416942036 -0.19254026766979529 0 -0.063912376375580449 -0.2061057797213553 0 -0.067162409966087119 -0.19576756974744089 0 -0.074913832416942036 -0.19254026766979529 0 -0.063912376375580449 -0.2061057797213553 0 -0.067162409966087119 -0.19576756974744089 0 -0.063099371948942468 -0.19895763039768499 0 -0.062207823669324508 -0.19415899925277841 0 -0.067162409966087119 -0.19576756974744089 0 -0.063099371948942468 -0.19895763039768499 0 -0.062207823669324508 -0.19415899925277841 0 -0.060077715494214402 -0.1880050343681916 0 -0.067992112858964282 -0.18866012404393079 0 -0.062207823669324508 -0.19415899925277841 0 -0.067162409966087119 -0.19576756974744089 0 -0.067992112858964282 -0.18866012404393079 0 -0.067162409966087119 -0.19576756974744089 0 -0.067992112858964282 -0.18866012404393079 0 -0.074913832416942036 -0.19254026766979529 0 -0.067992112858964282 -0.18866012404393079 0 -0.074913832416942036 -0.19254026766979529 0 -0.075495957942860306 -0.18151306003065079 0 -0.076415488818317417 -0.19948117290301459 0 -0.074913832416942036 -0.19254026766979529 0 -0.086799058637230975 -0.19360180682342101 0 -0.074913832416942036 -0.19254026766979529 0 -0.086799058637230975 -0.19360180682342101 0 -0.081197999186964104 -0.18678207382066461 0 -0.085039292724931326 -0.20636870672523311 0 -0.076415488818317417 -0.19948117290301459 0 -0.086799058637230975 -0.19360180682342101 0 -0.085039292724931326 -0.20636870672523311 0 -0.086799058637230975 -0.19360180682342101 0 -0.094924882140715844 -0.2023400251814354 0 -0.086799058637230975 -0.19360180682342101 0 -0.095726771505572558 -0.1875603531079979 0 -0.094924882140715844 -0.2023400251814354 0 -0.094924882140715844 -0.2023400251814354 0 -0.111160472432858 -0.1885386204747187 0 -0.094924882140715844 -0.2023400251814354 0 -0.111160472432858 -0.1885386204747187 0 -0.1114495577303883 -0.20340811176391119 0 -0.095726771505572558 -0.1875603531079979 0 -0.094924882140715844 -0.2023400251814354 0 -0.111160472432858 -0.1885386204747187 0 -0.111160472432858 -0.1885386204747187 0 -0.1221143178041114 -0.19234248283227301 0 -0.1210277983726237 -0.20080419496638871 0 -0.1221143178041114 -0.19234248283227301 0 -0.1210277983726237 -0.20080419496638871 0 -0.1287375196768317 -0.1989974444917289 0 -0.111160472432858 -0.1885386204747187 0 -0.1210277983726237 -0.20080419496638871 0 -0.1114495577303883 -0.20340811176391119 0 -0.1210277983726237 -0.20080419496638871 0 -0.1114495577303883 -0.20340811176391119 0 -0.1178360582138414 -0.2087755546500478 0 -0.1114495577303883 -0.20340811176391119 0 -0.1178360582138414 -0.2087755546500478 0 -0.1085815399970629 -0.214445376318082 0 -0.1210277983726237 -0.20080419496638871 0 -0.1178360582138414 -0.2087755546500478 0 -0.1261734044947341 -0.20832382066201691 0 -0.1178360582138414 -0.2087755546500478 0 -0.121947990474398 -0.21689626953984009 0 -0.1261734044947341 -0.20832382066201691 0 -0.1178360582138414 -0.2087755546500478 0 -0.121947990474398 -0.21689626953984009 0 -0.1085815399970629 -0.214445376318082 0 -0.092414465742116453 -0.21356058677725129 0 -0.094924882140715844 -0.2023400251814354 0 -0.1085815399970629 -0.214445376318082 0 -0.092414465742116453 -0.21356058677725129 0 -0.1085815399970629 -0.214445376318082 0 -0.098908818798469189 -0.22405916704643611 0 -0.094924882140715844 -0.2023400251814354 0 -0.1114495577303883 -0.20340811176391119 0 -0.1085815399970629 -0.214445376318082 0 -0.098908818798469189 -0.22405916704643611 0 -0.1146679177639674 -0.22763479024990699 0 -0.1064059993424292 -0.23999004584722569 0 -0.098908818798469189 -0.22405916704643611 0 -0.1064059993424292 -0.23999004584722569 0 -0.09423246880553815 -0.23787512664900909 0 -0.1085815399970629 -0.214445376318082 0 -0.098908818798469189 -0.22405916704643611 0 -0.1146679177639674 -0.22763479024990699 0 -0.1146679177639674 -0.22763479024990699 0 -0.1192340303868117 -0.24478318800158869 0 -0.13163987617815839 -0.22779776194380719 0 -0.121947990474398 -0.21689626953984009 0 -0.1085815399970629 -0.214445376318082 0 -0.1146679177639674 -0.22763479024990699 0 -0.121947990474398 -0.21689626953984009 0 -0.1146679177639674 -0.22763479024990699 0 -0.13163987617815839 -0.22779776194380719 0 -0.10928029933534041 -0.25911330461652088 0 -0.1192340303868117 -0.24478318800158869 0 -0.1064059993424292 -0.23999004584722569 0 -0.1146679177639674 -0.22763479024990699 0 -0.1192340303868117 -0.24478318800158869 0 -0.1064059993424292 -0.23999004584722569 0 -0.093765691765433312 -0.25258281812082478 0 -0.1064059993424292 -0.23999004584722569 0 -0.09423246880553815 -0.23787512664900909 0 -0.087025139202339175 -0.14924119698846519 0 -0.093760481790990557 -0.16258763704399551 0 -0.10010201785652401 -0.1437821866573995 0 -0.087025139202339175 -0.14924119698846519 0 -0.083645274202728603 -0.1360379667205176 0 -0.10010201785652401 -0.1437821866573995 0 -0.078981128367974607 -0.14447571604620801 0 -0.087025139202339175 -0.14924119698846519 0 -0.083645274202728603 -0.1360379667205176 0 -0.078981128367974607 -0.14447571604620801 0 -0.087025139202339175 -0.14924119698846519 0 -0.078636793793478016 -0.15932247847420561 0 -0.083645274202728603 -0.1360379667205176 0 -0.10010201785652401 -0.1437821866573995 0 -0.096101065320712109 -0.1258911452360538 0 -0.076666436282660663 -0.13264315814890179 0 -0.096101065320712109 -0.1258911452360538 0 -0.083645274202728603 -0.1360379667205176 0 -0.076666436282660663 -0.13264315814890179 0 -0.096101065320712109 -0.1258911452360538 0 -0.078981128367974607 -0.14447571604620801 0 -0.083645274202728603 -0.1360379667205176 0 -0.074980149030852788 -0.13322901102402521 0 -0.083645274202728603 -0.1360379667205176 0 -0.074980149030852788 -0.13322901102402521 0 -0.076666436282660663 -0.13264315814890179 0 -0.083645274202728603 -0.1360379667205176 0 -0.074980149030852788 -0.13322901102402521 0 -0.063965210873385206 -0.121372291062271 0 -0.051469099840166933 -0.12560748285855791 0 -0.074980149030852788 -0.13322901102402521 0 -0.051469099840166933 -0.12560748285855791 0 -0.074980149030852788 -0.13322901102402521 0 -0.074980149030852788 -0.13322901102402521 0 -0.076666436282660663 -0.13264315814890179 0 -0.072499038737136423 -0.12336773177227039 0 -0.074980149030852788 -0.13322901102402521 0 -0.076666436282660663 -0.13264315814890179 0 -0.063965210873385206 -0.121372291062271 0 -0.072499038737136423 -0.12336773177227039 0 -0.074980149030852788 -0.13322901102402521 0 -0.054318116428342743 -0.1550095253668563 0 -0.07017092070895159 -0.14876485096333639 0 -0.064150653413557149 -0.1630994165534029 0 -0.06193597557114254 -0.14487761168208729 0 -0.074980149030852788 -0.13322901102402521 0 -0.07017092070895159 -0.14876485096333639 0 -0.078981128367974607 -0.14447571604620801 0 -0.074980149030852788 -0.13322901102402521 0 -0.07017092070895159 -0.14876485096333639 0 -0.074980149030852788 -0.13322901102402521 0 -0.07017092070895159 -0.14876485096333639 0 -0.078981128367974607 -0.14447571604620801 0 -0.07017092070895159 -0.14876485096333639 0 -0.078636793793478016 -0.15932247847420561 0 -0.061772453938110018 -0.1722676601875073 0 -0.064150653413557149 -0.1630994165534029 0 -0.070050920790153071 -0.171606788750374 0 -0.064150653413557149 -0.1630994165534029 0 -0.070050920790153071 -0.171606788750374 0 -0.078636793793478016 -0.15932247847420561 0 -0.070050920790153071 -0.171606788750374 0 -0.079209040401629252 -0.1719092953843511 0 -0.078636793793478016 -0.15932247847420561 0 -0.07017092070895159 -0.14876485096333639 0 -0.064150653413557149 -0.1630994165534029 0 -0.078636793793478016 -0.15932247847420561 0 -0.060077715494214402 -0.1880050343681916 0 -0.067992112858964282 -0.18866012404393079 0 -0.064464826801710964 -0.18158017590305259 0 -0.067992112858964282 -0.18866012404393079 0 -0.064464826801710964 -0.18158017590305259 0 -0.075495957942860306 -0.18151306003065079 0 -0.061772453938110018 -0.1722676601875073 0 -0.070050920790153071 -0.171606788750374 0 -0.064464826801710964 -0.18158017590305259 0 -0.070050920790153071 -0.171606788750374 0 -0.064464826801710964 -0.18158017590305259 0 -0.075495957942860306 -0.18151306003065079 0 -0.070050920790153071 -0.171606788750374 0 -0.075495957942860306 -0.18151306003065079 0 -0.079209040401629252 -0.1719092953843511 0 -0.074913832416942036 -0.19254026766979529 0 -0.075495957942860306 -0.18151306003065079 0 -0.081197999186964104 -0.18678207382066461 0 -0.08758314775082314 -0.17947316075879149 0 -0.093760481790990557 -0.16258763704399551 0 -0.099296370832405903 -0.1778108956523228 0 -0.075495957942860306 -0.18151306003065079 0 -0.081197999186964104 -0.18678207382066461 0 -0.08758314775082314 -0.17947316075879149 0 -0.086799058637230975 -0.19360180682342101 0 -0.081197999186964104 -0.18678207382066461 0 -0.08758314775082314 -0.17947316075879149 0 -0.075495957942860306 -0.18151306003065079 0 -0.079209040401629252 -0.1719092953843511 0 -0.08758314775082314 -0.17947316075879149 0 -0.086799058637230975 -0.19360180682342101 0 -0.095726771505572558 -0.1875603531079979 0 -0.08758314775082314 -0.17947316075879149 0 -0.079209040401629252 -0.1719092953843511 0 -0.08758314775082314 -0.17947316075879149 0 -0.093760481790990557 -0.16258763704399551 0 -0.079209040401629252 -0.1719092953843511 0 -0.078636793793478016 -0.15932247847420561 0 -0.093760481790990557 -0.16258763704399551 0 -0.087025139202339175 -0.14924119698846519 0 -0.078636793793478016 -0.15932247847420561 0 -0.093760481790990557 -0.16258763704399551 0 -0.093760481790990557 -0.16258763704399551 0 -0.10825098068178519 -0.1708947068761103 0 -0.099296370832405903 -0.1778108956523228 0 -0.093760481790990557 -0.16258763704399551 0 -0.10825098068178519 -0.1708947068761103 0 -0.1079275826681496 -0.15587426481125419 0 -0.111160472432858 -0.1885386204747187 0 -0.10825098068178519 -0.1708947068761103 0 -0.099296370832405903 -0.1778108956523228 0 -0.095726771505572558 -0.1875603531079979 0 -0.08758314775082314 -0.17947316075879149 0 -0.099296370832405903 -0.1778108956523228 0 -0.095726771505572558 -0.1875603531079979 0 -0.111160472432858 -0.1885386204747187 0 -0.099296370832405903 -0.1778108956523228 0 -0.111160472432858 -0.1885386204747187 0 -0.12739606272500029 -0.17473721576800191 0 -0.111160472432858 -0.1885386204747187 0 -0.1221143178041114 -0.19234248283227301 0 -0.12739606272500029 -0.17473721576800191 0 -0.111160472432858 -0.1885386204747187 0 -0.10825098068178519 -0.1708947068761103 0 -0.12739606272500029 -0.17473721576800191 0 -0.1214658785418825 -0.14693817404560541 0 -0.12739606272500029 -0.17473721576800191 0 -0.1214658785418825 -0.14693817404560541 0 -0.1079275826681496 -0.15587426481125419 0 -0.12739606272500029 -0.17473721576800191 0 -0.10825098068178519 -0.1708947068761103 0 -0.1079275826681496 -0.15587426481125419 0 -0.12739606272500029 -0.17473721576800191 0 -0.1214658785418825 -0.14693817404560541 0 -0.10010201785652401 -0.1437821866573995 0 -0.10830116401947081 -0.1339376595655668 0 -0.1214658785418825 -0.14693817404560541 0 -0.10010201785652401 -0.1437821866573995 0 -0.1079275826681496 -0.15587426481125419 0 -0.093760481790990557 -0.16258763704399551 0 -0.10010201785652401 -0.1437821866573995 0 -0.1079275826681496 -0.15587426481125419 0 -0.10010201785652401 -0.1437821866573995 0 -0.10830116401947081 -0.1339376595655668 0 -0.096101065320712109 -0.1258911452360538 0 -0.11649007265168369 -0.1188075605425003 0 -0.10830116401947081 -0.1339376595655668 0 -0.096101065320712109 -0.1258911452360538 0 -0.11649007265168369 -0.1188075605425003 0 -0.12922628187284879 -0.14058113888636839 0 -0.1252704192176744 -0.1172440966648565 0 -0.11649007265168369 -0.1188075605425003 0 -0.12922628187284879 -0.14058113888636839 0 -0.11649007265168369 -0.1188075605425003 0 -0.1214658785418825 -0.14693817404560541 0 -0.11649007265168369 -0.1188075605425003 0 -0.1214658785418825 -0.14693817404560541 0 -0.10830116401947081 -0.1339376595655668 0 -0.11649007265168369 -0.1188075605425003 0 -0.1214658785418825 -0.14693817404560541 0 -0.12922628187284879 -0.14058113888636839 0 -0.12922628187284879 -0.14058113888636839 0 -0.1355018371655794 -0.1265678790332187 0 -0.1252704192176744 -0.1172440966648565 0 -0.12922628187284879 -0.14058113888636839 0 -0.1355018371655794 -0.1265678790332187 0 -0.14553009116939669 -0.13537661130197329 0 -0.1355018371655794 -0.1265678790332187 0 -0.14553009116939669 -0.13537661130197329 0 -0.14420813470266419 -0.11805716313719079 0 -0.14553009116939669 -0.13537661130197329 0 -0.15056350488257919 -0.15504324471534639 0 -0.1628079644011253 -0.13038477387159439 0 -0.14553009116939669 -0.13537661130197329 0 -0.1628079644011253 -0.13038477387159439 0 -0.14420813470266419 -0.11805716313719079 0 -0.12922628187284879 -0.14058113888636839 0 -0.14553009116939669 -0.13537661130197329 0 -0.15056350488257919 -0.15504324471534639 0 -0.12922628187284879 -0.14058113888636839 0 -0.15056350488257919 -0.15504324471534639 0 -0.14196249109401421 -0.16235471723023651 0 -0.1214658785418825 -0.14693817404560541 0 -0.12922628187284879 -0.14058113888636839 0 -0.14196249109401421 -0.16235471723023651 0 -0.12922628187284879 -0.14058113888636839 0 -0.14196249109401421 -0.16235471723023651 0 -0.1214658785418825 -0.14693817404560541 0 -0.12739606272500029 -0.17473721576800191 0 -0.14196249109401421 -0.16235471723023651 0 -0.12739606272500029 -0.17473721576800191 0 -0.14196249109401421 -0.16235471723023651 0 -0.14465078136409831 -0.16695056657522339 0 -0.12739606272500029 -0.17473721576800191 0 -0.14196249109401421 -0.16235471723023651 0 -0.14465078136409831 -0.16695056657522339 0 -0.1314192587983791 -0.19359683159909061 0 -0.12739606272500029 -0.17473721576800191 0 -0.14465078136409831 -0.16695056657522339 0 -0.1314192587983791 -0.19359683159909061 0 -0.12739606272500029 -0.17473721576800191 0 -0.1314192587983791 -0.19359683159909061 0 -0.1221143178041114 -0.19234248283227301 0 -0.12739606272500029 -0.17473721576800191 0 -0.1314192587983791 -0.19359683159909061 0 -0.1506253399441001 -0.18191391990730801 0 -0.14704446987800041 -0.17104277042357799 0 -0.1314192587983791 -0.19359683159909061 0 -0.14704446987800041 -0.17104277042357799 0 -0.14465078136409831 -0.16695056657522339 0 -0.1314192587983791 -0.19359683159909061 0 -0.1506253399441001 -0.18191391990730801 0 -0.14704446987800041 -0.17104277042357799 0 -0.15648019532635571 -0.17138255085024329 0 -0.1506253399441001 -0.18191391990730801 0 -0.16533888001856381 -0.18602690419207779 0 -0.1512090652639769 -0.1911736867042346 0 -0.15056350488257919 -0.15504324471534639 0 -0.14196249109401421 -0.16235471723023651 0 -0.15056350488257919 -0.15504324471534639 0 -0.14196249109401421 -0.16235471723023651 0 -0.14465078136409831 -0.16695056657522339 0 -0.15056350488257919 -0.15504324471534639 0 -0.14465078136409831 -0.16695056657522339 0 -0.14196249109401421 -0.16235471723023651 0 -0.14465078136409831 -0.16695056657522339 0 -0.14704446987800041 -0.17104277042357799 0 -0.14465078136409831 -0.16695056657522339 0 -0.14704446987800041 -0.17104277042357799 0 -0.14465078136409831 -0.16695056657522339 0 -0.15229814259742869 -0.1644326064251338 0 -0.14704446987800041 -0.17104277042357799 0 -0.15229814259742869 -0.1644326064251338 0 -0.15648019532635571 -0.17138255085024329 0 -0.15056350488257919 -0.15504324471534639 0 -0.14465078136409831 -0.16695056657522339 0 -0.15229814259742869 -0.1644326064251338 0 -0.15056350488257919 -0.15504324471534639 0 -0.15229814259742869 -0.1644326064251338 0 -0.16275176153611051 -0.15774389956127821 0 -0.16275176153611051 -0.15774389956127821 0 -0.15648019532635571 -0.17138255085024329 0 -0.17757024440875549 -0.16111115580157981 0 -0.15229814259742869 -0.1644326064251338 0 -0.16275176153611051 -0.15774389956127821 0 -0.15648019532635571 -0.17138255085024329 0 -0.15648019532635571 -0.17138255085024329 0 -0.18421608521209271 -0.17558962027652111 0 -0.15648019532635571 -0.17138255085024329 0 -0.16533888001856381 -0.18602690419207779 0 -0.18421608521209271 -0.17558962027652111 0 -0.1506253399441001 -0.18191391990730801 0 -0.15648019532635571 -0.17138255085024329 0 -0.16533888001856381 -0.18602690419207779 0 -0.16533888001856381 -0.18602690419207779 0 -0.18421608521209271 -0.17558962027652111 0 -0.1786295148813212 -0.19556646452315241 0 -0.15648019532635571 -0.17138255085024329 0 -0.18421608521209271 -0.17558962027652111 0 -0.17757024440875549 -0.16111115580157981 0 -0.18421608521209271 -0.17558962027652111 0 -0.17757024440875549 -0.16111115580157981 0 -0.1979143625406167 -0.1642252661741595 0 -0.17521357040146851 -0.14833135074901779 0 -0.18000311622314791 -0.13001748444371289 0 -0.188845491435889 -0.14939424719825839 0 -0.17757024440875549 -0.16111115580157981 0 -0.17521357040146851 -0.14833135074901779 0 -0.188845491435889 -0.14939424719825839 0 -0.18000311622314791 -0.13001748444371289 0 -0.1628079644011253 -0.13038477387159439 0 -0.18027610093587751 -0.1196181089702751 0 -0.17521357040146851 -0.14833135074901779 0 -0.18000311622314791 -0.13001748444371289 0 -0.16528331055286391 -0.14253036457953011 0 -0.18000311622314791 -0.13001748444371289 0 -0.16528331055286391 -0.14253036457953011 0 -0.18000311622314791 -0.13001748444371289 0 -0.1628079644011253 -0.13038477387159439 0 -0.16528331055286391 -0.14253036457953011 0 -0.15056350488257919 -0.15504324471534639 0 -0.1628079644011253 -0.13038477387159439 0 -0.15056350488257919 -0.15504324471534639 0 -0.1628079644011253 -0.13038477387159439 0 -0.16528331055286391 -0.14253036457953011 0 -0.15056350488257919 -0.15504324471534639 0 -0.16275176153611051 -0.15774389956127821 0 -0.16528331055286391 -0.14253036457953011 0 -0.15056350488257919 -0.15504324471534639 0 -0.16528331055286391 -0.14253036457953011 0 -0.16275176153611051 -0.15774389956127821 0 -0.17521357040146851 -0.14833135074901779 0 -0.16528331055286391 -0.14253036457953011 0 -0.16275176153611051 -0.15774389956127821 0 -0.17757024440875549 -0.16111115580157981 0 -0.17521357040146851 -0.14833135074901779 0 -0.15229660666407671 -0.25401824511238591 0 -0.14920126421366381 -0.23878179657915319 0 -0.13450504990001219 -0.2438564190910647 0 -0.1192340303868117 -0.24478318800158869 0 -0.13450504990001219 -0.2438564190910647 0 -0.13163987617815839 -0.22779776194380719 0 -0.14920126421366381 -0.23878179657915319 0 -0.13450504990001219 -0.2438564190910647 0 -0.13163987617815839 -0.22779776194380719 0 -0.121947990474398 -0.21689626953984009 0 -0.13163987617815839 -0.22779776194380719 0 -0.12955498125585521 -0.21362166548107719 0 -0.13163987617815839 -0.22779776194380719 0 -0.14668655776667011 -0.2223990925877565 0 -0.13817373448855541 -0.2139466733801943 0 -0.14920126421366381 -0.23878179657915319 0 -0.13163987617815839 -0.22779776194380719 0 -0.14668655776667011 -0.2223990925877565 0 -0.14920126421366381 -0.23878179657915319 0 -0.14668655776667011 -0.2223990925877565 0 -0.1666111544691056 -0.22171119925505031 0 -0.14668655776667011 -0.2223990925877565 0 -0.14920765704353961 -0.2069242839694774 0 -0.1666111544691056 -0.22171119925505031 0 -0.14920765704353961 -0.2069242839694774 0 -0.13817373448855541 -0.2139466733801943 0 -0.13929463799343569 -0.2052160077695602 0 -0.14920765704353961 -0.2069242839694774 0 -0.13929463799343569 -0.2052160077695602 0 -0.1420465959208794 -0.1984943042809322 0 -0.14668655776667011 -0.2223990925877565 0 -0.14920765704353961 -0.2069242839694774 0 -0.13817373448855541 -0.2139466733801943 0 -0.13163987617815839 -0.22779776194380719 0 -0.13817373448855541 -0.2139466733801943 0 -0.12955498125585521 -0.21362166548107719 0 -0.13817373448855541 -0.2139466733801943 0 -0.12955498125585521 -0.21362166548107719 0 -0.1326745573724277 -0.20747677911892251 0 -0.121947990474398 -0.21689626953984009 0 -0.12955498125585521 -0.21362166548107719 0 -0.1261734044947341 -0.20832382066201691 0 -0.1210277983726237 -0.20080419496638871 0 -0.12833971984693959 -0.20340181913978941 0 -0.1261734044947341 -0.20832382066201691 0 -0.12955498125585521 -0.21362166548107719 0 -0.1261734044947341 -0.20832382066201691 0 -0.1326745573724277 -0.20747677911892251 0 -0.12833971984693959 -0.20340181913978941 0 -0.1261734044947341 -0.20832382066201691 0 -0.1326745573724277 -0.20747677911892251 0 -0.12833971984693959 -0.20340181913978941 0 -0.1326745573724277 -0.20747677911892251 0 -0.13308531931808101 -0.2014068564598902 0 -0.13817373448855541 -0.2139466733801943 0 -0.1326745573724277 -0.20747677911892251 0 -0.13929463799343569 -0.2052160077695602 0 -0.1326745573724277 -0.20747677911892251 0 -0.13929463799343569 -0.2052160077695602 0 -0.13308531931808101 -0.2014068564598902 0 -0.13929463799343569 -0.2052160077695602 0 -0.13308531931808101 -0.2014068564598902 0 -0.1420465959208794 -0.1984943042809322 0 -0.13308531931808101 -0.2014068564598902 0 -0.1314192587983791 -0.19359683159909061 0 -0.1420465959208794 -0.1984943042809322 0 -0.12833971984693959 -0.20340181913978941 0 -0.13308531931808101 -0.2014068564598902 0 -0.1287375196768317 -0.1989974444917289 0 -0.13308531931808101 -0.2014068564598902 0 -0.1287375196768317 -0.1989974444917289 0 -0.1314192587983791 -0.19359683159909061 0 -0.13308531931808101 -0.2014068564598902 0 -0.1314192587983791 -0.19359683159909061 0 -0.1287375196768317 -0.1989974444917289 0 -0.1314192587983791 -0.19359683159909061 0 -0.1210277983726237 -0.20080419496638871 0 -0.12833971984693959 -0.20340181913978941 0 -0.1287375196768317 -0.1989974444917289 0 -0.1221143178041114 -0.19234248283227301 0 -0.1287375196768317 -0.1989974444917289 0 -0.1314192587983791 -0.19359683159909061 0 -0.1314192587983791 -0.19359683159909061 0 -0.1420465959208794 -0.1984943042809322 0 -0.1512090652639769 -0.1911736867042346 0 -0.14920765704353961 -0.2069242839694774 0 -0.1512090652639769 -0.1911736867042346 0 -0.16613147043060339 -0.2018841564818957 0 -0.14920765704353961 -0.2069242839694774 0 -0.1420465959208794 -0.1984943042809322 0 -0.1512090652639769 -0.1911736867042346 0 -0.1506253399441001 -0.18191391990730801 0 -0.1314192587983791 -0.19359683159909061 0 -0.1512090652639769 -0.1911736867042346 0 -0.16533888001856381 -0.18602690419207779 0 -0.1512090652639769 -0.1911736867042346 0 -0.16613147043060339 -0.2018841564818957 0 -0.16533888001856381 -0.18602690419207779 0 -0.16613147043060339 -0.2018841564818957 0 -0.1786295148813212 -0.19556646452315241 0 -0.1786295148813212 -0.19556646452315241 0 -0.17958500981378461 -0.2107334264309661 0 -0.1981990761364697 -0.20254736480388241 0 -0.18421608521209271 -0.17558962027652111 0 -0.1786295148813212 -0.19556646452315241 0 -0.1981990761364697 -0.20254736480388241 0 -0.16613147043060339 -0.2018841564818957 0 -0.1786295148813212 -0.19556646452315241 0 -0.17958500981378461 -0.2107334264309661 0 -0.17958500981378461 -0.2107334264309661 0 -0.1666111544691056 -0.22171119925505031 0 -0.19116993277822331 -0.22279453133759641 0 -0.16613147043060339 -0.2018841564818957 0 -0.17958500981378461 -0.2107334264309661 0 -0.1666111544691056 -0.22171119925505031 0 -0.14920765704353961 -0.2069242839694774 0 -0.16613147043060339 -0.2018841564818957 0 -0.1666111544691056 -0.22171119925505031 0 -0.16774304296138501 -0.24055682594909811 0 -0.1994177047143332 -0.2432145052078287 0 -0.19116993277822331 -0.22279453133759641 0 -0.18473400419263841 -0.26184427346616201 0 -0.16774304296138501 -0.24055682594909811 0 -0.1994177047143332 -0.2432145052078287 0 -0.14920126421366381 -0.23878179657915319 0 -0.1666111544691056 -0.22171119925505031 0 -0.16774304296138501 -0.24055682594909811 0 -0.1666111544691056 -0.22171119925505031 0 -0.16774304296138501 -0.24055682594909811 0 -0.19116993277822331 -0.22279453133759641 0 -0.15229660666407671 -0.25401824511238591 0 -0.14920126421366381 -0.23878179657915319 0 -0.16774304296138501 -0.24055682594909811 0 -0.1994177047143332 -0.2432145052078287 0 -0.21214113701728249 -0.228940323783688 0 -0.22937054978906041 -0.24331512362502869 0 -0.2113475615474098 -0.26183595308539898 0 -0.1994177047143332 -0.2432145052078287 0 -0.22937054978906041 -0.24331512362502869 0 -0.1994177047143332 -0.2432145052078287 0 -0.19116993277822331 -0.22279453133759641 0 -0.21214113701728249 -0.228940323783688 0 -0.19116993277822331 -0.22279453133759641 0 -0.21214113701728249 -0.228940323783688 0 -0.21151629669390881 -0.21291663877559669 0 -0.21214113701728249 -0.228940323783688 0 -0.21151629669390881 -0.21291663877559669 0 -0.2275824975951227 -0.2207461827585098 0 -0.21151629669390881 -0.21291663877559669 0 -0.1981990761364697 -0.20254736480388241 0 -0.21430725265311781 -0.19815896184605211 0 -0.21151629669390881 -0.21291663877559669 0 -0.21430725265311781 -0.19815896184605211 0 -0.22569788398323701 -0.20431246812385209 0 -0.19116993277822331 -0.22279453133759641 0 -0.21151629669390881 -0.21291663877559669 0 -0.1981990761364697 -0.20254736480388241 0 -0.17958500981378461 -0.2107334264309661 0 -0.19116993277822331 -0.22279453133759641 0 -0.1981990761364697 -0.20254736480388241 0 -0.21430725265311781 -0.19815896184605211 0 -0.2251169230399053 -0.19244957551320049 0 -0.21195197509782959 -0.17979668970279891 0 -0.1981990761364697 -0.20254736480388241 0 -0.21430725265311781 -0.19815896184605211 0 -0.21195197509782959 -0.17979668970279891 0 -0.21430725265311781 -0.19815896184605211 0 -0.2251169230399053 -0.19244957551320049 0 -0.22569788398323701 -0.20431246812385209 0 -0.2251169230399053 -0.19244957551320049 0 -0.23600322778131949 -0.19814692121484651 0 -0.22569788398323701 -0.20431246812385209 0 -0.2251169230399053 -0.19244957551320049 0 -0.23600322778131949 -0.19814692121484651 0 -0.23968786498356659 -0.18400375912907671 0 -0.23600322778131949 -0.19814692121484651 0 -0.23968786498356659 -0.18400375912907671 0 -0.25047429362874257 -0.200219847641955 0 -0.23600322778131949 -0.19814692121484651 0 -0.23949462900920199 -0.21027573078813011 0 -0.25047429362874257 -0.200219847641955 0 -0.23949462900920199 -0.21027573078813011 0 -0.25247744799357308 -0.21261594090752481 0 -0.25047429362874257 -0.200219847641955 0 -0.23949462900920199 -0.21027573078813011 0 -0.24510877540263959 -0.22548599802342939 0 -0.25247744799357308 -0.21261594090752481 0 -0.23949462900920199 -0.21027573078813011 0 -0.22569788398323701 -0.20431246812385209 0 -0.2275824975951227 -0.2207461827585098 0 -0.21151629669390881 -0.21291663877559669 0 -0.22569788398323701 -0.20431246812385209 0 -0.2275824975951227 -0.2207461827585098 0 -0.23600322778131949 -0.19814692121484651 0 -0.23949462900920199 -0.21027573078813011 0 -0.22569788398323701 -0.20431246812385209 0 -0.21214113701728249 -0.228940323783688 0 -0.2275824975951227 -0.2207461827585098 0 -0.22937054978906041 -0.24331512362502869 0 -0.2275824975951227 -0.2207461827585098 0 -0.24510877540263959 -0.22548599802342939 0 -0.22937054978906041 -0.24331512362502869 0 -0.23949462900920199 -0.21027573078813011 0 -0.2275824975951227 -0.2207461827585098 0 -0.24510877540263959 -0.22548599802342939 0 -0.24510877540263959 -0.22548599802342939 0 -0.22937054978906041 -0.24331512362502869 0 -0.2582168116042447 -0.2439014490639565 0 -0.2483490975252734 -0.26098873334868322 0 -0.22937054978906041 -0.24331512362502869 0 -0.2582168116042447 -0.2439014490639565 0 -0.2067502249108786 -0.1536135545564879 0 -0.21547877813771771 -0.14332314171572449 0 -0.20152593766547949 -0.13633519349348669 0 -0.2067502249108786 -0.1536135545564879 0 -0.21547877813771771 -0.14332314171572449 0 -0.22184111984059729 -0.15282479907953789 0 -0.21547877813771771 -0.14332314171572449 0 -0.21860961385214961 -0.13100792014620721 0 -0.20152593766547949 -0.13633519349348669 0 -0.21860961385214961 -0.13100792014620721 0 -0.20152593766547949 -0.13633519349348669 0 -0.2099810947540583 -0.12129541974841899 0 -0.18000311622314791 -0.13001748444371289 0 -0.20152593766547949 -0.13633519349348669 0 -0.19534617212360411 -0.121013351703841 0 -0.18000311622314791 -0.13001748444371289 0 -0.20152593766547949 -0.13633519349348669 0 -0.188845491435889 -0.14939424719825839 0 -0.20152593766547949 -0.13633519349348669 0 -0.2099810947540583 -0.12129541974841899 0 -0.19534617212360411 -0.121013351703841 0 -0.2067502249108786 -0.1536135545564879 0 -0.188845491435889 -0.14939424719825839 0 -0.1979143625406167 -0.1642252661741595 0 -0.2067502249108786 -0.1536135545564879 0 -0.20152593766547949 -0.13633519349348669 0 -0.188845491435889 -0.14939424719825839 0 -0.17757024440875549 -0.16111115580157981 0 -0.188845491435889 -0.14939424719825839 0 -0.1979143625406167 -0.1642252661741595 0 -0.18421608521209271 -0.17558962027652111 0 -0.1981990761364697 -0.20254736480388241 0 -0.21195197509782959 -0.17979668970279891 0 -0.18421608521209271 -0.17558962027652111 0 -0.21195197509782959 -0.17979668970279891 0 -0.18421608521209271 -0.17558962027652111 0 -0.1979143625406167 -0.1642252661741595 0 -0.21195197509782959 -0.17979668970279891 0 -0.1979143625406167 -0.1642252661741595 0 -0.21195197509782959 -0.17979668970279891 0 -0.2165382263276793 -0.1649867273485818 0 -0.2067502249108786 -0.1536135545564879 0 -0.1979143625406167 -0.1642252661741595 0 -0.2165382263276793 -0.1649867273485818 0 -0.2067502249108786 -0.1536135545564879 0 -0.2165382263276793 -0.1649867273485818 0 -0.22184111984059729 -0.15282479907953789 0 -0.2165382263276793 -0.1649867273485818 0 -0.2313091397970973 -0.16435086132264101 0 -0.233842168872713 -0.17694121357944129 0 -0.2165382263276793 -0.1649867273485818 0 -0.2313091397970973 -0.16435086132264101 0 -0.22184111984059729 -0.15282479907953789 0 -0.21195197509782959 -0.17979668970279891 0 -0.233842168872713 -0.17694121357944129 0 -0.23968786498356659 -0.18400375912907671 0 -0.2251169230399053 -0.19244957551320049 0 -0.21195197509782959 -0.17979668970279891 0 -0.23968786498356659 -0.18400375912907671 0 -0.21195197509782959 -0.17979668970279891 0 -0.2165382263276793 -0.1649867273485818 0 -0.233842168872713 -0.17694121357944129 0 -0.21195197509782959 -0.17979668970279891 0 -0.23968786498356659 -0.18400375912907671 0 -0.233842168872713 -0.17694121357944129 0 -0.25982868842644607 -0.17021686968691641 0 -0.233842168872713 -0.17694121357944129 0 -0.23968786498356659 -0.18400375912907671 0 -0.25982868842644607 -0.17021686968691641 0 -0.2313091397970973 -0.16435086132264101 0 -0.24566481473353391 -0.1652464025747532 0 -0.25343568279415951 -0.15224923159364789 0 -0.233842168872713 -0.17694121357944129 0 -0.24566481473353391 -0.1652464025747532 0 -0.25982868842644607 -0.17021686968691641 0 -0.2313091397970973 -0.16435086132264101 0 -0.25343568279415951 -0.15224923159364789 0 -0.2313091397970973 -0.16435086132264101 0 -0.233842168872713 -0.17694121357944129 0 -0.24566481473353391 -0.1652464025747532 0 -0.2313091397970973 -0.16435086132264101 0 -0.23261035815430561 -0.14322336329666011 0 -0.25343568279415951 -0.15224923159364789 0 -0.23261035815430561 -0.14322336329666011 0 -0.2478381125959237 -0.13014188093155071 0 -0.25343568279415951 -0.15224923159364789 0 -0.21547877813771771 -0.14332314171572449 0 -0.23261035815430561 -0.14322336329666011 0 -0.22184111984059729 -0.15282479907953789 0 -0.2313091397970973 -0.16435086132264101 0 -0.23261035815430561 -0.14322336329666011 0 -0.22184111984059729 -0.15282479907953789 0 -0.21547877813771771 -0.14332314171572449 0 -0.21860961385214961 -0.13100792014620721 0 -0.23261035815430561 -0.14322336329666011 0 -0.21860961385214961 -0.13100792014620721 0 -0.23261035815430561 -0.14322336329666011 0 -0.23267318929165751 -0.1266142136656879 0 -0.23261035815430561 -0.14322336329666011 0 -0.23267318929165751 -0.1266142136656879 0 -0.2478381125959237 -0.13014188093155071 0 -0.2478381125959237 -0.13014188093155071 0 -0.2401350799320488 -0.1157431384930437 0 -0.25439292330372432 -0.11161035632906929 0 -0.23267318929165751 -0.1266142136656879 0 -0.2478381125959237 -0.13014188093155071 0 -0.2401350799320488 -0.1157431384930437 0 -0.2401350799320488 -0.1157431384930437 0 -0.2438502060585381 -0.1028583717612334 0 -0.25439292330372432 -0.11161035632906929 0 -0.2438502060585381 -0.1028583717612334 0 -0.2453315870002564 -0.095437246693633959 0 -0.2525882024947626 -0.098821099717938107 0 -0.2453315870002564 -0.095437246693633959 0 -0.25144169010332901 -0.091633326375329338 0 -0.2525882024947626 -0.098821099717938107 0 -0.2438502060585381 -0.1028583717612334 0 -0.2453315870002564 -0.095437246693633959 0 -0.23922762562760841 -0.098169318759804947 0 -0.23922762562760841 -0.098169318759804947 0 -0.23518849288928181 -0.10695649013526939 0 -0.23134854976794339 -0.097632931289006297 0 -0.2453315870002564 -0.095437246693633959 0 -0.23922762562760841 -0.098169318759804947 0 -0.2404192924220224 -0.087961553919881613 0 -0.23922762562760841 -0.098169318759804947 0 -0.23134854976794339 -0.097632931289006297 0 -0.2404192924220224 -0.087961553919881613 0 -0.2438502060585381 -0.1028583717612334 0 -0.23922762562760841 -0.098169318759804947 0 -0.23518849288928181 -0.10695649013526939 0 -0.2401350799320488 -0.1157431384930437 0 -0.2438502060585381 -0.1028583717612334 0 -0.23518849288928181 -0.10695649013526939 0 -0.23518849288928181 -0.10695649013526939 0 -0.23134854976794339 -0.097632931289006297 0 -0.22417278192385959 -0.11295476546097789 0 -0.23134854976794339 -0.097632931289006297 0 -0.22417278192385959 -0.11295476546097789 0 -0.2186303362545719 -0.093883136955868224 0 -0.2401350799320488 -0.1157431384930437 0 -0.23518849288928181 -0.10695649013526939 0 -0.22417278192385959 -0.11295476546097789 0 -0.21860961385214961 -0.13100792014620721 0 -0.23267318929165751 -0.1266142136656879 0 -0.22417278192385959 -0.11295476546097789 0 -0.23267318929165751 -0.1266142136656879 0 -0.2401350799320488 -0.1157431384930437 0 -0.22417278192385959 -0.11295476546097789 0 -0.24388885687392389 -0.071688150345257468 0 -0.2338744138803254 -0.062312468216533988 0 -0.2476323682116322 -0.061520987214930753 0 -0.24388885687392389 -0.071688150345257468 0 -0.2476323682116322 -0.061520987214930753 0 -0.2529882333064245 -0.070973901803662365 0 -0.24388885687392389 -0.071688150345257468 0 -0.24682403554985069 -0.077092069586417622 0 -0.2529882333064245 -0.070973901803662365 0 -0.24388885687392389 -0.071688150345257468 0 -0.24682403554985069 -0.077092069586417622 0 -0.23610695818539329 -0.077097104601848404 0 -0.24388885687392389 -0.071688150345257468 0 -0.23610695818539329 -0.077097104601848404 0 -0.2338744138803254 -0.062312468216533988 0 -0.2404192924220224 -0.087961553919881613 0 -0.23434786935979859 -0.086445608359767251 0 -0.25855249999409979 -0.079349971077516485 0 -0.23434786935979859 -0.086445608359767251 0 -0.25855249999409979 -0.079349971077516485 0 -0.24682403554985069 -0.077092069586417622 0 -0.23434786935979859 -0.086445608359767251 0 -0.25855249999409979 -0.079349971077516485 0 -0.24682403554985069 -0.077092069586417622 0 -0.23610695818539329 -0.077097104601848404 0 -0.23434786935979859 -0.086445608359767251 0 -0.2404192924220224 -0.087961553919881613 0 -0.25356789490128989 -0.088072195653340249 0 -0.25144169010332901 -0.091633326375329338 0 -0.2453315870002564 -0.095437246693633959 0 -0.2404192924220224 -0.087961553919881613 0 -0.25144169010332901 -0.091633326375329338 0 -0.23134854976794339 -0.097632931289006297 0 -0.2404192924220224 -0.087961553919881613 0 -0.2186303362545719 -0.093883136955868224 0 -0.23434786935979859 -0.086445608359767251 0 -0.21819510633345421 -0.084818126690887299 0 -0.2186303362545719 -0.093883136955868224 0 -0.23434786935979859 -0.086445608359767251 0 -0.22784347827361409 -0.07844521728239337 0 -0.21819510633345421 -0.084818126690887299 0 -0.2404192924220224 -0.087961553919881613 0 -0.2186303362545719 -0.093883136955868224 0 -0.2404192924220224 -0.087961553919881613 0 -0.23434786935979859 -0.086445608359767251 0 -0.2186303362545719 -0.093883136955868224 0 -0.23610695818539329 -0.077097104601848404 0 -0.23434786935979859 -0.086445608359767251 0 -0.22784347827361409 -0.07844521728239337 0 -0.22561928727888081 -0.069226289525945936 0 -0.21465014164525181 -0.057056120614390499 0 -0.2338744138803254 -0.062312468216533988 0 -0.23610695818539329 -0.077097104601848404 0 -0.22784347827361409 -0.07844521728239337 0 -0.22561928727888081 -0.069226289525945936 0 -0.22784347827361409 -0.07844521728239337 0 -0.22561928727888081 -0.069226289525945936 0 -0.21562144440981909 -0.071220536914563426 0 -0.23610695818539329 -0.077097104601848404 0 -0.22561928727888081 -0.069226289525945936 0 -0.2338744138803254 -0.062312468216533988 0 -0.20283299924243431 -0.077387366601351398 0 -0.20047874574939811 -0.054521575326106748 0 -0.21465014164525181 -0.057056120614390499 0 -0.22784347827361409 -0.07844521728239337 0 -0.20283299924243431 -0.077387366601351398 0 -0.21562144440981909 -0.071220536914563426 0 -0.20283299924243431 -0.077387366601351398 0 -0.21465014164525181 -0.057056120614390499 0 -0.22784347827361409 -0.07844521728239337 0 -0.21562144440981909 -0.071220536914563426 0 -0.20283299924243431 -0.077387366601351398 0 -0.20283299924243431 -0.077387366601351398 0 -0.21465014164525181 -0.057056120614390499 0 -0.22561928727888081 -0.069226289525945936 0 -0.21562144440981909 -0.071220536914563426 0 -0.21465014164525181 -0.057056120614390499 0 -0.22784347827361409 -0.07844521728239337 0 -0.21819510633345421 -0.084818126690887299 0 -0.20283299924243431 -0.077387366601351398 0 -0.21819510633345421 -0.084818126690887299 0 -0.20732084853685229 -0.087929304255056254 0 -0.20283299924243431 -0.077387366601351398 0 -0.21819510633345421 -0.084818126690887299 0 -0.20732084853685229 -0.087929304255056254 0 -0.2186303362545719 -0.093883136955868224 0 -0.19866559760639321 -0.08455732909318063 0 -0.19684138008712149 -0.099804719991854848 0 -0.1822294403993594 -0.091272888294312293 0 -0.19866559760639321 -0.08455732909318063 0 -0.18940645687904581 -0.076819473560781115 0 -0.1822294403993594 -0.091272888294312293 0 -0.20732084853685229 -0.087929304255056254 0 -0.19866559760639321 -0.08455732909318063 0 -0.19684138008712149 -0.099804719991854848 0 -0.20732084853685229 -0.087929304255056254 0 -0.19866559760639321 -0.08455732909318063 0 -0.20283299924243431 -0.077387366601351398 0 -0.19866559760639321 -0.08455732909318063 0 -0.20283299924243431 -0.077387366601351398 0 -0.18940645687904581 -0.076819473560781115 0 -0.19866559760639321 -0.08455732909318063 0 -0.20283299924243431 -0.077387366601351398 0 -0.20283299924243431 -0.077387366601351398 0 -0.18940645687904581 -0.076819473560781115 0 -0.20047874574939811 -0.054521575326106748 0 -0.18940645687904581 -0.076819473560781115 0 -0.18709502764393729 -0.061773717592220383 0 -0.20047874574939811 -0.054521575326106748 0 -0.18940645687904581 -0.076819473560781115 0 -0.20047874574939811 -0.054521575326106748 0 -0.20283299924243431 -0.077387366601351398 0 -0.18940645687904581 -0.076819473560781115 0 -0.22417278192385959 -0.11295476546097789 0 -0.2099810947540583 -0.12129541974841899 0 -0.20756026250284701 -0.1093706759350784 0 -0.21860961385214961 -0.13100792014620721 0 -0.22417278192385959 -0.11295476546097789 0 -0.2099810947540583 -0.12129541974841899 0 -0.2099810947540583 -0.12129541974841899 0 -0.20756026250284701 -0.1093706759350784 0 -0.19534617212360411 -0.121013351703841 0 -0.2186303362545719 -0.093883136955868224 0 -0.19684138008712149 -0.099804719991854848 0 -0.20732084853685229 -0.087929304255056254 0 -0.2186303362545719 -0.093883136955868224 0 -0.19684138008712149 -0.099804719991854848 0 -0.2186303362545719 -0.093883136955868224 0 -0.20756026250284701 -0.1093706759350784 0 -0.19684138008712149 -0.099804719991854848 0 -0.22417278192385959 -0.11295476546097789 0 -0.2186303362545719 -0.093883136955868224 0 -0.20756026250284701 -0.1093706759350784 0 -0.20756026250284701 -0.1093706759350784 0 -0.19684138008712149 -0.099804719991854848 0 -0.18817082801183779 -0.1109486318043842 0 -0.20756026250284701 -0.1093706759350784 0 -0.18817082801183779 -0.1109486318043842 0 -0.19534617212360411 -0.121013351703841 0 -0.18817082801183779 -0.1109486318043842 0 -0.19534617212360411 -0.121013351703841 0 -0.18027610093587751 -0.1196181089702751 0 -0.18000311622314791 -0.13001748444371289 0 -0.19534617212360411 -0.121013351703841 0 -0.18027610093587751 -0.1196181089702751 0 -0.1628079644011253 -0.13038477387159439 0 -0.18027610093587751 -0.1196181089702751 0 -0.17505242391967141 -0.10572630302784269 0 -0.18817082801183779 -0.1109486318043842 0 -0.18027610093587751 -0.1196181089702751 0 -0.17505242391967141 -0.10572630302784269 0 -0.1628079644011253 -0.13038477387159439 0 -0.16568054242800659 -0.1082732985805344 0 -0.17505242391967141 -0.10572630302784269 0 -0.1628079644011253 -0.13038477387159439 0 -0.16568054242800659 -0.1082732985805344 0 -0.1559183975343586 -0.1153029742025357 0 -0.1628079644011253 -0.13038477387159439 0 -0.17505242391967141 -0.10572630302784269 0 -0.15766897324155929 -0.10201766098942321 0 -0.16769957127680751 -0.09718714727553697 0 -0.15631644193457139 -0.088857398989056272 0 -0.15766897324155929 -0.10201766098942321 0 -0.16568054242800659 -0.1082732985805344 0 -0.16769957127680751 -0.09718714727553697 0 -0.15766897324155929 -0.10201766098942321 0 -0.16568054242800659 -0.1082732985805344 0 -0.1559183975343586 -0.1153029742025357 0 -0.16568054242800659 -0.1082732985805344 0 -0.16769957127680751 -0.09718714727553697 0 -0.17505242391967141 -0.10572630302784269 0 -0.16568054242800659 -0.1082732985805344 0 -0.17505242391967141 -0.10572630302784269 0 -0.19684138008712149 -0.099804719991854848 0 -0.18817082801183779 -0.1109486318043842 0 -0.17505242391967141 -0.10572630302784269 0 -0.19684138008712149 -0.099804719991854848 0 -0.17505242391967141 -0.10572630302784269 0 -0.16769957127680751 -0.09718714727553697 0 -0.17505242391967141 -0.10572630302784269 0 -0.1822294403993594 -0.091272888294312293 0 -0.19684138008712149 -0.099804719991854848 0 -0.17505242391967141 -0.10572630302784269 0 -0.1822294403993594 -0.091272888294312293 0 -0.17505242391967141 -0.10572630302784269 0 -0.1822294403993594 -0.091272888294312293 0 -0.16769957127680751 -0.09718714727553697 0 -0.1822294403993594 -0.091272888294312293 0 -0.16622085479676199 -0.075838808419480111 0 -0.18940645687904581 -0.076819473560781115 0 -0.1822294403993594 -0.091272888294312293 0 -0.16622085479676199 -0.075838808419480111 0 -0.18940645687904581 -0.076819473560781115 0 -0.1822294403993594 -0.091272888294312293 0 -0.18940645687904581 -0.076819473560781115 0 -0.16622085479676199 -0.075838808419480111 0 -0.18940645687904581 -0.076819473560781115 0 -0.17672291357829811 -0.064990721505459842 0 -0.16622085479676199 -0.075838808419480111 0 -0.18940645687904581 -0.076819473560781115 0 -0.17672291357829811 -0.064990721505459842 0 -0.18709502764393729 -0.061773717592220383 0 -0.17672291357829811 -0.064990721505459842 0 -0.16622085479676199 -0.075838808419480111 0 -0.16458020880549121 -0.059492387506912943 0 -0.16622085479676199 -0.075838808419480111 0 -0.15646239569026699 -0.065906604111614212 0 -0.16458020880549121 -0.059492387506912943 0 -0.16769957127680751 -0.09718714727553697 0 -0.16622085479676199 -0.075838808419480111 0 -0.15631644193457139 -0.088857398989056272 0 -0.15631644193457139 -0.088857398989056272 0 -0.14677991412428701 -0.093732051016317916 0 -0.1430352527144782 -0.074858143278179051 0 -0.16622085479676199 -0.075838808419480111 0 -0.15631644193457139 -0.088857398989056272 0 -0.1430352527144782 -0.074858143278179051 0 -0.14677991412428701 -0.093732051016317916 0 -0.1430352527144782 -0.074858143278179051 0 -0.13451756518433111 -0.095180895342251215 0 -0.1430352527144782 -0.074858143278179051 0 -0.1411001381629465 -0.060647222888288201 0 -0.15201326644433669 -0.053437077241884359 0 -0.16622085479676199 -0.075838808419480111 0 -0.15646239569026699 -0.065906604111614212 0 -0.1430352527144782 -0.074858143278179051 0 -0.16622085479676199 -0.075838808419480111 0 -0.1430352527144782 -0.074858143278179051 0 -0.1430352527144782 -0.074858143278179051 0 -0.15201326644433669 -0.053437077241884359 0 -0.15646239569026699 -0.065906604111614212 0 -0.1430352527144782 -0.074858143278179051 0 -0.15201326644433669 -0.053437077241884359 0 -0.13708859775349791 -0.067653843581906681 0 -0.130794656111274 -0.068530613083725267 0 -0.13379805028672059 -0.060142641530726633 0 -0.1430352527144782 -0.074858143278179051 0 -0.13708859775349791 -0.067653843581906681 0 -0.1411001381629465 -0.060647222888288201 0 -0.13708859775349791 -0.067653843581906681 0 -0.13379805028672059 -0.060142641530726633 0 -0.1411001381629465 -0.060647222888288201 0 -0.13708859775349791 -0.067653843581906681 0 -0.13568082893985359 -0.07454707837658528 0 -0.130794656111274 -0.068530613083725267 0 -0.1430352527144782 -0.074858143278179051 0 -0.13708859775349791 -0.067653843581906681 0 -0.13568082893985359 -0.07454707837658528 0 -0.1430352527144782 -0.074858143278179051 0 -0.13568082893985359 -0.07454707837658528 0 -0.1232756904161693 -0.070411489051666373 0 -0.130794656111274 -0.068530613083725267 0 -0.12737817104852411 -0.080741270387750683 0 -0.13568082893985359 -0.07454707837658528 0 -0.130794656111274 -0.068530613083725267 0 -0.12737817104852411 -0.080741270387750683 0 -0.12131955324210091 -0.059181462630683621 0 -0.130794656111274 -0.068530613083725267 0 -0.13379805028672059 -0.060142641530726633 0 -0.1232756904161693 -0.070411489051666373 0 -0.12131955324210091 -0.059181462630683621 0 -0.130794656111274 -0.068530613083725267 0 -0.13568082893985359 -0.07454707837658528 0 -0.12737817104852411 -0.080741270387750683 0 -0.13451756518433111 -0.095180895342251215 0 -0.1430352527144782 -0.074858143278179051 0 -0.13568082893985359 -0.07454707837658528 0 -0.13451756518433111 -0.095180895342251215 0 -0.1430352527144782 -0.074858143278179051 0 -0.13451756518433111 -0.095180895342251215 0 -0.12067370026095731 -0.092005587950159118 0 -0.12737817104852411 -0.080741270387750683 0 -0.13451756518433111 -0.095180895342251215 0 -0.13451756518433111 -0.095180895342251215 0 -0.12599987765418549 -0.11550364740632391 0 -0.13451756518433111 -0.095180895342251215 0 -0.139855014945965 -0.1081270544919556 0 -0.13238394533585049 -0.1132856834133564 0 -0.13451756518433111 -0.095180895342251215 0 -0.12599987765418549 -0.11550364740632391 0 -0.13238394533585049 -0.1132856834133564 0 -0.12182531397588869 -0.1044134543712442 0 -0.13451756518433111 -0.095180895342251215 0 -0.12599987765418549 -0.11550364740632391 0 -0.12182531397588869 -0.1044134543712442 0 -0.12067370026095731 -0.092005587950159118 0 -0.13451756518433111 -0.095180895342251215 0 -0.12599987765418549 -0.11550364740632391 0 -0.1252704192176744 -0.1172440966648565 0 -0.13114171751694609 -0.1183715484722116 0 -0.12599987765418549 -0.11550364740632391 0 -0.1252704192176744 -0.1172440966648565 0 -0.12599987765418549 -0.11550364740632391 0 -0.13238394533585049 -0.1132856834133564 0 -0.12599987765418549 -0.11550364740632391 0 -0.13238394533585049 -0.1132856834133564 0 -0.13114171751694609 -0.1183715484722116 0 -0.1355018371655794 -0.1265678790332187 0 -0.1252704192176744 -0.1172440966648565 0 -0.13114171751694609 -0.1183715484722116 0 -0.1355018371655794 -0.1265678790332187 0 -0.13114171751694609 -0.1183715484722116 0 -0.14420813470266419 -0.11805716313719079 0 -0.139855014945965 -0.1081270544919556 0 -0.13238394533585049 -0.1132856834133564 0 -0.14420813470266419 -0.11805716313719079 0 -0.13238394533585049 -0.1132856834133564 0 -0.13114171751694609 -0.1183715484722116 0 -0.14420813470266419 -0.11805716313719079 0 -0.139855014945965 -0.1081270544919556 0 -0.14420813470266419 -0.11805716313719079 0 -0.1483104145610141 -0.1059844760750239 0 -0.1628079644011253 -0.13038477387159439 0 -0.14420813470266419 -0.11805716313719079 0 -0.1559183975343586 -0.1153029742025357 0 -0.14420813470266419 -0.11805716313719079 0 -0.1559183975343586 -0.1153029742025357 0 -0.1483104145610141 -0.1059844760750239 0 -0.15766897324155929 -0.10201766098942321 0 -0.1559183975343586 -0.1153029742025357 0 -0.1483104145610141 -0.1059844760750239 0 -0.15766897324155929 -0.10201766098942321 0 -0.15631644193457139 -0.088857398989056272 0 -0.14677991412428701 -0.093732051016317916 0 -0.15766897324155929 -0.10201766098942321 0 -0.14677991412428701 -0.093732051016317916 0 -0.1483104145610141 -0.1059844760750239 0 -0.14677991412428701 -0.093732051016317916 0 -0.13451756518433111 -0.095180895342251215 0 -0.1483104145610141 -0.1059844760750239 0 -0.13451756518433111 -0.095180895342251215 0 -0.139855014945965 -0.1081270544919556 0 -0.1483104145610141 -0.1059844760750239 0 -0.1452248522035206 -0.0135074852317284 0 -0.13361245343545181 -0.030305793086055629 0 -0.1484749629479134 -0.038477035386196637 0 -0.1452248522035206 -0.0135074852317284 0 -0.1484749629479134 -0.038477035386196637 0 -0.16099128017419639 -0.03201601120559007 0 -0.1452248522035206 -0.0135074852317284 0 -0.1660829110182864 -0.0110115892886907 0 -0.1564869492866878 -0.00059129627401754796 0 -0.1452248522035206 -0.0135074852317284 0 -0.1564869492866878 -0.00059129627401754796 0 -0.1433170204333889 0.0042533116210359059 0 -0.1452248522035206 -0.0135074852317284 0 -0.13137048688310951 -0.003337023478303953 0 -0.1433170204333889 0.0042533116210359059 0 -0.1236122261121546 -0.0078425818954372464 0 -0.1452248522035206 -0.0135074852317284 0 -0.13137048688310951 -0.003337023478303953 0 -0.1236122261121546 -0.0078425818954372464 0 -0.13137048688310951 -0.003337023478303953 0 -0.1236122261121546 -0.0078425818954372464 0 -0.13361245343545181 -0.030305793086055629 0 -0.1236122261121546 -0.0078425818954372464 0 -0.1185057960264221 -0.028529017004706999 0 -0.13361245343545181 -0.030305793086055629 0 -0.1236122261121546 -0.0078425818954372464 0 -0.1452248522035206 -0.0135074852317284 0 -0.13361245343545181 -0.030305793086055629 0 -0.13361245343545181 -0.030305793086055629 0 -0.14346563865851419 -0.05243870800993642 0 -0.1197314047957487 -0.044466417495601512 0 -0.13361245343545181 -0.030305793086055629 0 -0.1315211872564446 -0.050314657740016588 0 -0.13361245343545181 -0.030305793086055629 0 -0.1315211872564446 -0.050314657740016588 0 -0.14346563865851419 -0.05243870800993642 0 -0.12131955324210091 -0.059181462630683621 0 -0.1315211872564446 -0.050314657740016588 0 -0.13379805028672059 -0.060142641530726633 0 -0.1315211872564446 -0.050314657740016588 0 -0.1374712535911565 -0.055885807542241962 0 -0.14346563865851419 -0.05243870800993642 0 -0.1315211872564446 -0.050314657740016588 0 -0.1374712535911565 -0.055885807542241962 0 -0.13379805028672059 -0.060142641530726633 0 -0.1374712535911565 -0.055885807542241962 0 -0.13379805028672059 -0.060142641530726633 0 -0.1411001381629465 -0.060647222888288201 0 -0.1411001381629465 -0.060647222888288201 0 -0.14346563865851419 -0.05243870800993642 0 -0.15201326644433669 -0.053437077241884359 0 -0.1374712535911565 -0.055885807542241962 0 -0.1411001381629465 -0.060647222888288201 0 -0.14346563865851419 -0.05243870800993642 0 -0.14346563865851419 -0.05243870800993642 0 -0.15201326644433669 -0.053437077241884359 0 -0.1484749629479134 -0.038477035386196637 0 -0.15201326644433669 -0.053437077241884359 0 -0.1484749629479134 -0.038477035386196637 0 -0.16099128017419639 -0.03201601120559007 0 -0.13361245343545181 -0.030305793086055629 0 -0.14346563865851419 -0.05243870800993642 0 -0.1484749629479134 -0.038477035386196637 0 -0.15201326644433669 -0.053437077241884359 0 -0.16099128017419639 -0.03201601120559007 0 -0.15201326644433669 -0.053437077241884359 0 -0.16099128017419639 -0.03201601120559007 0 -0.16622336588392531 -0.046665464390732471 0 -0.16099128017419639 -0.03201601120559007 0 -0.17705927752236811 -0.038294319471390781 0 -0.1772337338696203 -0.023645926918309929 0 -0.16099128017419639 -0.03201601120559007 0 -0.16622336588392531 -0.046665464390732471 0 -0.17705927752236811 -0.038294319471390781 0 -0.15646239569026699 -0.065906604111614212 0 -0.15201326644433669 -0.053437077241884359 0 -0.16458020880549121 -0.059492387506912943 0 -0.15201326644433669 -0.053437077241884359 0 -0.16622336588392531 -0.046665464390732471 0 -0.16458020880549121 -0.059492387506912943 0 -0.16622336588392531 -0.046665464390732471 0 -0.16458020880549121 -0.059492387506912943 0 -0.17631201976625371 -0.05102922044790497 0 -0.17672291357829811 -0.064990721505459842 0 -0.16458020880549121 -0.059492387506912943 0 -0.17631201976625371 -0.05102922044790497 0 -0.17631201976625371 -0.05102922044790497 0 -0.18709502764393729 -0.061773717592220383 0 -0.18868425509965489 -0.047684834797198213 0 -0.17672291357829811 -0.064990721505459842 0 -0.17631201976625371 -0.05102922044790497 0 -0.18709502764393729 -0.061773717592220383 0 -0.16622336588392531 -0.046665464390732471 0 -0.17631201976625371 -0.05102922044790497 0 -0.17705927752236811 -0.038294319471390781 0 -0.17631201976625371 -0.05102922044790497 0 -0.17705927752236811 -0.038294319471390781 0 -0.18868425509965489 -0.047684834797198213 0 -0.17705927752236811 -0.038294319471390781 0 -0.18868425509965489 -0.047684834797198213 0 -0.19198493650835269 -0.034148616047928453 0 -0.17705927752236811 -0.038294319471390781 0 -0.1772337338696203 -0.023645926918309929 0 -0.19198493650835269 -0.034148616047928453 0 -0.1772337338696203 -0.023645926918309929 0 -0.18418091461086311 -0.0067458590849352237 0 -0.19781487964127609 -0.018046172764705552 0 -0.16099128017419639 -0.03201601120559007 0 -0.1772337338696203 -0.023645926918309929 0 -0.1660829110182864 -0.0110115892886907 0 -0.1452248522035206 -0.0135074852317284 0 -0.16099128017419639 -0.03201601120559007 0 -0.1660829110182864 -0.0110115892886907 0 -0.1660829110182864 -0.0110115892886907 0 -0.1564869492866878 -0.00059129627401754796 0 -0.17208342559322409 0.0058404778805985873 0 -0.1660829110182864 -0.0110115892886907 0 -0.18418091461086311 -0.0067458590849352237 0 -0.17208342559322409 0.0058404778805985873 0 -0.1772337338696203 -0.023645926918309929 0 -0.1660829110182864 -0.0110115892886907 0 -0.18418091461086311 -0.0067458590849352237 0 -0.18418091461086311 -0.0067458590849352237 0 -0.2008908429601583 -0.001101000049535744 0 -0.19781487964127609 -0.018046172764705552 0 -0.19781487964127609 -0.018046172764705552 0 -0.19198493650835269 -0.034148616047928453 0 -0.21155103461974961 -0.032223677091432062 0 -0.1772337338696203 -0.023645926918309929 0 -0.19781487964127609 -0.018046172764705552 0 -0.19198493650835269 -0.034148616047928453 0 -0.19781487964127609 -0.018046172764705552 0 -0.21155103461974961 -0.032223677091432062 0 -0.21882158577424271 -0.0103131571922281 0 -0.2008908429601583 -0.001101000049535744 0 -0.19781487964127609 -0.018046172764705552 0 -0.21882158577424271 -0.0103131571922281 0 -0.18709502764393729 -0.061773717592220383 0 -0.18868425509965489 -0.047684834797198213 0 -0.20047874574939811 -0.054521575326106748 0 -0.18868425509965489 -0.047684834797198213 0 -0.20047874574939811 -0.054521575326106748 0 -0.19817474299428881 -0.04214467581566636 0 -0.19817474299428881 -0.04214467581566636 0 -0.19198493650835269 -0.034148616047928453 0 -0.21155103461974961 -0.032223677091432062 0 -0.18868425509965489 -0.047684834797198213 0 -0.19817474299428881 -0.04214467581566636 0 -0.19198493650835269 -0.034148616047928453 0 -0.20047874574939811 -0.054521575326106748 0 -0.21155103461974961 -0.032223677091432062 0 -0.20047874574939811 -0.054521575326106748 0 -0.19817474299428881 -0.04214467581566636 0 -0.21155103461974961 -0.032223677091432062 0 -0.21155103461974961 -0.032223677091432062 0 -0.21465014164525181 -0.057056120614390499 0 -0.22646728404806721 -0.036724874627428489 0 -0.20047874574939811 -0.054521575326106748 0 -0.21155103461974961 -0.032223677091432062 0 -0.21465014164525181 -0.057056120614390499 0 -0.21465014164525181 -0.057056120614390499 0 -0.2338744138803254 -0.062312468216533988 0 -0.22646728404806721 -0.036724874627428489 0 -0.2338744138803254 -0.062312468216533988 0 -0.22646728404806721 -0.036724874627428489 0 -0.21465014164525181 -0.057056120614390499 0 -0.22646728404806721 -0.036724874627428489 0 -0.22646728404806721 -0.036724874627428489 0 -0.2401414722927224 -0.032241302373577058 0 -0.24278742868549399 -0.046838078323859687 0 -0.2401414722927224 -0.032241302373577058 0 -0.25378175816230958 -0.02436733484642779 0 -0.25219715932032732 -0.038265850071314 0 -0.2401414722927224 -0.032241302373577058 0 -0.24278742868549399 -0.046838078323859687 0 -0.25219715932032732 -0.038265850071314 0 -0.2338744138803254 -0.062312468216533988 0 -0.22646728404806721 -0.036724874627428489 0 -0.24278742868549399 -0.046838078323859687 0 -0.24278742868549399 -0.046838078323859687 0 -0.2476323682116322 -0.061520987214930753 0 -0.25620744044593469 -0.049667056832747067 0 -0.2338744138803254 -0.062312468216533988 0 -0.24278742868549399 -0.046838078323859687 0 -0.2476323682116322 -0.061520987214930753 0 -0.21882158577424271 -0.0103131571922281 0 -0.2374946151573453 -0.01775248911154621 0 -0.23546354233931949 0.0078270751002715265 0 -0.22646728404806721 -0.036724874627428489 0 -0.2374946151573453 -0.01775248911154621 0 -0.21155103461974961 -0.032223677091432062 0 -0.22646728404806721 -0.036724874627428489 0 -0.21882158577424271 -0.0103131571922281 0 -0.22646728404806721 -0.036724874627428489 0 -0.21882158577424271 -0.0103131571922281 0 -0.22646728404806721 -0.036724874627428489 0 -0.21882158577424271 -0.0103131571922281 0 -0.2374946151573453 -0.01775248911154621 0 -0.2374946151573453 -0.01775248911154621 0 -0.25227296286688322 -0.0076793426536460041 0 -0.25378175816230958 -0.02436733484642779 0 -0.2401414722927224 -0.032241302373577058 0 -0.2374946151573453 -0.01775248911154621 0 -0.25378175816230958 -0.02436733484642779 0 -0.22646728404806721 -0.036724874627428489 0 -0.2401414722927224 -0.032241302373577058 0 -0.2374946151573453 -0.01775248911154621 0 -0.2374946151573453 -0.01775248911154621 0 -0.25227296286688322 -0.0076793426536460041 0 -0.23546354233931949 0.0078270751002715265 0 -0.25227296286688322 -0.0076793426536460041 0 -0.27504786807920711 -0.016522946018952021 0 -0.26249405175029211 0.007662734938978108 0 -0.25227296286688322 -0.0076793426536460041 0 -0.25378175816230958 -0.02436733484642779 0 -0.27504786807920711 -0.016522946018952021 0 -0.25378175816230958 -0.02436733484642779 0 -0.27504786807920711 -0.016522946018952021 0 -0.26471526887818231 -0.03538659961621915 0 -0.27504786807920711 -0.016522946018952021 0 -0.27907013255445939 -0.03491531901183742 0 -0.26471526887818231 -0.03538659961621915 0 -0.27504786807920711 -0.016522946018952021 0 -0.26249405175029211 0.007662734938978108 0 -0.29088909275279012 0.0052797473078289572 0 -0.27504786807920711 -0.016522946018952021 0 -0.29710775469227729 -0.014596668466157351 0 -0.29088909275279012 0.0052797473078289572 0 -0.27504786807920711 -0.016522946018952021 0 -0.29121836233921761 -0.027938763998333869 0 -0.27907013255445939 -0.03491531901183742 0 -0.27504786807920711 -0.016522946018952021 0 -0.29121836233921761 -0.027938763998333869 0 -0.29710775469227729 -0.014596668466157351 0 -0.29710775469227729 -0.014596668466157351 0 -0.31759413704845219 -0.011310857140017521 0 -0.31311363369768291 -0.03310849193739672 0 -0.29121836233921761 -0.027938763998333869 0 -0.29710775469227729 -0.014596668466157351 0 -0.31311363369768291 -0.03310849193739672 0 -0.29710775469227729 -0.014596668466157351 0 -0.30518798685158838 -0.0020929360932298849 0 -0.29088909275279012 0.0052797473078289572 0 -0.29710775469227729 -0.014596668466157351 0 -0.30518798685158838 -0.0020929360932298849 0 -0.31759413704845219 -0.011310857140017521 0 -0.3114594072847322 -0.049306726894047262 0 -0.29175242267246138 -0.04055039455732605 0 -0.29253753360804391 -0.057483018047446738 0 -0.3114594072847322 -0.049306726894047262 0 -0.29253753360804391 -0.057483018047446738 0 -0.30696176126270219 -0.065158696513015008 0 -0.3114594072847322 -0.049306726894047262 0 -0.29175242267246138 -0.04055039455732605 0 -0.31311363369768291 -0.03310849193739672 0 -0.29175242267246138 -0.04055039455732605 0 -0.31311363369768291 -0.03310849193739672 0 -0.3114594072847322 -0.049306726894047262 0 -0.29175242267246138 -0.04055039455732605 0 -0.29121836233921761 -0.027938763998333869 0 -0.29175242267246138 -0.04055039455732605 0 -0.31311363369768291 -0.03310849193739672 0 -0.29175242267246138 -0.04055039455732605 0 -0.27907013255445939 -0.03491531901183742 0 -0.29121836233921761 -0.027938763998333869 0 -0.29175242267246138 -0.04055039455732605 0 -0.27907013255445939 -0.03491531901183742 0 -0.29175242267246138 -0.04055039455732605 0 -0.29253753360804391 -0.057483018047446738 0 -0.27994708571901822 -0.057980160189140359 0 -0.27994708571901822 -0.057980160189140359 0 -0.26824156593179532 -0.048741199197032549 0 -0.26874039246249382 -0.069271675174266092 0 -0.29175242267246138 -0.04055039455732605 0 -0.27994708571901822 -0.057980160189140359 0 -0.26824156593179532 -0.048741199197032549 0 -0.29175242267246138 -0.04055039455732605 0 -0.26824156593179532 -0.048741199197032549 0 -0.27907013255445939 -0.03491531901183742 0 -0.29175242267246138 -0.04055039455732605 0 -0.26824156593179532 -0.048741199197032549 0 -0.26824156593179532 -0.048741199197032549 0 -0.27907013255445939 -0.03491531901183742 0 -0.26471526887818231 -0.03538659961621915 0 -0.26824156593179532 -0.048741199197032549 0 -0.26471526887818231 -0.03538659961621915 0 -0.25620744044593469 -0.049667056832747067 0 -0.24278742868549399 -0.046838078323859687 0 -0.25219715932032732 -0.038265850071314 0 -0.25620744044593469 -0.049667056832747067 0 -0.26471526887818231 -0.03538659961621915 0 -0.25219715932032732 -0.038265850071314 0 -0.25620744044593469 -0.049667056832747067 0 -0.25378175816230958 -0.02436733484642779 0 -0.26471526887818231 -0.03538659961621915 0 -0.25219715932032732 -0.038265850071314 0 -0.26824156593179532 -0.048741199197032549 0 -0.25818533518880471 -0.062204128102381351 0 -0.26874039246249382 -0.069271675174266092 0 -0.26824156593179532 -0.048741199197032549 0 -0.25818533518880471 -0.062204128102381351 0 -0.25620744044593469 -0.049667056832747067 0 -0.2476323682116322 -0.061520987214930753 0 -0.25818533518880471 -0.062204128102381351 0 -0.25620744044593469 -0.049667056832747067 0 -0.2476323682116322 -0.061520987214930753 0 -0.25818533518880471 -0.062204128102381351 0 -0.2529882333064245 -0.070973901803662365 0 -0.25818533518880471 -0.062204128102381351 0 -0.25865454608389071 -0.0715458776642144 0 -0.2529882333064245 -0.070973901803662365 0 -0.25818533518880471 -0.062204128102381351 0 -0.25865454608389071 -0.0715458776642144 0 -0.26874039246249382 -0.069271675174266092 0 -0.25865454608389071 -0.0715458776642144 0 -0.25855249999409979 -0.079349971077516485 0 -0.26874039246249382 -0.069271675174266092 0 -0.24682403554985069 -0.077092069586417622 0 -0.25425482873356642 -0.074740455032952721 0 -0.25855249999409979 -0.079349971077516485 0 -0.25865454608389071 -0.0715458776642144 0 -0.25425482873356642 -0.074740455032952721 0 -0.25855249999409979 -0.079349971077516485 0 -0.25865454608389071 -0.0715458776642144 0 -0.25425482873356642 -0.074740455032952721 0 -0.2529882333064245 -0.070973901803662365 0 -0.24682403554985069 -0.077092069586417622 0 -0.25425482873356642 -0.074740455032952721 0 -0.2529882333064245 -0.070973901803662365 0 -0.2404192924220224 -0.087961553919881613 0 -0.25356789490128989 -0.088072195653340249 0 -0.26220824858947278 -0.082039970883894989 0 -0.2404192924220224 -0.087961553919881613 0 -0.26220824858947278 -0.082039970883894989 0 -0.2404192924220224 -0.087961553919881613 0 -0.26220824858947278 -0.082039970883894989 0 -0.25855249999409979 -0.079349971077516485 0 -0.25356789490128989 -0.088072195653340249 0 -0.25144169010332901 -0.091633326375329338 0 -0.26020234849033591 -0.090653931434255125 0 -0.25144169010332901 -0.091633326375329338 0 -0.26020234849033591 -0.090653931434255125 0 -0.2525882024947626 -0.098821099717938107 0 -0.26020234849033591 -0.090653931434255125 0 -0.26220824858947278 -0.082039970883894989 0 -0.26803774644364831 -0.088990216861234941 0 -0.26020234849033591 -0.090653931434255125 0 -0.26803774644364831 -0.088990216861234941 0 -0.26237563885443332 -0.099092169843888092 0 -0.25356789490128989 -0.088072195653340249 0 -0.26020234849033591 -0.090653931434255125 0 -0.26220824858947278 -0.082039970883894989 0 -0.26220824858947278 -0.082039970883894989 0 -0.25855249999409979 -0.079349971077516485 0 -0.27123440961567508 -0.082288547260032208 0 -0.27123440961567508 -0.082288547260032208 0 -0.26803774644364831 -0.088990216861234941 0 -0.28416808666832472 -0.090876464884104322 0 -0.26220824858947278 -0.082039970883894989 0 -0.27123440961567508 -0.082288547260032208 0 -0.26803774644364831 -0.088990216861234941 0 -0.27123440961567508 -0.082288547260032208 0 -0.28275713062840102 -0.072254333795265746 0 -0.28416808666832472 -0.090876464884104322 0 -0.26803774644364831 -0.088990216861234941 0 -0.26237563885443332 -0.099092169843888092 0 -0.28416808666832472 -0.090876464884104322 0 -0.25855249999409979 -0.079349971077516485 0 -0.28275713062840102 -0.072254333795265746 0 -0.25855249999409979 -0.079349971077516485 0 -0.26874039246249382 -0.069271675174266092 0 -0.28275713062840102 -0.072254333795265746 0 -0.25855249999409979 -0.079349971077516485 0 -0.27123440961567508 -0.082288547260032208 0 -0.28275713062840102 -0.072254333795265746 0 -0.27994708571901822 -0.057980160189140359 0 -0.26874039246249382 -0.069271675174266092 0 -0.28275713062840102 -0.072254333795265746 0 -0.2478381125959237 -0.13014188093155071 0 -0.26471173226585809 -0.1241277151614352 0 -0.25439292330372432 -0.11161035632906929 0 -0.26471173226585809 -0.1241277151614352 0 -0.25439292330372432 -0.11161035632906929 0 -0.26925149092450551 -0.1104881183943958 0 -0.25439292330372432 -0.11161035632906929 0 -0.26237563885443332 -0.099092169843888092 0 -0.26925149092450551 -0.1104881183943958 0 -0.25439292330372432 -0.11161035632906929 0 -0.2525882024947626 -0.098821099717938107 0 -0.26237563885443332 -0.099092169843888092 0 -0.2438502060585381 -0.1028583717612334 0 -0.25439292330372432 -0.11161035632906929 0 -0.2525882024947626 -0.098821099717938107 0 -0.26020234849033591 -0.090653931434255125 0 -0.2525882024947626 -0.098821099717938107 0 -0.26237563885443332 -0.099092169843888092 0 -0.26237563885443332 -0.099092169843888092 0 -0.26925149092450551 -0.1104881183943958 0 -0.28416808666832472 -0.090876464884104322 0 -0.26237563885443332 -0.099092169843888092 0 -0.28416808666832472 -0.090876464884104322 0 -0.26925149092450551 -0.1104881183943958 0 -0.28362018306611941 -0.1149768545032684 0 -0.28416808666832472 -0.090876464884104322 0 -0.26471173226585809 -0.1241277151614352 0 -0.26925149092450551 -0.1104881183943958 0 -0.28362018306611941 -0.1149768545032684 0 -0.28362018306611941 -0.1149768545032684 0 -0.30012398023346848 -0.099943372585857088 0 -0.29756340944960558 -0.1135198660677226 0 -0.28362018306611941 -0.1149768545032684 0 -0.29756340944960558 -0.1135198660677226 0 -0.29768876878828382 -0.12804597213566191 0 -0.28362018306611941 -0.1149768545032684 0 -0.30012398023346848 -0.099943372585857088 0 -0.28416808666832472 -0.090876464884104322 0 -0.30012398023346848 -0.099943372585857088 0 -0.30783691459248808 -0.106447779092323 0 -0.31567959952596442 -0.097557764174788134 0 -0.30012398023346848 -0.099943372585857088 0 -0.30783691459248808 -0.106447779092323 0 -0.29756340944960558 -0.1135198660677226 0 -0.31981531178534578 -0.1159443424066684 0 -0.31168640084693722 -0.1309238984722621 0 -0.29768876878828382 -0.12804597213566191 0 -0.31097561465500489 -0.1146061177684144 0 -0.31981531178534578 -0.1159443424066684 0 -0.29768876878828382 -0.12804597213566191 0 -0.31981531178534578 -0.1159443424066684 0 -0.29768876878828382 -0.12804597213566191 0 -0.30783691459248808 -0.106447779092323 0 -0.29756340944960558 -0.1135198660677226 0 -0.31097561465500489 -0.1146061177684144 0 -0.30783691459248808 -0.106447779092323 0 -0.31097561465500489 -0.1146061177684144 0 -0.31588048179209449 -0.1075745667651056 0 -0.29756340944960558 -0.1135198660677226 0 -0.31097561465500489 -0.1146061177684144 0 -0.29768876878828382 -0.12804597213566191 0 -0.29253753360804391 -0.057483018047446738 0 -0.28275713062840102 -0.072254333795265746 0 -0.30696176126270219 -0.065158696513015008 0 -0.28275713062840102 -0.072254333795265746 0 -0.30696176126270219 -0.065158696513015008 0 -0.29253753360804391 -0.057483018047446738 0 -0.27994708571901822 -0.057980160189140359 0 -0.28275713062840102 -0.072254333795265746 0 -0.28275713062840102 -0.072254333795265746 0 -0.28416808666832472 -0.090876464884104322 0 -0.30596053448221622 -0.082660759924320565 0 -0.30012398023346848 -0.099943372585857088 0 -0.28416808666832472 -0.090876464884104322 0 -0.30596053448221622 -0.082660759924320565 0 -0.28416808666832472 -0.090876464884104322 0 -0.30596053448221622 -0.082660759924320565 0 -0.30012398023346848 -0.099943372585857088 0 -0.30596053448221622 -0.082660759924320565 0 -0.31567959952596442 -0.097557764174788134 0 -0.28275713062840102 -0.072254333795265746 0 -0.30596053448221622 -0.082660759924320565 0 -0.30696176126270219 -0.065158696513015008 0 -0.30696176126270219 -0.065158696513015008 0 -0.32775298229610761 -0.074445054964536822 0 -0.33116639189700398 -0.058063059230765962 0 -0.30596053448221622 -0.082660759924320565 0 -0.30696176126270219 -0.065158696513015008 0 -0.32775298229610761 -0.074445054964536822 0 -0.30596053448221622 -0.082660759924320565 0 -0.32775298229610761 -0.074445054964536822 0 -0.30596053448221622 -0.082660759924320565 0 -0.32775298229610761 -0.074445054964536822 0 -0.32362127966136711 -0.087321124884110049 0 -0.30596053448221622 -0.082660759924320565 0 -0.32362127966136711 -0.087321124884110049 0 -0.31567959952596442 -0.097557764174788134 0 -0.32362127966136711 -0.087321124884110049 0 -0.31567959952596442 -0.097557764174788134 0 -0.33099901797333198 -0.096034161481027461 0 -0.32775298229610761 -0.074445054964536822 0 -0.32362127966136711 -0.087321124884110049 0 -0.33771426402921512 -0.08590788387587725 0 -0.32775298229610761 -0.074445054964536822 0 -0.33771426402921512 -0.08590788387587725 0 -0.3410929925936918 -0.075329856076351967 0 -0.32362127966136711 -0.087321124884110049 0 -0.33771426402921512 -0.08590788387587725 0 -0.33099901797333198 -0.096034161481027461 0 -0.33771426402921512 -0.08590788387587725 0 -0.34583111956259749 -0.098435285946989581 0 -0.34764631593145701 -0.084003956848892683 0 -0.33771426402921512 -0.08590788387587725 0 -0.33099901797333198 -0.096034161481027461 0 -0.34583111956259749 -0.098435285946989581 0 -0.33771426402921512 -0.08590788387587725 0 -0.3410929925936918 -0.075329856076351967 0 -0.34764631593145701 -0.084003956848892683 0 -0.32775298229610761 -0.074445054964536822 0 -0.34954543010999922 -0.066229350004753773 0 -0.32775298229610761 -0.074445054964536822 0 -0.34954543010999922 -0.066229350004753773 0 -0.33116639189700398 -0.058063059230765962 0 -0.32775298229610761 -0.074445054964536822 0 -0.3410929925936918 -0.075329856076351967 0 -0.34954543010999922 -0.066229350004753773 0 -0.31981531178534578 -0.1159443424066684 0 -0.33811662782018509 -0.1187149432167614 0 -0.32501708124079648 -0.13103464252731351 0 -0.31097561465500489 -0.1146061177684144 0 -0.31981531178534578 -0.1159443424066684 0 -0.31588048179209449 -0.1075745667651056 0 -0.31097561465500489 -0.1146061177684144 0 -0.31981531178534578 -0.1159443424066684 0 -0.31981531178534578 -0.1159443424066684 0 -0.32413251233690038 -0.10459203082738 0 -0.33754729440195652 -0.1062462215562652 0 -0.31981531178534578 -0.1159443424066684 0 -0.32413251233690038 -0.10459203082738 0 -0.31588048179209449 -0.1075745667651056 0 -0.32413251233690038 -0.10459203082738 0 -0.31588048179209449 -0.1075745667651056 0 -0.31567959952596442 -0.097557764174788134 0 -0.30783691459248808 -0.106447779092323 0 -0.31588048179209449 -0.1075745667651056 0 -0.31567959952596442 -0.097557764174788134 0 -0.32413251233690038 -0.10459203082738 0 -0.31567959952596442 -0.097557764174788134 0 -0.33099901797333198 -0.096034161481027461 0 -0.33754729440195652 -0.1062462215562652 0 -0.33811662782018509 -0.1187149432167614 0 -0.34583111956259749 -0.098435285946989581 0 -0.33099901797333198 -0.096034161481027461 0 -0.33754729440195652 -0.1062462215562652 0 -0.34583111956259749 -0.098435285946989581 0 -0.32413251233690038 -0.10459203082738 0 -0.33099901797333198 -0.096034161481027461 0 -0.33754729440195652 -0.1062462215562652 0 -0.31981531178534578 -0.1159443424066684 0 -0.33754729440195652 -0.1062462215562652 0 -0.31981531178534578 -0.1159443424066684 0 -0.33754729440195652 -0.1062462215562652 0 -0.33811662782018509 -0.1187149432167614 0 -0.31981531178534578 -0.1159443424066684 0 -0.33811662782018509 -0.1187149432167614 0 -0.33811662782018509 -0.1187149432167614 0 -0.32501708124079648 -0.13103464252731351 0 -0.33811662782018509 -0.1187149432167614 0 -0.35957868311145441 -0.098530575294378642 0 -0.36560935282136869 -0.1228770136391782 0 -0.33811662782018509 -0.1187149432167614 0 -0.36560935282136869 -0.1228770136391782 0 -0.33811662782018509 -0.1187149432167614 0 -0.35957868311145441 -0.098530575294378642 0 -0.33811662782018509 -0.1187149432167614 0 -0.34583111956259749 -0.098435285946989581 0 -0.35957868311145441 -0.098530575294378642 0 -0.37338072534044958 -0.1015395423542827 0 -0.35957868311145441 -0.098530575294378642 0 -0.36560935282136869 -0.1228770136391782 0 -0.37338072534044958 -0.1015395423542827 0 -0.35957868311145441 -0.098530575294378642 0 -0.3750868287242039 -0.083945666598845156 0 -0.35957868311145441 -0.098530575294378642 0 -0.36560935282136869 -0.1228770136391782 0 -0.37338072534044958 -0.1015395423542827 0 -0.36560935282136869 -0.1228770136391782 0 -0.38088751658449588 -0.11177605152490321 0 -0.35337645997328532 -0.073491557988243944 0 -0.34954543010999922 -0.066229350004753773 0 -0.36110028685175177 -0.071363477205066639 0 -0.34954543010999922 -0.066229350004753773 0 -0.36113753062154968 -0.061859153573384271 0 -0.35391811348297447 -0.060268720819388867 0 -0.34954543010999922 -0.066229350004753773 0 -0.36113753062154968 -0.061859153573384271 0 -0.34954543010999922 -0.066229350004753773 0 -0.36110028685175177 -0.071363477205066639 0 -0.36113753062154968 -0.061859153573384271 0 -0.34954543010999922 -0.066229350004753773 0 -0.36110028685175177 -0.071363477205066639 0 -0.3410929925936918 -0.075329856076351967 0 -0.34954543010999922 -0.066229350004753773 0 -0.34762887643352081 -0.074048264607039227 0 -0.3410929925936918 -0.075329856076351967 0 -0.34762887643352081 -0.074048264607039227 0 -0.34764631593145701 -0.084003956848892683 0 -0.35337645997328532 -0.073491557988243944 0 -0.34762887643352081 -0.074048264607039227 0 -0.34764631593145701 -0.084003956848892683 0 -0.35337645997328532 -0.073491557988243944 0 -0.34954543010999922 -0.066229350004753773 0 -0.34762887643352081 -0.074048264607039227 0 -0.35957868311145441 -0.098530575294378642 0 -0.35337645997328532 -0.073491557988243944 0 -0.34764631593145701 -0.084003956848892683 0 -0.35957868311145441 -0.098530575294378642 0 -0.35337645997328532 -0.073491557988243944 0 -0.34583111956259749 -0.098435285946989581 0 -0.35957868311145441 -0.098530575294378642 0 -0.34764631593145701 -0.084003956848892683 0 -0.35957868311145441 -0.098530575294378642 0 -0.36565466293458038 -0.077117114018749447 0 -0.3750868287242039 -0.083945666598845156 0 -0.35957868311145441 -0.098530575294378642 0 -0.35337645997328532 -0.073491557988243944 0 -0.36565466293458038 -0.077117114018749447 0 -0.35957868311145441 -0.098530575294378642 0 -0.3750868287242039 -0.083945666598845156 0 -0.36565466293458038 -0.077117114018749447 0 -0.37683012181080239 -0.068733301298065499 0 -0.3750868287242039 -0.083945666598845156 0 -0.36565466293458038 -0.077117114018749447 0 -0.36795559713598469 -0.066638105727896774 0 -0.37683012181080239 -0.068733301298065499 0 -0.36565466293458038 -0.077117114018749447 0 -0.36110028685175177 -0.071363477205066639 0 -0.36795559713598469 -0.066638105727896774 0 -0.35337645997328532 -0.073491557988243944 0 -0.36565466293458038 -0.077117114018749447 0 -0.36110028685175177 -0.071363477205066639 0 -0.36110028685175177 -0.071363477205066639 0 -0.36795559713598469 -0.066638105727896774 0 -0.36113753062154968 -0.061859153573384271 0 -0.36795559713598469 -0.066638105727896774 0 -0.37470589733927712 -0.0545527271000322 0 -0.37683012181080239 -0.068733301298065499 0 -0.35650250053147359 -0.050635726844241939 0 -0.37707154236451451 -0.044605869900925722 0 -0.37470589733927712 -0.0545527271000322 0 -0.35650250053147359 -0.050635726844241939 0 -0.36795559713598469 -0.066638105727896774 0 -0.37470589733927712 -0.0545527271000322 0 -0.36113753062154968 -0.061859153573384271 0 -0.37470589733927712 -0.0545527271000322 0 -0.35650250053147359 -0.050635726844241939 0 -0.37707154236451451 -0.044605869900925722 0 -0.37470589733927712 -0.0545527271000322 0 -0.35970252298352262 -0.056514655867325403 0 -0.35650250053147359 -0.050635726844241939 0 -0.37470589733927712 -0.0545527271000322 0 -0.35970252298352262 -0.056514655867325403 0 -0.36113753062154968 -0.061859153573384271 0 -0.35391811348297447 -0.060268720819388867 0 -0.35527395769833642 -0.05300159300784036 0 -0.33116639189700398 -0.058063059230765962 0 -0.35527395769833642 -0.05300159300784036 0 -0.35507992259877907 -0.051052758492802497 0 -0.33116639189700398 -0.058063059230765962 0 -0.34954543010999922 -0.066229350004753773 0 -0.35391811348297447 -0.060268720819388867 0 -0.33116639189700398 -0.058063059230765962 0 -0.35970252298352262 -0.056514655867325403 0 -0.36113753062154968 -0.061859153573384271 0 -0.35391811348297447 -0.060268720819388867 0 -0.35970252298352262 -0.056514655867325403 0 -0.35391811348297447 -0.060268720819388867 0 -0.35527395769833642 -0.05300159300784036 0 -0.35650250053147359 -0.050635726844241939 0 -0.35507992259877907 -0.051052758492802497 0 -0.3484308880043866 -0.044087332347355908 0 -0.35970252298352262 -0.056514655867325403 0 -0.35650250053147359 -0.050635726844241939 0 -0.35527395769833642 -0.05300159300784036 0 -0.35650250053147359 -0.050635726844241939 0 -0.35527395769833642 -0.05300159300784036 0 -0.35650250053147359 -0.050635726844241939 0 -0.35527395769833642 -0.05300159300784036 0 -0.35507992259877907 -0.051052758492802497 0 -0.35650250053147359 -0.050635726844241939 0 -0.35507992259877907 -0.051052758492802497 0 -0.35507992259877907 -0.051052758492802497 0 -0.33978397050626657 -0.048324977944356091 0 -0.35507992259877907 -0.051052758492802497 0 -0.3484308880043866 -0.044087332347355908 0 -0.33978397050626657 -0.048324977944356091 0 -0.35650250053147359 -0.050635726844241939 0 -0.3501214739100334 -0.034607419809747728 0 -0.3484308880043866 -0.044087332347355908 0 -0.35650250053147359 -0.050635726844241939 0 -0.3501214739100334 -0.034607419809747728 0 -0.36684988365240911 -0.03070925546092473 0 -0.3501214739100334 -0.034607419809747728 0 -0.3484308880043866 -0.044087332347355908 0 -0.33506880487583801 -0.038565334792038719 0 -0.35650250053147359 -0.050635726844241939 0 -0.36684988365240911 -0.03070925546092473 0 -0.37707154236451451 -0.044605869900925722 0 -0.35650250053147359 -0.050635726844241939 0 -0.36684988365240911 -0.03070925546092473 0 -0.36684988365240911 -0.03070925546092473 0 -0.37719726677334758 -0.010782784077609161 0 -0.36684988365240911 -0.03070925546092473 0 -0.35583605574812599 -0.018224686697538489 0 -0.37719726677334758 -0.010782784077609161 0 -0.35583605574812599 -0.018224686697538489 0 -0.37719726677334758 -0.010782784077609161 0 -0.37145675818362223 0.001704133189072726 0 -0.35583605574812599 -0.018224686697538489 0 -0.37719726677334758 -0.010782784077609161 0 -0.35583605574812599 -0.018224686697538489 0 -0.35182631000740072 0.0068229147672093007 0 -0.37145675818362223 0.001704133189072726 0 -0.35583605574812599 -0.018224686697538489 0 -0.33449922093445961 -0.0040818700918973123 0 -0.35182631000740072 0.0068229147672093007 0 -0.3501214739100334 -0.034607419809747728 0 -0.35583605574812599 -0.018224686697538489 0 -0.33447484472290451 -0.025666589317467611 0 -0.3501214739100334 -0.034607419809747728 0 -0.36684988365240911 -0.03070925546092473 0 -0.35583605574812599 -0.018224686697538489 0 -0.35583605574812599 -0.018224686697538489 0 -0.33447484472290451 -0.025666589317467611 0 -0.35583605574812599 -0.018224686697538489 0 -0.33447484472290451 -0.025666589317467611 0 -0.33449922093445961 -0.0040818700918973123 0 -0.33447484472290451 -0.025666589317467611 0 -0.33449922093445961 -0.0040818700918973123 0 -0.31759413704845219 -0.011310857140017521 0 -0.33449922093445961 -0.0040818700918973123 0 -0.31759413704845219 -0.011310857140017521 0 -0.32049615199215492 0.0045280339304297253 0 -0.30518798685158838 -0.0020929360932298849 0 -0.31759413704845219 -0.011310857140017521 0 -0.32049615199215492 0.0045280339304297253 0 -0.33447484472290451 -0.025666589317467611 0 -0.31759413704845219 -0.011310857140017521 0 -0.31311363369768291 -0.03310849193739672 0 -0.33447484472290451 -0.025666589317467611 0 -0.31311363369768291 -0.03310849193739672 0 -0.3114594072847322 -0.049306726894047262 0 -0.31311363369768291 -0.03310849193739672 0 -0.32448801841375452 -0.045597197395908257 0 -0.33447484472290451 -0.025666589317467611 0 -0.31311363369768291 -0.03310849193739672 0 -0.33506880487583801 -0.038565334792038719 0 -0.31311363369768291 -0.03310849193739672 0 -0.32448801841375452 -0.045597197395908257 0 -0.33506880487583801 -0.038565334792038719 0 -0.3114594072847322 -0.049306726894047262 0 -0.32448801841375452 -0.045597197395908257 0 -0.33116639189700398 -0.058063059230765962 0 -0.30696176126270219 -0.065158696513015008 0 -0.33116639189700398 -0.058063059230765962 0 -0.3114594072847322 -0.049306726894047262 0 -0.33116639189700398 -0.058063059230765962 0 -0.3114594072847322 -0.049306726894047262 0 -0.30696176126270219 -0.065158696513015008 0 -0.33116639189700398 -0.058063059230765962 0 -0.32448801841375452 -0.045597197395908257 0 -0.33116639189700398 -0.058063059230765962 0 -0.33978397050626657 -0.048324977944356091 0 -0.34954543010999922 -0.066229350004753773 0 -0.33116639189700398 -0.058063059230765962 0 -0.35507992259877907 -0.051052758492802497 0 -0.33116639189700398 -0.058063059230765962 0 -0.33978397050626657 -0.048324977944356091 0 -0.35507992259877907 -0.051052758492802497 0 -0.33116639189700398 -0.058063059230765962 0 -0.32448801841375452 -0.045597197395908257 0 -0.33978397050626657 -0.048324977944356091 0 -0.3501214739100334 -0.034607419809747728 0 -0.33447484472290451 -0.025666589317467611 0 -0.33506880487583801 -0.038565334792038719 0 -0.3484308880043866 -0.044087332347355908 0 -0.33978397050626657 -0.048324977944356091 0 -0.33506880487583801 -0.038565334792038719 0 -0.32448801841375452 -0.045597197395908257 0 -0.33978397050626657 -0.048324977944356091 0 -0.33506880487583801 -0.038565334792038719 0 -0.29859701231105729 -0.25301700882560368 0 -0.3071375446623259 -0.2335196387236223 0 -0.31421725341188372 -0.24977587129631751 0 -0.29859701231105729 -0.25301700882560368 0 -0.3071375446623259 -0.2335196387236223 0 -0.29138670340076089 -0.23873921836977791 0 -0.3071375446623259 -0.2335196387236223 0 -0.29268109579257923 -0.22411955864172181 0 -0.3060605016315725 -0.21226103782782971 0 -0.3071375446623259 -0.2335196387236223 0 -0.3060605016315725 -0.21226103782782971 0 -0.32042736925848198 -0.22641527486886631 0 -0.3071375446623259 -0.2335196387236223 0 -0.29268109579257923 -0.22411955864172181 0 -0.29138670340076089 -0.23873921836977791 0 -0.29268109579257923 -0.22411955864172181 0 -0.27778266513963018 -0.23141617934605249 0 -0.2809246376312578 -0.20830770343947971 0 -0.29268109579257923 -0.22411955864172181 0 -0.29138670340076089 -0.23873921836977791 0 -0.27778266513963018 -0.23141617934605249 0 -0.28073519909821221 -0.25162370631188929 0 -0.29138670340076089 -0.23873921836977791 0 -0.27778266513963018 -0.23141617934605249 0 -0.28073519909821221 -0.25162370631188929 0 -0.29859701231105729 -0.25301700882560368 0 -0.29138670340076089 -0.23873921836977791 0 -0.28073519909821221 -0.25162370631188929 0 -0.2582168116042447 -0.2439014490639565 0 -0.27778266513963018 -0.23141617934605249 0 -0.24510877540263959 -0.22548599802342939 0 -0.2582168116042447 -0.2439014490639565 0 -0.26321090898949828 -0.22136191750140799 0 -0.24510877540263959 -0.22548599802342939 0 -0.26321090898949828 -0.22136191750140799 0 -0.25247744799357308 -0.21261594090752481 0 -0.26321090898949828 -0.22136191750140799 0 -0.27778266513963018 -0.23141617934605249 0 -0.2809246376312578 -0.20830770343947971 0 -0.2582168116042447 -0.2439014490639565 0 -0.26321090898949828 -0.22136191750140799 0 -0.27778266513963018 -0.23141617934605249 0 -0.26321090898949828 -0.22136191750140799 0 -0.2809246376312578 -0.20830770343947971 0 -0.26409863293778341 -0.20573621058270139 0 -0.26321090898949828 -0.22136191750140799 0 -0.26409863293778341 -0.20573621058270139 0 -0.25247744799357308 -0.21261594090752481 0 -0.26409863293778341 -0.20573621058270139 0 -0.25247744799357308 -0.21261594090752481 0 -0.25047429362874257 -0.200219847641955 0 -0.26409863293778341 -0.20573621058270139 0 -0.25047429362874257 -0.200219847641955 0 -0.26742375486930359 -0.1882108285553544 0 -0.25047429362874257 -0.200219847641955 0 -0.26742375486930359 -0.1882108285553544 0 -0.23968786498356659 -0.18400375912907671 0 -0.25047429362874257 -0.200219847641955 0 -0.26742375486930359 -0.1882108285553544 0 -0.2809246376312578 -0.20830770343947971 0 -0.26742375486930359 -0.1882108285553544 0 -0.29199909585561379 -0.19193849570898799 0 -0.26742375486930359 -0.1882108285553544 0 -0.29199909585561379 -0.19193849570898799 0 -0.2809246376312578 -0.20830770343947971 0 -0.26409863293778341 -0.20573621058270139 0 -0.26742375486930359 -0.1882108285553544 0 -0.2809246376312578 -0.20830770343947971 0 -0.3060605016315725 -0.21226103782782971 0 -0.2809246376312578 -0.20830770343947971 0 -0.29199909585561379 -0.19193849570898799 0 -0.3060605016315725 -0.21226103782782971 0 -0.29268109579257923 -0.22411955864172181 0 -0.2809246376312578 -0.20830770343947971 0 -0.3060605016315725 -0.21226103782782971 0 -0.29199909585561379 -0.19193849570898799 0 -0.3060605016315725 -0.21226103782782971 0 -0.3165744368419241 -0.19566616286262159 0 -0.29199909585561379 -0.19193849570898799 0 -0.3165744368419241 -0.19566616286262159 0 -0.29199909585561379 -0.19193849570898799 0 -0.29938476110462459 -0.18143496863655581 0 -0.3165744368419241 -0.19566616286262159 0 -0.29938476110462459 -0.18143496863655581 0 -0.31036357984341878 -0.17729064654437279 0 -0.3165744368419241 -0.19566616286262159 0 -0.29938476110462459 -0.18143496863655581 0 -0.30228981993539911 -0.17082195765291869 0 -0.28961274120160779 -0.1724895052286107 0 -0.29938476110462459 -0.18143496863655581 0 -0.31036357984341878 -0.17729064654437279 0 -0.30228981993539911 -0.17082195765291869 0 -0.31036357984341878 -0.17729064654437279 0 -0.31099079812705838 -0.16810657065420029 0 -0.30228981993539911 -0.17082195765291869 0 -0.31099079812705838 -0.16810657065420029 0 -0.31180172753391222 -0.15676818190186689 0 -0.30228981993539911 -0.17082195765291869 0 -0.31180172753391222 -0.15676818190186689 0 -0.28961274120160779 -0.1724895052286107 0 -0.31180172753391222 -0.15676818190186689 0 -0.28581520798017918 -0.16349252579439161 0 -0.31180172753391222 -0.15676818190186689 0 -0.28581520798017918 -0.16349252579439161 0 -0.30248732557626462 -0.14891872701938649 0 -0.31180172753391222 -0.15676818190186689 0 -0.30228981993539911 -0.17082195765291869 0 -0.28961274120160779 -0.1724895052286107 0 -0.31180172753391222 -0.15676818190186689 0 -0.28581520798017918 -0.16349252579439161 0 -0.28961274120160779 -0.1724895052286107 0 -0.28581520798017918 -0.16349252579439161 0 -0.28961274120160779 -0.1724895052286107 0 -0.27455339795200551 -0.17354596063111 0 -0.29199909585561379 -0.19193849570898799 0 -0.29938476110462459 -0.18143496863655581 0 -0.28961274120160779 -0.1724895052286107 0 -0.26742375486930359 -0.1882108285553544 0 -0.29199909585561379 -0.19193849570898799 0 -0.28961274120160779 -0.1724895052286107 0 -0.26742375486930359 -0.1882108285553544 0 -0.28961274120160779 -0.1724895052286107 0 -0.26742375486930359 -0.1882108285553544 0 -0.28961274120160779 -0.1724895052286107 0 -0.27455339795200551 -0.17354596063111 0 -0.26742375486930359 -0.1882108285553544 0 -0.27455339795200551 -0.17354596063111 0 -0.25982868842644607 -0.17021686968691641 0 -0.23968786498356659 -0.18400375912907671 0 -0.26742375486930359 -0.1882108285553544 0 -0.23968786498356659 -0.18400375912907671 0 -0.26742375486930359 -0.1882108285553544 0 -0.25982868842644607 -0.17021686968691641 0 -0.25982868842644607 -0.17021686968691641 0 -0.27013136078807137 -0.15645680560504849 0 -0.25343568279415951 -0.15224923159364789 0 -0.24566481473353391 -0.1652464025747532 0 -0.25982868842644607 -0.17021686968691641 0 -0.25343568279415951 -0.15224923159364789 0 -0.28581520798017918 -0.16349252579439161 0 -0.25982868842644607 -0.17021686968691641 0 -0.27013136078807137 -0.15645680560504849 0 -0.28581520798017918 -0.16349252579439161 0 -0.27455339795200551 -0.17354596063111 0 -0.25982868842644607 -0.17021686968691641 0 -0.28581520798017918 -0.16349252579439161 0 -0.27013136078807137 -0.15645680560504849 0 -0.281048741890911 -0.15139895950123519 0 -0.28581520798017918 -0.16349252579439161 0 -0.25982868842644607 -0.17021686968691641 0 -0.27013136078807137 -0.15645680560504849 0 -0.281048741890911 -0.15139895950123519 0 -0.27556222579122169 -0.14014760186465491 0 -0.27013136078807137 -0.15645680560504849 0 -0.25343568279415951 -0.15224923159364789 0 -0.27556222579122169 -0.14014760186465491 0 -0.25343568279415951 -0.15224923159364789 0 -0.26038693836179072 -0.13666660738782219 0 -0.27556222579122169 -0.14014760186465491 0 -0.25343568279415951 -0.15224923159364789 0 -0.27556222579122169 -0.14014760186465491 0 -0.2478381125959237 -0.13014188093155071 0 -0.26471173226585809 -0.1241277151614352 0 -0.26038693836179072 -0.13666660738782219 0 -0.2478381125959237 -0.13014188093155071 0 -0.25343568279415951 -0.15224923159364789 0 -0.26038693836179072 -0.13666660738782219 0 -0.26471173226585809 -0.1241277151614352 0 -0.28362018306611941 -0.1149768545032684 0 -0.27556222579122169 -0.14014760186465491 0 -0.26471173226585809 -0.1241277151614352 0 -0.26038693836179072 -0.13666660738782219 0 -0.27556222579122169 -0.14014760186465491 0 -0.27556222579122169 -0.14014760186465491 0 -0.29268617300417199 -0.1454989047408457 0 -0.29768876878828382 -0.12804597213566191 0 -0.28362018306611941 -0.1149768545032684 0 -0.27556222579122169 -0.14014760186465491 0 -0.29768876878828382 -0.12804597213566191 0 -0.27556222579122169 -0.14014760186465491 0 -0.29768876878828382 -0.12804597213566191 0 -0.28581520798017918 -0.16349252579439161 0 -0.29268617300417199 -0.1454989047408457 0 -0.30248732557626462 -0.14891872701938649 0 -0.28581520798017918 -0.16349252579439161 0 -0.281048741890911 -0.15139895950123519 0 -0.29268617300417199 -0.1454989047408457 0 -0.281048741890911 -0.15139895950123519 0 -0.27556222579122169 -0.14014760186465491 0 -0.29268617300417199 -0.1454989047408457 0 -0.29268617300417199 -0.1454989047408457 0 -0.30248732557626462 -0.14891872701938649 0 -0.30370630156068762 -0.1389224563049837 0 -0.31180172753391222 -0.15676818190186689 0 -0.30248732557626462 -0.14891872701938649 0 -0.31398283958777989 -0.14122477915676221 0 -0.30248732557626462 -0.14891872701938649 0 -0.30370630156068762 -0.1389224563049837 0 -0.31398283958777989 -0.14122477915676221 0 -0.29268617300417199 -0.1454989047408457 0 -0.29768876878828382 -0.12804597213566191 0 -0.30370630156068762 -0.1389224563049837 0 -0.31168640084693722 -0.1309238984722621 0 -0.30370630156068762 -0.1389224563049837 0 -0.31398283958777989 -0.14122477915676221 0 -0.31168640084693722 -0.1309238984722621 0 -0.29768876878828382 -0.12804597213566191 0 -0.30370630156068762 -0.1389224563049837 0 -0.32501708124079648 -0.13103464252731351 0 -0.31398283958777989 -0.14122477915676221 0 -0.32769326224381667 -0.1455087240973956 0 -0.31981531178534578 -0.1159443424066684 0 -0.31168640084693722 -0.1309238984722621 0 -0.32501708124079648 -0.13103464252731351 0 -0.31168640084693722 -0.1309238984722621 0 -0.32501708124079648 -0.13103464252731351 0 -0.31398283958777989 -0.14122477915676221 0 -0.31180172753391222 -0.15676818190186689 0 -0.32298463198440808 -0.15387446252221321 0 -0.32769326224381667 -0.1455087240973956 0 -0.31180172753391222 -0.15676818190186689 0 -0.32769326224381667 -0.1455087240973956 0 -0.31180172753391222 -0.15676818190186689 0 -0.31398283958777989 -0.14122477915676221 0 -0.32769326224381667 -0.1455087240973956 0 -0.31180172753391222 -0.15676818190186689 0 -0.32298463198440808 -0.15387446252221321 0 -0.32298463198440808 -0.15387446252221321 0 -0.33102430582003672 -0.15284086827415069 0 -0.32912678435276249 -0.16184097596254959 0 -0.32298463198440808 -0.15387446252221321 0 -0.32769326224381667 -0.1455087240973956 0 -0.33102430582003672 -0.15284086827415069 0 -0.32769326224381667 -0.1455087240973956 0 -0.33779330298695009 -0.14738175250870711 0 -0.34358479695372102 -0.13424926629292419 0 -0.32769326224381667 -0.1455087240973956 0 -0.33102430582003672 -0.15284086827415069 0 -0.33779330298695009 -0.14738175250870711 0 -0.33779330298695009 -0.14738175250870711 0 -0.34838845348846031 -0.14833884467229949 0 -0.33902784532518498 -0.15634369213364299 0 -0.33102430582003672 -0.15284086827415069 0 -0.33779330298695009 -0.14738175250870711 0 -0.33902784532518498 -0.15634369213364299 0 -0.33779330298695009 -0.14738175250870711 0 -0.34358479695372102 -0.13424926629292419 0 -0.34838845348846031 -0.14833884467229949 0 -0.32501708124079648 -0.13103464252731351 0 -0.32769326224381667 -0.1455087240973956 0 -0.34358479695372102 -0.13424926629292419 0 -0.33811662782018509 -0.1187149432167614 0 -0.32501708124079648 -0.13103464252731351 0 -0.34358479695372102 -0.13424926629292419 0 -0.32769326224381667 -0.1455087240973956 0 -0.34358479695372102 -0.13424926629292419 0 -0.33811662782018509 -0.1187149432167614 0 -0.36560935282136869 -0.1228770136391782 0 -0.34358479695372102 -0.13424926629292419 0 -0.36560935282136869 -0.1228770136391782 0 -0.34358479695372102 -0.13424926629292419 0 -0.35789225520722451 -0.13996819740399649 0 -0.36560935282136869 -0.1228770136391782 0 -0.37179133304014322 -0.14783430818272611 0 -0.38404989885292651 -0.1400792958384918 0 -0.36560935282136869 -0.1228770136391782 0 -0.37179133304014322 -0.14783430818272611 0 -0.36560935282136869 -0.1228770136391782 0 -0.35789225520722451 -0.13996819740399649 0 -0.37179133304014322 -0.14783430818272611 0 -0.35789225520722451 -0.13996819740399649 0 -0.37179133304014322 -0.14783430818272611 0 -0.35884313601860912 -0.15417852746750099 0 -0.35884313601860912 -0.15417852746750099 0 -0.34838845348846031 -0.14833884467229949 0 -0.34888414490412811 -0.1629439357986564 0 -0.35789225520722451 -0.13996819740399649 0 -0.35884313601860912 -0.15417852746750099 0 -0.34838845348846031 -0.14833884467229949 0 -0.34358479695372102 -0.13424926629292419 0 -0.35789225520722451 -0.13996819740399649 0 -0.34838845348846031 -0.14833884467229949 0 -0.34838845348846031 -0.14833884467229949 0 -0.34888414490412811 -0.1629439357986564 0 -0.33902784532518498 -0.15634369213364299 0 -0.34888414490412811 -0.1629439357986564 0 -0.34454825898434782 -0.17720191583282571 0 -0.33836769259919219 -0.1670464993373886 0 -0.34888414490412811 -0.1629439357986564 0 -0.35381843126239348 -0.1726746577785957 0 -0.34454825898434782 -0.17720191583282571 0 -0.34888414490412811 -0.1629439357986564 0 -0.36338268495294579 -0.16800377969191779 0 -0.35381843126239348 -0.1726746577785957 0 -0.35884313601860912 -0.15417852746750099 0 -0.34888414490412811 -0.1629439357986564 0 -0.36338268495294579 -0.16800377969191779 0 -0.37179133304014322 -0.14783430818272611 0 -0.37797331325891809 -0.17279160272627381 0 -0.37179133304014322 -0.14783430818272611 0 -0.35884313601860912 -0.15417852746750099 0 -0.36338268495294579 -0.16800377969191779 0 -0.37179133304014322 -0.14783430818272611 0 -0.36338268495294579 -0.16800377969191779 0 -0.37797331325891809 -0.17279160272627381 0 -0.36338268495294579 -0.16800377969191779 0 -0.37192204740575269 -0.18508240213403099 0 -0.3584586362081526 -0.18254899979098321 0 -0.36338268495294579 -0.16800377969191779 0 -0.37192204740575269 -0.18508240213403099 0 -0.37797331325891809 -0.17279160272627381 0 -0.36338268495294579 -0.16800377969191779 0 -0.3584586362081526 -0.18254899979098321 0 -0.35381843126239348 -0.1726746577785957 0 -0.3584586362081526 -0.18254899979098321 0 -0.35381843126239348 -0.1726746577785957 0 -0.34454825898434782 -0.17720191583282571 0 -0.3584586362081526 -0.18254899979098321 0 -0.34454825898434782 -0.17720191583282571 0 -0.34833703943659811 -0.1887712121410032 0 -0.34454825898434782 -0.17720191583282571 0 -0.33350934598544107 -0.1865060965460745 0 -0.34833703943659811 -0.1887712121410032 0 -0.33350934598544107 -0.1865060965460745 0 -0.33087698944707578 -0.17469400287398781 0 -0.32216648346267268 -0.18034048106893991 0 -0.34454825898434782 -0.17720191583282571 0 -0.33087698944707578 -0.17469400287398781 0 -0.33836769259919219 -0.1670464993373886 0 -0.34454825898434782 -0.17720191583282571 0 -0.33350934598544107 -0.1865060965460745 0 -0.33087698944707578 -0.17469400287398781 0 -0.34888414490412811 -0.1629439357986564 0 -0.33836769259919219 -0.1670464993373886 0 -0.33902784532518498 -0.15634369213364299 0 -0.33102430582003672 -0.15284086827415069 0 -0.33902784532518498 -0.15634369213364299 0 -0.32912678435276249 -0.16184097596254959 0 -0.33836769259919219 -0.1670464993373886 0 -0.33902784532518498 -0.15634369213364299 0 -0.32912678435276249 -0.16184097596254959 0 -0.33087698944707578 -0.17469400287398781 0 -0.33836769259919219 -0.1670464993373886 0 -0.32912678435276249 -0.16184097596254959 0 -0.33087698944707578 -0.17469400287398781 0 -0.32912678435276249 -0.16184097596254959 0 -0.31950806519550368 -0.16754549651764289 0 -0.32298463198440808 -0.15387446252221321 0 -0.32912678435276249 -0.16184097596254959 0 -0.31950806519550368 -0.16754549651764289 0 -0.31180172753391222 -0.15676818190186689 0 -0.32298463198440808 -0.15387446252221321 0 -0.31950806519550368 -0.16754549651764289 0 -0.31099079812705838 -0.16810657065420029 0 -0.31180172753391222 -0.15676818190186689 0 -0.31950806519550368 -0.16754549651764289 0 -0.31036357984341878 -0.17729064654437279 0 -0.31099079812705838 -0.16810657065420029 0 -0.31950806519550368 -0.16754549651764289 0 -0.31036357984341878 -0.17729064654437279 0 -0.31950806519550368 -0.16754549651764289 0 -0.32216648346267268 -0.18034048106893991 0 -0.31036357984341878 -0.17729064654437279 0 -0.32216648346267268 -0.18034048106893991 0 -0.3165744368419241 -0.19566616286262159 0 -0.33087698944707578 -0.17469400287398781 0 -0.31950806519550368 -0.16754549651764289 0 -0.32216648346267268 -0.18034048106893991 0 -0.33350934598544107 -0.1865060965460745 0 -0.32216648346267268 -0.18034048106893991 0 -0.3165744368419241 -0.19566616286262159 0 -0.3060605016315725 -0.21226103782782971 0 -0.33119636563188709 -0.2162143722161797 0 -0.32042736925848198 -0.22641527486886631 0 -0.3060605016315725 -0.21226103782782971 0 -0.33119636563188709 -0.2162143722161797 0 -0.3060605016315725 -0.21226103782782971 0 -0.3165744368419241 -0.19566616286262159 0 -0.33119636563188709 -0.2162143722161797 0 -0.33119636563188709 -0.2162143722161797 0 -0.34114977782823441 -0.19939383001625499 0 -0.35633222963220179 -0.22016770660452969 0 -0.3165744368419241 -0.19566616286262159 0 -0.33119636563188709 -0.2162143722161797 0 -0.34114977782823441 -0.19939383001625499 0 -0.3165744368419241 -0.19566616286262159 0 -0.34114977782823441 -0.19939383001625499 0 -0.33350934598544107 -0.1865060965460745 0 -0.3165744368419241 -0.19566616286262159 0 -0.34114977782823441 -0.19939383001625499 0 -0.33350934598544107 -0.1865060965460745 0 -0.34114977782823441 -0.19939383001625499 0 -0.34833703943659811 -0.1887712121410032 0 -0.34114977782823441 -0.19939383001625499 0 -0.36572511881454461 -0.20312149716988859 0 -0.34114977782823441 -0.19939383001625499 0 -0.34833703943659811 -0.1887712121410032 0 -0.36572511881454461 -0.20312149716988859 0 -0.3584586362081526 -0.18254899979098321 0 -0.34833703943659811 -0.1887712121410032 0 -0.36572511881454461 -0.20312149716988859 0 -0.37192204740575269 -0.18508240213403099 0 -0.3584586362081526 -0.18254899979098321 0 -0.36572511881454461 -0.20312149716988859 0 -0.37192204740575269 -0.18508240213403099 0 -0.36572511881454461 -0.20312149716988859 0 -0.37832751345100762 -0.19569708509895661 0 -0.36572511881454461 -0.20312149716988859 0 -0.35633222963220179 -0.22016770660452969 0 -0.37671868671049757 -0.21209106954761561 0 -0.33119636563188709 -0.2162143722161797 0 -0.35633222963220179 -0.22016770660452969 0 -0.34114977782823441 -0.19939383001625499 0 -0.36572511881454461 -0.20312149716988859 0 -0.35633222963220179 -0.22016770660452969 0 -0.34918985577357953 -0.22996643434813971 0 -0.35633222963220179 -0.22016770660452969 0 -0.3644368395520925 -0.23786219595255659 0 -0.33119636563188709 -0.2162143722161797 0 -0.34918985577357953 -0.22996643434813971 0 -0.35633222963220179 -0.22016770660452969 0 -0.35633222963220179 -0.22016770660452969 0 -0.38146809363251649 -0.22412104099287969 0 -0.35633222963220179 -0.22016770660452969 0 -0.37359243883566862 -0.23215909975287299 0 -0.3644368395520925 -0.23786219595255659 0 -0.35633222963220179 -0.22016770660452969 0 -0.37359243883566862 -0.23215909975287299 0 -0.38146809363251649 -0.22412104099287969 0 -0.35633222963220179 -0.22016770660452969 0 -0.38146809363251649 -0.22412104099287969 0 -0.37671868671049757 -0.21209106954761561 0 -0.36999160380854529 -0.25160890498862648 0 -0.3644368395520925 -0.23786219595255659 0 -0.37872015884544641 -0.2435614714605657 0 -0.37359243883566862 -0.23215909975287299 0 -0.3644368395520925 -0.23786219595255659 0 -0.37872015884544641 -0.2435614714605657 0 -0.36999160380854529 -0.25160890498862648 0 -0.3644368395520925 -0.23786219595255659 0 -0.35707845064694121 -0.24935767075674509 0 -0.34918985577357953 -0.22996643434813971 0 -0.3644368395520925 -0.23786219595255659 0 -0.35707845064694121 -0.24935767075674509 0 -0.34918985577357953 -0.22996643434813971 0 -0.35707845064694121 -0.24935767075674509 0 -0.34918985577357953 -0.22996643434813971 0 -0.35707845064694121 -0.24935767075674509 0 -0.34161545739809862 -0.2441761224370865 0 -0.32577683519746242 -0.25897579210934468 0 -0.34161545739809862 -0.2441761224370865 0 -0.32489287339017531 -0.23961736858555491 0 -0.34918985577357953 -0.22996643434813971 0 -0.34161545739809862 -0.2441761224370865 0 -0.33284956097644908 -0.23046395699114461 0 -0.34161545739809862 -0.2441761224370865 0 -0.33284956097644908 -0.23046395699114461 0 -0.32489287339017531 -0.23961736858555491 0 -0.33119636563188709 -0.2162143722161797 0 -0.34918985577357953 -0.22996643434813971 0 -0.33284956097644908 -0.23046395699114461 0 -0.33119636563188709 -0.2162143722161797 0 -0.33284956097644908 -0.23046395699114461 0 -0.32042736925848198 -0.22641527486886631 0 -0.3071375446623259 -0.2335196387236223 0 -0.32042736925848198 -0.22641527486886631 0 -0.32489287339017531 -0.23961736858555491 0 -0.33284956097644908 -0.23046395699114461 0 -0.32042736925848198 -0.22641527486886631 0 -0.32489287339017531 -0.23961736858555491 0 -0.3071375446623259 -0.2335196387236223 0 -0.31421725341188372 -0.24977587129631751 0 -0.32489287339017531 -0.23961736858555491 0 -0.32577683519746242 -0.25897579210934468 0 -0.31421725341188372 -0.24977587129631751 0 -0.32489287339017531 -0.23961736858555491 0 -0.429193077912078 -0.24092705066174019 0 -0.42560539866416353 -0.22692866047589191 0 -0.44336769959532257 -0.23972790925379969 0 -0.429193077912078 -0.24092705066174019 0 -0.42560539866416353 -0.22692866047589191 0 -0.41466813127082142 -0.24184035413310251 0 -0.42775875008346192 -0.25507980811954323 0 -0.429193077912078 -0.24092705066174019 0 -0.41466813127082142 -0.24184035413310251 0 -0.44165736388207272 -0.25360003737878889 0 -0.42775875008346192 -0.25507980811954323 0 -0.429193077912078 -0.24092705066174019 0 -0.42560539866416353 -0.22692866047589191 0 -0.43795718746300122 -0.2140778908121922 0 -0.44658841198271632 -0.22637890077404829 0 -0.42560539866416353 -0.22692866047589191 0 -0.41054768849444062 -0.2248275857939297 0 -0.41466813127082142 -0.24184035413310251 0 -0.42560539866416353 -0.22692866047589191 0 -0.41054768849444062 -0.2248275857939297 0 -0.41728712034711612 -0.21094258822191489 0 -0.42560539866416353 -0.22692866047589191 0 -0.41728712034711612 -0.21094258822191489 0 -0.41054768849444062 -0.2248275857939297 0 -0.41466813127082142 -0.24184035413310251 0 -0.39796822484346261 -0.23652916605093899 0 -0.40220594800304021 -0.25293233307518609 0 -0.39796822484346261 -0.23652916605093899 0 -0.39442967684708991 -0.25208667127465478 0 -0.39796822484346261 -0.23652916605093899 0 -0.38700487251608578 -0.2350830837538336 0 -0.40220594800304021 -0.25293233307518609 0 -0.41466813127082142 -0.24184035413310251 0 -0.39796822484346261 -0.23652916605093899 0 -0.39442967684708991 -0.25208667127465478 0 -0.38700487251608578 -0.2350830837538336 0 -0.37872015884544641 -0.2435614714605657 0 -0.37359243883566862 -0.23215909975287299 0 -0.38700487251608578 -0.2350830837538336 0 -0.37872015884544641 -0.2435614714605657 0 -0.37359243883566862 -0.23215909975287299 0 -0.38700487251608578 -0.2350830837538336 0 -0.38146809363251649 -0.22412104099287969 0 -0.38700487251608578 -0.2350830837538336 0 -0.38146809363251649 -0.22412104099287969 0 -0.39413434232215888 -0.2216891651872302 0 -0.38146809363251649 -0.22412104099287969 0 -0.39413434232215888 -0.2216891651872302 0 -0.38565539561650702 -0.2161876100128117 0 -0.41054768849444062 -0.2248275857939297 0 -0.39796822484346261 -0.23652916605093899 0 -0.39720956734663881 -0.20789716008779879 0 -0.39796822484346261 -0.23652916605093899 0 -0.39413434232215888 -0.2216891651872302 0 -0.39720956734663881 -0.20789716008779879 0 -0.39796822484346261 -0.23652916605093899 0 -0.39720956734663881 -0.20789716008779879 0 -0.39796822484346261 -0.23652916605093899 0 -0.38700487251608578 -0.2350830837538336 0 -0.39413434232215888 -0.2216891651872302 0 -0.39796822484346261 -0.23652916605093899 0 -0.39413434232215888 -0.2216891651872302 0 -0.39720956734663881 -0.20789716008779879 0 -0.40277518483810348 -0.20053664405661509 0 -0.41728712034711612 -0.21094258822191489 0 -0.39720956734663881 -0.20789716008779879 0 -0.39030045980085482 -0.20684916432352149 0 -0.39413434232215888 -0.2216891651872302 0 -0.39720956734663881 -0.20789716008779879 0 -0.39030045980085482 -0.20684916432352149 0 -0.39413434232215888 -0.2216891651872302 0 -0.39030045980085482 -0.20684916432352149 0 -0.36572511881454461 -0.20312149716988859 0 -0.39030045980085482 -0.20684916432352149 0 -0.39413434232215888 -0.2216891651872302 0 -0.38565539561650702 -0.2161876100128117 0 -0.39030045980085482 -0.20684916432352149 0 -0.38565539561650702 -0.2161876100128117 0 -0.39030045980085482 -0.20684916432352149 0 -0.37671868671049757 -0.21209106954761561 0 -0.36572511881454461 -0.20312149716988859 0 -0.39030045980085482 -0.20684916432352149 0 -0.37671868671049757 -0.21209106954761561 0 -0.38146809363251649 -0.22412104099287969 0 -0.38565539561650702 -0.2161876100128117 0 -0.37671868671049757 -0.21209106954761561 0 -0.39030045980085482 -0.20684916432352149 0 -0.38536242778287788 -0.1877352767683855 0 -0.39030045980085482 -0.20684916432352149 0 -0.37832751345100762 -0.19569708509895661 0 -0.38536242778287788 -0.1877352767683855 0 -0.36572511881454461 -0.20312149716988859 0 -0.39030045980085482 -0.20684916432352149 0 -0.37832751345100762 -0.19569708509895661 0 -0.37192204740575269 -0.18508240213403099 0 -0.37832751345100762 -0.19569708509895661 0 -0.38536242778287788 -0.1877352767683855 0 -0.39030045980085482 -0.20684916432352149 0 -0.38536242778287788 -0.1877352767683855 0 -0.39682758983152833 -0.1934811917008569 0 -0.39720956734663881 -0.20789716008779879 0 -0.39682758983152833 -0.1934811917008569 0 -0.39720956734663881 -0.20789716008779879 0 -0.39030045980085482 -0.20684916432352149 0 -0.39682758983152833 -0.1934811917008569 0 -0.39720956734663881 -0.20789716008779879 0 -0.39682758983152833 -0.1934811917008569 0 -0.40277518483810348 -0.20053664405661509 0 -0.39682758983152833 -0.1934811917008569 0 -0.40277518483810348 -0.20053664405661509 0 -0.40786839632368732 -0.19284167875001809 0 -0.40786839632368732 -0.19284167875001809 0 -0.42071188954671479 -0.1977783538484196 0 -0.41728712034711612 -0.21094258822191489 0 -0.40277518483810348 -0.20053664405661509 0 -0.40786839632368732 -0.19284167875001809 0 -0.41728712034711612 -0.21094258822191489 0 -0.40786839632368732 -0.19284167875001809 0 -0.41728712034711612 -0.21094258822191489 0 -0.40786839632368732 -0.19284167875001809 0 -0.42071188954671479 -0.1977783538484196 0 -0.41781993309639348 -0.18473776223631169 0 -0.39720956734663881 -0.20789716008779879 0 -0.41728712034711612 -0.21094258822191489 0 -0.41054768849444062 -0.2248275857939297 0 -0.39720956734663881 -0.20789716008779879 0 -0.41728712034711612 -0.21094258822191489 0 -0.41728712034711612 -0.21094258822191489 0 -0.43042781253814327 -0.20309513998401429 0 -0.43795718746300122 -0.2140778908121922 0 -0.41728712034711612 -0.21094258822191489 0 -0.43795718746300122 -0.2140778908121922 0 -0.42071188954671479 -0.1977783538484196 0 -0.41728712034711612 -0.21094258822191489 0 -0.43042781253814327 -0.20309513998401429 0 -0.42560539866416353 -0.22692866047589191 0 -0.41728712034711612 -0.21094258822191489 0 -0.43795718746300122 -0.2140778908121922 0 -0.43042781253814327 -0.20309513998401429 0 -0.43110417706379089 -0.19272761716818959 0 -0.44507868827009389 -0.1999492498693555 0 -0.42071188954671479 -0.1977783538484196 0 -0.43110417706379089 -0.19272761716818959 0 -0.41781993309639348 -0.18473776223631169 0 -0.42071188954671479 -0.1977783538484196 0 -0.43042781253814327 -0.20309513998401429 0 -0.43110417706379089 -0.19272761716818959 0 -0.43179072736577528 -0.17970529711169 0 -0.42986163711504638 -0.16701354152048811 0 -0.41699473597813752 -0.17063285726143029 0 -0.43179072736577528 -0.17970529711169 0 -0.41699473597813752 -0.17063285726143029 0 -0.41781993309639348 -0.18473776223631169 0 -0.43110417706379089 -0.19272761716818959 0 -0.43179072736577528 -0.17970529711169 0 -0.41781993309639348 -0.18473776223631169 0 -0.43110417706379089 -0.19272761716818959 0 -0.43179072736577528 -0.17970529711169 0 -0.44559792516655838 -0.1851633886427331 0 -0.43179072736577528 -0.17970529711169 0 -0.42986163711504638 -0.16701354152048811 0 -0.44303700991658518 -0.17026832712875151 0 -0.42986163711504638 -0.16701354152048811 0 -0.43823455075000578 -0.15580669622701629 0 -0.44303700991658518 -0.17026832712875151 0 -0.42986163711504638 -0.16701354152048811 0 -0.41699473597813752 -0.17063285726143029 0 -0.41985581490816198 -0.154444998856094 0 -0.42986163711504638 -0.16701354152048811 0 -0.41985581490816198 -0.154444998856094 0 -0.43823455075000578 -0.15580669622701629 0 -0.41699473597813752 -0.17063285726143029 0 -0.39844967230025591 -0.17474076927812279 0 -0.4045200176128938 -0.16008114399198281 0 -0.41699473597813752 -0.17063285726143029 0 -0.4045200176128938 -0.16008114399198281 0 -0.41985581490816198 -0.154444998856094 0 -0.41699473597813752 -0.17063285726143029 0 -0.41781993309639348 -0.18473776223631169 0 -0.39844967230025591 -0.17474076927812279 0 -0.40786839632368732 -0.19284167875001809 0 -0.41781993309639348 -0.18473776223631169 0 -0.39844967230025591 -0.17474076927812279 0 -0.40786839632368732 -0.19284167875001809 0 -0.39844967230025591 -0.17474076927812279 0 -0.39682758983152833 -0.1934811917008569 0 -0.40786839632368732 -0.19284167875001809 0 -0.39844967230025591 -0.17474076927812279 0 -0.38536242778287788 -0.1877352767683855 0 -0.39682758983152833 -0.1934811917008569 0 -0.39844967230025591 -0.17474076927812279 0 -0.38536242778287788 -0.1877352767683855 0 -0.39844967230025591 -0.17474076927812279 0 -0.37797331325891809 -0.17279160272627381 0 -0.37192204740575269 -0.18508240213403099 0 -0.38536242778287788 -0.1877352767683855 0 -0.37797331325891809 -0.17279160272627381 0 -0.37179133304014322 -0.14783430818272611 0 -0.37797331325891809 -0.17279160272627381 0 -0.38903094827682438 -0.15663985980622741 0 -0.39844967230025591 -0.17474076927812279 0 -0.37797331325891809 -0.17279160272627381 0 -0.38903094827682438 -0.15663985980622741 0 -0.39844967230025591 -0.17474076927812279 0 -0.38903094827682438 -0.15663985980622741 0 -0.39844967230025591 -0.17474076927812279 0 -0.38903094827682438 -0.15663985980622741 0 -0.4045200176128938 -0.16008114399198281 0 -0.38903094827682438 -0.15663985980622741 0 -0.4045200176128938 -0.16008114399198281 0 -0.39938536477583741 -0.14370127207381619 0 -0.38903094827682438 -0.15663985980622741 0 -0.39938536477583741 -0.14370127207381619 0 -0.38404989885292651 -0.1400792958384918 0 -0.37179133304014322 -0.14783430818272611 0 -0.38903094827682438 -0.15663985980622741 0 -0.38404989885292651 -0.1400792958384918 0 -0.36560935282136869 -0.1228770136391782 0 -0.38404989885292651 -0.1400792958384918 0 -0.38887223831657869 -0.12639873684615319 0 -0.38887223831657869 -0.12639873684615319 0 -0.41213512381178841 -0.1299204600531296 0 -0.39938536477583741 -0.14370127207381619 0 -0.38887223831657869 -0.12639873684615319 0 -0.41213512381178841 -0.1299204600531296 0 -0.39938536477583741 -0.14370127207381619 0 -0.38404989885292651 -0.1400792958384918 0 -0.38887223831657869 -0.12639873684615319 0 -0.4045200176128938 -0.16008114399198281 0 -0.39938536477583741 -0.14370127207381619 0 -0.41985581490816198 -0.154444998856094 0 -0.39938536477583741 -0.14370127207381619 0 -0.41213512381178841 -0.1299204600531296 0 -0.41985581490816198 -0.154444998856094 0 -0.41985581490816198 -0.154444998856094 0 -0.43539800930699801 -0.1334421832601059 0 -0.43823455075000578 -0.15580669622701629 0 -0.41213512381178841 -0.1299204600531296 0 -0.41985581490816198 -0.154444998856094 0 -0.43539800930699801 -0.1334421832601059 0 -0.41213512381178841 -0.1299204600531296 0 -0.43539800930699801 -0.1334421832601059 0 -0.43259539229225402 -0.1157747654031315 0 -0.41213512381178841 -0.1299204600531296 0 -0.43539800930699801 -0.1334421832601059 0 -0.43539800930699801 -0.1334421832601059 0 -0.45866089480220767 -0.1369639064670822 0 -0.45113905152447542 -0.1175368028588321 0 -0.43539800930699801 -0.1334421832601059 0 -0.44775450515208032 -0.1461386934312979 0 -0.45866089480220767 -0.1369639064670822 0 -0.43539800930699801 -0.1334421832601059 0 -0.45866089480220767 -0.1369639064670822 0 -0.44775450515208032 -0.1461386934312979 0 -0.43823455075000578 -0.15580669622701629 0 -0.45633895227784033 -0.1576945794699274 0 -0.43539800930699801 -0.1334421832601059 0 -0.44775450515208032 -0.1461386934312979 0 -0.43823455075000578 -0.15580669622701629 0 -0.44775450515208032 -0.1461386934312979 0 -0.45866089480220767 -0.1369639064670822 0 -0.45633895227784033 -0.1576945794699274 0 -0.45866089480220767 -0.1369639064670822 0 -0.47575659097790751 -0.15007175010341289 0 -0.45633895227784033 -0.1576945794699274 0 -0.45866089480220767 -0.1369639064670822 0 -0.47575659097790751 -0.15007175010341289 0 -0.46915934665662162 -0.1230624738371303 0 -0.45866089480220767 -0.1369639064670822 0 -0.45113905152447542 -0.1175368028588321 0 -0.46915934665662162 -0.1230624738371303 0 -0.47575659097790751 -0.15007175010341289 0 -0.46915934665662162 -0.1230624738371303 0 -0.48351137830779539 -0.13386722315158131 0 -0.47575659097790751 -0.15007175010341289 0 -0.46915934665662162 -0.1230624738371303 0 -0.48351137830779539 -0.13386722315158131 0 -0.5 -0.12673639045435739 0 -0.5 -0.15610943167098409 0 -0.48351137830779539 -0.13386722315158131 0 -0.5 -0.15610943167098409 0 -0.47575659097790751 -0.15007175010341289 0 -0.47575659097790751 -0.15007175010341289 0 -0.4823538352991934 -0.17708102636969561 0 -0.47575659097790751 -0.15007175010341289 0 -0.46899934294491291 -0.16540597077255109 0 -0.4823538352991934 -0.17708102636969561 0 -0.5 -0.15610943167098409 0 -0.47575659097790751 -0.15007175010341289 0 -0.4823538352991934 -0.17708102636969561 0 -0.5 -0.15610943167098409 0 -0.49999999999999722 -0.18548247288761069 0 -0.4823538352991934 -0.17708102636969561 0 -0.4823538352991934 -0.17708102636969561 0 -0.46154799322471052 -0.17677652714716849 0 -0.47332956926376563 -0.19085067910818809 0 -0.46899934294491291 -0.16540597077255109 0 -0.4823538352991934 -0.17708102636969561 0 -0.46154799322471052 -0.17677652714716849 0 -0.46154799322471052 -0.17677652714716849 0 -0.44559792516655838 -0.1851633886427331 0 -0.46102895515839498 -0.19155331343124329 0 -0.46154799322471052 -0.17677652714716849 0 -0.46102895515839498 -0.19155331343124329 0 -0.47332956926376563 -0.19085067910818809 0 -0.46899934294491291 -0.16540597077255109 0 -0.46154799322471052 -0.17677652714716849 0 -0.45633895227784033 -0.1576945794699274 0 -0.47575659097790751 -0.15007175010341289 0 -0.46899934294491291 -0.16540597077255109 0 -0.45633895227784033 -0.1576945794699274 0 -0.46154799322471052 -0.17677652714716849 0 -0.45633895227784033 -0.1576945794699274 0 -0.44303700991658518 -0.17026832712875151 0 -0.43823455075000578 -0.15580669622701629 0 -0.45633895227784033 -0.1576945794699274 0 -0.44303700991658518 -0.17026832712875151 0 -0.46154799322471052 -0.17677652714716849 0 -0.44303700991658518 -0.17026832712875151 0 -0.44559792516655838 -0.1851633886427331 0 -0.43179072736577528 -0.17970529711169 0 -0.44303700991658518 -0.17026832712875151 0 -0.44559792516655838 -0.1851633886427331 0 -0.44559792516655838 -0.1851633886427331 0 -0.44507868827009389 -0.1999492498693555 0 -0.46102895515839498 -0.19155331343124329 0 -0.43110417706379089 -0.19272761716818959 0 -0.44559792516655838 -0.1851633886427331 0 -0.44507868827009389 -0.1999492498693555 0 -0.44507868827009389 -0.1999492498693555 0 -0.43795718746300122 -0.2140778908121922 0 -0.4586272545788867 -0.21721319340246781 0 -0.43042781253814327 -0.20309513998401429 0 -0.44507868827009389 -0.1999492498693555 0 -0.43795718746300122 -0.2140778908121922 0 -0.43795718746300122 -0.2140778908121922 0 -0.4586272545788867 -0.21721319340246781 0 -0.4586272545788867 -0.21721319340246781 0 -0.46102895515839498 -0.19155331343124329 0 -0.47276598301604827 -0.20475222595685469 0 -0.44507868827009389 -0.1999492498693555 0 -0.4586272545788867 -0.21721319340246781 0 -0.46102895515839498 -0.19155331343124329 0 -0.47332956926376563 -0.19085067910818809 0 -0.48895107962048001 -0.20409030263597791 0 -0.47276598301604827 -0.20475222595685469 0 -0.4823538352991934 -0.17708102636969561 0 -0.47332956926376563 -0.19085067910818809 0 -0.48895107962048001 -0.20409030263597791 0 -0.46102895515839498 -0.19155331343124329 0 -0.47332956926376563 -0.19085067910818809 0 -0.47276598301604827 -0.20475222595685469 0 -0.4823538352991934 -0.17708102636969561 0 -0.48895107962048001 -0.20409030263597791 0 -0.49999999999999722 -0.18548247288761069 0 -0.48895107962048001 -0.20409030263597791 0 -0.49999999999999722 -0.18548247288761069 0 -0.5 -0.2044856090206181 0 -0.48895107962048001 -0.20409030263597791 0 -0.49999999999999722 -0.18548247288761069 0 -0.4823538352991934 -0.17708102636969561 0 -0.48895107962048001 -0.20409030263597791 0 -0.5 -0.2044856090206181 0 -0.500000000000002 -0.2234887451536256 0 -0.49344650703865789 -0.22249469015893941 0 -0.5 -0.2044856090206181 0 -0.48895107962048001 -0.20409030263597791 0 -0.49344650703865789 -0.22249469015893941 0 -0.48895107962048001 -0.20409030263597791 0 -0.47929732169477218 -0.22034849599274231 0 -0.49344650703865789 -0.22249469015893941 0 -0.48895107962048001 -0.20409030263597791 0 -0.49344650703865789 -0.22249469015893941 0 -0.48895107962048001 -0.20409030263597791 0 -0.47276598301604827 -0.20475222595685469 0 -0.47929732169477218 -0.22034849599274231 0 -0.48895107962048001 -0.20409030263597791 0 -0.47929732169477218 -0.22034849599274231 0 -0.4586272545788867 -0.21721319340246781 0 -0.47276598301604827 -0.20475222595685469 0 -0.47929732169477218 -0.22034849599274231 0 -0.4586272545788867 -0.21721319340246781 0 -0.47929732169477218 -0.22034849599274231 0 -0.47929732169477218 -0.22034849599274231 0 -0.48416686203858311 -0.23469505857438669 0 -0.46465652818918263 -0.24483730068029039 0 -0.47929732169477218 -0.22034849599274231 0 -0.46465652818918263 -0.24483730068029039 0 -0.47929732169477218 -0.22034849599274231 0 -0.49344650703865789 -0.22249469015893941 0 -0.47929732169477218 -0.22034849599274231 0 -0.49344650703865789 -0.22249469015893941 0 -0.48416686203858311 -0.23469505857438669 0 -0.49344650703865789 -0.22249469015893941 0 -0.49730382647131183 -0.23828664830542051 0 -0.48416686203858311 -0.23469505857438669 0 -0.500000000000002 -0.2234887451536256 0 -0.49344650703865789 -0.22249469015893941 0 -0.49730382647131183 -0.23828664830542051 0 -0.49344650703865789 -0.22249469015893941 0 -0.49730382647131183 -0.23828664830542051 0 -0.500000000000002 -0.2234887451536256 0 -0.49344650703865789 -0.22249469015893941 0 -0.5 -0.25150281007534703 0 -0.500000000000002 -0.2234887451536256 0 -0.49730382647131183 -0.23828664830542051 0 -0.5 -0.25150281007534703 0 -0.49730382647131183 -0.23828664830542051 0 -0.48570939693172899 -0.24902992718248729 0 -0.49730382647131183 -0.23828664830542051 0 -0.48570939693172899 -0.24902992718248729 0 -0.48416686203858311 -0.23469505857438669 0 -0.48570939693172899 -0.24902992718248729 0 -0.48416686203858311 -0.23469505857438669 0 -0.46465652818918263 -0.24483730068029039 0 -0.4586272545788867 -0.21721319340246781 0 -0.47929732169477218 -0.22034849599274231 0 -0.46465652818918263 -0.24483730068029039 0 -0.4586272545788867 -0.21721319340246781 0 -0.46465652818918263 -0.24483730068029039 0 -0.44658841198271632 -0.22637890077404829 0 -0.43795718746300122 -0.2140778908121922 0 -0.4586272545788867 -0.21721319340246781 0 -0.44658841198271632 -0.22637890077404829 0 -0.42560539866416353 -0.22692866047589191 0 -0.44658841198271632 -0.22637890077404829 0 -0.44336769959532257 -0.23972790925379969 0 -0.46465652818918263 -0.24483730068029039 0 -0.44658841198271632 -0.22637890077404829 0 -0.44336769959532257 -0.23972790925379969 0 -0.44165736388207272 -0.25360003737878889 0 -0.46465652818918263 -0.24483730068029039 0 -0.44336769959532257 -0.23972790925379969 0 -0.44165736388207272 -0.25360003737878889 0 -0.429193077912078 -0.24092705066174019 0 -0.44336769959532257 -0.23972790925379969 0 -0.41631059699689099 -0.042084497863468198 0 -0.41965755993826598 -0.033894451920331033 0 -0.42761534325808798 -0.038876017594557971 0 -0.41631059699689099 -0.042084497863468198 0 -0.41965755993826598 -0.033894451920331033 0 -0.41128163845263888 -0.036426639289896208 0 -0.41965755993826598 -0.033894451920331033 0 -0.41128163845263888 -0.036426639289896208 0 -0.41258462043609562 -0.025993866725156231 0 -0.41128163845263888 -0.036426639289896208 0 -0.40704563849368902 -0.043093498236160592 0 -0.40124408047313331 -0.037519640608623422 0 -0.41128163845263888 -0.036426639289896208 0 -0.41258462043609562 -0.025993866725156231 0 -0.40124408047313331 -0.037519640608623422 0 -0.41631059699689099 -0.042084497863468198 0 -0.40704563849368902 -0.043093498236160592 0 -0.41300523529446281 -0.049717993690613083 0 -0.41631059699689099 -0.042084497863468198 0 -0.41128163845263888 -0.036426639289896208 0 -0.40704563849368902 -0.043093498236160592 0 -0.40704563849368902 -0.043093498236160592 0 -0.41300523529446281 -0.049717993690613083 0 -0.40411610338443682 -0.050557450003133962 0 -0.41300523529446281 -0.049717993690613083 0 -0.41414033076402768 -0.061585207313392322 0 -0.40411610338443682 -0.050557450003133962 0 -0.41300523529446281 -0.049717993690613083 0 -0.41414033076402768 -0.061585207313392322 0 -0.42341350683326928 -0.051269315036910318 0 -0.41631059699689099 -0.042084497863468198 0 -0.41300523529446281 -0.049717993690613083 0 -0.42341350683326928 -0.051269315036910318 0 -0.41414033076402768 -0.061585207313392322 0 -0.42341350683326928 -0.051269315036910318 0 -0.43505259438904009 -0.065314564308975948 0 -0.42341350683326928 -0.051269315036910318 0 -0.43594560852523878 -0.049663465434261311 0 -0.43505259438904009 -0.065314564308975948 0 -0.43594560852523878 -0.049663465434261311 0 -0.42761534325808798 -0.038876017594557971 0 -0.44052059365423879 -0.038318026972638523 0 -0.42341350683326928 -0.051269315036910318 0 -0.43594560852523878 -0.049663465434261311 0 -0.42761534325808798 -0.038876017594557971 0 -0.41631059699689099 -0.042084497863468198 0 -0.42341350683326928 -0.051269315036910318 0 -0.42761534325808798 -0.038876017594557971 0 -0.41965755993826598 -0.033894451920331033 0 -0.42761534325808798 -0.038876017594557971 0 -0.43049560054761637 -0.026091238128576531 0 -0.42761534325808798 -0.038876017594557971 0 -0.43049560054761637 -0.026091238128576531 0 -0.44052059365423879 -0.038318026972638523 0 -0.43049560054761637 -0.026091238128576531 0 -0.42123606753034548 -0.0078521834473191492 0 -0.44016826678282051 -0.008282799190680902 0 -0.42123606753034548 -0.0078521834473191492 0 -0.41258462043609562 -0.025993866725156231 0 -0.40359645288427559 -0.01255273007959058 0 -0.42123606753034548 -0.0078521834473191492 0 -0.40359645288427559 -0.01255273007959058 0 -0.411842978763718 0.0071810696113592566 0 -0.43049560054761637 -0.026091238128576531 0 -0.42123606753034548 -0.0078521834473191492 0 -0.41258462043609562 -0.025993866725156231 0 -0.41965755993826598 -0.033894451920331033 0 -0.43049560054761637 -0.026091238128576531 0 -0.41258462043609562 -0.025993866725156231 0 -0.41258462043609562 -0.025993866725156231 0 -0.40359645288427559 -0.01255273007959058 0 -0.40124408047313331 -0.037519640608623422 0 -0.40359645288427559 -0.01255273007959058 0 -0.39764058419755538 -0.038576012957609408 0 -0.40124408047313331 -0.037519640608623422 0 -0.40359645288427559 -0.01255273007959058 0 -0.38932648706987377 -0.013730584936831609 0 -0.38650677435962982 -0.026234410340964749 0 -0.40359645288427559 -0.01255273007959058 0 -0.38650677435962982 -0.026234410340964749 0 -0.39764058419755538 -0.038576012957609408 0 -0.40359645288427559 -0.01255273007959058 0 -0.39764058419755538 -0.038576012957609408 0 -0.40359645288427559 -0.01255273007959058 0 -0.411842978763718 0.0071810696113592566 0 -0.39856960861661739 0.0046729487720050386 0 -0.40359645288427559 -0.01255273007959058 0 -0.39149303023403142 -0.005335277537219363 0 -0.39856960861661739 0.0046729487720050386 0 -0.40359645288427559 -0.01255273007959058 0 -0.39149303023403142 -0.005335277537219363 0 -0.38932648706987377 -0.013730584936831609 0 -0.39149303023403142 -0.005335277537219363 0 -0.38087232901863782 -0.0095024514541764069 0 -0.38510027358075227 0.0044364300124967379 0 -0.39149303023403142 -0.005335277537219363 0 -0.38932648706987377 -0.013730584936831609 0 -0.38087232901863782 -0.0095024514541764069 0 -0.38932648706987377 -0.013730584936831609 0 -0.38087232901863782 -0.0095024514541764069 0 -0.38186988518864651 -0.018280442328540609 0 -0.37719726677334758 -0.010782784077609161 0 -0.38087232901863782 -0.0095024514541764069 0 -0.38186988518864651 -0.018280442328540609 0 -0.37719726677334758 -0.010782784077609161 0 -0.38087232901863782 -0.0095024514541764069 0 -0.37719726677334758 -0.010782784077609161 0 -0.38510027358075227 0.0044364300124967379 0 -0.37145675818362223 0.001704133189072726 0 -0.37719726677334758 -0.010782784077609161 0 -0.38510027358075227 0.0044364300124967379 0 -0.37719726677334758 -0.010782784077609161 0 -0.38087232901863782 -0.0095024514541764069 0 -0.38510027358075227 0.0044364300124967379 0 -0.36684988365240911 -0.03070925546092473 0 -0.38650677435962982 -0.026234410340964749 0 -0.38186988518864651 -0.018280442328540609 0 -0.36684988365240911 -0.03070925546092473 0 -0.37719726677334758 -0.010782784077609161 0 -0.38186988518864651 -0.018280442328540609 0 -0.38932648706987377 -0.013730584936831609 0 -0.38650677435962982 -0.026234410340964749 0 -0.38186988518864651 -0.018280442328540609 0 -0.36684988365240911 -0.03070925546092473 0 -0.38650677435962982 -0.026234410340964749 0 -0.37707154236451451 -0.044605869900925722 0 -0.38650677435962982 -0.026234410340964749 0 -0.37707154236451451 -0.044605869900925722 0 -0.39764058419755538 -0.038576012957609408 0 -0.37707154236451451 -0.044605869900925722 0 -0.39764058419755538 -0.038576012957609408 0 -0.39764058419755538 -0.038576012957609408 0 -0.40065489473756588 -0.045520490424667083 0 -0.40124408047313331 -0.037519640608623422 0 -0.40704563849368902 -0.043093498236160592 0 -0.40065489473756588 -0.045520490424667083 0 -0.40124408047313331 -0.037519640608623422 0 -0.40704563849368902 -0.043093498236160592 0 -0.40065489473756588 -0.045520490424667083 0 -0.40411610338443682 -0.050557450003133962 0 -0.39764058419755538 -0.038576012957609408 0 -0.40124408047313331 -0.037519640608623422 0 -0.39764058419755538 -0.038576012957609408 0 -0.40065489473756588 -0.045520490424667083 0 -0.39322806713901498 -0.057855850317809959 0 -0.41414033076402768 -0.061585207313392322 0 -0.39322806713901498 -0.057855850317809959 0 -0.40444542418072821 -0.066780626888537295 0 -0.41414033076402768 -0.061585207313392322 0 -0.40411610338443682 -0.050557450003133962 0 -0.39322806713901498 -0.057855850317809959 0 -0.39764058419755538 -0.038576012957609408 0 -0.39322806713901498 -0.057855850317809959 0 -0.41414033076402768 -0.061585207313392322 0 -0.39322806713901498 -0.057855850317809959 0 -0.40065489473756588 -0.045520490424667083 0 -0.40411610338443682 -0.050557450003133962 0 -0.39322806713901498 -0.057855850317809959 0 -0.37470589733927712 -0.0545527271000322 0 -0.39322806713901498 -0.057855850317809959 0 -0.37470589733927712 -0.0545527271000322 0 -0.37707154236451451 -0.044605869900925722 0 -0.39322806713901498 -0.057855850317809959 0 -0.37707154236451451 -0.044605869900925722 0 -0.39764058419755538 -0.038576012957609408 0 -0.39322806713901498 -0.057855850317809959 0 -0.37470589733927712 -0.0545527271000322 0 -0.39322806713901498 -0.057855850317809959 0 -0.3838397651565123 -0.062625659154805113 0 -0.37470589733927712 -0.0545527271000322 0 -0.37683012181080239 -0.068733301298065499 0 -0.3838397651565123 -0.062625659154805113 0 -0.39322806713901498 -0.057855850317809959 0 -0.3838397651565123 -0.062625659154805113 0 -0.39059497433695439 -0.069360757903312753 0 -0.37683012181080239 -0.068733301298065499 0 -0.3838397651565123 -0.062625659154805113 0 -0.39059497433695439 -0.069360757903312753 0 -0.39059497433695439 -0.069360757903312753 0 -0.3750868287242039 -0.083945666598845156 0 -0.37683012181080239 -0.068733301298065499 0 -0.39059497433695439 -0.069360757903312753 0 -0.3750868287242039 -0.083945666598845156 0 -0.39059497433695439 -0.069360757903312753 0 -0.38574124546072602 -0.090568404714108222 0 -0.3750868287242039 -0.083945666598845156 0 -0.39059497433695439 -0.069360757903312753 0 -0.38574124546072602 -0.090568404714108222 0 -0.37338072534044958 -0.1015395423542827 0 -0.38574124546072602 -0.090568404714108222 0 -0.3750868287242039 -0.083945666598845156 0 -0.39059497433695439 -0.069360757903312753 0 -0.38574124546072602 -0.090568404714108222 0 -0.39722678832591729 -0.08549102947411294 0 -0.38574124546072602 -0.090568404714108222 0 -0.39722678832591729 -0.08549102947411294 0 -0.39016591446444671 -0.1027403174982935 0 -0.39722678832591729 -0.08549102947411294 0 -0.40358704082088931 -0.10183248075400859 0 -0.40955223446300359 -0.086375659296802715 0 -0.39722678832591729 -0.08549102947411294 0 -0.40456307765117672 -0.076708553120630463 0 -0.40955223446300359 -0.086375659296802715 0 -0.39722678832591729 -0.08549102947411294 0 -0.40456307765117672 -0.076708553120630463 0 -0.39841612749299532 -0.072664694729402735 0 -0.40456307765117672 -0.076708553120630463 0 -0.40444542418072821 -0.066780626888537295 0 -0.39841612749299532 -0.072664694729402735 0 -0.39059497433695439 -0.069360757903312753 0 -0.39722678832591729 -0.08549102947411294 0 -0.39841612749299532 -0.072664694729402735 0 -0.40444542418072821 -0.066780626888537295 0 -0.39525037297019971 -0.064982506260420264 0 -0.39841612749299532 -0.072664694729402735 0 -0.39059497433695439 -0.069360757903312753 0 -0.39525037297019971 -0.064982506260420264 0 -0.39841612749299532 -0.072664694729402735 0 -0.39322806713901498 -0.057855850317809959 0 -0.39059497433695439 -0.069360757903312753 0 -0.39525037297019971 -0.064982506260420264 0 -0.39322806713901498 -0.057855850317809959 0 -0.40444542418072821 -0.066780626888537295 0 -0.39525037297019971 -0.064982506260420264 0 -0.39322806713901498 -0.057855850317809959 0 -0.39059497433695439 -0.069360757903312753 0 -0.39059497433695439 -0.069360757903312753 0 -0.39525037297019971 -0.064982506260420264 0 -0.36560935282136869 -0.1228770136391782 0 -0.38887223831657869 -0.12639873684615319 0 -0.38887223831657869 -0.12639873684615319 0 -0.38088751658449588 -0.11177605152490321 0 -0.39861419104112761 -0.1141217052544175 0 -0.38088751658449588 -0.11177605152490321 0 -0.39016591446444671 -0.1027403174982935 0 -0.39861419104112761 -0.1141217052544175 0 -0.36560935282136869 -0.1228770136391782 0 -0.38887223831657869 -0.12639873684615319 0 -0.38088751658449588 -0.11177605152490321 0 -0.38574124546072602 -0.090568404714108222 0 -0.38088751658449588 -0.11177605152490321 0 -0.38574124546072602 -0.090568404714108222 0 -0.38088751658449588 -0.11177605152490321 0 -0.39016591446444671 -0.1027403174982935 0 -0.37338072534044958 -0.1015395423542827 0 -0.38574124546072602 -0.090568404714108222 0 -0.38088751658449588 -0.11177605152490321 0 -0.40358704082088931 -0.10183248075400859 0 -0.39861419104112761 -0.1141217052544175 0 -0.4160373122485671 -0.1120621848500169 0 -0.39722678832591729 -0.08549102947411294 0 -0.39016591446444671 -0.1027403174982935 0 -0.40358704082088931 -0.10183248075400859 0 -0.39016591446444671 -0.1027403174982935 0 -0.40358704082088931 -0.10183248075400859 0 -0.39861419104112761 -0.1141217052544175 0 -0.38887223831657869 -0.12639873684615319 0 -0.41213512381178841 -0.1299204600531296 0 -0.39861419104112761 -0.1141217052544175 0 -0.41213512381178841 -0.1299204600531296 0 -0.39861419104112761 -0.1141217052544175 0 -0.4160373122485671 -0.1120621848500169 0 -0.41213512381178841 -0.1299204600531296 0 -0.4160373122485671 -0.1120621848500169 0 -0.43259539229225402 -0.1157747654031315 0 -0.4160373122485671 -0.1120621848500169 0 -0.4169341364211625 -0.097460269163205951 0 -0.43115901768430159 -0.099355876929453982 0 -0.40358704082088931 -0.10183248075400859 0 -0.4160373122485671 -0.1120621848500169 0 -0.4169341364211625 -0.097460269163205951 0 -0.40358704082088931 -0.10183248075400859 0 -0.4169341364211625 -0.097460269163205951 0 -0.40955223446300359 -0.086375659296802715 0 -0.4160373122485671 -0.1120621848500169 0 -0.43115901768430159 -0.099355876929453982 0 -0.43259539229225402 -0.1157747654031315 0 -0.43115901768430159 -0.099355876929453982 0 -0.43259539229225402 -0.1157747654031315 0 -0.44676155729694311 -0.09856935048049352 0 -0.41414033076402768 -0.061585207313392322 0 -0.41477655714820522 -0.073508962632903227 0 -0.43505259438904009 -0.065314564308975948 0 -0.41414033076402768 -0.061585207313392322 0 -0.40444542418072821 -0.066780626888537295 0 -0.41477655714820522 -0.073508962632903227 0 -0.40456307765117672 -0.076708553120630463 0 -0.40444542418072821 -0.066780626888537295 0 -0.41477655714820522 -0.073508962632903227 0 -0.40456307765117672 -0.076708553120630463 0 -0.41477655714820522 -0.073508962632903227 0 -0.40955223446300359 -0.086375659296802715 0 -0.41477655714820522 -0.073508962632903227 0 -0.40955223446300359 -0.086375659296802715 0 -0.42547236143691691 -0.079964116854811126 0 -0.4169341364211625 -0.097460269163205951 0 -0.40955223446300359 -0.086375659296802715 0 -0.42547236143691691 -0.079964116854811126 0 -0.43115901768430159 -0.099355876929453982 0 -0.42547236143691691 -0.079964116854811126 0 -0.43948503029078051 -0.084366611422258486 0 -0.4169341364211625 -0.097460269163205951 0 -0.43115901768430159 -0.099355876929453982 0 -0.42547236143691691 -0.079964116854811126 0 -0.42547236143691691 -0.079964116854811126 0 -0.43593321389199208 -0.076166958257645731 0 -0.43948503029078051 -0.084366611422258486 0 -0.41414033076402768 -0.061585207313392322 0 -0.43505259438904009 -0.065314564308975948 0 -0.42547236143691691 -0.079964116854811126 0 -0.43593321389199208 -0.076166958257645731 0 -0.43505259438904009 -0.065314564308975948 0 -0.41477655714820522 -0.073508962632903227 0 -0.42547236143691691 -0.079964116854811126 0 -0.43505259438904009 -0.065314564308975948 0 -0.43505259438904009 -0.065314564308975948 0 -0.45596485801405168 -0.069043921304564548 0 -0.45254776170430372 -0.055054247167343383 0 -0.43505259438904009 -0.065314564308975948 0 -0.44372286945123102 -0.075022540444537378 0 -0.45596485801405168 -0.069043921304564548 0 -0.43505259438904009 -0.065314564308975948 0 -0.45596485801405168 -0.069043921304564548 0 -0.44372286945123102 -0.075022540444537378 0 -0.44986078827983011 -0.084538284578158471 0 -0.45596485801405168 -0.069043921304564548 0 -0.43593321389199208 -0.076166958257645731 0 -0.43505259438904009 -0.065314564308975948 0 -0.44372286945123102 -0.075022540444537378 0 -0.43593321389199208 -0.076166958257645731 0 -0.44372286945123102 -0.075022540444537378 0 -0.43948503029078051 -0.084366611422258486 0 -0.44986078827983011 -0.084538284578158471 0 -0.44676155729694311 -0.09856935048049352 0 -0.46256210233533568 -0.096053197570847695 0 -0.44372286945123102 -0.075022540444537378 0 -0.43948503029078051 -0.084366611422258486 0 -0.44986078827983011 -0.084538284578158471 0 -0.43948503029078051 -0.084366611422258486 0 -0.44986078827983011 -0.084538284578158471 0 -0.44676155729694311 -0.09856935048049352 0 -0.46571079481874128 -0.075383853833439818 0 -0.45596485801405168 -0.069043921304564548 0 -0.46256210233533568 -0.096053197570847695 0 -0.45596485801405168 -0.069043921304564548 0 -0.46256210233533568 -0.096053197570847695 0 -0.44986078827983011 -0.084538284578158471 0 -0.45596485801405168 -0.069043921304564548 0 -0.46256210233533568 -0.096053197570847695 0 -0.46571079481874128 -0.075383853833439818 0 -0.46440728388852631 -0.065665476577682319 0 -0.45759908464129401 -0.069335358645535999 0 -0.46571079481874128 -0.075383853833439818 0 -0.46440728388852631 -0.065665476577682319 0 -0.47046251890076313 -0.067508589662998122 0 -0.45759908464129401 -0.069335358645535999 0 -0.45958199435623182 -0.062522792654202811 0 -0.45596485801405168 -0.069043921304564548 0 -0.46440728388852631 -0.065665476577682319 0 -0.45759908464129401 -0.069335358645535999 0 -0.45958199435623182 -0.062522792654202811 0 -0.45759908464129401 -0.069335358645535999 0 -0.45596485801405168 -0.069043921304564548 0 -0.46571079481874128 -0.075383853833439818 0 -0.45759908464129401 -0.069335358645535999 0 -0.45596485801405168 -0.069043921304564548 0 -0.43539800930699801 -0.1334421832601059 0 -0.43259539229225402 -0.1157747654031315 0 -0.45113905152447542 -0.1175368028588321 0 -0.43259539229225402 -0.1157747654031315 0 -0.45113905152447542 -0.1175368028588321 0 -0.44676155729694311 -0.09856935048049352 0 -0.43115901768430159 -0.099355876929453982 0 -0.43948503029078051 -0.084366611422258486 0 -0.44676155729694311 -0.09856935048049352 0 -0.45113905152447542 -0.1175368028588321 0 -0.44676155729694311 -0.09856935048049352 0 -0.46256210233533568 -0.096053197570847695 0 -0.46256210233533568 -0.096053197570847695 0 -0.46915934665662162 -0.1230624738371303 0 -0.45113905152447542 -0.1175368028588321 0 -0.46256210233533568 -0.096053197570847695 0 -0.46915934665662162 -0.1230624738371303 0 -0.48351137830779539 -0.13386722315158131 0 -0.46915934665662162 -0.1230624738371303 0 -0.48133806505124233 -0.10835548473569059 0 -0.46256210233533568 -0.096053197570847695 0 -0.46915934665662162 -0.1230624738371303 0 -0.48133806505124233 -0.10835548473569059 0 -0.46256210233533568 -0.096053197570847695 0 -0.48133806505124233 -0.10835548473569059 0 -0.4787903951136242 -0.090525190808538269 0 -0.48133806505124233 -0.10835548473569059 0 -0.500000000000001 -0.097363349237730712 0 -0.4787903951136242 -0.090525190808538269 0 -0.48351137830779539 -0.13386722315158131 0 -0.5 -0.12673639045435739 0 -0.48133806505124233 -0.10835548473569059 0 -0.5 -0.12673639045435739 0 -0.48133806505124233 -0.10835548473569059 0 -0.500000000000001 -0.097363349237730712 0 -0.48434101336280139 -0.075470068664982515 0 -0.47046251890076313 -0.067508589662998122 0 -0.46868202672560128 -0.053576788092234838 0 -0.46571079481874128 -0.075383853833439818 0 -0.48434101336280139 -0.075470068664982515 0 -0.47046251890076313 -0.067508589662998122 0 -0.48434101336280139 -0.075470068664982515 0 -0.46868202672560128 -0.053576788092234838 0 -0.46571079481874128 -0.075383853833439818 0 -0.48434101336280139 -0.075470068664982515 0 -0.4787903951136242 -0.090525190808538269 0 -0.46571079481874128 -0.075383853833439818 0 -0.46256210233533568 -0.096053197570847695 0 -0.4787903951136242 -0.090525190808538269 0 -0.500000000000001 -0.097363349237730712 0 -0.48434101336280139 -0.075470068664982515 0 -0.5 -0.067775448906690738 0 -0.500000000000001 -0.097363349237730712 0 -0.48434101336280139 -0.075470068664982515 0 -0.4787903951136242 -0.090525190808538269 0 -0.500000000000001 -0.097363349237730712 0 -0.48434101336280139 -0.075470068664982515 0 -0.48434101336280139 -0.075470068664982515 0 -0.5 -0.067775448906690738 0 -0.48551694096935982 -0.058082376044726818 0 -0.5 -0.067775448906690738 0 -0.48551694096935982 -0.058082376044726818 0 -0.5 -0.038187548575650758 0 -0.48551694096935982 -0.058082376044726818 0 -0.5 -0.038187548575650758 0 -0.47983884509016961 -0.04559408958900394 0 -0.5 -0.038187548575650758 0 -0.47627813796950452 -0.032068202833415903 0 -0.47983884509016961 -0.04559408958900394 0 -0.47627813796950452 -0.032068202833415903 0 -0.47983884509016961 -0.04559408958900394 0 -0.46868202672560128 -0.053576788092234838 0 -0.48434101336280139 -0.075470068664982515 0 -0.48551694096935982 -0.058082376044726818 0 -0.46868202672560128 -0.053576788092234838 0 -0.48551694096935982 -0.058082376044726818 0 -0.47983884509016961 -0.04559408958900394 0 -0.46868202672560128 -0.053576788092234838 0 -0.46440728388852631 -0.065665476577682319 0 -0.47046251890076313 -0.067508589662998122 0 -0.46868202672560128 -0.053576788092234838 0 -0.45958199435623182 -0.062522792654202811 0 -0.46868202672560128 -0.053576788092234838 0 -0.45254776170430372 -0.055054247167343383 0 -0.46440728388852631 -0.065665476577682319 0 -0.45958199435623182 -0.062522792654202811 0 -0.46868202672560128 -0.053576788092234838 0 -0.45596485801405168 -0.069043921304564548 0 -0.45254776170430372 -0.055054247167343383 0 -0.45958199435623182 -0.062522792654202811 0 -0.45596485801405168 -0.069043921304564548 0 -0.45254776170430372 -0.055054247167343383 0 -0.46868202672560128 -0.053576788092234838 0 -0.45302304008840111 -0.031683507519487203 0 -0.45254776170430372 -0.055054247167343383 0 -0.46868202672560128 -0.053576788092234838 0 -0.45302304008840111 -0.031683507519487203 0 -0.47627813796950452 -0.032068202833415903 0 -0.46868202672560128 -0.053576788092234838 0 -0.45302304008840111 -0.031683507519487203 0 -0.43049560054761637 -0.026091238128576531 0 -0.45302304008840111 -0.031683507519487203 0 -0.44052059365423879 -0.038318026972638523 0 -0.45302304008840111 -0.031683507519487203 0 -0.44052059365423879 -0.038318026972638523 0 -0.45254776170430372 -0.055054247167343383 0 -0.43594560852523878 -0.049663465434261311 0 -0.44052059365423879 -0.038318026972638523 0 -0.45254776170430372 -0.055054247167343383 0 -0.43594560852523878 -0.049663465434261311 0 -0.43505259438904009 -0.065314564308975948 0 -0.45254776170430372 -0.055054247167343383 0 -0.44016826678282051 -0.008282799190680902 0 -0.46819439313074318 -0.0088485217403602174 0 -0.44910531892432481 0.0088256729137652749 0 -0.43049560054761637 -0.026091238128576531 0 -0.45302304008840111 -0.031683507519487203 0 -0.44016826678282051 -0.008282799190680902 0 -0.45302304008840111 -0.031683507519487203 0 -0.44016826678282051 -0.008282799190680902 0 -0.46819439313074318 -0.0088485217403602174 0 -0.47627813796950452 -0.032068202833415903 0 -0.45302304008840111 -0.031683507519487203 0 -0.46819439313074318 -0.0088485217403602174 0 -0.47627813796950452 -0.032068202833415903 0 -0.46819439313074318 -0.0088485217403602174 0 -0.5 -0.0085996482446106803 0 -0.46819439313074318 -0.0088485217403602174 0 -0.5 -0.0085996482446106803 0 -0.48327269561072528 0.0075949784500739621 0 -0.5 -0.038187548575650758 0 -0.47627813796950452 -0.032068202833415903 0 -0.5 -0.0085996482446106803 0 -0.5 -0.0085996482446106803 0 -0.500000000000001 0.020988252086429401 0 -0.48327269561072528 0.0075949784500739621 0 -0.500000000000001 0.020988252086429401 0 -0.4818334059336834 0.02486827538731046 0 -0.48327269561072528 0.0075949784500739621 0 -0.500000000000001 0.020988252086429401 0 -0.4818334059336834 0.02486827538731046 0 -0.48627387230376801 0.042906068467448051 0 -0.4818334059336834 0.02486827538731046 0 -0.46506519868097418 0.040930436164492531 0 -0.46608959876636241 0.01500864777446809 0 -0.4818334059336834 0.02486827538731046 0 -0.48327269561072528 0.0075949784500739621 0 -0.46608959876636241 0.01500864777446809 0 -0.46819439313074318 -0.0088485217403602174 0 -0.48327269561072528 0.0075949784500739621 0 -0.46608959876636241 0.01500864777446809 0 -0.5 0.047519219301533577 0 -0.48827346409411548 0.06027768147110632 0 -0.48627387230376801 0.042906068467448051 0 -0.5 0.047519219301533577 0 -0.48827346409411548 0.06027768147110632 0 -0.5 0.074050186516637917 0 -0.500000000000001 0.020988252086429401 0 -0.48627387230376801 0.042906068467448051 0 -0.500000000000001 0.020988252086429401 0 -0.5 0.047519219301533577 0 -0.48627387230376801 0.042906068467448051 0 -0.4818334059336834 0.02486827538731046 0 -0.48627387230376801 0.042906068467448051 0 -0.46506519868097418 0.040930436164492531 0 -0.48627387230376801 0.042906068467448051 0 -0.46506519868097418 0.040930436164492531 0 -0.47254774460753413 0.064823884848466309 0 -0.48827346409411548 0.06027768147110632 0 -0.48627387230376801 0.042906068467448051 0 -0.47254774460753413 0.064823884848466309 0 -0.48627387230376801 0.042906068467448051 0 -0.47254774460753413 0.064823884848466309 0 -0.46506519868097418 0.040930436164492531 0 -0.44375990034961432 0.061031549153910312 0 -0.47254774460753413 0.064823884848466309 0 -0.46506519868097418 0.040930436164492531 0 -0.44486031810931148 0.031744527408694517 0 -0.44375990034961432 0.061031549153910312 0 -0.46819439313074318 -0.0088485217403602174 0 -0.46608959876636241 0.01500864777446809 0 -0.44910531892432481 0.0088256729137652749 0 -0.46506519868097418 0.040930436164492531 0 -0.44486031810931148 0.031744527408694517 0 -0.46608959876636241 0.01500864777446809 0 -0.44486031810931148 0.031744527408694517 0 -0.46608959876636241 0.01500864777446809 0 -0.44910531892432481 0.0088256729137652749 0 -0.44486031810931148 0.031744527408694517 0 -0.44910531892432481 0.0088256729137652749 0 -0.43171222321057451 0.016975124179167082 0 -0.44016826678282051 -0.008282799190680902 0 -0.44910531892432481 0.0088256729137652749 0 -0.43171222321057451 0.016975124179167082 0 -0.42123606753034548 -0.0078521834473191492 0 -0.44016826678282051 -0.008282799190680902 0 -0.43171222321057451 0.016975124179167082 0 -0.44016826678282051 -0.008282799190680902 0 -0.43171222321057451 0.016975124179167082 0 -0.42123606753034548 -0.0078521834473191492 0 -0.411842978763718 0.0071810696113592566 0 -0.43171222321057451 0.016975124179167082 0 -0.411842978763718 0.0071810696113592566 0 -0.40872204527111111 0.022867749962900141 0 -0.39856960861661739 0.0046729487720050386 0 -0.40872204527111111 0.022867749962900141 0 -0.43171222321057451 0.016975124179167082 0 -0.4232561796383284 0.042233047549015017 0 -0.411842978763718 0.0071810696113592566 0 -0.40872204527111111 0.022867749962900141 0 -0.43171222321057451 0.016975124179167082 0 -0.44486031810931148 0.031744527408694517 0 -0.43171222321057451 0.016975124179167082 0 -0.4232561796383284 0.042233047549015017 0 -0.43171222321057451 0.016975124179167082 0 -0.4232561796383284 0.042233047549015017 0 -0.44486031810931148 0.031744527408694517 0 -0.44375990034961432 0.061031549153910312 0 -0.4232561796383284 0.042233047549015017 0 -0.44375990034961432 0.061031549153910312 0 -0.4232561796383284 0.042233047549015017 0 -0.41480013606608229 0.067490970918863163 0 -0.4232561796383284 0.042233047549015017 0 -0.41480013606608229 0.067490970918863163 0 -0.4232561796383284 0.042233047549015017 0 -0.40217936848404251 0.040656332868689943 0 -0.41480013606608229 0.067490970918863163 0 -0.40872204527111111 0.022867749962900141 0 -0.4232561796383284 0.042233047549015017 0 -0.40217936848404251 0.040656332868689943 0 -0.40217936848404251 0.040656332868689943 0 -0.38532972384356262 0.04987884220830327 0 -0.38670634030283008 0.033034015008687988 0 -0.40217936848404251 0.040656332868689943 0 -0.39445515791527019 0.0661614229995688 0 -0.41480013606608229 0.067490970918863163 0 -0.40217936848404251 0.040656332868689943 0 -0.38532972384356262 0.04987884220830327 0 -0.39445515791527019 0.0661614229995688 0 -0.38532972384356262 0.04987884220830327 0 -0.36842953035862158 0.050481425088617103 0 -0.37191756568804107 0.066739953928913298 0 -0.38532972384356262 0.04987884220830327 0 -0.39445515791527019 0.0661614229995688 0 -0.37191756568804107 0.066739953928913298 0 -0.38532972384356262 0.04987884220830327 0 -0.38670634030283008 0.033034015008687988 0 -0.37363166703579942 0.035604814688565273 0 -0.38532972384356262 0.04987884220830327 0 -0.37363166703579942 0.035604814688565273 0 -0.36842953035862158 0.050481425088617103 0 -0.38670634030283008 0.033034015008687988 0 -0.37938766176258892 0.01937444117527904 0 -0.37363166703579942 0.035604814688565273 0 -0.38670634030283008 0.033034015008687988 0 -0.37938766176258892 0.01937444117527904 0 -0.39300328038815729 0.019655644102602461 0 -0.37938766176258892 0.01937444117527904 0 -0.38510027358075227 0.0044364300124967379 0 -0.37145675818362223 0.001704133189072726 0 -0.38510027358075227 0.0044364300124967379 0 -0.39300328038815729 0.019655644102602461 0 -0.37938766176258892 0.01937444117527904 0 -0.38510027358075227 0.0044364300124967379 0 -0.39300328038815729 0.019655644102602461 0 -0.38510027358075227 0.0044364300124967379 0 -0.39856960861661739 0.0046729487720050386 0 -0.39300328038815729 0.019655644102602461 0 -0.39149303023403142 -0.005335277537219363 0 -0.38510027358075227 0.0044364300124967379 0 -0.39856960861661739 0.0046729487720050386 0 -0.40872204527111111 0.022867749962900141 0 -0.40217936848404251 0.040656332868689943 0 -0.39300328038815729 0.019655644102602461 0 -0.40217936848404251 0.040656332868689943 0 -0.38670634030283008 0.033034015008687988 0 -0.39300328038815729 0.019655644102602461 0 -0.40872204527111111 0.022867749962900141 0 -0.39856960861661739 0.0046729487720050386 0 -0.39300328038815729 0.019655644102602461 0 -0.3875766108720648 0.10801011350679229 0 -0.40575939566394709 0.088936040450249165 0 -0.41194990864025682 0.1130743234930766 0 -0.3875766108720648 0.10801011350679229 0 -0.41194990864025682 0.1130743234930766 0 -0.39303850838018423 0.12948099644521679 0 -0.3875766108720648 0.10801011350679229 0 -0.39303850838018423 0.12948099644521679 0 -0.36938718168541179 0.1255902499967409 0 -0.3875766108720648 0.10801011350679229 0 -0.37678680274428078 0.095920052983538381 0 -0.36262419495280129 0.1038515713423341 0 -0.3875766108720648 0.10801011350679229 0 -0.37678680274428078 0.095920052983538381 0 -0.38674475774594591 0.083266397622394045 0 -0.37678680274428078 0.095920052983538381 0 -0.38674475774594591 0.083266397622394045 0 -0.37138104083623391 0.082703932652830325 0 -0.38674475774594591 0.083266397622394045 0 -0.37191756568804107 0.066739953928913298 0 -0.37138104083623391 0.082703932652830325 0 -0.38674475774594591 0.083266397622394045 0 -0.39445515791527019 0.0661614229995688 0 -0.37191756568804107 0.066739953928913298 0 -0.39445515791527019 0.0661614229995688 0 -0.40575939566394709 0.088936040450249165 0 -0.41480013606608229 0.067490970918863163 0 -0.38674475774594591 0.083266397622394045 0 -0.39445515791527019 0.0661614229995688 0 -0.40575939566394709 0.088936040450249165 0 -0.3875766108720648 0.10801011350679229 0 -0.38674475774594591 0.083266397622394045 0 -0.40575939566394709 0.088936040450249165 0 -0.40575939566394709 0.088936040450249165 0 -0.41480013606608229 0.067490970918863163 0 -0.43079976792318958 0.090862199026124468 0 -0.44375990034961432 0.061031549153910312 0 -0.41480013606608229 0.067490970918863163 0 -0.43079976792318958 0.090862199026124468 0 -0.43079976792318958 0.090862199026124468 0 -0.41194990864025682 0.1130743234930766 0 -0.43625153759456498 0.1245866202337218 0 -0.40575939566394709 0.088936040450249165 0 -0.43079976792318958 0.090862199026124468 0 -0.41194990864025682 0.1130743234930766 0 -0.43079976792318958 0.090862199026124468 0 -0.43625153759456498 0.1245866202337218 0 -0.45075561745381781 0.10580031757457831 0 -0.43625153759456498 0.1245866202337218 0 -0.45075561745381781 0.10580031757457831 0 -0.46287227134589981 0.1236989169114972 0 -0.43079976792318958 0.090862199026124468 0 -0.45075561745381781 0.10580031757457831 0 -0.4588216169113003 0.086741701229484575 0 -0.45075561745381781 0.10580031757457831 0 -0.4588216169113003 0.086741701229484575 0 -0.47201107007212878 0.1037065685212097 0 -0.45075561745381781 0.10580031757457831 0 -0.46287227134589981 0.1236989169114972 0 -0.47201107007212878 0.1037065685212097 0 -0.44375990034961432 0.061031549153910312 0 -0.43079976792318958 0.090862199026124468 0 -0.4588216169113003 0.086741701229484575 0 -0.44375990034961432 0.061031549153910312 0 -0.4588216169113003 0.086741701229484575 0 -0.47254774460753413 0.064823884848466309 0 -0.4588216169113003 0.086741701229484575 0 -0.47254774460753413 0.064823884848466309 0 -0.4588216169113003 0.086741701229484575 0 -0.47254774460753413 0.064823884848466309 0 -0.4818122771930986 0.082263337292499406 0 -0.48827346409411548 0.06027768147110632 0 -0.47254774460753413 0.064823884848466309 0 -0.4818122771930986 0.082263337292499406 0 -0.4588216169113003 0.086741701229484575 0 -0.4818122771930986 0.082263337292499406 0 -0.47201107007212878 0.1037065685212097 0 -0.4818122771930986 0.082263337292499406 0 -0.5 0.074050186516637917 0 -0.5 0.1005811537317424 0 -0.48827346409411548 0.06027768147110632 0 -0.4818122771930986 0.082263337292499406 0 -0.5 0.074050186516637917 0 -0.46287227134589981 0.1236989169114972 0 -0.48219315692656572 0.1205151432882924 0 -0.47201107007212878 0.1037065685212097 0 -0.4818122771930986 0.082263337292499406 0 -0.47201107007212878 0.1037065685212097 0 -0.5 0.1005811537317424 0 -0.48219315692656572 0.1205151432882924 0 -0.47201107007212878 0.1037065685212097 0 -0.5 0.1005811537317424 0 -0.48219315692656572 0.1205151432882924 0 -0.5 0.1005811537317424 0 -0.5 0.12711212094684679 0 -0.48219315692656572 0.1205151432882924 0 -0.5 0.12711212094684679 0 -0.47883924748460222 0.14018161060892731 0 -0.5 0.12711212094684679 0 -0.47883924748460222 0.14018161060892731 0 -0.5 0.15364308816195121 0 -0.46287227134589981 0.1236989169114972 0 -0.48219315692656572 0.1205151432882924 0 -0.47883924748460222 0.14018161060892731 0 -0.47883924748460222 0.14018161060892731 0 -0.5 0.15364308816195121 0 -0.47008479780898071 0.1615400033189848 0 -0.5 0.15364308816195121 0 -0.50000000000000089 0.18017405537705561 0 -0.48213074815480522 0.17495155205334359 0 -0.50000000000000089 0.18017405537705561 0 -0.48146292621815812 0.19355635563559381 0 -0.50000000000000089 0.18017405537705561 0 -0.48213074815480522 0.17495155205334359 0 -0.48146292621815812 0.19355635563559381 0 -0.48213074815480522 0.17495155205334359 0 -0.45945765920556431 0.18493118343544621 0 -0.48146292621815812 0.19355635563559381 0 -0.48213074815480522 0.17495155205334359 0 -0.47008479780898071 0.1615400033189848 0 -0.45945765920556431 0.18493118343544621 0 -0.5 0.15364308816195121 0 -0.48213074815480522 0.17495155205334359 0 -0.47008479780898071 0.1615400033189848 0 -0.47008479780898071 0.1615400033189848 0 -0.45945765920556431 0.18493118343544621 0 -0.44491624466772411 0.16813711573335099 0 -0.47008479780898071 0.1615400033189848 0 -0.44491624466772411 0.16813711573335099 0 -0.45700588157118233 0.14460720660399121 0 -0.45945765920556431 0.18493118343544621 0 -0.44491624466772411 0.16813711573335099 0 -0.43474290047699488 0.19015608798310391 0 -0.44491624466772411 0.16813711573335099 0 -0.45700588157118233 0.14460720660399121 0 -0.43611169665434868 0.1504606440305504 0 -0.43625153759456498 0.1245866202337218 0 -0.45700588157118233 0.14460720660399121 0 -0.43611169665434868 0.1504606440305504 0 -0.43625153759456498 0.1245866202337218 0 -0.46287227134589981 0.1236989169114972 0 -0.45700588157118233 0.14460720660399121 0 -0.46287227134589981 0.1236989169114972 0 -0.47883924748460222 0.14018161060892731 0 -0.45700588157118233 0.14460720660399121 0 -0.47883924748460222 0.14018161060892731 0 -0.47008479780898071 0.1615400033189848 0 -0.45700588157118233 0.14460720660399121 0 -0.48207357253193078 0.21739097549918149 0 -0.5 0.2118815469096284 0 -0.5 0.25502500317745308 0 -0.48207357253193078 0.21739097549918149 0 -0.46802780128701832 0.22930896654194979 0 -0.5 0.25502500317745308 0 -0.46802780128701832 0.22930896654194979 0 -0.5 0.25502500317745308 0 -0.46826200115894351 0.25268254595322559 0 -0.50000000000000089 0.18017405537705561 0 -0.5 0.2118815469096284 0 -0.48146292621815812 0.19355635563559381 0 -0.48207357253193078 0.21739097549918149 0 -0.46292585243631501 0.20693865589413171 0 -0.46802780128701832 0.22930896654194979 0 -0.48207357253193078 0.21739097549918149 0 -0.48146292621815812 0.19355635563559381 0 -0.46292585243631501 0.20693865589413171 0 -0.48207357253193078 0.21739097549918149 0 -0.5 0.2118815469096284 0 -0.48146292621815812 0.19355635563559381 0 -0.48146292621815812 0.19355635563559381 0 -0.46292585243631501 0.20693865589413171 0 -0.45945765920556431 0.18493118343544621 0 -0.44696073447060752 0.20212681262101459 0 -0.46292585243631501 0.20693865589413171 0 -0.45945765920556431 0.18493118343544621 0 -0.48146292621815812 0.19355635563559381 0 -0.46292585243631501 0.20693865589413171 0 -0.45945765920556431 0.18493118343544621 0 -0.44696073447060752 0.20212681262101459 0 -0.43474290047699488 0.19015608798310391 0 -0.44696073447060752 0.20212681262101459 0 -0.43414988282090411 0.20902301392359759 0 -0.43474290047699488 0.19015608798310391 0 -0.44696073447060752 0.20212681262101459 0 -0.44438877865447191 0.2203209561526695 0 -0.43414988282090411 0.20902301392359759 0 -0.44696073447060752 0.20212681262101459 0 -0.46292585243631501 0.20693865589413171 0 -0.44438877865447191 0.2203209561526695 0 -0.46292585243631501 0.20693865589413171 0 -0.46802780128701832 0.22930896654194979 0 -0.45690026230445402 0.21971898361319381 0 -0.46292585243631501 0.20693865589413171 0 -0.44438877865447191 0.2203209561526695 0 -0.46292585243631501 0.20693865589413171 0 -0.45690026230445402 0.21971898361319381 0 -0.44438877865447191 0.2203209561526695 0 -0.46802780128701832 0.22930896654194979 0 -0.45424796336563722 0.22861724854116511 0 -0.45412118124825718 0.2395922552223117 0 -0.46802780128701832 0.22930896654194979 0 -0.45424796336563722 0.22861724854116511 0 -0.45690026230445402 0.21971898361319381 0 -0.45424796336563722 0.22861724854116511 0 -0.45690026230445402 0.21971898361319381 0 -0.44707608940517052 0.22231138206831691 0 -0.44707608940517052 0.22231138206831691 0 -0.44438877865447191 0.2203209561526695 0 -0.42586105085507731 0.219809117860577 0 -0.45690026230445402 0.21971898361319381 0 -0.44707608940517052 0.22231138206831691 0 -0.44438877865447191 0.2203209561526695 0 -0.44707608940517052 0.22231138206831691 0 -0.43755936465329281 0.22698532229141799 0 -0.44511448258328629 0.23215465526005299 0 -0.43755936465329281 0.22698532229141799 0 -0.44511448258328629 0.23215465526005299 0 -0.43218583576963709 0.2336661339767252 0 -0.45424796336563722 0.22861724854116511 0 -0.44707608940517052 0.22231138206831691 0 -0.44511448258328629 0.23215465526005299 0 -0.45424796336563722 0.22861724854116511 0 -0.44511448258328629 0.23215465526005299 0 -0.45412118124825718 0.2395922552223117 0 -0.44511448258328629 0.23215465526005299 0 -0.44161393816558842 0.24155257742212199 0 -0.45412118124825718 0.2395922552223117 0 -0.44511448258328629 0.23215465526005299 0 -0.44161393816558842 0.24155257742212199 0 -0.43218583576963709 0.2336661339767252 0 -0.44161393816558842 0.24155257742212199 0 -0.43243648966469961 0.24825823729562091 0 -0.44622747097204157 0.25447826500352411 0 -0.44161393816558842 0.24155257742212199 0 -0.45412118124825718 0.2395922552223117 0 -0.44622747097204157 0.25447826500352411 0 -0.46802780128701832 0.22930896654194979 0 -0.45412118124825718 0.2395922552223117 0 -0.46826200115894351 0.25268254595322559 0 -0.45412118124825718 0.2395922552223117 0 -0.46826200115894351 0.25268254595322559 0 -0.44622747097204157 0.25447826500352411 0 -0.40931020750963998 0.23948355441692229 0 -0.40101037553383972 0.24850817254535781 0 -0.4154354269666965 0.25327969466909228 0 -0.40931020750963998 0.23948355441692229 0 -0.42148184861410209 0.2406921978309261 0 -0.41698703102379953 0.22969989485302911 0 -0.40931020750963998 0.23948355441692229 0 -0.42148184861410209 0.2406921978309261 0 -0.4154354269666965 0.25327969466909228 0 -0.42148184861410209 0.2406921978309261 0 -0.43243648966469961 0.24825823729562091 0 -0.4154354269666965 0.25327969466909228 0 -0.44161393816558842 0.24155257742212199 0 -0.43243648966469961 0.24825823729562091 0 -0.43218583576963709 0.2336661339767252 0 -0.42148184861410209 0.2406921978309261 0 -0.43243648966469961 0.24825823729562091 0 -0.43218583576963709 0.2336661339767252 0 -0.42148184861410209 0.2406921978309261 0 -0.43218583576963709 0.2336661339767252 0 -0.41698703102379953 0.22969989485302911 0 -0.43218583576963709 0.2336661339767252 0 -0.42586105085507731 0.219809117860577 0 -0.41698703102379953 0.22969989485302911 0 -0.44707608940517052 0.22231138206831691 0 -0.42586105085507731 0.219809117860577 0 -0.44707608940517052 0.22231138206831691 0 -0.43755936465329281 0.22698532229141799 0 -0.42586105085507731 0.219809117860577 0 -0.43755936465329281 0.22698532229141799 0 -0.43218583576963709 0.2336661339767252 0 -0.42586105085507731 0.219809117860577 0 -0.42586105085507731 0.219809117860577 0 -0.41698703102379953 0.22969989485302911 0 -0.4046460123049842 0.2173068536528372 0 -0.40931020750963998 0.23948355441692229 0 -0.41698703102379953 0.22969989485302911 0 -0.40590702596286521 0.22946517391640911 0 -0.41698703102379953 0.22969989485302911 0 -0.4046460123049842 0.2173068536528372 0 -0.40590702596286521 0.22946517391640911 0 -0.42586105085507731 0.219809117860577 0 -0.4046460123049842 0.2173068536528372 0 -0.41722227291546332 0.20591524768845371 0 -0.39877196507631202 0.20270266476287849 0 -0.4046460123049842 0.2173068536528372 0 -0.42586105085507731 0.219809117860577 0 -0.41722227291546332 0.20591524768845371 0 -0.4046460123049842 0.2173068536528372 0 -0.42586105085507731 0.219809117860577 0 -0.41722227291546332 0.20591524768845371 0 -0.43414988282090411 0.20902301392359759 0 -0.44438877865447191 0.2203209561526695 0 -0.42586105085507731 0.219809117860577 0 -0.43414988282090411 0.20902301392359759 0 -0.41722227291546332 0.20591524768845371 0 -0.43414988282090411 0.20902301392359759 0 -0.43474290047699488 0.19015608798310391 0 -0.41722227291546332 0.20591524768845371 0 -0.40891615430536432 0.18798503216574861 0 -0.39877196507631202 0.20270266476287849 0 -0.41722227291546332 0.20591524768845371 0 -0.43474290047699488 0.19015608798310391 0 -0.40891615430536432 0.18798503216574861 0 -0.40891615430536432 0.18798503216574861 0 -0.39877196507631202 0.20270266476287849 0 -0.38648279715089662 0.18713020989402271 0 -0.38343097375489099 0.21480458944509739 0 -0.38648279715089662 0.18713020989402271 0 -0.37238122863976891 0.2002171120067491 0 -0.39877196507631202 0.20270266476287849 0 -0.38343097375489099 0.21480458944509739 0 -0.38648279715089662 0.18713020989402271 0 -0.38343097375489099 0.21480458944509739 0 -0.38648279715089662 0.18713020989402271 0 -0.38343097375489099 0.21480458944509739 0 -0.37154761244084089 0.2134029747549531 0 -0.37238122863976891 0.2002171120067491 0 -0.38343097375489099 0.21480458944509739 0 -0.37566813965858681 0.2234148702422048 0 -0.37154761244084089 0.2134029747549531 0 -0.38343097375489099 0.21480458944509739 0 -0.37154761244084089 0.2134029747549531 0 -0.38343097375489099 0.21480458944509739 0 -0.4046460123049842 0.2173068536528372 0 -0.38992427199157043 0.22185450724293909 0 -0.38343097375489099 0.21480458944509739 0 -0.4046460123049842 0.2173068536528372 0 -0.39877196507631202 0.20270266476287849 0 -0.38343097375489099 0.21480458944509739 0 -0.4046460123049842 0.2173068536528372 0 -0.4046460123049842 0.2173068536528372 0 -0.39872340832513992 0.226351764622962 0 -0.40590702596286521 0.22946517391640911 0 -0.39872340832513992 0.226351764622962 0 -0.40590702596286521 0.22946517391640911 0 -0.39648996776890633 0.23582301492399779 0 -0.39872340832513992 0.226351764622962 0 -0.38992427199157043 0.22185450724293909 0 -0.39648996776890633 0.23582301492399779 0 -0.4046460123049842 0.2173068536528372 0 -0.39872340832513992 0.226351764622962 0 -0.38992427199157043 0.22185450724293909 0 -0.38343097375489099 0.21480458944509739 0 -0.37566813965858681 0.2234148702422048 0 -0.38119555285080597 0.2350757121572056 0 -0.38343097375489099 0.21480458944509739 0 -0.38992427199157043 0.22185450724293909 0 -0.38119555285080597 0.2350757121572056 0 -0.38343097375489099 0.21480458944509739 0 -0.38119555285080597 0.2350757121572056 0 -0.38119555285080597 0.2350757121572056 0 -0.37210575503526089 0.24405057661464391 0 -0.37896013194671968 0.25534683486931381 0 -0.38119555285080597 0.2350757121572056 0 -0.37896013194671968 0.25534683486931381 0 -0.38992427199157043 0.22185450724293909 0 -0.38119555285080597 0.2350757121572056 0 -0.38722819947627368 0.24843385443806909 0 -0.38992427199157043 0.22185450724293909 0 -0.38722819947627368 0.24843385443806909 0 -0.38119555285080597 0.2350757121572056 0 -0.38722819947627368 0.24843385443806909 0 -0.37896013194671968 0.25534683486931381 0 -0.38992427199157043 0.22185450724293909 0 -0.38722819947627368 0.24843385443806909 0 -0.39648996776890633 0.23582301492399779 0 -0.38722819947627368 0.24843385443806909 0 -0.39648996776890633 0.23582301492399779 0 -0.40101037553383972 0.24850817254535781 0 -0.40931020750963998 0.23948355441692229 0 -0.39648996776890633 0.23582301492399779 0 -0.40101037553383972 0.24850817254535781 0 -0.40931020750963998 0.23948355441692229 0 -0.40590702596286521 0.22946517391640911 0 -0.39648996776890633 0.23582301492399779 0 -0.41530534823700072 0.1390315752597536 0 -0.41919069938251302 0.1652820875776414 0 -0.39528973877013662 0.15130477977831461 0 -0.41194990864025682 0.1130743234930766 0 -0.41530534823700072 0.1390315752597536 0 -0.39303850838018423 0.12948099644521679 0 -0.41194990864025682 0.1130743234930766 0 -0.43625153759456498 0.1245866202337218 0 -0.41530534823700072 0.1390315752597536 0 -0.43625153759456498 0.1245866202337218 0 -0.41530534823700072 0.1390315752597536 0 -0.43611169665434868 0.1504606440305504 0 -0.41530534823700072 0.1390315752597536 0 -0.43611169665434868 0.1504606440305504 0 -0.41919069938251302 0.1652820875776414 0 -0.44491624466772411 0.16813711573335099 0 -0.43611169665434868 0.1504606440305504 0 -0.41919069938251302 0.1652820875776414 0 -0.44491624466772411 0.16813711573335099 0 -0.43474290047699488 0.19015608798310391 0 -0.41919069938251302 0.1652820875776414 0 -0.40891615430536432 0.18798503216574861 0 -0.41919069938251302 0.1652820875776414 0 -0.39971758700540821 0.17129016696027699 0 -0.43474290047699488 0.19015608798310391 0 -0.40891615430536432 0.18798503216574861 0 -0.41919069938251302 0.1652820875776414 0 -0.41919069938251302 0.1652820875776414 0 -0.39971758700540821 0.17129016696027699 0 -0.39528973877013662 0.15130477977831461 0 -0.40891615430536432 0.18798503216574861 0 -0.39971758700540821 0.17129016696027699 0 -0.38648279715089662 0.18713020989402271 0 -0.39971758700540821 0.17129016696027699 0 -0.38648279715089662 0.18713020989402271 0 -0.372146074932449 0.16344591630492469 0 -0.39971758700540821 0.17129016696027699 0 -0.39528973877013662 0.15130477977831461 0 -0.372146074932449 0.16344591630492469 0 -0.37815506306193358 0.1433222327004802 0 -0.39528973877013662 0.15130477977831461 0 -0.39303850838018423 0.12948099644521679 0 -0.37815506306193358 0.1433222327004802 0 -0.39528973877013662 0.15130477977831461 0 -0.372146074932449 0.16344591630492469 0 -0.41530534823700072 0.1390315752597536 0 -0.39528973877013662 0.15130477977831461 0 -0.39303850838018423 0.12948099644521679 0 -0.37815506306193358 0.1433222327004802 0 -0.39303850838018423 0.12948099644521679 0 -0.36938718168541179 0.1255902499967409 0 -0.36938718168541179 0.1255902499967409 0 -0.35200794605681629 0.12502238642781019 0 -0.36027383228078641 0.14176664061691219 0 -0.37815506306193358 0.1433222327004802 0 -0.36938718168541179 0.1255902499967409 0 -0.36027383228078641 0.14176664061691219 0 -0.35200794605681629 0.12502238642781019 0 -0.36027383228078641 0.14176664061691219 0 -0.34238396195098092 0.13747367741656721 0 -0.34692124746973713 0.1542878562826405 0 -0.36027383228078641 0.14176664061691219 0 -0.34238396195098092 0.13747367741656721 0 -0.34692124746973713 0.1542878562826405 0 -0.36027383228078641 0.14176664061691219 0 -0.372146074932449 0.16344591630492469 0 -0.37815506306193358 0.1433222327004802 0 -0.36027383228078641 0.14176664061691219 0 -0.372146074932449 0.16344591630492469 0 -0.38648279715089662 0.18713020989402271 0 -0.372146074932449 0.16344591630492469 0 -0.35825464468573548 0.18846491094187309 0 -0.372146074932449 0.16344591630492469 0 -0.35358483912925948 0.17080886943100959 0 -0.35825464468573548 0.18846491094187309 0 -0.35358483912925948 0.17080886943100959 0 -0.35825464468573548 0.18846491094187309 0 -0.33660402194939321 0.18841081708856641 0 -0.34692124746973713 0.1542878562826405 0 -0.372146074932449 0.16344591630492469 0 -0.35358483912925948 0.17080886943100959 0 -0.34692124746973713 0.1542878562826405 0 -0.35358483912925948 0.17080886943100959 0 -0.33500456297109971 0.16792639800837539 0 -0.33500456297109971 0.16792639800837539 0 -0.31851102729851588 0.15590236448055639 0 -0.33255517435583237 0.14646848770795259 0 -0.35358483912925948 0.17080886943100959 0 -0.33500456297109971 0.16792639800837539 0 -0.33660402194939321 0.18841081708856641 0 -0.33500456297109971 0.16792639800837539 0 -0.31289652582642141 0.1805837036697519 0 -0.33660402194939321 0.18841081708856641 0 -0.33500456297109971 0.16792639800837539 0 -0.31289652582642141 0.1805837036697519 0 -0.33500456297109971 0.16792639800837539 0 -0.31289652582642141 0.1805837036697519 0 -0.31851102729851588 0.15590236448055639 0 -0.31851102729851588 0.15590236448055639 0 -0.31283651791160189 0.14254581953933751 0 -0.32160496684282269 0.13812883269818441 0 -0.31851102729851588 0.15590236448055639 0 -0.32160496684282269 0.13812883269818441 0 -0.33255517435583237 0.14646848770795259 0 -0.31283651791160189 0.14254581953933751 0 -0.32160496684282269 0.13812883269818441 0 -0.31723531685176609 0.1198603304800319 0 -0.32160496684282269 0.13812883269818441 0 -0.33282908497732799 0.12691684344983439 0 -0.31723531685176609 0.1198603304800319 0 -0.32160496684282269 0.13812883269818441 0 -0.33282908497732799 0.12691684344983439 0 -0.33255517435583237 0.14646848770795259 0 -0.35200794605681629 0.12502238642781019 0 -0.34238396195098092 0.13747367741656721 0 -0.33282908497732799 0.12691684344983439 0 -0.34238396195098092 0.13747367741656721 0 -0.33282908497732799 0.12691684344983439 0 -0.33255517435583237 0.14646848770795259 0 -0.34692124746973713 0.1542878562826405 0 -0.34238396195098092 0.13747367741656721 0 -0.33255517435583237 0.14646848770795259 0 -0.34692124746973713 0.1542878562826405 0 -0.33500456297109971 0.16792639800837539 0 -0.33255517435583237 0.14646848770795259 0 -0.36182205832064851 0.24457456243760281 0 -0.34139946132247112 0.24041351753421181 0 -0.35754908974886279 0.25815157521253052 0 -0.36182205832064851 0.24457456243760281 0 -0.36649841958780932 0.23037620461156319 0 -0.34139946132247112 0.24041351753421181 0 -0.36182205832064851 0.24457456243760281 0 -0.37210575503526089 0.24405057661464391 0 -0.36759241766554501 0.2538245840294952 0 -0.38119555285080597 0.2350757121572056 0 -0.37210575503526089 0.24405057661464391 0 -0.36649841958780932 0.23037620461156319 0 -0.36182205832064851 0.24457456243760281 0 -0.37210575503526089 0.24405057661464391 0 -0.36649841958780932 0.23037620461156319 0 -0.36649841958780932 0.23037620461156319 0 -0.35688565293773689 0.21871143604885451 0 -0.37154761244084089 0.2134029747549531 0 -0.37566813965858681 0.2234148702422048 0 -0.36649841958780932 0.23037620461156319 0 -0.37154761244084089 0.2134029747549531 0 -0.37566813965858681 0.2234148702422048 0 -0.38119555285080597 0.2350757121572056 0 -0.36649841958780932 0.23037620461156319 0 -0.35688565293773689 0.21871143604885451 0 -0.34289792395499269 0.21218791974938919 0 -0.34139946132247112 0.24041351753421181 0 -0.36649841958780932 0.23037620461156319 0 -0.35688565293773689 0.21871143604885451 0 -0.34139946132247112 0.24041351753421181 0 -0.35688565293773689 0.21871143604885451 0 -0.36039341253181489 0.20659687070036381 0 -0.34289792395499269 0.21218791974938919 0 -0.35688565293773689 0.21871143604885451 0 -0.37154761244084089 0.2134029747549531 0 -0.36039341253181489 0.20659687070036381 0 -0.37154761244084089 0.2134029747549531 0 -0.36039341253181489 0.20659687070036381 0 -0.37238122863976891 0.2002171120067491 0 -0.38648279715089662 0.18713020989402271 0 -0.37238122863976891 0.2002171120067491 0 -0.35825464468573548 0.18846491094187309 0 -0.36039341253181489 0.20659687070036381 0 -0.37238122863976891 0.2002171120067491 0 -0.35825464468573548 0.18846491094187309 0 -0.36039341253181489 0.20659687070036381 0 -0.35825464468573548 0.18846491094187309 0 -0.34289792395499269 0.21218791974938919 0 -0.35825464468573548 0.18846491094187309 0 -0.33660402194939321 0.18841081708856641 0 -0.34289792395499269 0.21218791974938919 0 -0.33660402194939321 0.18841081708856641 0 -0.32037844320246261 0.2049322073775762 0 -0.34289792395499269 0.21218791974938919 0 -0.31289652582642141 0.1805837036697519 0 -0.33660402194939321 0.18841081708856641 0 -0.32037844320246261 0.2049322073775762 0 -0.32037844320246261 0.2049322073775762 0 -0.32007631676378118 0.22793178832776281 0 -0.30808679103638181 0.2157672566230279 0 -0.32037844320246261 0.2049322073775762 0 -0.34289792395499269 0.21218791974938919 0 -0.32007631676378118 0.22793178832776281 0 -0.34289792395499269 0.21218791974938919 0 -0.34139946132247112 0.24041351753421181 0 -0.34289792395499269 0.21218791974938919 0 -0.32007631676378118 0.22793178832776281 0 -0.34139946132247112 0.24041351753421181 0 -0.32007631676378118 0.22793178832776281 0 -0.30683534910107541 0.24131982490484771 0 -0.32052316857880009 0.25199218265017043 0 -0.32007631676378118 0.22793178832776281 0 -0.34139946132247112 0.24041351753421181 0 -0.32052316857880009 0.25199218265017043 0 -0.28520633826073721 0.24204505302591109 0 -0.29177957584356251 0.2379097909607483 0 -0.29813700426351908 0.2549985658140525 0 -0.28520633826073721 0.24204505302591109 0 -0.29177957584356251 0.2379097909607483 0 -0.28620422144783292 0.23331914670984491 0 -0.28520633826073721 0.24204505302591109 0 -0.28620422144783292 0.23331914670984491 0 -0.2743775822837069 0.2311971640619615 0 -0.28520633826073721 0.24204505302591109 0 -0.29177957584356251 0.2379097909607483 0 -0.28520633826073721 0.24204505302591109 0 -0.29813700426351908 0.2549985658140525 0 -0.29177957584356251 0.2379097909607483 0 -0.30683534910107541 0.24131982490484771 0 -0.29813700426351908 0.2549985658140525 0 -0.30683534910107541 0.24131982490484771 0 -0.32052316857880009 0.25199218265017043 0 -0.29813700426351908 0.2549985658140525 0 -0.29177957584356251 0.2379097909607483 0 -0.30683534910107541 0.24131982490484771 0 -0.3025311369596701 0.2279451799051346 0 -0.32007631676378118 0.22793178832776281 0 -0.3025311369596701 0.2279451799051346 0 -0.30808679103638181 0.2157672566230279 0 -0.32007631676378118 0.22793178832776281 0 -0.30683534910107541 0.24131982490484771 0 -0.3025311369596701 0.2279451799051346 0 -0.3025311369596701 0.2279451799051346 0 -0.29339823295664158 0.22906557906458669 0 -0.29484583138699982 0.21546216672010021 0 -0.3025311369596701 0.2279451799051346 0 -0.29484583138699982 0.21546216672010021 0 -0.30808679103638181 0.2157672566230279 0 -0.28556364975324361 0.2258194074993474 0 -0.29484583138699982 0.21546216672010021 0 -0.2791973288468384 0.21790572090905611 0 -0.29339823295664158 0.22906557906458669 0 -0.28556364975324361 0.2258194074993474 0 -0.29484583138699982 0.21546216672010021 0 -0.29177957584356251 0.2379097909607483 0 -0.29339823295664158 0.22906557906458669 0 -0.28620422144783292 0.23331914670984491 0 -0.29177957584356251 0.2379097909607483 0 -0.3025311369596701 0.2279451799051346 0 -0.29339823295664158 0.22906557906458669 0 -0.29339823295664158 0.22906557906458669 0 -0.28620422144783292 0.23331914670984491 0 -0.28556364975324361 0.2258194074993474 0 -0.28620422144783292 0.23331914670984491 0 -0.28556364975324361 0.2258194074993474 0 -0.2743775822837069 0.2311971640619615 0 -0.29484583138699982 0.21546216672010021 0 -0.2791973288468384 0.21790572090905611 0 -0.28722286546432818 0.20701443054747121 0 -0.29484583138699982 0.21546216672010021 0 -0.2791973288468384 0.21790572090905611 0 -0.28722286546432818 0.20701443054747121 0 -0.29484583138699982 0.21546216672010021 0 -0.30260222686899518 0.20256494078456561 0 -0.32037844320246261 0.2049322073775762 0 -0.30808679103638181 0.2157672566230279 0 -0.30260222686899518 0.20256494078456561 0 -0.29484583138699982 0.21546216672010021 0 -0.30808679103638181 0.2157672566230279 0 -0.30260222686899518 0.20256494078456561 0 -0.31289652582642141 0.1805837036697519 0 -0.30260222686899518 0.20256494078456561 0 -0.29078848868174278 0.1932410093311285 0 -0.31289652582642141 0.1805837036697519 0 -0.32037844320246261 0.2049322073775762 0 -0.30260222686899518 0.20256494078456561 0 -0.28722286546432818 0.20701443054747121 0 -0.29078848868174278 0.1932410093311285 0 -0.26868045153706449 0.20589831499250541 0 -0.28722286546432818 0.20701443054747121 0 -0.30260222686899518 0.20256494078456561 0 -0.29078848868174278 0.1932410093311285 0 -0.29078848868174278 0.1932410093311285 0 -0.27856333876668132 0.18821622517566469 0 -0.28884814108856732 0.1821072455122304 0 -0.29078848868174278 0.1932410093311285 0 -0.27856333876668132 0.18821622517566469 0 -0.26868045153706449 0.20589831499250541 0 -0.27856333876668132 0.18821622517566469 0 -0.26868045153706449 0.20589831499250541 0 -0.29078848868174278 0.1932410093311285 0 -0.26868045153706449 0.20589831499250541 0 -0.27856333876668132 0.18821622517566469 0 -0.26868045153706449 0.20589831499250541 0 -0.26716833294266512 0.18744146854889909 0 -0.25462413856064708 0.2114088186030785 0 -0.26716833294266512 0.18744146854889909 0 -0.25193880530206408 0.19370481573741441 0 -0.26716833294266512 0.18744146854889909 0 -0.25648243047464631 0.1826357185327456 0 -0.25193880530206408 0.19370481573741441 0 -0.25462413856064708 0.2114088186030785 0 -0.26716833294266512 0.18744146854889909 0 -0.25462413856064708 0.2114088186030785 0 -0.26868045153706449 0.20589831499250541 0 -0.26716833294266512 0.18744146854889909 0 -0.2562356768596219 0.21302320427817639 0 -0.26868045153706449 0.20589831499250541 0 -0.25462413856064708 0.2114088186030785 0 -0.2562356768596219 0.21302320427817639 0 -0.26868045153706449 0.20589831499250541 0 -0.25272816581491458 0.21503132644266379 0 -0.25462413856064708 0.2114088186030785 0 -0.25272816581491458 0.21503132644266379 0 -0.2562356768596219 0.21302320427817639 0 -0.25272816581491458 0.21503132644266379 0 -0.25462413856064708 0.2114088186030785 0 -0.2562356768596219 0.21302320427817639 0 -0.25462413856064708 0.2114088186030785 0 -0.2562356768596219 0.21302320427817639 0 -0.25272816581491458 0.21503132644266379 0 -0.2562356768596219 0.21302320427817639 0 -0.25599591734786031 0.2173373503046071 0 -0.2562356768596219 0.21302320427817639 0 -0.25599591734786031 0.2173373503046071 0 -0.25801218981811458 0.2175055682723043 0 -0.25272816581491458 0.21503132644266379 0 -0.25599591734786031 0.2173373503046071 0 -0.2564563288255462 0.2214567869436789 0 -0.25599591734786031 0.2173373503046071 0 -0.25801218981811458 0.2175055682723043 0 -0.25703316838862827 0.21958787938824861 0 -0.2562356768596219 0.21302320427817639 0 -0.26166069193192981 0.2184578046382698 0 -0.26868045153706449 0.20589831499250541 0 -0.25801218981811458 0.2175055682723043 0 -0.25913549456253288 0.21912160275221951 0 -0.25703316838862827 0.21958787938824861 0 -0.26166069193192981 0.2184578046382698 0 -0.26868045153706449 0.20589831499250541 0 -0.26354882630667698 0.22034927509801169 0 -0.2562356768596219 0.21302320427817639 0 -0.26166069193192981 0.2184578046382698 0 -0.26166069193192981 0.2184578046382698 0 -0.26868045153706449 0.20589831499250541 0 -0.25801218981811458 0.2175055682723043 0 -0.26166069193192981 0.2184578046382698 0 -0.25913549456253288 0.21912160275221951 0 -0.2562356768596219 0.21302320427817639 0 -0.25801218981811458 0.2175055682723043 0 -0.26166069193192981 0.2184578046382698 0 -0.28722286546432818 0.20701443054747121 0 -0.26868045153706449 0.20589831499250541 0 -0.2791973288468384 0.21790572090905611 0 -0.26868045153706449 0.20589831499250541 0 -0.2791973288468384 0.21790572090905611 0 -0.26354882630667698 0.22034927509801169 0 -0.2791973288468384 0.21790572090905611 0 -0.26354882630667698 0.22034927509801169 0 -0.2791973288468384 0.21790572090905611 0 -0.2743775822837069 0.2311971640619615 0 -0.26354882630667698 0.22034927509801169 0 -0.28556364975324361 0.2258194074993474 0 -0.2791973288468384 0.21790572090905611 0 -0.2743775822837069 0.2311971640619615 0 -0.2743775822837069 0.2311971640619615 0 -0.26322708885207657 0.23130122429223079 0 -0.27053130904085088 0.23989425105438689 0 -0.2743775822837069 0.2311971640619615 0 -0.26354882630667698 0.22034927509801169 0 -0.26322708885207657 0.23130122429223079 0 -0.2743775822837069 0.2311971640619615 0 -0.26354882630667698 0.22034927509801169 0 -0.26354882630667698 0.22034927509801169 0 -0.26032187107898369 0.22085317251209219 0 -0.26322708885207657 0.23130122429223079 0 -0.26354882630667698 0.22034927509801169 0 -0.26032187107898369 0.22085317251209219 0 -0.26166069193192981 0.2184578046382698 0 -0.26354882630667698 0.22034927509801169 0 -0.26032187107898369 0.22085317251209219 0 -0.26166069193192981 0.2184578046382698 0 -0.26354882630667698 0.22034927509801169 0 -0.26166069193192981 0.2184578046382698 0 -0.26032187107898369 0.22085317251209219 0 -0.26166069193192981 0.2184578046382698 0 -0.26032187107898369 0.22085317251209219 0 -0.25913549456253288 0.21912160275221951 0 -0.26032187107898369 0.22085317251209219 0 -0.2564563288255462 0.2214567869436789 0 -0.26032187107898369 0.22085317251209219 0 -0.25703316838862827 0.21958787938824861 0 -0.2564563288255462 0.2214567869436789 0 -0.26032187107898369 0.22085317251209219 0 -0.25913549456253288 0.21912160275221951 0 -0.25703316838862827 0.21958787938824861 0 -0.25599591734786031 0.2173373503046071 0 -0.25703316838862827 0.21958787938824861 0 -0.2564563288255462 0.2214567869436789 0 -0.2564563288255462 0.2214567869436789 0 -0.25210514226647263 0.23555423440704959 0 -0.248734035528067 0.22266264303674471 0 -0.26032187107898369 0.22085317251209219 0 -0.2564563288255462 0.2214567869436789 0 -0.25210514226647263 0.23555423440704959 0 -0.25703316838862827 0.21958787938824861 0 -0.2564563288255462 0.2214567869436789 0 -0.25272816581491458 0.21503132644266379 0 -0.2564563288255462 0.2214567869436789 0 -0.248734035528067 0.22266264303674471 0 -0.2564563288255462 0.2214567869436789 0 -0.248734035528067 0.22266264303674471 0 -0.25272816581491458 0.21503132644266379 0 -0.248734035528067 0.22266264303674471 0 -0.26032187107898369 0.22085317251209219 0 -0.25210514226647263 0.23555423440704959 0 -0.2564563288255462 0.2214567869436789 0 -0.25210514226647263 0.23555423440704959 0 -0.26032187107898369 0.22085317251209219 0 -0.26322708885207657 0.23130122429223079 0 -0.25210514226647263 0.23555423440704959 0 -0.26322708885207657 0.23130122429223079 0 -0.25210514226647263 0.23555423440704959 0 -0.25993357060704247 0.2432609816545768 0 -0.25054816238852479 0.24059870715785611 0 -0.25993357060704247 0.2432609816545768 0 -0.2546175921406465 0.26128861144859822 0 -0.26322708885207657 0.23130122429223079 0 -0.25993357060704247 0.2432609816545768 0 -0.27053130904085088 0.23989425105438689 0 -0.25054816238852479 0.24059870715785611 0 -0.25210514226647263 0.23555423440704959 0 -0.25993357060704247 0.2432609816545768 0 -0.25054816238852479 0.24059870715785611 0 -0.25210514226647263 0.23555423440704959 0 -0.25993357060704247 0.2432609816545768 0 -0.27053130904085088 0.23989425105438689 0 -0.26991196520069161 0.25166683223725428 0 -0.28520633826073721 0.24204505302591109 0 -0.2743775822837069 0.2311971640619615 0 -0.27053130904085088 0.23989425105438689 0 -0.28520633826073721 0.24204505302591109 0 -0.2743775822837069 0.2311971640619615 0 -0.28520633826073721 0.24204505302591109 0 -0.26991196520069161 0.25166683223725428 0 -0.28520633826073721 0.24204505302591109 0 -0.27053130904085088 0.23989425105438689 0 -0.26991196520069161 0.25166683223725428 0 -0.29367763624156518 0.14580120048619691 0 -0.30132029725935677 0.14489814247345079 0 -0.28540527766694768 0.16993595446686949 0 -0.30132029725935677 0.14489814247345079 0 -0.29832911322591421 0.15285204554198301 0 -0.28540527766694768 0.16993595446686949 0 -0.29225672170669897 0.1395067684405393 0 -0.27971252732468282 0.16347411849471971 0 -0.29367763624156518 0.14580120048619691 0 -0.29225672170669897 0.1395067684405393 0 -0.27971252732468282 0.16347411849471971 0 -0.29225672170669897 0.1395067684405393 0 -0.27971252732468282 0.16347411849471971 0 -0.27793738210199243 0.14829742822643491 0 -0.29367763624156518 0.14580120048619691 0 -0.29225672170669897 0.1395067684405393 0 -0.29367763624156518 0.14580120048619691 0 -0.29225672170669897 0.1395067684405393 0 -0.29707098058306791 0.1417275861303573 0 -0.29225672170669897 0.1395067684405393 0 -0.27793738210199243 0.14829742822643491 0 -0.28046643513796882 0.14013597811185341 0 -0.29225672170669897 0.1395067684405393 0 -0.27842990629181991 0.12905884737457521 0 -0.28046643513796882 0.14013597811185341 0 -0.29225672170669897 0.1395067684405393 0 -0.27842990629181991 0.12905884737457521 0 -0.2863041877154166 0.1131379617402274 0 -0.29225672170669897 0.1395067684405393 0 -0.2863041877154166 0.1131379617402274 0 -0.29225672170669897 0.1395067684405393 0 -0.2981778848162786 0.128193599602963 0 -0.2863041877154166 0.1131379617402274 0 -0.29225672170669897 0.1395067684405393 0 -0.30121224024343363 0.13483728542546841 0 -0.29707098058306791 0.1417275861303573 0 -0.29225672170669897 0.1395067684405393 0 -0.2981778848162786 0.128193599602963 0 -0.29225672170669897 0.1395067684405393 0 -0.30121224024343363 0.13483728542546841 0 -0.2981778848162786 0.128193599602963 0 -0.30121224024343363 0.13483728542546841 0 -0.2981778848162786 0.128193599602963 0 -0.31723531685176609 0.1198603304800319 0 -0.30132029725935677 0.14489814247345079 0 -0.31723531685176609 0.1198603304800319 0 -0.30121224024343363 0.13483728542546841 0 -0.30132029725935677 0.14489814247345079 0 -0.29707098058306791 0.1417275861303573 0 -0.31283651791160189 0.14254581953933751 0 -0.30132029725935677 0.14489814247345079 0 -0.31723531685176609 0.1198603304800319 0 -0.30121224024343363 0.13483728542546841 0 -0.30132029725935677 0.14489814247345079 0 -0.31723531685176609 0.1198603304800319 0 -0.31283651791160189 0.14254581953933751 0 -0.30132029725935677 0.14489814247345079 0 -0.30551098130554788 0.1539394275644638 0 -0.29367763624156518 0.14580120048619691 0 -0.30132029725935677 0.14489814247345079 0 -0.29707098058306791 0.1417275861303573 0 -0.30132029725935677 0.14489814247345079 0 -0.29832911322591421 0.15285204554198301 0 -0.30551098130554788 0.1539394275644638 0 -0.31851102729851588 0.15590236448055639 0 -0.31283651791160189 0.14254581953933751 0 -0.30551098130554788 0.1539394275644638 0 -0.31289652582642141 0.1805837036697519 0 -0.31851102729851588 0.15590236448055639 0 -0.30548605551313601 0.16580850627828139 0 -0.31851102729851588 0.15590236448055639 0 -0.30551098130554788 0.1539394275644638 0 -0.30548605551313601 0.16580850627828139 0 -0.30548605551313601 0.16580850627828139 0 -0.29764345600278319 0.16844986735664469 0 -0.29759451090954719 0.17643761218330459 0 -0.30548605551313601 0.16580850627828139 0 -0.29764345600278319 0.16844986735664469 0 -0.29908316640873578 0.16231679642003941 0 -0.29832911322591421 0.15285204554198301 0 -0.30551098130554788 0.1539394275644638 0 -0.29908316640873578 0.16231679642003941 0 -0.30551098130554788 0.1539394275644638 0 -0.30548605551313601 0.16580850627828139 0 -0.29908316640873578 0.16231679642003941 0 -0.31289652582642141 0.1805837036697519 0 -0.29078848868174278 0.1932410093311285 0 -0.29759451090954719 0.17643761218330459 0 -0.31289652582642141 0.1805837036697519 0 -0.29078848868174278 0.1932410093311285 0 -0.31289652582642141 0.1805837036697519 0 -0.30548605551313601 0.16580850627828139 0 -0.29759451090954719 0.17643761218330459 0 -0.27856333876668132 0.18821622517566469 0 -0.28844622599629782 0.17053413535882381 0 -0.27856333876668132 0.18821622517566469 0 -0.28884814108856732 0.1821072455122304 0 -0.28844622599629782 0.17053413535882381 0 -0.27856333876668132 0.18821622517566469 0 -0.28540527766694768 0.16993595446686949 0 -0.28844622599629782 0.17053413535882381 0 -0.29078848868174278 0.1932410093311285 0 -0.29759451090954719 0.17643761218330459 0 -0.28884814108856732 0.1821072455122304 0 -0.29759451090954719 0.17643761218330459 0 -0.28884814108856732 0.1821072455122304 0 -0.28844622599629782 0.17053413535882381 0 -0.29832911322591421 0.15285204554198301 0 -0.29908316640873578 0.16231679642003941 0 -0.28844622599629782 0.17053413535882381 0 -0.30132029725935677 0.14489814247345079 0 -0.28540527766694768 0.16993595446686949 0 -0.29367763624156518 0.14580120048619691 0 -0.28540527766694768 0.16993595446686949 0 -0.27971252732468282 0.16347411849471971 0 -0.29832911322591421 0.15285204554198301 0 -0.28540527766694768 0.16993595446686949 0 -0.28844622599629782 0.17053413535882381 0 -0.29832911322591421 0.15285204554198301 0 -0.28844622599629782 0.17053413535882381 0 -0.29764345600278319 0.16844986735664469 0 -0.29759451090954719 0.17643761218330459 0 -0.28844622599629782 0.17053413535882381 0 -0.29764345600278319 0.16844986735664469 0 -0.29908316640873578 0.16231679642003941 0 -0.28844622599629782 0.17053413535882381 0 -0.27971252732468282 0.16347411849471971 0 -0.26681583754358312 0.15703960248194049 0 -0.27793738210199243 0.14829742822643491 0 -0.27971252732468282 0.16347411849471971 0 -0.26864544582317851 0.1695326912228835 0 -0.26681583754358312 0.15703960248194049 0 -0.28540527766694768 0.16993595446686949 0 -0.27971252732468282 0.16347411849471971 0 -0.26716833294266512 0.18744146854889909 0 -0.27971252732468282 0.16347411849471971 0 -0.26716833294266512 0.18744146854889909 0 -0.27856333876668132 0.18821622517566469 0 -0.28540527766694768 0.16993595446686949 0 -0.26716833294266512 0.18744146854889909 0 -0.27971252732468282 0.16347411849471971 0 -0.26864544582317851 0.1695326912228835 0 -0.26716833294266512 0.18744146854889909 0 -0.26088508548178302 0.1701755753659748 0 -0.24346313069296871 0.16633892637512099 0 -0.24593749817207319 0.17922101447869401 0 -0.26864544582317851 0.1695326912228835 0 -0.26716833294266512 0.18744146854889909 0 -0.26088508548178302 0.1701755753659748 0 -0.26716833294266512 0.18744146854889909 0 -0.25648243047464631 0.1826357185327456 0 -0.26088508548178302 0.1701755753659748 0 -0.25648243047464631 0.1826357185327456 0 -0.26088508548178302 0.1701755753659748 0 -0.24593749817207319 0.17922101447869401 0 -0.25193880530206408 0.19370481573741441 0 -0.25648243047464631 0.1826357185327456 0 -0.24593749817207319 0.17922101447869401 0 -0.26681583754358312 0.15703960248194049 0 -0.26088508548178302 0.1701755753659748 0 -0.25072842261960387 0.15603505327837411 0 -0.26088508548178302 0.1701755753659748 0 -0.25072842261960387 0.15603505327837411 0 -0.24346313069296871 0.16633892637512099 0 -0.26864544582317851 0.1695326912228835 0 -0.26681583754358312 0.15703960248194049 0 -0.26088508548178302 0.1701755753659748 0 -0.26088508548178302 0.1701755753659748 0 -0.25072842261960387 0.15603505327837411 0 -0.26681583754358312 0.15703960248194049 0 -0.25608290515330878 0.14176455504424121 0 -0.27043538879702828 0.1413306736031216 0 -0.26681583754358312 0.15703960248194049 0 -0.25072842261960387 0.15603505327837411 0 -0.25608290515330878 0.14176455504424121 0 -0.26681583754358312 0.15703960248194049 0 -0.27043538879702828 0.1413306736031216 0 -0.27793738210199243 0.14829742822643491 0 -0.27043538879702828 0.1413306736031216 0 -0.27793738210199243 0.14829742822643491 0 -0.28046643513796882 0.14013597811185341 0 -0.27043538879702828 0.1413306736031216 0 -0.27842990629181991 0.12905884737457521 0 -0.28046643513796882 0.14013597811185341 0 -0.27043538879702828 0.1413306736031216 0 -0.27842990629181991 0.12905884737457521 0 -0.2648400147316442 0.13011893998476409 0 -0.27842990629181991 0.12905884737457521 0 -0.2648400147316442 0.13011893998476409 0 -0.26830038075826779 0.11624375259475619 0 -0.25608290515330878 0.14176455504424121 0 -0.2648400147316442 0.13011893998476409 0 -0.24895710550971339 0.12165530893482571 0 -0.25608290515330878 0.14176455504424121 0 -0.27043538879702828 0.1413306736031216 0 -0.2648400147316442 0.13011893998476409 0 -0.25734245126200062 0.1014160866788785 0 -0.26830038075826779 0.11624375259475619 0 -0.24895710550971339 0.12165530893482571 0 -0.2648400147316442 0.13011893998476409 0 -0.26830038075826779 0.11624375259475619 0 -0.24895710550971339 0.12165530893482571 0 -0.25734245126200062 0.1014160866788785 0 -0.24895710550971339 0.12165530893482571 0 -0.25734245126200062 0.1014160866788785 0 -0.27392861903901239 0.1020753708552664 0 -0.26830038075826779 0.11624375259475619 0 -0.27392861903901239 0.1020753708552664 0 -0.2863041877154166 0.1131379617402274 0 -0.28035165372413551 0.086769155039914989 0 -0.25734245126200062 0.1014160866788785 0 -0.27392861903901239 0.1020753708552664 0 -0.26572779701428773 0.081176864422931191 0 -0.27842990629181991 0.12905884737457521 0 -0.26830038075826779 0.11624375259475619 0 -0.2863041877154166 0.1131379617402274 0 -0.27392861903901239 0.1020753708552664 0 -0.26830038075826779 0.11624375259475619 0 -0.2863041877154166 0.1131379617402274 0 -0.2981778848162786 0.128193599602963 0 -0.2863041877154166 0.1131379617402274 0 -0.30134905106005738 0.1164832023402728 0 -0.2863041877154166 0.1131379617402274 0 -0.28035165372413551 0.086769155039914989 0 -0.2863041877154166 0.1131379617402274 0 -0.29405774138327462 0.094893752904386258 0 -0.28035165372413551 0.086769155039914989 0 -0.2863041877154166 0.1131379617402274 0 -0.29405774138327462 0.094893752904386258 0 -0.30367881485676818 0.104740917537869 0 -0.29405774138327462 0.094893752904386258 0 -0.30367881485676818 0.104740917537869 0 -0.30859009333780452 0.087437634974232029 0 -0.30367881485676818 0.104740917537869 0 -0.30859009333780452 0.087437634974232029 0 -0.31724517505712951 0.098806923667406316 0 -0.2981778848162786 0.128193599602963 0 -0.30134905106005738 0.1164832023402728 0 -0.31723531685176609 0.1198603304800319 0 -0.2863041877154166 0.1131379617402274 0 -0.30367881485676818 0.104740917537869 0 -0.30134905106005738 0.1164832023402728 0 -0.30367881485676818 0.104740917537869 0 -0.30134905106005738 0.1164832023402728 0 -0.31723531685176609 0.1198603304800319 0 -0.30660633332941051 0.074378369855040594 0 -0.29366682663590249 0.070755320590707688 0 -0.31081826144354868 0.060679329518446831 0 -0.30660633332941051 0.074378369855040594 0 -0.29665452968210548 0.0828468466728563 0 -0.29366682663590249 0.070755320590707688 0 -0.29405774138327462 0.094893752904386258 0 -0.30859009333780452 0.087437634974232029 0 -0.29665452968210548 0.0828468466728563 0 -0.30660633332941051 0.074378369855040594 0 -0.30859009333780452 0.087437634974232029 0 -0.29665452968210548 0.0828468466728563 0 -0.29665452968210548 0.0828468466728563 0 -0.29366682663590249 0.070755320590707688 0 -0.28035165372413551 0.086769155039914989 0 -0.29405774138327462 0.094893752904386258 0 -0.29665452968210548 0.0828468466728563 0 -0.28035165372413551 0.086769155039914989 0 -0.29366682663590249 0.070755320590707688 0 -0.28035165372413551 0.086769155039914989 0 -0.2743991197328543 0.06040034833960263 0 -0.28035165372413551 0.086769155039914989 0 -0.2743991197328543 0.06040034833960263 0 -0.28035165372413551 0.086769155039914989 0 -0.26572779701428773 0.081176864422931191 0 -0.2743991197328543 0.06040034833960263 0 -0.27392861903901239 0.1020753708552664 0 -0.28035165372413551 0.086769155039914989 0 -0.26572779701428773 0.081176864422931191 0 -0.25734245126200062 0.1014160866788785 0 -0.26572779701428773 0.081176864422931191 0 -0.24672703352553629 0.080158677613093823 0 -0.25734245126200062 0.1014160866788785 0 -0.26572779701428773 0.081176864422931191 0 -0.26572779701428773 0.081176864422931191 0 -0.2559826395353394 0.061597363551489349 0 -0.2743991197328543 0.06040034833960263 0 -0.26572779701428773 0.081176864422931191 0 -0.2559826395353394 0.061597363551489349 0 -0.24672703352553629 0.080158677613093823 0 -0.2559826395353394 0.061597363551489349 0 -0.26844658574157321 0.034031541639290362 0 -0.24450296286368231 0.049373315754277197 0 -0.26844658574157321 0.034031541639290362 0 -0.24192231969137759 0.032530148466345048 0 -0.24450296286368231 0.049373315754277197 0 -0.26844658574157321 0.034031541639290362 0 -0.2743991197328543 0.06040034833960263 0 -0.28919208176463768 0.041254089627619089 0 -0.26844658574157321 0.034031541639290362 0 -0.28503043027369879 0.024646141826126219 0 -0.28919208176463768 0.041254089627619089 0 -0.2559826395353394 0.061597363551489349 0 -0.26844658574157321 0.034031541639290362 0 -0.2743991197328543 0.06040034833960263 0 -0.26844658574157321 0.034031541639290362 0 -0.2743991197328543 0.06040034833960263 0 -0.25227296286688322 -0.0076793426536460041 0 -0.26249405175029211 0.007662734938978108 0 -0.23546354233931949 0.0078270751002715265 0 -0.26844658574157321 0.034031541639290362 0 -0.26249405175029211 0.007662734938978108 0 -0.26844658574157321 0.034031541639290362 0 -0.26249405175029211 0.007662734938978108 0 -0.24192231969137759 0.032530148466345048 0 -0.26844658574157321 0.034031541639290362 0 -0.26249405175029211 0.007662734938978108 0 -0.28503043027369879 0.024646141826126219 0 -0.26249405175029211 0.007662734938978108 0 -0.29088909275279012 0.0052797473078289572 0 -0.28503043027369879 0.024646141826126219 0 -0.28503043027369879 0.024646141826126219 0 -0.30319396424779033 0.026796870749645822 0 -0.28919208176463768 0.041254089627619089 0 -0.29088909275279012 0.0052797473078289572 0 -0.28503043027369879 0.024646141826126219 0 -0.30319396424779033 0.026796870749645822 0 -0.30319396424779033 0.026796870749645822 0 -0.30957503066598552 0.011427225412800709 0 -0.32058731744473762 0.019928587991941731 0 -0.29088909275279012 0.0052797473078289572 0 -0.30319396424779033 0.026796870749645822 0 -0.30957503066598552 0.011427225412800709 0 -0.30518798685158838 -0.0020929360932298849 0 -0.29088909275279012 0.0052797473078289572 0 -0.30957503066598552 0.011427225412800709 0 -0.30518798685158838 -0.0020929360932298849 0 -0.30957503066598552 0.011427225412800709 0 -0.32049615199215492 0.0045280339304297253 0 -0.2743991197328543 0.06040034833960263 0 -0.29603323201561299 0.055812399873303893 0 -0.28919208176463768 0.041254089627619089 0 -0.29366682663590249 0.070755320590707688 0 -0.2743991197328543 0.06040034833960263 0 -0.29603323201561299 0.055812399873303893 0 -0.30319396424779033 0.026796870749645822 0 -0.28919208176463768 0.041254089627619089 0 -0.31060618731623352 0.044985865152084623 0 -0.30319396424779033 0.026796870749645822 0 -0.31060618731623352 0.044985865152084623 0 -0.31880783956767128 0.032922242476857162 0 -0.29603323201561299 0.055812399873303893 0 -0.28919208176463768 0.041254089627619089 0 -0.31060618731623352 0.044985865152084623 0 -0.29603323201561299 0.055812399873303893 0 -0.31060618731623352 0.044985865152084623 0 -0.31081826144354868 0.060679329518446831 0 -0.29366682663590249 0.070755320590707688 0 -0.29603323201561299 0.055812399873303893 0 -0.31081826144354868 0.060679329518446831 0 -0.31060618731623352 0.044985865152084623 0 -0.32788744175529538 0.041514351910999107 0 -0.32831049041907839 0.055921771907720449 0 -0.31060618731623352 0.044985865152084623 0 -0.31081826144354868 0.060679329518446831 0 -0.32831049041907839 0.055921771907720449 0 -0.31060618731623352 0.044985865152084623 0 -0.31880783956767128 0.032922242476857162 0 -0.32788744175529538 0.041514351910999107 0 -0.31880783956767128 0.032922242476857162 0 -0.32788744175529538 0.041514351910999107 0 -0.33284048064853922 0.02898560650307868 0 -0.34306862850599618 0.040992927417729488 0 -0.33284048064853922 0.02898560650307868 0 -0.34878147881263583 0.02639136098039228 0 -0.32788744175529538 0.041514351910999107 0 -0.34306862850599618 0.040992927417729488 0 -0.32831049041907839 0.055921771907720449 0 -0.32788744175529538 0.041514351910999107 0 -0.34306862850599618 0.040992927417729488 0 -0.33284048064853922 0.02898560650307868 0 -0.32831049041907839 0.055921771907720449 0 -0.34909822148757808 0.06037421403352132 0 -0.3353113387102199 0.067919589230939131 0 -0.34306862850599618 0.040992927417729488 0 -0.32831049041907839 0.055921771907720449 0 -0.34909822148757808 0.06037421403352132 0 -0.30957503066598552 0.011427225412800709 0 -0.32049615199215492 0.0045280339304297253 0 -0.32058731744473762 0.019928587991941731 0 -0.32049615199215492 0.0045280339304297253 0 -0.32058731744473762 0.019928587991941731 0 -0.33553321900770577 0.01329805350298063 0 -0.30319396424779033 0.026796870749645822 0 -0.31880783956767128 0.032922242476857162 0 -0.32058731744473762 0.019928587991941731 0 -0.31880783956767128 0.032922242476857162 0 -0.32058731744473762 0.019928587991941731 0 -0.33284048064853922 0.02898560650307868 0 -0.33284048064853922 0.02898560650307868 0 -0.33553321900770577 0.01329805350298063 0 -0.34878147881263583 0.02639136098039228 0 -0.32058731744473762 0.019928587991941731 0 -0.33284048064853922 0.02898560650307868 0 -0.33553321900770577 0.01329805350298063 0 -0.33449922093445961 -0.0040818700918973123 0 -0.32049615199215492 0.0045280339304297253 0 -0.33553321900770577 0.01329805350298063 0 -0.33449922093445961 -0.0040818700918973123 0 -0.33553321900770577 0.01329805350298063 0 -0.35182631000740072 0.0068229147672093007 0 -0.33553321900770577 0.01329805350298063 0 -0.35182631000740072 0.0068229147672093007 0 -0.34878147881263583 0.02639136098039228 0 -0.34878147881263583 0.02639136098039228 0 -0.3640039126182737 0.02126082680388874 0 -0.35655106705292511 0.040817520418704747 0 -0.35182631000740072 0.0068229147672093007 0 -0.34878147881263583 0.02639136098039228 0 -0.3640039126182737 0.02126082680388874 0 -0.3640039126182737 0.02126082680388874 0 -0.35655106705292511 0.040817520418704747 0 -0.37938766176258892 0.01937444117527904 0 -0.3640039126182737 0.02126082680388874 0 -0.37363166703579942 0.035604814688565273 0 -0.3640039126182737 0.02126082680388874 0 -0.37145675818362223 0.001704133189072726 0 -0.35182631000740072 0.0068229147672093007 0 -0.3640039126182737 0.02126082680388874 0 -0.37145675818362223 0.001704133189072726 0 -0.37938766176258892 0.01937444117527904 0 -0.3640039126182737 0.02126082680388874 0 -0.37145675818362223 0.001704133189072726 0 -0.34909822148757808 0.06037421403352132 0 -0.35655106705292511 0.040817520418704747 0 -0.34306862850599618 0.040992927417729488 0 -0.34909822148757808 0.06037421403352132 0 -0.35655106705292511 0.040817520418704747 0 -0.34306862850599618 0.040992927417729488 0 -0.34909822148757808 0.06037421403352132 0 -0.34909822148757808 0.06037421403352132 0 -0.35655106705292511 0.040817520418704747 0 -0.36842953035862158 0.050481425088617103 0 -0.34306862850599618 0.040992927417729488 0 -0.34878147881263583 0.02639136098039228 0 -0.35655106705292511 0.040817520418704747 0 -0.3640039126182737 0.02126082680388874 0 -0.35655106705292511 0.040817520418704747 0 -0.37363166703579942 0.035604814688565273 0 -0.35655106705292511 0.040817520418704747 0 -0.37363166703579942 0.035604814688565273 0 -0.36842953035862158 0.050481425088617103 0 -0.34909822148757808 0.06037421403352132 0 -0.36842953035862158 0.050481425088617103 0 -0.37191756568804107 0.066739953928913298 0 -0.37191756568804107 0.066739953928913298 0 -0.35586120822019068 0.082112892687927444 0 -0.37138104083623391 0.082703932652830325 0 -0.34909822148757808 0.06037421403352132 0 -0.35586120822019068 0.082112892687927444 0 -0.34909822148757808 0.06037421403352132 0 -0.35586120822019068 0.082112892687927444 0 -0.34122595447521131 0.081031493547087358 0 -0.34909822148757808 0.06037421403352132 0 -0.37191756568804107 0.066739953928913298 0 -0.35586120822019068 0.082112892687927444 0 -0.34909822148757808 0.06037421403352132 0 -0.34122595447521131 0.081031493547087358 0 -0.35586120822019068 0.082112892687927444 0 -0.36262419495280129 0.1038515713423341 0 -0.35586120822019068 0.082112892687927444 0 -0.36262419495280129 0.1038515713423341 0 -0.34676829850597268 0.094510259469289468 0 -0.35586120822019068 0.082112892687927444 0 -0.34676829850597268 0.094510259469289468 0 -0.34122595447521131 0.081031493547087358 0 -0.35586120822019068 0.082112892687927444 0 -0.37138104083623391 0.082703932652830325 0 -0.36262419495280129 0.1038515713423341 0 -0.37678680274428078 0.095920052983538381 0 -0.37138104083623391 0.082703932652830325 0 -0.36262419495280129 0.1038515713423341 0 -0.36938718168541179 0.1255902499967409 0 -0.35200794605681629 0.12502238642781019 0 -0.36262419495280129 0.1038515713423341 0 -0.3875766108720648 0.10801011350679229 0 -0.36938718168541179 0.1255902499967409 0 -0.36262419495280129 0.1038515713423341 0 -0.36938718168541179 0.1255902499967409 0 -0.36262419495280129 0.1038515713423341 0 -0.35200794605681629 0.12502238642781019 0 -0.36262419495280129 0.1038515713423341 0 -0.34097979843748499 0.11073282128248541 0 -0.36262419495280129 0.1038515713423341 0 -0.34676829850597268 0.094510259469289468 0 -0.34097979843748499 0.11073282128248541 0 -0.33315033644417541 0.094822518486612939 0 -0.34097979843748499 0.11073282128248541 0 -0.31723531685176609 0.1198603304800319 0 -0.34676829850597268 0.094510259469289468 0 -0.33315033644417541 0.094822518486612939 0 -0.34097979843748499 0.11073282128248541 0 -0.35200794605681629 0.12502238642781019 0 -0.33282908497732799 0.12691684344983439 0 -0.34097979843748499 0.11073282128248541 0 -0.33282908497732799 0.12691684344983439 0 -0.34097979843748499 0.11073282128248541 0 -0.31723531685176609 0.1198603304800319 0 -0.30367881485676818 0.104740917537869 0 -0.31723531685176609 0.1198603304800319 0 -0.31724517505712951 0.098806923667406316 0 -0.33315033644417541 0.094822518486612939 0 -0.31723531685176609 0.1198603304800319 0 -0.33315033644417541 0.094822518486612939 0 -0.31723531685176609 0.1198603304800319 0 -0.31724517505712951 0.098806923667406316 0 -0.30859009333780452 0.087437634974232029 0 -0.31724517505712951 0.098806923667406316 0 -0.32357131379513321 0.087173216858285787 0 -0.33315033644417541 0.094822518486612939 0 -0.31724517505712951 0.098806923667406316 0 -0.32357131379513321 0.087173216858285787 0 -0.30660633332941051 0.074378369855040594 0 -0.30859009333780452 0.087437634974232029 0 -0.32274642435413547 0.073355371094589714 0 -0.30859009333780452 0.087437634974232029 0 -0.32357131379513321 0.087173216858285787 0 -0.32274642435413547 0.073355371094589714 0 -0.31081826144354868 0.060679329518446831 0 -0.32831049041907839 0.055921771907720449 0 -0.32274642435413547 0.073355371094589714 0 -0.30660633332941051 0.074378369855040594 0 -0.31081826144354868 0.060679329518446831 0 -0.32274642435413547 0.073355371094589714 0 -0.32831049041907839 0.055921771907720449 0 -0.32274642435413547 0.073355371094589714 0 -0.3353113387102199 0.067919589230939131 0 -0.34909822148757808 0.06037421403352132 0 -0.3353113387102199 0.067919589230939131 0 -0.34122595447521131 0.081031493547087358 0 -0.32274642435413547 0.073355371094589714 0 -0.3353113387102199 0.067919589230939131 0 -0.34122595447521131 0.081031493547087358 0 -0.33315033644417541 0.094822518486612939 0 -0.32357131379513321 0.087173216858285787 0 -0.34122595447521131 0.081031493547087358 0 -0.32357131379513321 0.087173216858285787 0 -0.32274642435413547 0.073355371094589714 0 -0.34122595447521131 0.081031493547087358 0 -0.34676829850597268 0.094510259469289468 0 -0.33315033644417541 0.094822518486612939 0 -0.34122595447521131 0.081031493547087358 0 -0.39098080248864292 0.48082949146892462 0 -0.39688472812408349 0.46225301958370763 0 -0.40654981809613899 0.47943816589621452 0 -0.39098080248864292 0.48082949146892462 0 -0.40517642966730788 0.5 0 -0.40654981809613899 0.47943816589621452 0 -0.39098080248864292 0.48082949146892462 0 -0.40517642966730788 0.5 0 -0.37984386551400101 0.5 0 -0.39098080248864292 0.48082949146892462 0 -0.37984386551400101 0.5 0 -0.36562800957556379 0.48144847740775781 0 -0.39098080248864292 0.48082949146892462 0 -0.37674471779043378 0.46289695481551602 0 -0.36562800957556379 0.48144847740775781 0 -0.39098080248864292 0.48082949146892462 0 -0.37674471779043378 0.46289695481551602 0 -0.39688472812408349 0.46225301958370763 0 -0.37674471779043378 0.46289695481551602 0 -0.38786142600530288 0.44434543222327372 0 -0.37674471779043378 0.46289695481551602 0 -0.38786142600530288 0.44434543222327372 0 -0.3636594906987341 0.45259116813215772 0 -0.37674471779043378 0.46289695481551602 0 -0.38786142600530288 0.44434543222327372 0 -0.39688472812408349 0.46225301958370763 0 -0.38786142600530288 0.44434543222327372 0 -0.38219330561030318 0.43733759585905729 0 -0.37031446948010971 0.44164379239859503 0 -0.38786142600530288 0.44434543222327372 0 -0.3636594906987341 0.45259116813215772 0 -0.38786142600530288 0.44434543222327372 0 -0.39005529127119792 0.44068431777663197 0 -0.38219330561030318 0.43733759585905729 0 -0.38786142600530288 0.44434543222327372 0 -0.39005529127119792 0.44068431777663197 0 -0.38786142600530288 0.44434543222327372 0 -0.40276516754681568 0.43926764339155733 0 -0.39688472812408349 0.46225301958370763 0 -0.38786142600530288 0.44434543222327372 0 -0.40276516754681568 0.43926764339155733 0 -0.38786142600530288 0.44434543222327372 0 -0.39005529127119792 0.44068431777663197 0 -0.40276516754681568 0.43926764339155733 0 -0.40276516754681568 0.43926764339155733 0 -0.39688472812408349 0.46225301958370763 0 -0.41912534642966243 0.46276605766276058 0 -0.39688472812408349 0.46225301958370763 0 -0.41912534642966243 0.46276605766276058 0 -0.40654981809613899 0.47943816589621452 0 -0.40276516754681568 0.43926764339155733 0 -0.41912534642966243 0.46276605766276058 0 -0.41766890908832871 0.43418985455984122 0 -0.41912534642966243 0.46276605766276058 0 -0.41766890908832871 0.43418985455984122 0 -0.43637228529971711 0.45059119829788907 0 -0.44062134191292651 0.43194009349776402 0 -0.42355994468304931 0.43218274549486041 0 -0.41912534642966243 0.46276605766276058 0 -0.43637228529971711 0.45059119829788907 0 -0.41766890908832871 0.43418985455984122 0 -0.43637228529971711 0.45059119829788907 0 -0.42355994468304931 0.43218274549486041 0 -0.41766890908832871 0.43418985455984122 0 -0.41912534642966243 0.46276605766276058 0 -0.43637228529971711 0.45059119829788907 0 -0.43819607322225379 0.4802098919466351 0 -0.41912534642966243 0.46276605766276058 0 -0.42058178377099831 0.49134226076567977 0 -0.43819607322225379 0.4802098919466351 0 -0.41912534642966243 0.46276605766276058 0 -0.40654981809613899 0.47943816589621452 0 -0.42058178377099831 0.49134226076567977 0 -0.41912534642966243 0.46276605766276058 0 -0.42058178377099831 0.49134226076567977 0 -0.40517642966730788 0.5 0 -0.40654981809613899 0.47943816589621452 0 -0.42058178377099831 0.49134226076567977 0 -0.40517642966730788 0.5 0 -0.42058178377099831 0.49134226076567977 0 -0.43050899382061492 0.5 0 -0.42058178377099831 0.49134226076567977 0 -0.43050899382061492 0.5 0 -0.43819607322225379 0.4802098919466351 0 -0.43050899382061492 0.5 0 -0.43819607322225379 0.4802098919466351 0 -0.4558415579739219 0.50000000000000289 0 -0.5 0.5 0 -0.45848093797747058 0.44107104525054719 0 -0.5 0.39368719930634488 0 -0.43819607322225379 0.4802098919466351 0 -0.45716124797569629 0.47053552262527509 0 -0.4558415579739219 0.50000000000000289 0 -0.45716124797569629 0.47053552262527509 0 -0.4558415579739219 0.50000000000000289 0 -0.45716124797569629 0.47053552262527509 0 -0.5 0.5 0 -0.45848093797747058 0.44107104525054719 0 -0.45716124797569629 0.47053552262527509 0 -0.4558415579739219 0.50000000000000289 0 -0.5 0.5 0 -0.45716124797569629 0.47053552262527509 0 -0.45848093797747058 0.44107104525054719 0 -0.43637228529971711 0.45059119829788907 0 -0.45716124797569629 0.47053552262527509 0 -0.45848093797747058 0.44107104525054719 0 -0.43637228529971711 0.45059119829788907 0 -0.43819607322225379 0.4802098919466351 0 -0.45716124797569629 0.47053552262527509 0 -0.43637228529971711 0.45059119829788907 0 -0.45848093797747058 0.44107104525054719 0 -0.44062134191292651 0.43194009349776402 0 -0.45848093797747058 0.44107104525054719 0 -0.44062134191292651 0.43194009349776402 0 -0.45980062797924498 0.41160656787581928 0 -0.44121582346845373 0.41376147505037958 0 -0.45980062797924498 0.41160656787581928 0 -0.45143531712829632 0.39504510946912502 0 -0.44062134191292651 0.43194009349776402 0 -0.44121582346845373 0.41376147505037958 0 -0.45980062797924498 0.41160656787581928 0 -0.45848093797747058 0.44107104525054719 0 -0.45980062797924498 0.41160656787581928 0 -0.45848093797747058 0.44107104525054719 0 -0.45980062797924498 0.41160656787581928 0 -0.5 0.39368719930634488 0 -0.45980062797924498 0.41160656787581928 0 -0.5 0.39368719930634488 0 -0.47061151440635052 0.38738233066939171 0 -0.5 0.39368719930634488 0 -0.47061151440635052 0.38738233066939171 0 -0.47244599738177773 0.36378702031114818 0 -0.47061151440635052 0.38738233066939171 0 -0.45360913424094712 0.37591717629495691 0 -0.45143531712829632 0.39504510946912502 0 -0.47061151440635052 0.38738233066939171 0 -0.45360913424094712 0.37591717629495691 0 -0.47244599738177773 0.36378702031114818 0 -0.45980062797924498 0.41160656787581928 0 -0.47061151440635052 0.38738233066939171 0 -0.45143531712829632 0.39504510946912502 0 -0.44121582346845373 0.41376147505037958 0 -0.45143531712829632 0.39504510946912502 0 -0.43115992967391842 0.40404311620122768 0 -0.45143531712829632 0.39504510946912502 0 -0.43477227110011651 0.38804733227876548 0 -0.43115992967391842 0.40404311620122768 0 -0.45360913424094712 0.37591717629495691 0 -0.43477227110011651 0.38804733227876548 0 -0.43761421779729981 0.36799172170783712 0 -0.45360913424094712 0.37591717629495691 0 -0.43477227110011651 0.38804733227876548 0 -0.45360913424094712 0.37591717629495691 0 -0.45143531712829632 0.39504510946912502 0 -0.43477227110011651 0.38804733227876548 0 -0.41504006019910189 0.38261021041501481 0 -0.43761421779729981 0.36799172170783712 0 -0.43477227110011651 0.38804733227876548 0 -0.41504006019910189 0.38261021041501481 0 -0.43761421779729981 0.36799172170783712 0 -0.43477227110011651 0.38804733227876548 0 -0.41504006019910189 0.38261021041501481 0 -0.4159354079592873 0.40017748826257649 0 -0.41504006019910189 0.38261021041501481 0 -0.41164644412426671 0.3848078356442457 0 -0.42787124419666578 0.3625299828724986 0 -0.41164644412426671 0.3848078356442457 0 -0.40212947449434688 0.3748414468342991 0 -0.41107150013157362 0.36619624614190099 0 -0.41504006019910189 0.38261021041501481 0 -0.41164644412426671 0.3848078356442457 0 -0.41109804598765209 0.39149102164547678 0 -0.41504006019910189 0.38261021041501481 0 -0.41164644412426671 0.3848078356442457 0 -0.41504006019910189 0.38261021041501481 0 -0.4159354079592873 0.40017748826257649 0 -0.41504006019910189 0.38261021041501481 0 -0.41109804598765209 0.39149102164547678 0 -0.4159354079592873 0.40017748826257649 0 -0.41164644412426671 0.3848078356442457 0 -0.41109804598765209 0.39149102164547678 0 -0.40177027166795132 0.3983685522600704 0 -0.41109804598765209 0.39149102164547678 0 -0.4159354079592873 0.40017748826257649 0 -0.40177027166795132 0.3983685522600704 0 -0.41164644412426671 0.3848078356442457 0 -0.40177027166795132 0.3983685522600704 0 -0.43477227110011651 0.38804733227876548 0 -0.4159354079592873 0.40017748826257649 0 -0.43477227110011651 0.38804733227876548 0 -0.4159354079592873 0.40017748826257649 0 -0.43115992967391842 0.40404311620122768 0 -0.44121582346845373 0.41376147505037958 0 -0.43115992967391842 0.40404311620122768 0 -0.42986314558338468 0.42022497384430652 0 -0.43115992967391842 0.40404311620122768 0 -0.42986314558338468 0.42022497384430652 0 -0.41680215852380748 0.41718367141120882 0 -0.44062134191292651 0.43194009349776402 0 -0.44121582346845373 0.41376147505037958 0 -0.42986314558338468 0.42022497384430652 0 -0.44062134191292651 0.43194009349776402 0 -0.42986314558338468 0.42022497384430652 0 -0.42355994468304931 0.43218274549486041 0 -0.42986314558338468 0.42022497384430652 0 -0.42355994468304931 0.43218274549486041 0 -0.41680215852380748 0.41718367141120882 0 -0.41766890908832871 0.43418985455984122 0 -0.41680215852380748 0.41718367141120882 0 -0.41766890908832871 0.43418985455984122 0 -0.41680215852380748 0.41718367141120882 0 -0.40452415779474138 0.42721409118458831 0 -0.42355994468304931 0.43218274549486041 0 -0.41766890908832871 0.43418985455984122 0 -0.41680215852380748 0.41718367141120882 0 -0.42355994468304931 0.43218274549486041 0 -0.41766890908832871 0.43418985455984122 0 -0.40276516754681568 0.43926764339155733 0 -0.41766890908832871 0.43418985455984122 0 -0.40276516754681568 0.43926764339155733 0 -0.41766890908832871 0.43418985455984122 0 -0.40452415779474138 0.42721409118458831 0 -0.4159354079592873 0.40017748826257649 0 -0.43115992967391842 0.40404311620122768 0 -0.41680215852380748 0.41718367141120882 0 -0.4159354079592873 0.40017748826257649 0 -0.41680215852380748 0.41718367141120882 0 -0.4159354079592873 0.40017748826257649 0 -0.41680215852380748 0.41718367141120882 0 -0.39328619543943649 0.41476263859902718 0 -0.39328619543943649 0.41476263859902718 0 -0.39189409921163532 0.41192926887589459 0 -0.40177027166795132 0.3983685522600704 0 -0.4159354079592873 0.40017748826257649 0 -0.39328619543943649 0.41476263859902718 0 -0.41680215852380748 0.41718367141120882 0 -0.39328619543943649 0.41476263859902718 0 -0.40452415779474138 0.42721409118458831 0 -0.39328619543943649 0.41476263859902718 0 -0.40452415779474138 0.42721409118458831 0 -0.39209835837531859 0.43066664796130649 0 -0.40276516754681568 0.43926764339155733 0 -0.40452415779474138 0.42721409118458831 0 -0.39209835837531859 0.43066664796130649 0 -0.39005529127119792 0.44068431777663197 0 -0.40276516754681568 0.43926764339155733 0 -0.39209835837531859 0.43066664796130649 0 -0.39328619543943649 0.41476263859902718 0 -0.37063698291958719 0.42934778893548009 0 -0.39209835837531859 0.43066664796130649 0 -0.38219330561030318 0.43733759585905729 0 -0.37063698291958719 0.42934778893548009 0 -0.39328619543943649 0.41476263859902718 0 -0.39209835837531859 0.43066664796130649 0 -0.37063698291958719 0.42934778893548009 0 -0.39005529127119792 0.44068431777663197 0 -0.39209835837531859 0.43066664796130649 0 -0.38219330561030318 0.43733759585905729 0 -0.39189409921163532 0.41192926887589459 0 -0.39195655763330312 0.3975585388349005 0 -0.37226667114234002 0.41030924202555608 0 -0.39328619543943649 0.41476263859902718 0 -0.39189409921163532 0.41192926887589459 0 -0.37226667114234002 0.41030924202555608 0 -0.39328619543943649 0.41476263859902718 0 -0.37226667114234002 0.41030924202555608 0 -0.37063698291958719 0.42934778893548009 0 -0.39195655763330312 0.3975585388349005 0 -0.37226667114234002 0.41030924202555608 0 -0.39195655763330312 0.3975585388349005 0 -0.37495024184161951 0.39669027322643757 0 -0.37226667114234002 0.41030924202555608 0 -0.38343510648805168 0.38508963626910381 0 -0.39195655763330312 0.3975585388349005 0 -0.37495024184161951 0.39669027322643757 0 -0.38343510648805168 0.38508963626910381 0 -0.36896039956082288 0.38726624238899698 0 -0.37495024184161951 0.39669027322643757 0 -0.38343510648805168 0.38508963626910381 0 -0.37817844187468841 0.37049799817574158 0 -0.36896039956082288 0.38726624238899698 0 -0.38343510648805168 0.38508963626910381 0 -0.39677184295297052 0.38392901966133991 0 -0.39106782088146019 0.37499676007273403 0 -0.38343510648805168 0.38508963626910381 0 -0.39106782088146019 0.37499676007273403 0 -0.37817844187468841 0.37049799817574158 0 -0.38343510648805168 0.38508963626910381 0 -0.39677184295297052 0.38392901966133991 0 -0.39195655763330312 0.3975585388349005 0 -0.41164644412426671 0.3848078356442457 0 -0.39677184295297052 0.38392901966133991 0 -0.39195655763330312 0.3975585388349005 0 -0.39677184295297052 0.38392901966133991 0 -0.40212947449434688 0.3748414468342991 0 -0.39106782088146019 0.37499676007273403 0 -0.41164644412426671 0.3848078356442457 0 -0.39677184295297052 0.38392901966133991 0 -0.40212947449434688 0.3748414468342991 0 -0.41164644412426671 0.3848078356442457 0 -0.39195655763330312 0.3975585388349005 0 -0.4159354079592873 0.40017748826257649 0 -0.39328619543943649 0.41476263859902718 0 -0.40177027166795132 0.3983685522600704 0 -0.41164644412426671 0.3848078356442457 0 -0.40177027166795132 0.3983685522600704 0 -0.39195655763330312 0.3975585388349005 0 -0.39189409921163532 0.41192926887589459 0 -0.40177027166795132 0.3983685522600704 0 -0.39195655763330312 0.3975585388349005 0 -0.39189409921163532 0.41192926887589459 0 -0.40177027166795132 0.3983685522600704 0 -0.38763875309648088 0.35121150247505228 0 -0.41586739868277361 0.34573181628790323 0 -0.39706953126344319 0.36332699894800602 0 -0.38763875309648088 0.35121150247505228 0 -0.41586739868277361 0.34573181628790323 0 -0.38763875309648088 0.35121150247505228 0 -0.3937872350367228 0.33507229671605809 0 -0.41586739868277361 0.34573181628790323 0 -0.40212947449434688 0.3748414468342991 0 -0.39706953126344319 0.36332699894800602 0 -0.41107150013157362 0.36619624614190099 0 -0.40212947449434688 0.3748414468342991 0 -0.39106782088146019 0.37499676007273403 0 -0.39706953126344319 0.36332699894800602 0 -0.37817844187468841 0.37049799817574158 0 -0.38763875309648088 0.35121150247505228 0 -0.35941010751018809 0.3566911886622014 0 -0.39706953126344319 0.36332699894800602 0 -0.37817844187468841 0.37049799817574158 0 -0.38763875309648088 0.35121150247505228 0 -0.39106782088146019 0.37499676007273403 0 -0.39706953126344319 0.36332699894800602 0 -0.37817844187468841 0.37049799817574158 0 -0.38659885775585739 0.31565850626255348 0 -0.3937872350367228 0.33507229671605809 0 -0.371857819856382 0.33718357931137699 0 -0.38763875309648088 0.35121150247505228 0 -0.3937872350367228 0.33507229671605809 0 -0.371857819856382 0.33718357931137699 0 -0.38659885775585739 0.31565850626255348 0 -0.371857819856382 0.33718357931137699 0 -0.38659885775585739 0.31565850626255348 0 -0.3736940231061725 0.31398947852622111 0 -0.371857819856382 0.33718357931137699 0 -0.38659885775585739 0.31565850626255348 0 -0.3937872350367228 0.33507229671605809 0 -0.40697334579212008 0.32557607924340459 0 -0.38659885775585739 0.31565850626255348 0 -0.40697334579212008 0.32557607924340459 0 -0.40344199037643141 0.31069905435295109 0 -0.3937872350367228 0.33507229671605809 0 -0.40697334579212008 0.32557607924340459 0 -0.41586739868277361 0.34573181628790323 0 -0.40697334579212008 0.32557607924340459 0 -0.42641657962310969 0.33014507151577532 0 -0.41586739868277361 0.34573181628790323 0 -0.40697334579212008 0.32557607924340459 0 -0.42482201379485501 0.3164116993459492 0 -0.40344199037643141 0.31069905435295109 0 -0.40697334579212008 0.32557607924340459 0 -0.42482201379485501 0.3164116993459492 0 -0.42641657962310969 0.33014507151577532 0 -0.42482201379485501 0.3164116993459492 0 -0.44032409557673402 0.32275363260086698 0 -0.44093041861641502 0.30629419798598828 0 -0.42482201379485501 0.3164116993459492 0 -0.42641657962310969 0.33014507151577532 0 -0.44032409557673402 0.32275363260086698 0 -0.42641657962310969 0.33014507151577532 0 -0.41586739868277361 0.34573181628790323 0 -0.44409604426906601 0.34025213010075239 0 -0.42641657962310969 0.33014507151577532 0 -0.44409604426906601 0.34025213010075239 0 -0.44032409557673402 0.32275363260086698 0 -0.41586739868277361 0.34573181628790323 0 -0.44409604426906601 0.34025213010075239 0 -0.42787124419666578 0.3625299828724986 0 -0.44409604426906601 0.34025213010075239 0 -0.41586739868277361 0.34573181628790323 0 -0.42787124419666578 0.3625299828724986 0 -0.44409604426906601 0.34025213010075239 0 -0.41586739868277361 0.34573181628790323 0 -0.41107150013157362 0.36619624614190099 0 -0.42787124419666578 0.3625299828724986 0 -0.39706953126344319 0.36332699894800602 0 -0.41586739868277361 0.34573181628790323 0 -0.41107150013157362 0.36619624614190099 0 -0.41164644412426671 0.3848078356442457 0 -0.41107150013157362 0.36619624614190099 0 -0.42787124419666578 0.3625299828724986 0 -0.41164644412426671 0.3848078356442457 0 -0.42787124419666578 0.3625299828724986 0 -0.41504006019910189 0.38261021041501481 0 -0.42787124419666578 0.3625299828724986 0 -0.43761421779729981 0.36799172170783712 0 -0.42787124419666578 0.3625299828724986 0 -0.43761421779729981 0.36799172170783712 0 -0.44532995730629832 0.35516754502531411 0 -0.5 0.39368719930634488 0 -0.5 0.31375562759013931 0 -0.49236992051172512 0.33088130527536841 0 -0.5 0.39368719930634488 0 -0.49236992051172512 0.33088130527536841 0 -0.48276253299369798 0.33875474429348529 0 -0.43761421779729981 0.36799172170783712 0 -0.46018837539549878 0.35337323300066131 0 -0.45360913424094712 0.37591717629495691 0 -0.43761421779729981 0.36799172170783712 0 -0.46018837539549878 0.35337323300066131 0 -0.44532995730629832 0.35516754502531411 0 -0.46018837539549878 0.35337323300066131 0 -0.44409604426906601 0.34025213010075239 0 -0.42787124419666578 0.3625299828724986 0 -0.44532995730629832 0.35516754502531411 0 -0.44409604426906601 0.34025213010075239 0 -0.43761421779729981 0.36799172170783712 0 -0.44532995730629832 0.35516754502531411 0 -0.46018837539549878 0.35337323300066131 0 -0.45360913424094712 0.37591717629495691 0 -0.47244599738177773 0.36378702031114818 0 -0.45360913424094712 0.37591717629495691 0 -0.46018837539549878 0.35337323300066131 0 -0.47244599738177773 0.36378702031114818 0 -0.5 0.39368719930634488 0 -0.47244599738177773 0.36378702031114818 0 -0.48276253299369798 0.33875474429348529 0 -0.46018837539549878 0.35337323300066131 0 -0.47244599738177773 0.36378702031114818 0 -0.48276253299369798 0.33875474429348529 0 -0.46018837539549878 0.35337323300066131 0 -0.48276253299369798 0.33875474429348529 0 -0.5 0.31375562759013931 0 -0.49236992051172512 0.33088130527536841 0 -0.47844448370196352 0.32365782782372382 0 -0.49236992051172512 0.33088130527536841 0 -0.48276253299369798 0.33875474429348529 0 -0.46823298239039562 0.33556671768806118 0 -0.49236992051172512 0.33088130527536841 0 -0.47844448370196352 0.32365782782372382 0 -0.46823298239039562 0.33556671768806118 0 -0.46018837539549878 0.35337323300066131 0 -0.48276253299369798 0.33875474429348529 0 -0.46823298239039562 0.33556671768806118 0 -0.49236992051172512 0.33088130527536841 0 -0.46823298239039562 0.33556671768806118 0 -0.5 0.31375562759013931 0 -0.47844448370196352 0.32365782782372382 0 -0.47326150671693828 0.30885130336962702 0 -0.47844448370196352 0.32365782782372382 0 -0.46553845445045222 0.32292377735302652 0 -0.46823298239039562 0.33556671768806118 0 -0.47844448370196352 0.32365782782372382 0 -0.46553845445045222 0.32292377735302652 0 -0.47326150671693828 0.30885130336962702 0 -0.46553845445045222 0.32292377735302652 0 -0.45536731290503107 0.31414791777939732 0 -0.47326150671693828 0.30885130336962702 0 -0.46553845445045222 0.32292377735302652 0 -0.45342644041040631 0.32744080480790411 0 -0.45536731290503107 0.31414791777939732 0 -0.46823298239039562 0.33556671768806118 0 -0.44409604426906601 0.34025213010075239 0 -0.46018837539549878 0.35337323300066131 0 -0.46823298239039562 0.33556671768806118 0 -0.44409604426906601 0.34025213010075239 0 -0.45342644041040631 0.32744080480790411 0 -0.46823298239039562 0.33556671768806118 0 -0.44409604426906601 0.34025213010075239 0 -0.46553845445045222 0.32292377735302652 0 -0.45342644041040631 0.32744080480790411 0 -0.46823298239039562 0.33556671768806118 0 -0.45342644041040631 0.32744080480790411 0 -0.44409604426906601 0.34025213010075239 0 -0.44032409557673402 0.32275363260086698 0 -0.45342644041040631 0.32744080480790411 0 -0.44409604426906601 0.34025213010075239 0 -0.45536731290503107 0.31414791777939732 0 -0.44032409557673402 0.32275363260086698 0 -0.44093041861641502 0.30629419798598828 0 -0.45342644041040631 0.32744080480790411 0 -0.45536731290503107 0.31414791777939732 0 -0.44032409557673402 0.32275363260086698 0 -0.44093041861641502 0.30629419798598828 0 -0.44456522433562062 0.28987896746967612 0 -0.45784842118247587 0.29630392741269229 0 -0.45536731290503107 0.31414791777939732 0 -0.44093041861641502 0.30629419798598828 0 -0.45784842118247587 0.29630392741269229 0 -0.44456522433562062 0.28987896746967612 0 -0.45784842118247587 0.29630392741269229 0 -0.45683589886731429 0.27944522996227389 0 -0.45784842118247587 0.29630392741269229 0 -0.47613016565353689 0.27920594790919162 0 -0.45683589886731429 0.27944522996227389 0 -0.45536731290503107 0.31414791777939732 0 -0.45784842118247587 0.29630392741269229 0 -0.47326150671693828 0.30885130336962702 0 -0.5 0.31375562759013931 0 -0.47326150671693828 0.30885130336962702 0 -0.47613016565353689 0.27920594790919162 0 -0.5 0.31375562759013931 0 -0.5 0.25502500317745308 0 -0.47613016565353689 0.27920594790919162 0 -0.45784842118247587 0.29630392741269229 0 -0.47326150671693828 0.30885130336962702 0 -0.47613016565353689 0.27920594790919162 0 -0.5 0.25502500317745308 0 -0.47613016565353689 0.27920594790919162 0 -0.46826200115894351 0.25268254595322559 0 -0.46826200115894351 0.25268254595322559 0 -0.46001429554523132 0.26715439528268792 0 -0.44622747097204157 0.25447826500352411 0 -0.47613016565353689 0.27920594790919162 0 -0.46001429554523132 0.26715439528268792 0 -0.45683589886731429 0.27944522996227389 0 -0.47613016565353689 0.27920594790919162 0 -0.46826200115894351 0.25268254595322559 0 -0.46001429554523132 0.26715439528268792 0 -0.44456522433562062 0.28987896746967612 0 -0.45683589886731429 0.27944522996227389 0 -0.43912327732866052 0.27082845975049152 0 -0.46001429554523132 0.26715439528268792 0 -0.45683589886731429 0.27944522996227389 0 -0.43912327732866052 0.27082845975049152 0 -0.43912327732866052 0.27082845975049152 0 -0.44622747097204157 0.25447826500352411 0 -0.4271662496375016 0.26119471126077209 0 -0.46001429554523132 0.26715439528268792 0 -0.43912327732866052 0.27082845975049152 0 -0.44622747097204157 0.25447826500352411 0 -0.43243648966469961 0.24825823729562091 0 -0.4271662496375016 0.26119471126077209 0 -0.4154354269666965 0.25327969466909228 0 -0.43243648966469961 0.24825823729562091 0 -0.44622747097204157 0.25447826500352411 0 -0.4271662496375016 0.26119471126077209 0 -0.4154354269666965 0.25327969466909228 0 -0.41608093355480807 0.27260836016490658 0 -0.3994904005985685 0.26310408063752239 0 -0.4271662496375016 0.26119471126077209 0 -0.4154354269666965 0.25327969466909228 0 -0.41608093355480807 0.27260836016490658 0 -0.43912327732866052 0.27082845975049152 0 -0.4271662496375016 0.26119471126077209 0 -0.41608093355480807 0.27260836016490658 0 -0.43912327732866052 0.27082845975049152 0 -0.41608093355480807 0.27260836016490658 0 -0.42569467822547491 0.29333324823827622 0 -0.44093041861641502 0.30629419798598828 0 -0.44456522433562062 0.28987896746967612 0 -0.42569467822547491 0.29333324823827622 0 -0.44456522433562062 0.28987896746967612 0 -0.43912327732866052 0.27082845975049152 0 -0.42569467822547491 0.29333324823827622 0 -0.42482201379485501 0.3164116993459492 0 -0.44093041861641502 0.30629419798598828 0 -0.42569467822547491 0.29333324823827622 0 -0.42482201379485501 0.3164116993459492 0 -0.42569467822547491 0.29333324823827622 0 -0.41580892915603301 0.30455156730479449 0 -0.41580892915603301 0.30455156730479449 0 -0.40133989565533279 0.29413343321372998 0 -0.40344199037643141 0.31069905435295109 0 -0.42569467822547491 0.29333324823827622 0 -0.41580892915603301 0.30455156730479449 0 -0.40133989565533279 0.29413343321372998 0 -0.42482201379485501 0.3164116993459492 0 -0.41580892915603301 0.30455156730479449 0 -0.40344199037643141 0.31069905435295109 0 -0.41608093355480807 0.27260836016490658 0 -0.42569467822547491 0.29333324823827622 0 -0.40133989565533279 0.29413343321372998 0 -0.41608093355480807 0.27260836016490658 0 -0.40133989565533279 0.29413343321372998 0 -0.40133989565533279 0.29413343321372998 0 -0.391405356210975 0.28736794428101681 0 -0.38183605444568008 0.30159254882832942 0 -0.41608093355480807 0.27260836016490658 0 -0.40133989565533279 0.29413343321372998 0 -0.39791334778191012 0.27873259344880857 0 -0.40133989565533279 0.29413343321372998 0 -0.391405356210975 0.28736794428101681 0 -0.39791334778191012 0.27873259344880857 0 -0.38659885775585739 0.31565850626255348 0 -0.40133989565533279 0.29413343321372998 0 -0.40344199037643141 0.31069905435295109 0 -0.38659885775585739 0.31565850626255348 0 -0.40133989565533279 0.29413343321372998 0 -0.38659885775585739 0.31565850626255348 0 -0.40133989565533279 0.29413343321372998 0 -0.38183605444568008 0.30159254882832942 0 -0.38183605444568008 0.30159254882832942 0 -0.37466468983423318 0.28951354051077988 0 -0.36997315068782782 0.30191223918603199 0 -0.38183605444568008 0.30159254882832942 0 -0.36997315068782782 0.30191223918603199 0 -0.3736940231061725 0.31398947852622111 0 -0.38659885775585739 0.31565850626255348 0 -0.38183605444568008 0.30159254882832942 0 -0.3736940231061725 0.31398947852622111 0 -0.391405356210975 0.28736794428101681 0 -0.38183605444568008 0.30159254882832942 0 -0.38453212696097688 0.2750132016331992 0 -0.38183605444568008 0.30159254882832942 0 -0.38453212696097688 0.2750132016331992 0 -0.37466468983423318 0.28951354051077988 0 -0.38183605444568008 0.30159254882832942 0 -0.38453212696097688 0.2750132016331992 0 -0.37672471104263361 0.27561795758142188 0 -0.38453212696097688 0.2750132016331992 0 -0.37466468983423318 0.28951354051077988 0 -0.37672471104263361 0.27561795758142188 0 -0.38453212696097688 0.2750132016331992 0 -0.37896013194671968 0.25534683486931381 0 -0.38722819947627368 0.24843385443806909 0 -0.38453212696097688 0.2750132016331992 0 -0.37896013194671968 0.25534683486931381 0 -0.37672471104263361 0.27561795758142188 0 -0.37896013194671968 0.25534683486931381 0 -0.38722819947627368 0.24843385443806909 0 -0.38453212696097688 0.2750132016331992 0 -0.3994904005985685 0.26310408063752239 0 -0.38722819947627368 0.24843385443806909 0 -0.38453212696097688 0.2750132016331992 0 -0.40101037553383972 0.24850817254535781 0 -0.4154354269666965 0.25327969466909228 0 -0.3994904005985685 0.26310408063752239 0 -0.38722819947627368 0.24843385443806909 0 -0.40101037553383972 0.24850817254535781 0 -0.3994904005985685 0.26310408063752239 0 -0.38453212696097688 0.2750132016331992 0 -0.3994904005985685 0.26310408063752239 0 -0.39791334778191012 0.27873259344880857 0 -0.41608093355480807 0.27260836016490658 0 -0.3994904005985685 0.26310408063752239 0 -0.39791334778191012 0.27873259344880857 0 -0.391405356210975 0.28736794428101681 0 -0.38453212696097688 0.2750132016331992 0 -0.39791334778191012 0.27873259344880857 0 -0.35754908974886279 0.25815157521253052 0 -0.35995394297715549 0.27846885519039472 0 -0.3399009986899495 0.26863911531903439 0 -0.34139946132247112 0.24041351753421181 0 -0.35754908974886279 0.25815157521253052 0 -0.3399009986899495 0.26863911531903439 0 -0.37672471104263361 0.27561795758142188 0 -0.37896013194671968 0.25534683486931381 0 -0.3691483330232409 0.26445373858247911 0 -0.35754908974886279 0.25815157521253052 0 -0.36759241766554501 0.2538245840294952 0 -0.3691483330232409 0.26445373858247911 0 -0.36182205832064851 0.24457456243760281 0 -0.35754908974886279 0.25815157521253052 0 -0.36759241766554501 0.2538245840294952 0 -0.37210575503526089 0.24405057661464391 0 -0.37896013194671968 0.25534683486931381 0 -0.36759241766554501 0.2538245840294952 0 -0.37896013194671968 0.25534683486931381 0 -0.36759241766554501 0.2538245840294952 0 -0.3691483330232409 0.26445373858247911 0 -0.35754908974886279 0.25815157521253052 0 -0.3691483330232409 0.26445373858247911 0 -0.35995394297715549 0.27846885519039472 0 -0.37672471104263361 0.27561795758142188 0 -0.3691483330232409 0.26445373858247911 0 -0.35995394297715549 0.27846885519039472 0 -0.37672471104263361 0.27561795758142188 0 -0.35995394297715549 0.27846885519039472 0 -0.37466468983423318 0.28951354051077988 0 -0.35995394297715549 0.27846885519039472 0 -0.37466468983423318 0.28951354051077988 0 -0.36067095067979221 0.29568292426180159 0 -0.37466468983423318 0.28951354051077988 0 -0.36067095067979221 0.29568292426180159 0 -0.36997315068782782 0.30191223918603199 0 -0.36067095067979221 0.29568292426180159 0 -0.36997315068782782 0.30191223918603199 0 -0.35820423278511537 0.31360051904281339 0 -0.36997315068782782 0.30191223918603199 0 -0.35820423278511537 0.31360051904281339 0 -0.3736940231061725 0.31398947852622111 0 -0.36067095067979221 0.29568292426180159 0 -0.33840253605742793 0.29686471310385681 0 -0.35820423278511537 0.31360051904281339 0 -0.33840253605742793 0.29686471310385681 0 -0.33690407342490619 0.32509031088867912 0 -0.35820423278511537 0.31360051904281339 0 -0.35995394297715549 0.27846885519039472 0 -0.33840253605742793 0.29686471310385681 0 -0.3399009986899495 0.26863911531903439 0 -0.35995394297715549 0.27846885519039472 0 -0.36067095067979221 0.29568292426180159 0 -0.33840253605742793 0.29686471310385681 0 -0.33840253605742793 0.29686471310385681 0 -0.3399009986899495 0.26863911531903439 0 -0.33840253605742793 0.29686471310385681 0 -0.31331907053128433 0.313878567385664 0 -0.33690407342490619 0.32509031088867912 0 -0.33840253605742793 0.29686471310385681 0 -0.33690407342490619 0.32509031088867912 0 -0.33840253605742793 0.29686471310385681 0 -0.31760133335066493 0.29423642541125972 0 -0.31331907053128433 0.313878567385664 0 -0.33840253605742793 0.29686471310385681 0 -0.31760133335066493 0.29423642541125972 0 -0.31493928155445272 0.27430993559415479 0 -0.33840253605742793 0.29686471310385681 0 -0.31493928155445272 0.27430993559415479 0 -0.3399009986899495 0.26863911531903439 0 -0.34139946132247112 0.24041351753421181 0 -0.3399009986899495 0.26863911531903439 0 -0.34139946132247112 0.24041351753421181 0 -0.3399009986899495 0.26863911531903439 0 -0.32052316857880009 0.25199218265017043 0 -0.31493928155445272 0.27430993559415479 0 -0.3399009986899495 0.26863911531903439 0 -0.32052316857880009 0.25199218265017043 0 -0.31493928155445272 0.27430993559415479 0 -0.32052316857880009 0.25199218265017043 0 -0.29813700426351908 0.2549985658140525 0 -0.31493928155445272 0.27430993559415479 0 -0.29813700426351908 0.2549985658140525 0 -0.29529200006252948 0.27158343417855851 0 -0.31493928155445272 0.27430993559415479 0 -0.29529200006252948 0.27158343417855851 0 -0.29860197381843362 0.29024571476828781 0 -0.29529200006252948 0.27158343417855851 0 -0.28356153015689661 0.26077246338072052 0 -0.28122021051934548 0.27759049133557667 0 -0.29529200006252948 0.27158343417855851 0 -0.28122021051934548 0.27759049133557667 0 -0.29860197381843362 0.29024571476828781 0 -0.29813700426351908 0.2549985658140525 0 -0.29529200006252948 0.27158343417855851 0 -0.28356153015689661 0.26077246338072052 0 -0.28520633826073721 0.24204505302591109 0 -0.29813700426351908 0.2549985658140525 0 -0.28356153015689661 0.26077246338072052 0 -0.28520633826073721 0.24204505302591109 0 -0.28356153015689661 0.26077246338072052 0 -0.26991196520069161 0.25166683223725428 0 -0.28356153015689661 0.26077246338072052 0 -0.26991196520069161 0.25166683223725428 0 -0.26982671458757052 0.26781375962876097 0 -0.28356153015689661 0.26077246338072052 0 -0.26982671458757052 0.26781375962876097 0 -0.28122021051934548 0.27759049133557667 0 -0.26982671458757052 0.26781375962876097 0 -0.28122021051934548 0.27759049133557667 0 -0.25982227492027221 0.287750399741656 0 -0.2546175921406465 0.26128861144859822 0 -0.25982227492027221 0.287750399741656 0 -0.26982671458757052 0.26781375962876097 0 -0.2546175921406465 0.26128861144859822 0 -0.25982227492027221 0.287750399741656 0 -0.2546175921406465 0.26128861144859822 0 -0.25982227492027221 0.287750399741656 0 -0.24164285362834059 0.26945109504960563 0 -0.25054816238852479 0.24059870715785611 0 -0.2546175921406465 0.26128861144859822 0 -0.26991196520069161 0.25166683223725428 0 -0.26982671458757052 0.26781375962876097 0 -0.2546175921406465 0.26128861144859822 0 -0.25993357060704247 0.2432609816545768 0 -0.26991196520069161 0.25166683223725428 0 -0.2546175921406465 0.26128861144859822 0 -0.26991196520069161 0.25166683223725428 0 -0.2546175921406465 0.26128861144859822 0 -0.25982227492027221 0.287750399741656 0 -0.26502695769989643 0.31421218803471418 0 -0.25040582964490582 0.29567583303740069 0 -0.26031873506221342 0.31817490468258641 0 -0.26502695769989643 0.31421218803471418 0 -0.25040582964490582 0.29567583303740069 0 -0.26031873506221342 0.31817490468258641 0 -0.25040582964490582 0.29567583303740069 0 -0.25982227492027221 0.287750399741656 0 -0.26502695769989643 0.31421218803471418 0 -0.25040582964490582 0.29567583303740069 0 -0.26031873506221342 0.31817490468258641 0 -0.2434150889916675 0.31528126182336752 0 -0.25040582964490582 0.29567583303740069 0 -0.25982227492027221 0.287750399741656 0 -0.2404929242275981 0.27317676139221531 0 -0.28122021051934548 0.27759049133557667 0 -0.25982227492027221 0.287750399741656 0 -0.27872696579211859 0.29653502721740232 0 -0.27872696579211859 0.29653502721740232 0 -0.2889634120026453 0.31287634220677663 0 -0.26502695769989643 0.31421218803471418 0 -0.25982227492027221 0.287750399741656 0 -0.27872696579211859 0.29653502721740232 0 -0.26502695769989643 0.31421218803471418 0 -0.27872696579211859 0.29653502721740232 0 -0.29860197381843362 0.29024571476828781 0 -0.2889634120026453 0.31287634220677663 0 -0.28122021051934548 0.27759049133557667 0 -0.27872696579211859 0.29653502721740232 0 -0.29860197381843362 0.29024571476828781 0 -0.31760133335066493 0.29423642541125972 0 -0.31493928155445272 0.27430993559415479 0 -0.29860197381843362 0.29024571476828781 0 -0.29860197381843362 0.29024571476828781 0 -0.2889634120026453 0.31287634220677663 0 -0.31331907053128433 0.313878567385664 0 -0.31760133335066493 0.29423642541125972 0 -0.29860197381843362 0.29024571476828781 0 -0.31331907053128433 0.313878567385664 0 -0.29891576475332582 0.33197597815543639 0 -0.2889634120026453 0.31287634220677663 0 -0.31331907053128433 0.313878567385664 0 -0.29891576475332582 0.33197597815543639 0 -0.31508677610875602 0.33246264155886579 0 -0.31331907053128433 0.313878567385664 0 -0.29891576475332582 0.33197597815543639 0 -0.30998113757288742 0.35016350933599311 0 -0.31508677610875602 0.33246264155886579 0 -0.29891576475332582 0.33197597815543639 0 -0.27956012110933898 0.33426516842927712 0 -0.28899367546018362 0.34990607578599969 0 -0.27956012110933898 0.33426516842927712 0 -0.27835705654663001 0.3466973614805422 0 -0.28899367546018362 0.34990607578599969 0 -0.29891576475332582 0.33197597815543639 0 -0.2889634120026453 0.31287634220677663 0 -0.27956012110933898 0.33426516842927712 0 -0.27023164047952081 0.34067397632777208 0 -0.26502695769989643 0.31421218803471418 0 -0.2889634120026453 0.31287634220677663 0 -0.27956012110933898 0.33426516842927712 0 -0.26502695769989643 0.31421218803471418 0 -0.27956012110933898 0.33426516842927712 0 -0.27023164047952081 0.34067397632777208 0 -0.26502695769989643 0.31421218803471418 0 -0.27956012110933898 0.33426516842927712 0 -0.27023164047952081 0.34067397632777208 0 -0.27835705654663001 0.3466973614805422 0 -0.27023164047952081 0.34067397632777208 0 -0.25008303346203908 0.33611797840414298 0 -0.26058904667577898 0.35313253120237981 0 -0.27023164047952081 0.34067397632777208 0 -0.25008303346203908 0.33611797840414298 0 -0.26031873506221342 0.31817490468258641 0 -0.27023164047952081 0.34067397632777208 0 -0.26031873506221342 0.31817490468258641 0 -0.27023164047952081 0.34067397632777208 0 -0.26031873506221342 0.31817490468258641 0 -0.26502695769989643 0.31421218803471418 0 -0.25008303346203908 0.33611797840414298 0 -0.26031873506221342 0.31817490468258641 0 -0.2434150889916675 0.31528126182336752 0 -0.2592717334901794 0.37344143954643821 0 -0.26058904667577898 0.35313253120237981 0 -0.245130999697667 0.35617292401417999 0 -0.2592717334901794 0.37344143954643821 0 -0.26058904667577898 0.35313253120237981 0 -0.2742317000365197 0.36101118680509853 0 -0.25008303346203908 0.33611797840414298 0 -0.26058904667577898 0.35313253120237981 0 -0.245130999697667 0.35617292401417999 0 -0.27023164047952081 0.34067397632777208 0 -0.27835705654663001 0.3466973614805422 0 -0.2742317000365197 0.36101118680509853 0 -0.27023164047952081 0.34067397632777208 0 -0.26058904667577898 0.35313253120237981 0 -0.2742317000365197 0.36101118680509853 0 -0.27023164047952081 0.34067397632777208 0 -0.2742317000365197 0.36101118680509853 0 -0.27835705654663001 0.3466973614805422 0 -0.2742317000365197 0.36101118680509853 0 -0.28899367546018362 0.34990607578599969 0 -0.2592717334901794 0.37344143954643821 0 -0.2742317000365197 0.36101118680509853 0 -0.27666944541277583 0.38068284486427251 0 -0.2742317000365197 0.36101118680509853 0 -0.2918056253057611 0.36977816091582622 0 -0.27666944541277583 0.38068284486427251 0 -0.2742317000365197 0.36101118680509853 0 -0.2918056253057611 0.36977816091582622 0 -0.28899367546018362 0.34990607578599969 0 -0.2918056253057611 0.36977816091582622 0 -0.28899367546018362 0.34990607578599969 0 -0.30998113757288742 0.35016350933599311 0 -0.29891576475332582 0.33197597815543639 0 -0.28899367546018362 0.34990607578599969 0 -0.30998113757288742 0.35016350933599311 0 -0.2918056253057611 0.36977816091582622 0 -0.30998113757288742 0.35016350933599311 0 -0.30751920709622288 0.37811993239733782 0 -0.30998113757288742 0.35016350933599311 0 -0.3241796865990505 0.37446232129606583 0 -0.30998113757288742 0.35016350933599311 0 -0.3241796865990505 0.37446232129606583 0 -0.3311814619238953 0.36217087484935062 0 -0.30998113757288742 0.35016350933599311 0 -0.3241796865990505 0.37446232129606583 0 -0.30751920709622288 0.37811993239733782 0 -0.3241796865990505 0.37446232129606583 0 -0.3311814619238953 0.36217087484935062 0 -0.3450213805631549 0.37637896488870742 0 -0.3311814619238953 0.36217087484935062 0 -0.34248144252655999 0.3449329262912757 0 -0.32671787735756741 0.34394441277493482 0 -0.30998113757288742 0.35016350933599311 0 -0.3311814619238953 0.36217087484935062 0 -0.32671787735756741 0.34394441277493482 0 -0.30998113757288742 0.35016350933599311 0 -0.32671787735756741 0.34394441277493482 0 -0.31508677610875602 0.33246264155886579 0 -0.32671787735756741 0.34394441277493482 0 -0.31508677610875602 0.33246264155886579 0 -0.33690407342490619 0.32509031088867912 0 -0.31508677610875602 0.33246264155886579 0 -0.31331907053128433 0.313878567385664 0 -0.33690407342490619 0.32509031088867912 0 -0.34248144252655999 0.3449329262912757 0 -0.32671787735756741 0.34394441277493482 0 -0.33690407342490619 0.32509031088867912 0 -0.34248144252655999 0.3449329262912757 0 -0.33690407342490619 0.32509031088867912 0 -0.35402019531300261 0.33435003863570822 0 -0.33690407342490619 0.32509031088867912 0 -0.35402019531300261 0.33435003863570822 0 -0.35820423278511537 0.31360051904281339 0 -0.35820423278511537 0.31360051904281339 0 -0.3736940231061725 0.31398947852622111 0 -0.371857819856382 0.33718357931137699 0 -0.35402019531300261 0.33435003863570822 0 -0.35820423278511537 0.31360051904281339 0 -0.371857819856382 0.33718357931137699 0 -0.35402019531300261 0.33435003863570822 0 -0.371857819856382 0.33718357931137699 0 -0.35941010751018809 0.3566911886622014 0 -0.38763875309648088 0.35121150247505228 0 -0.371857819856382 0.33718357931137699 0 -0.35941010751018809 0.3566911886622014 0 -0.38763875309648088 0.35121150247505228 0 -0.35941010751018809 0.3566911886622014 0 -0.37817844187468841 0.37049799817574158 0 -0.35941010751018809 0.3566911886622014 0 -0.36132744716974019 0.37598607000928502 0 -0.35941010751018809 0.3566911886622014 0 -0.3450213805631549 0.37637896488870742 0 -0.36132744716974019 0.37598607000928502 0 -0.3311814619238953 0.36217087484935062 0 -0.35941010751018809 0.3566911886622014 0 -0.3450213805631549 0.37637896488870742 0 -0.3311814619238953 0.36217087484935062 0 -0.35941010751018809 0.3566911886622014 0 -0.34248144252655999 0.3449329262912757 0 -0.35402019531300261 0.33435003863570822 0 -0.35941010751018809 0.3566911886622014 0 -0.3311814619238953 0.36217087484935062 0 -0.34248144252655999 0.3449329262912757 0 -0.35941010751018809 0.3566911886622014 0 -0.35813247438357998 0.40322770661363078 0 -0.35506690633984689 0.38909595593077778 0 -0.33837823562521357 0.3987611332561386 0 -0.3450213805631549 0.37637896488870742 0 -0.35506690633984689 0.38909595593077778 0 -0.36132744716974019 0.37598607000928502 0 -0.3450213805631549 0.37637896488870742 0 -0.35506690633984689 0.38909595593077778 0 -0.33837823562521357 0.3987611332561386 0 -0.37817844187468841 0.37049799817574158 0 -0.36132744716974019 0.37598607000928502 0 -0.36896039956082288 0.38726624238899698 0 -0.35506690633984689 0.38909595593077778 0 -0.36132744716974019 0.37598607000928502 0 -0.36896039956082288 0.38726624238899698 0 -0.35813247438357998 0.40322770661363078 0 -0.35506690633984689 0.38909595593077778 0 -0.36896039956082288 0.38726624238899698 0 -0.35813247438357998 0.40322770661363078 0 -0.36896039956082288 0.38726624238899698 0 -0.37495024184161951 0.39669027322643757 0 -0.35813247438357998 0.40322770661363078 0 -0.37495024184161951 0.39669027322643757 0 -0.37226667114234002 0.41030924202555608 0 -0.37226667114234002 0.41030924202555608 0 -0.37063698291958719 0.42934778893548009 0 -0.35257678465137682 0.42305994521621149 0 -0.37226667114234002 0.41030924202555608 0 -0.35257678465137682 0.42305994521621149 0 -0.35813247438357998 0.40322770661363078 0 -0.37226667114234002 0.41030924202555608 0 -0.35257678465137682 0.42305994521621149 0 -0.37063698291958719 0.42934778893548009 0 -0.35509229673206349 0.42736488897625841 0 -0.35257678465137682 0.42305994521621149 0 -0.38219330561030318 0.43733759585905729 0 -0.37063698291958719 0.42934778893548009 0 -0.37031446948010971 0.44164379239859503 0 -0.37063698291958719 0.42934778893548009 0 -0.35100800832540779 0.43373908660655719 0 -0.34797539811694939 0.44391372641119659 0 -0.35257678465137682 0.42305994521621149 0 -0.34703292232895172 0.42665001888350013 0 -0.33490384995054723 0.4214646834239163 0 -0.37063698291958719 0.42934778893548009 0 -0.35509229673206349 0.42736488897625841 0 -0.35100800832540779 0.43373908660655719 0 -0.37063698291958719 0.42934778893548009 0 -0.34797539811694939 0.44391372641119659 0 -0.35509229673206349 0.42736488897625841 0 -0.35257678465137682 0.42305994521621149 0 -0.35120601168128568 0.42714359628681298 0 -0.35509229673206349 0.42736488897625841 0 -0.35120601168128568 0.42714359628681298 0 -0.35100800832540779 0.43373908660655719 0 -0.35509229673206349 0.42736488897625841 0 -0.35257678465137682 0.42305994521621149 0 -0.35257678465137682 0.42305994521621149 0 -0.34703292232895172 0.42665001888350013 0 -0.35120601168128568 0.42714359628681298 0 -0.35257678465137682 0.42305994521621149 0 -0.34703292232895172 0.42665001888350013 0 -0.34703292232895172 0.42665001888350013 0 -0.35120601168128568 0.42714359628681298 0 -0.35100800832540779 0.43373908660655719 0 -0.34703292232895172 0.42665001888350013 0 -0.35100800832540779 0.43373908660655719 0 -0.3416144021158749 0.43307637903049229 0 -0.35100800832540779 0.43373908660655719 0 -0.3416144021158749 0.43307637903049229 0 -0.34797539811694939 0.44391372641119659 0 -0.35257678465137682 0.42305994521621149 0 -0.33837823562521357 0.3987611332561386 0 -0.35813247438357998 0.40322770661363078 0 -0.35257678465137682 0.42305994521621149 0 -0.33837823562521357 0.3987611332561386 0 -0.35257678465137682 0.42305994521621149 0 -0.33490384995054723 0.4214646834239163 0 -0.33837823562521357 0.3987611332561386 0 -0.33490384995054723 0.4214646834239163 0 -0.32139182098691871 0.40894936325787168 0 -0.33837823562521357 0.3987611332561386 0 -0.34703292232895172 0.42665001888350013 0 -0.33490384995054723 0.4214646834239163 0 -0.3416144021158749 0.43307637903049229 0 -0.33490384995054723 0.4214646834239163 0 -0.3416144021158749 0.43307637903049229 0 -0.32915885350338547 0.436077628681731 0 -0.32915885350338547 0.436077628681731 0 -0.31540425984898302 0.42282960227343241 0 -0.31037484696397899 0.44222133160263499 0 -0.33490384995054723 0.4214646834239163 0 -0.32915885350338547 0.436077628681731 0 -0.31540425984898302 0.42282960227343241 0 -0.31540425984898302 0.42282960227343241 0 -0.32139182098691871 0.40894936325787168 0 -0.30380921659141291 0.40737586576510598 0 -0.33490384995054723 0.4214646834239163 0 -0.31540425984898302 0.42282960227343241 0 -0.32139182098691871 0.40894936325787168 0 -0.32139182098691871 0.40894936325787168 0 -0.31446354291843659 0.3943155315707651 0 -0.30380921659141291 0.40737586576510598 0 -0.32139182098691871 0.40894936325787168 0 -0.31446354291843659 0.3943155315707651 0 -0.33837823562521357 0.3987611332561386 0 -0.3241796865990505 0.37446232129606583 0 -0.33837823562521357 0.3987611332561386 0 -0.3241796865990505 0.37446232129606583 0 -0.3450213805631549 0.37637896488870742 0 -0.33837823562521357 0.3987611332561386 0 -0.3241796865990505 0.37446232129606583 0 -0.31446354291843659 0.3943155315707651 0 -0.33837823562521357 0.3987611332561386 0 -0.3241796865990505 0.37446232129606583 0 -0.31446354291843659 0.3943155315707651 0 -0.30751920709622288 0.37811993239733782 0 -0.31446354291843659 0.3943155315707651 0 -0.30751920709622288 0.37811993239733782 0 -0.29017157169787189 0.39747123853798338 0 -0.31446354291843659 0.3943155315707651 0 -0.29017157169787189 0.39747123853798338 0 -0.30380921659141291 0.40737586576510598 0 -0.31446354291843659 0.3943155315707651 0 -0.29017157169787189 0.39747123853798338 0 -0.2918056253057611 0.36977816091582622 0 -0.29017157169787189 0.39747123853798338 0 -0.27666944541277583 0.38068284486427251 0 -0.2918056253057611 0.36977816091582622 0 -0.30751920709622288 0.37811993239733782 0 -0.29017157169787189 0.39747123853798338 0 -0.2592717334901794 0.37344143954643821 0 -0.27666944541277583 0.38068284486427251 0 -0.26587960047730708 0.40062694550520161 0 -0.29017157169787189 0.39747123853798338 0 -0.26587960047730708 0.40062694550520161 0 -0.29017157169787189 0.39747123853798338 0 -0.27666944541277583 0.38068284486427251 0 -0.26587960047730708 0.40062694550520161 0 -0.26587960047730708 0.40062694550520161 0 -0.24390026663595221 0.4098265108577458 0 -0.24158762925674229 0.40378265247242029 0 -0.26587960047730708 0.40062694550520161 0 -0.24855740320059311 0.38849035142128929 0 -0.24158762925674229 0.40378265247242029 0 -0.26587960047730708 0.40062694550520161 0 -0.24158762925674229 0.40378265247242029 0 -0.2592717334901794 0.37344143954643821 0 -0.24855740320059311 0.38849035142128929 0 -0.24298804513369371 0.37489662163126852 0 -0.2592717334901794 0.37344143954643821 0 -0.26587960047730708 0.40062694550520161 0 -0.24855740320059311 0.38849035142128929 0 -0.26486291021761232 0.42723466671622251 0 -0.25440434670568679 0.43727792757369249 0 -0.24390026663595221 0.4098265108577458 0 -0.26486291021761232 0.42723466671622251 0 -0.25440434670568679 0.43727792757369249 0 -0.268601175871508 0.43936588513269881 0 -0.26587960047730708 0.40062694550520161 0 -0.26486291021761232 0.42723466671622251 0 -0.24390026663595221 0.4098265108577458 0 -0.26486291021761232 0.42723466671622251 0 -0.24390026663595221 0.4098265108577458 0 -0.26587960047730708 0.40062694550520161 0 -0.26486291021761232 0.42723466671622251 0 -0.29212211282505068 0.42111929002973092 0 -0.26486291021761232 0.42723466671622251 0 -0.28582555379927221 0.44464282257469973 0 -0.26486291021761232 0.42723466671622251 0 -0.29212211282505068 0.42111929002973092 0 -0.28582555379927221 0.44464282257469973 0 -0.26486291021761232 0.42723466671622251 0 -0.28582555379927221 0.44464282257469973 0 -0.268601175871508 0.43936588513269881 0 -0.29212211282505068 0.42111929002973092 0 -0.31037484696397899 0.44222133160263499 0 -0.28582555379927221 0.44464282257469973 0 -0.29017157169787189 0.39747123853798338 0 -0.26587960047730708 0.40062694550520161 0 -0.29212211282505068 0.42111929002973092 0 -0.29017157169787189 0.39747123853798338 0 -0.29212211282505068 0.42111929002973092 0 -0.30380921659141291 0.40737586576510598 0 -0.31540425984898302 0.42282960227343241 0 -0.29212211282505068 0.42111929002973092 0 -0.30380921659141291 0.40737586576510598 0 -0.31540425984898302 0.42282960227343241 0 -0.29212211282505068 0.42111929002973092 0 -0.31037484696397899 0.44222133160263499 0 -0.31037484696397899 0.44222133160263499 0 -0.30678819738092977 0.46205097843317938 0 -0.28582555379927221 0.44464282257469973 0 -0.30678819738092977 0.46205097843317938 0 -0.28923783613749188 0.46977947950295129 0 -0.30678819738092977 0.46205097843317938 0 -0.28923783613749188 0.46977947950295129 0 -0.30891410950205461 0.46909475087526598 0 -0.30891410950205461 0.46909475087526598 0 -0.31325745709166991 0.46742329137141808 0 -0.30678819738092977 0.46205097843317938 0 -0.30891410950205461 0.46909475087526598 0 -0.31325745709166991 0.46742329137141808 0 -0.30891410950205461 0.46909475087526598 0 -0.31525562008559699 0.46908263994992622 0 -0.31325745709166991 0.46742329137141808 0 -0.30678819738092977 0.46205097843317938 0 -0.31325745709166991 0.46742329137141808 0 -0.30678819738092977 0.46205097843317938 0 -0.29206160947224158 0.45498445755246653 0 -0.28582555379927221 0.44464282257469973 0 -0.30678819738092977 0.46205097843317938 0 -0.28582555379927221 0.44464282257469973 0 -0.30678819738092977 0.46205097843317938 0 -0.29206160947224158 0.45498445755246653 0 -0.28923783613749188 0.46977947950295129 0 -0.29206160947224158 0.45498445755246653 0 -0.28923783613749188 0.46977947950295129 0 -0.29206160947224158 0.45498445755246653 0 -0.27802275223802481 0.45856884181986929 0 -0.28923783613749188 0.46977947950295129 0 -0.29206160947224158 0.45498445755246653 0 -0.28582555379927221 0.44464282257469973 0 -0.27802275223802481 0.45856884181986929 0 -0.28582555379927221 0.44464282257469973 0 -0.26931189276346068 0.44830812366618028 0 -0.27802275223802481 0.45856884181986929 0 -0.28582555379927221 0.44464282257469973 0 -0.268601175871508 0.43936588513269881 0 -0.26931189276346068 0.44830812366618028 0 -0.26931189276346068 0.44830812366618028 0 -0.27802275223802481 0.45856884181986929 0 -0.26490842677542209 0.46472934428963919 0 -0.27802275223802481 0.45856884181986929 0 -0.26490842677542209 0.46472934428963919 0 -0.27188202748178247 0.47742230712921863 0 -0.27802275223802481 0.45856884181986929 0 -0.27188202748178247 0.47742230712921863 0 -0.28923783613749188 0.46977947950295129 0 -0.26190074499161498 0.45925492802712919 0 -0.25374771190227041 0.46769530379170138 0 -0.2470835307717511 0.45204209071788648 0 -0.25440434670568679 0.43727792757369249 0 -0.26190074499161498 0.45925492802712919 0 -0.26490842677542209 0.46472934428963919 0 -0.26190074499161498 0.45925492802712919 0 -0.26490842677542209 0.46472934428963919 0 -0.25374771190227041 0.46769530379170138 0 -0.26190074499161498 0.45925492802712919 0 -0.26490842677542209 0.46472934428963919 0 -0.25440434670568679 0.43727792757369249 0 -0.26190074499161498 0.45925492802712919 0 -0.2470835307717511 0.45204209071788648 0 -0.25440434670568679 0.43727792757369249 0 -0.26490842677542209 0.46472934428963919 0 -0.25440434670568679 0.43727792757369249 0 -0.26931189276346068 0.44830812366618028 0 -0.26490842677542209 0.46472934428963919 0 -0.25440434670568679 0.43727792757369249 0 -0.268601175871508 0.43936588513269881 0 -0.26931189276346068 0.44830812366618028 0 -0.25847810702610519 0.48850414280974469 0 -0.27007053304879808 0.47822001929417107 0 -0.24534086517324849 0.48911000964708612 0 -0.25847810702610519 0.48850414280974469 0 -0.26092149103342371 0.50000000000000044 0 -0.24271601658602809 0.5 0 -0.25847810702610519 0.48850414280974469 0 -0.27201266959149478 0.48329560889354789 0 -0.25847810702610519 0.48850414280974469 0 -0.26092149103342371 0.50000000000000044 0 -0.26665442019254082 0.49000718405533439 0 -0.26490842677542209 0.46472934428963919 0 -0.25374771190227041 0.46769530379170138 0 -0.27007053304879808 0.47822001929417107 0 -0.25374771190227041 0.46769530379170138 0 -0.27007053304879808 0.47822001929417107 0 -0.24534086517324849 0.48911000964708612 0 -0.27007053304879808 0.47822001929417107 0 -0.24534086517324849 0.48911000964708612 0 -0.27188202748178247 0.47742230712921863 0 -0.28923783613749188 0.46977947950295129 0 -0.25847810702610519 0.48850414280974469 0 -0.27007053304879808 0.47822001929417107 0 -0.27201266959149478 0.48329560889354789 0 -0.27188202748178247 0.47742230712921863 0 -0.27456848518075422 0.48231204905436859 0 -0.28781911866264892 0.47721278015904062 0 -0.27007053304879808 0.47822001929417107 0 -0.27188202748178247 0.47742230712921863 0 -0.27210308472192962 0.4803444769229962 0 -0.27188202748178247 0.47742230712921863 0 -0.27456848518075422 0.48231204905436859 0 -0.27188202748178247 0.47742230712921863 0 -0.27210308472192962 0.4803444769229962 0 -0.27456848518075422 0.48231204905436859 0 -0.27007053304879808 0.47822001929417107 0 -0.27188202748178247 0.47742230712921863 0 -0.27007053304879808 0.47822001929417107 0 -0.27201266959149478 0.48329560889354789 0 -0.27210308472192962 0.4803444769229962 0 -0.27201266959149478 0.48329560889354789 0 -0.27456848518075422 0.48231204905436859 0 -0.27007053304879808 0.47822001929417107 0 -0.27210308472192962 0.4803444769229962 0 -0.27201266959149478 0.48329560889354789 0 -0.27201266959149478 0.48329560889354789 0 -0.27456848518075422 0.48231204905436859 0 -0.26490842677542209 0.46472934428963919 0 -0.27188202748178247 0.47742230712921863 0 -0.26490842677542209 0.46472934428963919 0 -0.27007053304879808 0.47822001929417107 0 -0.27188202748178247 0.47742230712921863 0 -0.26490842677542209 0.46472934428963919 0 -0.27007053304879808 0.47822001929417107 0 -0.27456848518075422 0.48231204905436859 0 -0.28781911866264892 0.47721278015904062 0 -0.26092149103342371 0.50000000000000044 0 -0.27494821351356852 0.49096737443205551 0 -0.27840448038632598 0.49999999999999989 0 -0.27456848518075422 0.48231204905436859 0 -0.27818028796098981 0.48888605298774751 0 -0.28662963421400323 0.4834450256126463 0 -0.27818028796098981 0.48888605298774751 0 -0.27494821351356852 0.49096737443205551 0 -0.27201266959149478 0.48329560889354789 0 -0.27494821351356852 0.49096737443205551 0 -0.27201266959149478 0.48329560889354789 0 -0.27456848518075422 0.48231204905436859 0 -0.27818028796098981 0.48888605298774751 0 -0.27201266959149478 0.48329560889354789 0 -0.27818028796098981 0.48888605298774751 0 -0.27494821351356852 0.49096737443205551 0 -0.27456848518075422 0.48231204905436859 0 -0.27818028796098981 0.48888605298774751 0 -0.27201266959149478 0.48329560889354789 0 -0.27494821351356852 0.49096737443205551 0 -0.26665442019254082 0.49000718405533439 0 -0.25847810702610519 0.48850414280974469 0 -0.27201266959149478 0.48329560889354789 0 -0.26665442019254082 0.49000718405533439 0 -0.26092149103342371 0.50000000000000044 0 -0.27494821351356852 0.49096737443205551 0 -0.26092149103342371 0.50000000000000044 0 -0.27494821351356852 0.49096737443205551 0 -0.26665442019254082 0.49000718405533439 0 -0.27494821351356852 0.49096737443205551 0 -0.27840448038632598 0.49999999999999989 0 -0.27818028796098981 0.48888605298774751 0 -0.27840448038632598 0.49999999999999989 0 -0.28368044823936328 0.49889714094141469 0 -0.27818028796098981 0.48888605298774751 0 -0.27494821351356852 0.49096737443205551 0 -0.27840448038632598 0.49999999999999989 0 -0.27818028796098981 0.48888605298774751 0 -0.28368044823936328 0.49889714094141469 0 -0.28368044823936328 0.49889714094141469 0 -0.29224888689071188 0.49344190183271952 0 -0.30769467815930068 0.5 0 -0.27818028796098981 0.48888605298774751 0 -0.28368044823936328 0.49889714094141469 0 -0.28662963421400323 0.4834450256126463 0 -0.28368044823936328 0.49889714094141469 0 -0.28662963421400323 0.4834450256126463 0 -0.28368044823936328 0.49889714094141469 0 -0.29224888689071188 0.49344190183271952 0 -0.28662963421400323 0.4834450256126463 0 -0.27818028796098981 0.48888605298774751 0 -0.28662963421400323 0.4834450256126463 0 -0.29224888689071188 0.49344190183271952 0 -0.28662963421400323 0.4834450256126463 0 -0.30094150763636901 0.48708058862929682 0 -0.28781911866264892 0.47721278015904062 0 -0.28923783613749188 0.46977947950295129 0 -0.30891410950205461 0.46909475087526598 0 -0.27188202748178247 0.47742230712921863 0 -0.28781911866264892 0.47721278015904062 0 -0.28923783613749188 0.46977947950295129 0 -0.28781911866264892 0.47721278015904062 0 -0.28923783613749188 0.46977947950295129 0 -0.27456848518075422 0.48231204905436859 0 -0.28781911866264892 0.47721278015904062 0 -0.28662963421400323 0.4834450256126463 0 -0.28781911866264892 0.47721278015904062 0 -0.28662963421400323 0.4834450256126463 0 -0.28662963421400323 0.4834450256126463 0 -0.30182933433063519 0.4736570512592001 0 -0.30094150763636901 0.48708058862929682 0 -0.28781911866264892 0.47721278015904062 0 -0.28662963421400323 0.4834450256126463 0 -0.30182933433063519 0.4736570512592001 0 -0.28662963421400323 0.4834450256126463 0 -0.30182933433063519 0.4736570512592001 0 -0.28781911866264892 0.47721278015904062 0 -0.30182933433063519 0.4736570512592001 0 -0.30182933433063519 0.4736570512592001 0 -0.31729910476423501 0.48596558745179752 0 -0.31525562008559699 0.46908263994992622 0 -0.30182933433063519 0.4736570512592001 0 -0.30094150763636901 0.48708058862929682 0 -0.31729910476423501 0.48596558745179752 0 -0.28781911866264892 0.47721278015904062 0 -0.30182933433063519 0.4736570512592001 0 -0.30891410950205461 0.46909475087526598 0 -0.28781911866264892 0.47721278015904062 0 -0.30891410950205461 0.46909475087526598 0 -0.30182933433063519 0.4736570512592001 0 -0.31525562008559699 0.46908263994992622 0 -0.30182933433063519 0.4736570512592001 0 -0.30891410950205461 0.46909475087526598 0 -0.31525562008559699 0.46908263994992622 0 -0.30182933433063519 0.4736570512592001 0 -0.30891410950205461 0.46909475087526598 0 -0.30094150763636901 0.48708058862929682 0 -0.30769467815930068 0.5 0 -0.31729910476423501 0.48596558745179752 0 -0.29224888689071188 0.49344190183271952 0 -0.30094150763636901 0.48708058862929682 0 -0.30769467815930068 0.5 0 -0.31729910476423501 0.48596558745179752 0 -0.33427013892530733 0.48487300084816443 0 -0.33110298975999741 0.5 0 -0.30769467815930068 0.5 0 -0.31729910476423501 0.48596558745179752 0 -0.33110298975999741 0.5 0 -0.33427013892530733 0.48487300084816443 0 -0.33110298975999741 0.5 0 -0.35451130136069398 0.4999999999999995 0 -0.33427013892530733 0.48487300084816443 0 -0.33945755539216582 0.46083690404104272 0 -0.34969032548814538 0.47637365565428952 0 -0.33427013892530733 0.48487300084816443 0 -0.31525562008559699 0.46908263994992622 0 -0.33945755539216582 0.46083690404104272 0 -0.31729910476423501 0.48596558745179752 0 -0.33427013892530733 0.48487300084816443 0 -0.31525562008559699 0.46908263994992622 0 -0.33427013892530733 0.48487300084816443 0 -0.31525562008559699 0.46908263994992622 0 -0.31525562008559699 0.46908263994992622 0 -0.31325745709166991 0.46742329137141808 0 -0.33361387207467458 0.45958948977355291 0 -0.31325745709166991 0.46742329137141808 0 -0.33024094015483157 0.45536115943149169 0 -0.33361387207467458 0.45958948977355291 0 -0.31525562008559699 0.46908263994992622 0 -0.31325745709166991 0.46742329137141808 0 -0.30678819738092977 0.46205097843317938 0 -0.32738179774893988 0.45298235242218882 0 -0.30678819738092977 0.46205097843317938 0 -0.31325745709166991 0.46742329137141808 0 -0.32738179774893988 0.45298235242218882 0 -0.31325745709166991 0.46742329137141808 0 -0.33024094015483157 0.45536115943149169 0 -0.31325745709166991 0.46742329137141808 0 -0.32738179774893988 0.45298235242218882 0 -0.33024094015483157 0.45536115943149169 0 -0.31325745709166991 0.46742329137141808 0 -0.33361387207467458 0.45958948977355291 0 -0.31525562008559699 0.46908263994992622 0 -0.33945755539216582 0.46083690404104272 0 -0.31037484696397899 0.44222133160263499 0 -0.30678819738092977 0.46205097843317938 0 -0.32738179774893988 0.45298235242218882 0 -0.32915885350338547 0.436077628681731 0 -0.31037484696397899 0.44222133160263499 0 -0.32738179774893988 0.45298235242218882 0 -0.32915885350338547 0.436077628681731 0 -0.32738179774893988 0.45298235242218882 0 -0.34797539811694939 0.44391372641119659 0 -0.32738179774893988 0.45298235242218882 0 -0.34797539811694939 0.44391372641119659 0 -0.33024094015483157 0.45536115943149169 0 -0.33361387207467458 0.45958948977355291 0 -0.34797539811694939 0.44391372641119659 0 -0.3416144021158749 0.43307637903049229 0 -0.32915885350338547 0.436077628681731 0 -0.34797539811694939 0.44391372641119659 0 -0.33024094015483157 0.45536115943149169 0 -0.34797539811694939 0.44391372641119659 0 -0.32738179774893988 0.45298235242218882 0 -0.33024094015483157 0.45536115943149169 0 -0.34797539811694939 0.44391372641119659 0 -0.31525562008559699 0.46908263994992622 0 -0.33361387207467458 0.45958948977355291 0 -0.33945755539216582 0.46083690404104272 0 -0.33361387207467458 0.45958948977355291 0 -0.33945755539216582 0.46083690404104272 0 -0.35397028705767941 0.45175568817568751 0 -0.33945755539216582 0.46083690404104272 0 -0.35397028705767941 0.45175568817568751 0 -0.3636594906987341 0.45259116813215772 0 -0.33945755539216582 0.46083690404104272 0 -0.35903601978900862 0.4668294320101527 0 -0.3636594906987341 0.45259116813215772 0 -0.33945755539216582 0.46083690404104272 0 -0.35903601978900862 0.4668294320101527 0 -0.34969032548814538 0.47637365565428952 0 -0.33361387207467458 0.45958948977355291 0 -0.35397028705767941 0.45175568817568751 0 -0.33945755539216582 0.46083690404104272 0 -0.3636594906987341 0.45259116813215772 0 -0.35397028705767941 0.45175568817568751 0 -0.34797539811694939 0.44391372641119659 0 -0.3636594906987341 0.45259116813215772 0 -0.33361387207467458 0.45958948977355291 0 -0.35397028705767941 0.45175568817568751 0 -0.34797539811694939 0.44391372641119659 0 -0.38786142600530288 0.44434543222327372 0 -0.3636594906987341 0.45259116813215772 0 -0.37031446948010971 0.44164379239859503 0 -0.34797539811694939 0.44391372641119659 0 -0.3636594906987341 0.45259116813215772 0 -0.37031446948010971 0.44164379239859503 0 -0.37063698291958719 0.42934778893548009 0 -0.34797539811694939 0.44391372641119659 0 -0.37031446948010971 0.44164379239859503 0 -0.37674471779043378 0.46289695481551602 0 -0.35903601978900862 0.4668294320101527 0 -0.3636594906987341 0.45259116813215772 0 -0.37674471779043378 0.46289695481551602 0 -0.35903601978900862 0.4668294320101527 0 -0.36562800957556379 0.48144847740775781 0 -0.37674471779043378 0.46289695481551602 0 -0.36562800957556379 0.48144847740775781 0 -0.36562800957556379 0.48144847740775781 0 -0.35451130136069398 0.4999999999999995 0 -0.37984386551400101 0.5 0 -0.36562800957556379 0.48144847740775781 0 -0.35451130136069398 0.4999999999999995 0 -0.33427013892530733 0.48487300084816443 0 -0.35451130136069398 0.4999999999999995 0 -0.34969032548814538 0.47637365565428952 0 -0.36562800957556379 0.48144847740775781 0 -0.35451130136069398 0.4999999999999995 0 -0.34969032548814538 0.47637365565428952 0 -0.35903601978900862 0.4668294320101527 0 -0.36562800957556379 0.48144847740775781 0 -0.34969032548814538 0.47637365565428952 0 -0.13298062755884579 0.48255116261061692 0 -0.15843735091332889 0.4710522502620903 0 -0.13298062755884579 0.48255116261061692 0 -0.14150291950411281 0.46425469992345519 0 -0.15843735091332889 0.4710522502620903 0 -0.13975760046378269 0.49999999999999878 0 -0.15843735091332889 0.4710522502620903 0 -0.16099880066542119 0.50000000000000022 0 -0.13975760046378269 0.49999999999999878 0 -0.13298062755884579 0.48255116261061692 0 -0.15843735091332889 0.4710522502620903 0 -0.13975760046378269 0.49999999999999878 0 -0.13298062755884579 0.48255116261061692 0 -0.13975760046378269 0.49999999999999878 0 -0.13298062755884579 0.48255116261061692 0 -0.11380605494256869 0.5 0 -0.13298062755884579 0.48255116261061692 0 -0.12544051825853689 0.4631374593356033 0 -0.14150291950411281 0.46425469992345519 0 -0.13298062755884579 0.48255116261061692 0 -0.12544051825853689 0.4631374593356033 0 -0.1336307511693739 0.45491465667522191 0 -0.12544051825853689 0.4631374593356033 0 -0.14150291950411281 0.46425469992345519 0 -0.1336307511693739 0.45491465667522191 0 -0.13175207046494611 0.44346192959665548 0 -0.11475987009784661 0.45084407402711402 0 -0.13175207046494611 0.44346192959665548 0 -0.15702534962047851 0.44961797073374349 0 -0.14544522351027661 0.43702334659483638 0 -0.1336307511693739 0.45491465667522191 0 -0.13175207046494611 0.44346192959665548 0 -0.15702534962047851 0.44961797073374349 0 -0.15702534962047851 0.44961797073374349 0 -0.14544522351027661 0.43702334659483638 0 -0.1556699124179855 0.4290423380990836 0 -0.13175207046494611 0.44346192959665548 0 -0.15702534962047851 0.44961797073374349 0 -0.1336307511693739 0.45491465667522191 0 -0.14150291950411281 0.46425469992345519 0 -0.15702534962047851 0.44961797073374349 0 -0.14150291950411281 0.46425469992345519 0 -0.15702534962047851 0.44961797073374349 0 -0.15843735091332889 0.4710522502620903 0 -0.15702534962047851 0.44961797073374349 0 -0.15843735091332889 0.4710522502620903 0 -0.16426353778385031 0.46842053638370362 0 -0.16193071402987511 0.45081281469960982 0 -0.15843735091332889 0.4710522502620903 0 -0.15702534962047851 0.44961797073374349 0 -0.16193071402987511 0.45081281469960982 0 -0.15843735091332889 0.4710522502620903 0 -0.16426353778385031 0.46842053638370362 0 -0.16193071402987511 0.45081281469960982 0 -0.17220307999619611 0.44534927840499378 0 -0.16426353778385031 0.46842053638370362 0 -0.17220307999619611 0.44534927840499378 0 -0.15702534962047851 0.44961797073374349 0 -0.1556699124179855 0.4290423380990836 0 -0.16306062424848339 0.44050736484390751 0 -0.15702534962047851 0.44961797073374349 0 -0.1556699124179855 0.4290423380990836 0 -0.16306062424848339 0.44050736484390751 0 -0.15702534962047851 0.44961797073374349 0 -0.16193071402987511 0.45081281469960982 0 -0.15702534962047851 0.44961797073374349 0 -0.16193071402987511 0.45081281469960982 0 -0.16306062424848339 0.44050736484390751 0 -0.16193071402987511 0.45081281469960982 0 -0.17220307999619611 0.44534927840499378 0 -0.16306062424848339 0.44050736484390751 0 -0.17220307999619611 0.44534927840499378 0 -0.16780974434499221 0.43040982398245581 0 -0.17220307999619611 0.44534927840499378 0 -0.18281758700689349 0.4600395918781951 0 -0.19105692089556489 0.43334490180876922 0 -0.18281758700689349 0.4600395918781951 0 -0.19105692089556489 0.43334490180876922 0 -0.18281758700689349 0.4600395918781951 0 -0.17801000380965989 0.47561572280906489 0 -0.19482622675472999 0.46587529032893948 0 -0.16426353778385031 0.46842053638370362 0 -0.17220307999619611 0.44534927840499378 0 -0.18281758700689349 0.4600395918781951 0 -0.16426353778385031 0.46842053638370362 0 -0.18281758700689349 0.4600395918781951 0 -0.17801000380965989 0.47561572280906489 0 -0.16426353778385031 0.46842053638370362 0 -0.18281758700689349 0.4600395918781951 0 -0.18281758700689349 0.4600395918781951 0 -0.17801000380965989 0.47561572280906489 0 -0.17801000380965989 0.47561572280906489 0 -0.17320242061242691 0.49119185373993512 0 -0.190689979325044 0.47856994519631457 0 -0.17801000380965989 0.47561572280906489 0 -0.17014513666291531 0.48171822366538508 0 -0.17320242061242691 0.49119185373993512 0 -0.17801000380965989 0.47561572280906489 0 -0.17320242061242691 0.49119185373993512 0 -0.16116749874829769 0.47741721571243328 0 -0.15843735091332889 0.4710522502620903 0 -0.16099880066542119 0.50000000000000022 0 -0.16426353778385031 0.46842053638370362 0 -0.17801000380965989 0.47561572280906489 0 -0.17014513666291531 0.48171822366538508 0 -0.16426353778385031 0.46842053638370362 0 -0.17014513666291531 0.48171822366538508 0 -0.16116749874829769 0.47741721571243328 0 -0.16426353778385031 0.46842053638370362 0 -0.16116749874829769 0.47741721571243328 0 -0.15843735091332889 0.4710522502620903 0 -0.16426353778385031 0.46842053638370362 0 -0.16116749874829769 0.47741721571243328 0 -0.16426353778385031 0.46842053638370362 0 -0.15843735091332889 0.4710522502620903 0 -0.17014513666291531 0.48171822366538508 0 -0.16116749874829769 0.47741721571243328 0 -0.16099880066542119 0.50000000000000022 0 -0.17014513666291531 0.48171822366538508 0 -0.16099880066542119 0.50000000000000022 0 -0.17320242061242691 0.49119185373993512 0 -0.15843735091332889 0.4710522502620903 0 -0.16099880066542119 0.50000000000000022 0 -0.17048378039640921 0.499999999999996 0 -0.17320242061242691 0.49119185373993512 0 -0.16099880066542119 0.50000000000000022 0 -0.17048378039640921 0.499999999999996 0 -0.17320242061242691 0.49119185373993512 0 -0.16099880066542119 0.50000000000000022 0 -0.17320242061242691 0.49119185373993512 0 -0.17320242061242691 0.49119185373993512 0 -0.190689979325044 0.47856994519631457 0 -0.17048378039640921 0.499999999999996 0 -0.17320242061242691 0.49119185373993512 0 -0.18581873262730181 0.49118729788902749 0 -0.17320242061242691 0.49119185373993512 0 -0.18581873262730181 0.49118729788902749 0 -0.190689979325044 0.47856994519631457 0 -0.17048378039640921 0.499999999999996 0 -0.18581873262730181 0.49118729788902749 0 -0.19554748884705389 0.5 0 -0.18581873262730181 0.49118729788902749 0 -0.19487595816744871 0.48827984865781948 0 -0.19554748884705389 0.5 0 -0.19487595816744871 0.48827984865781948 0 -0.19554748884705389 0.5 0 -0.20744763187039511 0.48336215154593609 0 -0.18581873262730181 0.49118729788902749 0 -0.19487595816744871 0.48827984865781948 0 -0.190689979325044 0.47856994519631457 0 -0.190689979325044 0.47856994519631457 0 -0.20817753803766101 0.46594803665269391 0 -0.190689979325044 0.47856994519631457 0 -0.20817753803766101 0.46594803665269391 0 -0.19482622675472999 0.46587529032893948 0 -0.19487595816744871 0.48827984865781948 0 -0.190689979325044 0.47856994519631457 0 -0.20744763187039511 0.48336215154593609 0 -0.17801000380965989 0.47561572280906489 0 -0.190689979325044 0.47856994519631457 0 -0.19482622675472999 0.46587529032893948 0 -0.190689979325044 0.47856994519631457 0 -0.20744763187039511 0.48336215154593609 0 -0.20817753803766101 0.46594803665269391 0 -0.20744763187039511 0.48336215154593609 0 -0.2232475932131088 0.47874498222143241 0 -0.20817753803766101 0.46594803665269391 0 -0.2232475932131088 0.47874498222143241 0 -0.22334275735617259 0.46647783610587229 0 -0.20817753803766101 0.46594803665269391 0 -0.19554748884705389 0.5 0 -0.20744763187039511 0.48336215154593609 0 -0.22061119729769851 0.50000000000000044 0 -0.20744763187039511 0.48336215154593609 0 -0.22061119729769851 0.50000000000000044 0 -0.2232475932131088 0.47874498222143241 0 -0.22061119729769851 0.50000000000000044 0 -0.22451054213863281 0.50000000000000233 0 -0.24534086517324849 0.48911000964708612 0 -0.22061119729769851 0.50000000000000044 0 -0.2232475932131088 0.47874498222143241 0 -0.24534086517324849 0.48911000964708612 0 -0.22061119729769851 0.50000000000000044 0 -0.24534086517324849 0.48911000964708612 0 -0.22451054213863281 0.50000000000000233 0 -0.24148255890114151 0.49421753813106339 0 -0.2232475932131088 0.47874498222143241 0 -0.23628080142364249 0.46789219744028959 0 -0.22334275735617259 0.46647783610587229 0 -0.2232475932131088 0.47874498222143241 0 -0.24534086517324849 0.48911000964708612 0 -0.23628080142364249 0.46789219744028959 0 -0.25374771190227041 0.46769530379170138 0 -0.24534086517324849 0.48911000964708612 0 -0.23628080142364249 0.46789219744028959 0 -0.22451054213863281 0.50000000000000233 0 -0.24534086517324849 0.48911000964708612 0 -0.24148255890114151 0.49421753813106339 0 -0.25847810702610519 0.48850414280974469 0 -0.24534086517324849 0.48911000964708612 0 -0.24148255890114151 0.49421753813106339 0 -0.22451054213863281 0.50000000000000233 0 -0.24271601658602809 0.5 0 -0.24148255890114151 0.49421753813106339 0 -0.25847810702610519 0.48850414280974469 0 -0.24271601658602809 0.5 0 -0.24148255890114151 0.49421753813106339 0 -0.25847810702610519 0.48850414280974469 0 -0.24148255890114151 0.49421753813106339 0 -0.25440434670568679 0.43727792757369249 0 -0.2470835307717511 0.45204209071788648 0 -0.23583124119127399 0.4374763133559072 0 -0.2470835307717511 0.45204209071788648 0 -0.2256650967502781 0.4533261281090733 0 -0.23583124119127399 0.4374763133559072 0 -0.2470835307717511 0.45204209071788648 0 -0.23628080142364249 0.46789219744028959 0 -0.2256650967502781 0.4533261281090733 0 -0.25374771190227041 0.46769530379170138 0 -0.2470835307717511 0.45204209071788648 0 -0.23628080142364249 0.46789219744028959 0 -0.22334275735617259 0.46647783610587229 0 -0.2256650967502781 0.4533261281090733 0 -0.20817753803766101 0.46594803665269391 0 -0.23628080142364249 0.46789219744028959 0 -0.22334275735617259 0.46647783610587229 0 -0.2256650967502781 0.4533261281090733 0 -0.2256650967502781 0.4533261281090733 0 -0.22084070426585289 0.43538371924467612 0 -0.23583124119127399 0.4374763133559072 0 -0.2256650967502781 0.4533261281090733 0 -0.20831066890565611 0.44852425621752878 0 -0.22084070426585289 0.43538371924467612 0 -0.2256650967502781 0.4533261281090733 0 -0.20831066890565611 0.44852425621752878 0 -0.20817753803766101 0.46594803665269391 0 -0.2256650967502781 0.4533261281090733 0 -0.20817753803766101 0.46594803665269391 0 -0.20831066890565611 0.44852425621752878 0 -0.20817753803766101 0.46594803665269391 0 -0.19482622675472999 0.46587529032893948 0 -0.18281758700689349 0.4600395918781951 0 -0.20831066890565611 0.44852425621752878 0 -0.19482622675472999 0.46587529032893948 0 -0.18281758700689349 0.4600395918781951 0 -0.20831066890565611 0.44852425621752878 0 -0.18281758700689349 0.4600395918781951 0 -0.20831066890565611 0.44852425621752878 0 -0.19105692089556489 0.43334490180876922 0 -0.20831066890565611 0.44852425621752878 0 -0.19105692089556489 0.43334490180876922 0 -0.20810391325395439 0.42398758438242701 0 -0.19105692089556489 0.43334490180876922 0 -0.1992962547842371 0.40665021173934351 0 -0.19105692089556489 0.43334490180876922 0 -0.1992962547842371 0.40665021173934351 0 -0.18014262220854191 0.42227802042628387 0 -0.1992962547842371 0.40665021173934351 0 -0.18808216442088779 0.39920676244757408 0 -0.18014262220854191 0.42227802042628387 0 -0.19105692089556489 0.43334490180876922 0 -0.1992962547842371 0.40665021173934351 0 -0.20810391325395439 0.42398758438242701 0 -0.1992962547842371 0.40665021173934351 0 -0.21742618678061951 0.40692140278904287 0 -0.20810391325395439 0.42398758438242701 0 -0.21742618678061951 0.40692140278904287 0 -0.20810391325395439 0.42398758438242701 0 -0.22035716728969429 0.42060188859009112 0 -0.20831066890565611 0.44852425621752878 0 -0.20810391325395439 0.42398758438242701 0 -0.22084070426585289 0.43538371924467612 0 -0.20810391325395439 0.42398758438242701 0 -0.22084070426585289 0.43538371924467612 0 -0.22035716728969429 0.42060188859009112 0 -0.22084070426585289 0.43538371924467612 0 -0.22806234900785671 0.42609527632417488 0 -0.23583124119127399 0.4374763133559072 0 -0.22806234900785671 0.42609527632417488 0 -0.23583124119127399 0.4374763133559072 0 -0.23813634159033989 0.42290976463926327 0 -0.22084070426585289 0.43538371924467612 0 -0.22806234900785671 0.42609527632417488 0 -0.22035716728969429 0.42060188859009112 0 -0.21742618678061951 0.40692140278904287 0 -0.22961658629595061 0.41319157683878799 0 -0.24158762925674229 0.40378265247242029 0 -0.22806234900785671 0.42609527632417488 0 -0.22035716728969429 0.42060188859009112 0 -0.22961658629595061 0.41319157683878799 0 -0.21742618678061951 0.40692140278904287 0 -0.22035716728969429 0.42060188859009112 0 -0.22961658629595061 0.41319157683878799 0 -0.22806234900785671 0.42609527632417488 0 -0.22961658629595061 0.41319157683878799 0 -0.23813634159033989 0.42290976463926327 0 -0.22961658629595061 0.41319157683878799 0 -0.239163799237434 0.41168781992760201 0 -0.23813634159033989 0.42290976463926327 0 -0.239163799237434 0.41168781992760201 0 -0.24390026663595221 0.4098265108577458 0 -0.23813634159033989 0.42290976463926327 0 -0.22961658629595061 0.41319157683878799 0 -0.239163799237434 0.41168781992760201 0 -0.24158762925674229 0.40378265247242029 0 -0.239163799237434 0.41168781992760201 0 -0.24390026663595221 0.4098265108577458 0 -0.24158762925674229 0.40378265247242029 0 -0.24390026663595221 0.4098265108577458 0 -0.24158762925674229 0.40378265247242029 0 -0.25440434670568679 0.43727792757369249 0 -0.24390026663595221 0.4098265108577458 0 -0.25440434670568679 0.43727792757369249 0 -0.23583124119127399 0.4374763133559072 0 -0.23813634159033989 0.42290976463926327 0 -0.25440434670568679 0.43727792757369249 0 -0.24390026663595221 0.4098265108577458 0 -0.23813634159033989 0.42290976463926327 0 -0.23424469339825599 0.38459258624753379 0 -0.22773539588177269 0.371785806926901 0 -0.24298804513369371 0.37489662163126852 0 -0.24855740320059311 0.38849035142128929 0 -0.23424469339825599 0.38459258624753379 0 -0.24298804513369371 0.37489662163126852 0 -0.24158762925674229 0.40378265247242029 0 -0.23424469339825599 0.38459258624753379 0 -0.24855740320059311 0.38849035142128929 0 -0.24158762925674229 0.40378265247242029 0 -0.23424469339825599 0.38459258624753379 0 -0.24158762925674229 0.40378265247242029 0 -0.22554848148559539 0.39550039904942808 0 -0.23424469339825599 0.38459258624753379 0 -0.21742618678061951 0.40692140278904287 0 -0.24158762925674229 0.40378265247242029 0 -0.21742618678061951 0.40692140278904287 0 -0.24158762925674229 0.40378265247242029 0 -0.22554848148559539 0.39550039904942808 0 -0.21742618678061951 0.40692140278904287 0 -0.22554848148559539 0.39550039904942808 0 -0.2145442316967007 0.39558569262158683 0 -0.22554848148559539 0.39550039904942808 0 -0.2206001822887777 0.38503322384510019 0 -0.2145442316967007 0.39558569262158683 0 -0.22554848148559539 0.39550039904942808 0 -0.2206001822887777 0.38503322384510019 0 -0.23424469339825599 0.38459258624753379 0 -0.2206001822887777 0.38503322384510019 0 -0.23424469339825599 0.38459258624753379 0 -0.22773539588177269 0.371785806926901 0 -0.2206001822887777 0.38503322384510019 0 -0.2075355886729093 0.37995552166991781 0 -0.22773539588177269 0.371785806926901 0 -0.2206001822887777 0.38503322384510019 0 -0.2075355886729093 0.37995552166991781 0 -0.2145442316967007 0.39558569262158683 0 -0.1992962547842371 0.40665021173934351 0 -0.21742618678061951 0.40692140278904287 0 -0.2145442316967007 0.39558569262158683 0 -0.1992962547842371 0.40665021173934351 0 -0.2075355886729093 0.37995552166991781 0 -0.2145442316967007 0.39558569262158683 0 -0.1992962547842371 0.40665021173934351 0 -0.2075355886729093 0.37995552166991781 0 -0.1992962547842371 0.40665021173934351 0 -0.2075355886729093 0.37995552166991781 0 -0.19773392862781691 0.3904870000814249 0 -0.1992962547842371 0.40665021173934351 0 -0.18808216442088779 0.39920676244757408 0 -0.19773392862781691 0.3904870000814249 0 -0.18808216442088779 0.39920676244757408 0 -0.19602170663323359 0.37613550446886429 0 -0.18808216442088779 0.39920676244757408 0 -0.19602170663323359 0.37613550446886429 0 -0.19773392862781691 0.3904870000814249 0 -0.18808216442088779 0.39920676244757408 0 -0.19602170663323359 0.37613550446886429 0 -0.18047408951467989 0.38368683415264299 0 -0.2075355886729093 0.37995552166991781 0 -0.19602170663323359 0.37613550446886429 0 -0.19773392862781691 0.3904870000814249 0 -0.18047408951467989 0.38368683415264299 0 -0.16393263101776051 0.377811301899728 0 -0.17738562461233581 0.36620191856746193 0 -0.19602170663323359 0.37613550446886429 0 -0.18047408951467989 0.38368683415264299 0 -0.18587119209385661 0.37354081621318608 0 -0.16393263101776051 0.377811301899728 0 -0.1697532507094677 0.3985670854867942 0 -0.14892453724321039 0.38998910039625528 0 -0.18047408951467989 0.38368683415264299 0 -0.16393263101776051 0.377811301899728 0 -0.1697532507094677 0.3985670854867942 0 -0.1697532507094677 0.3985670854867942 0 -0.1543144752154926 0.40846670546442382 0 -0.14892453724321039 0.38998910039625528 0 -0.18808216442088779 0.39920676244757408 0 -0.18047408951467989 0.38368683415264299 0 -0.1697532507094677 0.3985670854867942 0 -0.18808216442088779 0.39920676244757408 0 -0.1697532507094677 0.3985670854867942 0 -0.1764876300481629 0.40873099662466561 0 -0.18808216442088779 0.39920676244757408 0 -0.1764876300481629 0.40873099662466561 0 -0.18014262220854191 0.42227802042628387 0 -0.18808216442088779 0.39920676244757408 0 -0.18014262220854191 0.42227802042628387 0 -0.1764876300481629 0.40873099662466561 0 -0.18014262220854191 0.42227802042628387 0 -0.16797248285375421 0.41487211813801012 0 -0.17220307999619611 0.44534927840499378 0 -0.18014262220854191 0.42227802042628387 0 -0.17220307999619611 0.44534927840499378 0 -0.19105692089556489 0.43334490180876922 0 -0.18014262220854191 0.42227802042628387 0 -0.17220307999619611 0.44534927840499378 0 -0.18014262220854191 0.42227802042628387 0 -0.16780974434499221 0.43040982398245581 0 -0.18014262220854191 0.42227802042628387 0 -0.16780974434499221 0.43040982398245581 0 -0.16797248285375421 0.41487211813801012 0 -0.16780974434499221 0.43040982398245581 0 -0.16797248285375421 0.41487211813801012 0 -0.1556699124179855 0.4290423380990836 0 -0.16306062424848339 0.44050736484390751 0 -0.16780974434499221 0.43040982398245581 0 -0.1556699124179855 0.4290423380990836 0 -0.1697532507094677 0.3985670854867942 0 -0.1764876300481629 0.40873099662466561 0 -0.16797248285375421 0.41487211813801012 0 -0.16797248285375421 0.41487211813801012 0 -0.1543144752154926 0.40846670546442382 0 -0.1556699124179855 0.4290423380990836 0 -0.1697532507094677 0.3985670854867942 0 -0.16797248285375421 0.41487211813801012 0 -0.1543144752154926 0.40846670546442382 0 -0.1543144752154926 0.40846670546442382 0 -0.13955083839820601 0.41331054213078378 0 -0.1342738988421254 0.39940632656162323 0 -0.1543144752154926 0.40846670546442382 0 -0.1556699124179855 0.4290423380990836 0 -0.13955083839820601 0.41331054213078378 0 -0.1543144752154926 0.40846670546442382 0 -0.1556699124179855 0.4290423380990836 0 -0.14544522351027661 0.43702334659483638 0 -0.1556699124179855 0.4290423380990836 0 -0.13656638764367751 0.42782024169105087 0 -0.1556699124179855 0.4290423380990836 0 -0.13656638764367751 0.42782024169105087 0 -0.13955083839820601 0.41331054213078378 0 -0.13175207046494611 0.44346192959665548 0 -0.13656638764367751 0.42782024169105087 0 -0.1221002198223846 0.42926878838971572 0 -0.13175207046494611 0.44346192959665548 0 -0.14544522351027661 0.43702334659483638 0 -0.13656638764367751 0.42782024169105087 0 -0.13656638764367751 0.42782024169105087 0 -0.12548201032280559 0.41579856094527679 0 -0.1221002198223846 0.42926878838971572 0 -0.13955083839820601 0.41331054213078378 0 -0.12548201032280559 0.41579856094527679 0 -0.1342738988421254 0.39940632656162323 0 -0.13656638764367751 0.42782024169105087 0 -0.13955083839820601 0.41331054213078378 0 -0.12548201032280559 0.41579856094527679 0 -0.1342738988421254 0.39940632656162323 0 -0.12655549565904481 0.38459039506062281 0 -0.14892453724321039 0.38998910039625528 0 -0.12655549565904481 0.38459039506062281 0 -0.14892453724321039 0.38998910039625528 0 -0.14471747201537141 0.37109278790434008 0 -0.16393263101776051 0.377811301899728 0 -0.14892453724321039 0.38998910039625528 0 -0.14471747201537141 0.37109278790434008 0 -0.1543144752154926 0.40846670546442382 0 -0.1342738988421254 0.39940632656162323 0 -0.14892453724321039 0.38998910039625528 0 -0.14165043288496271 0.34906334461799549 0 -0.15843984593516669 0.3353087962765417 0 -0.16020893970901179 0.3578896071927124 0 -0.14165043288496271 0.34906334461799549 0 -0.14471747201537141 0.37109278790434008 0 -0.16020893970901179 0.3578896071927124 0 -0.12655549565904481 0.38459039506062281 0 -0.14471747201537141 0.37109278790434008 0 -0.12710123171609961 0.3622807710251873 0 -0.14165043288496271 0.34906334461799549 0 -0.14471747201537141 0.37109278790434008 0 -0.12710123171609961 0.3622807710251873 0 -0.14165043288496271 0.34906334461799549 0 -0.12710123171609961 0.3622807710251873 0 -0.1189994847652637 0.3425748687043878 0 -0.14165043288496271 0.34906334461799549 0 -0.1315170279352865 0.33102482385584192 0 -0.1189994847652637 0.3425748687043878 0 -0.14165043288496271 0.34906334461799549 0 -0.1315170279352865 0.33102482385584192 0 -0.1443776795059328 0.33390895980560381 0 -0.1315170279352865 0.33102482385584192 0 -0.14495419486811961 0.31734813855161759 0 -0.12577302420238409 0.3093301053864293 0 -0.1315170279352865 0.33102482385584192 0 -0.14495419486811961 0.31734813855161759 0 -0.1443776795059328 0.33390895980560381 0 -0.14495419486811961 0.31734813855161759 0 -0.15843984593516669 0.3353087962765417 0 -0.16290230207748849 0.31861206890147392 0 -0.14495419486811961 0.31734813855161759 0 -0.1443776795059328 0.33390895980560381 0 -0.15843984593516669 0.3353087962765417 0 -0.14165043288496271 0.34906334461799549 0 -0.1443776795059328 0.33390895980560381 0 -0.15843984593516669 0.3353087962765417 0 -0.15843984593516669 0.3353087962765417 0 -0.17774973011518999 0.33020764546750409 0 -0.17749789925717871 0.34686132115754031 0 -0.15843984593516669 0.3353087962765417 0 -0.16290230207748849 0.31861206890147392 0 -0.17774973011518999 0.33020764546750409 0 -0.17774973011518999 0.33020764546750409 0 -0.19720201262974121 0.32662885324472202 0 -0.17861358928141469 0.31234998356939919 0 -0.16290230207748849 0.31861206890147392 0 -0.17774973011518999 0.33020764546750409 0 -0.17861358928141469 0.31234998356939919 0 -0.17774973011518999 0.33020764546750409 0 -0.17749789925717871 0.34686132115754031 0 -0.1924972983359893 0.34358046834146699 0 -0.17749789925717871 0.34686132115754031 0 -0.17738562461233581 0.36620191856746193 0 -0.1942619271162552 0.36094369023707662 0 -0.17749789925717871 0.34686132115754031 0 -0.16020893970901179 0.3578896071927124 0 -0.17738562461233581 0.36620191856746193 0 -0.15843984593516669 0.3353087962765417 0 -0.17749789925717871 0.34686132115754031 0 -0.16020893970901179 0.3578896071927124 0 -0.16393263101776051 0.377811301899728 0 -0.16020893970901179 0.3578896071927124 0 -0.17738562461233581 0.36620191856746193 0 -0.16393263101776051 0.377811301899728 0 -0.14471747201537141 0.37109278790434008 0 -0.16020893970901179 0.3578896071927124 0 -0.18047408951467989 0.38368683415264299 0 -0.17738562461233581 0.36620191856746193 0 -0.18587119209385661 0.37354081621318608 0 -0.17738562461233581 0.36620191856746193 0 -0.18587119209385661 0.37354081621318608 0 -0.1942619271162552 0.36094369023707662 0 -0.19602170663323359 0.37613550446886429 0 -0.18587119209385661 0.37354081621318608 0 -0.1942619271162552 0.36094369023707662 0 -0.2075355886729093 0.37995552166991781 0 -0.19602170663323359 0.37613550446886429 0 -0.1942619271162552 0.36094369023707662 0 -0.1942619271162552 0.36094369023707662 0 -0.2157749225615814 0.35326083160049221 0 -0.1924972983359893 0.34358046834146699 0 -0.17749789925717871 0.34686132115754031 0 -0.1942619271162552 0.36094369023707662 0 -0.1924972983359893 0.34358046834146699 0 -0.2075355886729093 0.37995552166991781 0 -0.2157749225615814 0.35326083160049221 0 -0.2075355886729093 0.37995552166991781 0 -0.2157749225615814 0.35326083160049221 0 -0.22773539588177269 0.371785806926901 0 -0.2075355886729093 0.37995552166991781 0 -0.1942619271162552 0.36094369023707662 0 -0.2157749225615814 0.35326083160049221 0 -0.2157749225615814 0.35326083160049221 0 -0.22773539588177269 0.371785806926901 0 -0.245130999697667 0.35617292401417999 0 -0.2157749225615814 0.35326083160049221 0 -0.245130999697667 0.35617292401417999 0 -0.23295058751304551 0.34252643707592823 0 -0.25008303346203908 0.33611797840414298 0 -0.245130999697667 0.35617292401417999 0 -0.23295058751304551 0.34252643707592823 0 -0.22773539588177269 0.371785806926901 0 -0.245130999697667 0.35617292401417999 0 -0.24298804513369371 0.37489662163126852 0 -0.2592717334901794 0.37344143954643821 0 -0.245130999697667 0.35617292401417999 0 -0.24298804513369371 0.37489662163126852 0 -0.25008303346203908 0.33611797840414298 0 -0.2434150889916675 0.31528126182336752 0 -0.22401425645025361 0.32656614153106639 0 -0.25008303346203908 0.33611797840414298 0 -0.23295058751304551 0.34252643707592823 0 -0.22401425645025361 0.32656614153106639 0 -0.2157749225615814 0.35326083160049221 0 -0.22401425645025361 0.32656614153106639 0 -0.2157749225615814 0.35326083160049221 0 -0.23295058751304551 0.34252643707592823 0 -0.22401425645025361 0.32656614153106639 0 -0.2434150889916675 0.31528126182336752 0 -0.22401425645025361 0.32656614153106639 0 -0.2322535903389257 0.29987145146164079 0 -0.22401425645025361 0.32656614153106639 0 -0.2322535903389257 0.29987145146164079 0 -0.22401425645025361 0.32656614153106639 0 -0.19720201262974121 0.32662885324472202 0 -0.19906220937645289 0.30981321912625731 0 -0.2157749225615814 0.35326083160049221 0 -0.22401425645025361 0.32656614153106639 0 -0.19720201262974121 0.32662885324472202 0 -0.2157749225615814 0.35326083160049221 0 -0.1924972983359893 0.34358046834146699 0 -0.19720201262974121 0.32662885324472202 0 -0.17774973011518999 0.33020764546750409 0 -0.1924972983359893 0.34358046834146699 0 -0.19720201262974121 0.32662885324472202 0 -0.19720201262974121 0.32662885324472202 0 -0.19906220937645289 0.30981321912625731 0 -0.17861358928141469 0.31234998356939919 0 -0.19906220937645289 0.30981321912625731 0 -0.19856760929965681 0.29512163553205928 0 -0.18259298835682489 0.29782857031946008 0 -0.19085311474529701 0.28244454806871849 0 -0.19856760929965681 0.29512163553205928 0 -0.18259298835682489 0.29782857031946008 0 -0.19085311474529701 0.28244454806871849 0 -0.19856760929965681 0.29512163553205928 0 -0.2071077174296316 0.28582887531117668 0 -0.2071077174296316 0.28582887531117668 0 -0.21338280024082609 0.30038413056083629 0 -0.2192288693812762 0.28355186314419151 0 -0.19856760929965681 0.29512163553205928 0 -0.2071077174296316 0.28582887531117668 0 -0.21338280024082609 0.30038413056083629 0 -0.2071077174296316 0.28582887531117668 0 -0.2192288693812762 0.28355186314419151 0 -0.2134516182061634 0.27614892865934582 0 -0.22401425645025361 0.32656614153106639 0 -0.19906220937645289 0.30981321912625731 0 -0.21338280024082609 0.30038413056083629 0 -0.19906220937645289 0.30981321912625731 0 -0.19856760929965681 0.29512163553205928 0 -0.21338280024082609 0.30038413056083629 0 -0.22401425645025361 0.32656614153106639 0 -0.21338280024082609 0.30038413056083629 0 -0.2322535903389257 0.29987145146164079 0 -0.21338280024082609 0.30038413056083629 0 -0.2322535903389257 0.29987145146164079 0 -0.2192288693812762 0.28355186314419151 0 -0.2322535903389257 0.29987145146164079 0 -0.2192288693812762 0.28355186314419151 0 -0.2404929242275981 0.27317676139221531 0 -0.2322535903389257 0.29987145146164079 0 -0.2404929242275981 0.27317676139221531 0 -0.25040582964490582 0.29567583303740069 0 -0.2322535903389257 0.29987145146164079 0 -0.2404929242275981 0.27317676139221531 0 -0.25040582964490582 0.29567583303740069 0 -0.2404929242275981 0.27317676139221531 0 -0.25040582964490582 0.29567583303740069 0 -0.2434150889916675 0.31528126182336752 0 -0.2322535903389257 0.29987145146164079 0 -0.25054816238852479 0.24059870715785611 0 -0.2546175921406465 0.26128861144859822 0 -0.24164285362834059 0.26945109504960563 0 -0.25054816238852479 0.24059870715785611 0 -0.24164285362834059 0.26945109504960563 0 -0.24164285362834059 0.26945109504960563 0 -0.23310158204141429 0.25640081827561029 0 -0.2466801300010773 0.2452604621424746 0 -0.25054816238852479 0.24059870715785611 0 -0.24164285362834059 0.26945109504960563 0 -0.2466801300010773 0.2452604621424746 0 -0.24164285362834059 0.26945109504960563 0 -0.2394572339012683 0.27082608115536438 0 -0.23310158204141429 0.25640081827561029 0 -0.2394572339012683 0.27082608115536438 0 -0.23310158204141429 0.25640081827561029 0 -0.2546175921406465 0.26128861144859822 0 -0.24164285362834059 0.26945109504960563 0 -0.25982227492027221 0.287750399741656 0 -0.24164285362834059 0.26945109504960563 0 -0.2404929242275981 0.27317676139221531 0 -0.24164285362834059 0.26945109504960563 0 -0.2404929242275981 0.27317676139221531 0 -0.24164285362834059 0.26945109504960563 0 -0.2394572339012683 0.27082608115536438 0 -0.24164285362834059 0.26945109504960563 0 -0.2404929242275981 0.27317676139221531 0 -0.2394572339012683 0.27082608115536438 0 -0.2404929242275981 0.27317676139221531 0 -0.2394572339012683 0.27082608115536438 0 -0.2192288693812762 0.28355186314419151 0 -0.2404929242275981 0.27317676139221531 0 -0.2394572339012683 0.27082608115536438 0 -0.2192288693812762 0.28355186314419151 0 -0.2394572339012683 0.27082608115536438 0 -0.2223662512991782 0.27304179816788748 0 -0.2192288693812762 0.28355186314419151 0 -0.2394572339012683 0.27082608115536438 0 -0.2394572339012683 0.27082608115536438 0 -0.2223662512991782 0.27304179816788748 0 -0.23310158204141429 0.25640081827561029 0 -0.2223662512991782 0.27304179816788748 0 -0.23310158204141429 0.25640081827561029 0 -0.2355501434136231 0.2478522206023164 0 -0.2223662512991782 0.27304179816788748 0 -0.2355501434136231 0.2478522206023164 0 -0.2223662512991782 0.27304179816788748 0 -0.222192014233517 0.25700640751059239 0 -0.2355501434136231 0.2478522206023164 0 -0.2223662512991782 0.27304179816788748 0 -0.222192014233517 0.25700640751059239 0 -0.21287289659801359 0.26516855002046552 0 -0.222192014233517 0.25700640751059239 0 -0.22222104444170529 0.2467327462878163 0 -0.2355501434136231 0.2478522206023164 0 -0.222192014233517 0.25700640751059239 0 -0.21371201764358261 0.25214650866738469 0 -0.22222104444170529 0.2467327462878163 0 -0.222192014233517 0.25700640751059239 0 -0.21371201764358261 0.25214650866738469 0 -0.21287289659801359 0.26516855002046552 0 -0.21371201764358261 0.25214650866738469 0 -0.21287289659801359 0.26516855002046552 0 -0.20206212765223941 0.25873777709478579 0 -0.21287289659801359 0.26516855002046552 0 -0.20374397774259509 0.27266482885045462 0 -0.20206212765223941 0.25873777709478579 0 -0.21371201764358261 0.25214650866738469 0 -0.20206212765223941 0.25873777709478579 0 -0.20132404028626799 0.2438270423260239 0 -0.2192288693812762 0.28355186314419151 0 -0.2223662512991782 0.27304179816788748 0 -0.2134516182061634 0.27614892865934582 0 -0.2223662512991782 0.27304179816788748 0 -0.21287289659801359 0.26516855002046552 0 -0.2134516182061634 0.27614892865934582 0 -0.21287289659801359 0.26516855002046552 0 -0.2134516182061634 0.27614892865934582 0 -0.20374397774259509 0.27266482885045462 0 -0.2071077174296316 0.28582887531117668 0 -0.2134516182061634 0.27614892865934582 0 -0.20374397774259509 0.27266482885045462 0 -0.19085311474529701 0.28244454806871849 0 -0.2071077174296316 0.28582887531117668 0 -0.20374397774259509 0.27266482885045462 0 -0.20374397774259509 0.27266482885045462 0 -0.19076826268548239 0.26827287779833747 0 -0.20206212765223941 0.25873777709478579 0 -0.19085311474529701 0.28244454806871849 0 -0.20374397774259509 0.27266482885045462 0 -0.19076826268548239 0.26827287779833747 0 -0.19076826268548239 0.26827287779833747 0 -0.20206212765223941 0.25873777709478579 0 -0.18859670902218051 0.25052543551881717 0 -0.20206212765223941 0.25873777709478579 0 -0.18859670902218051 0.25052543551881717 0 -0.20132404028626799 0.2438270423260239 0 -0.18859670902218051 0.25052543551881717 0 -0.17798103800664031 0.2589484764895198 0 -0.1765110772481347 0.2431385849621667 0 -0.19076826268548239 0.26827287779833747 0 -0.18859670902218051 0.25052543551881717 0 -0.17798103800664031 0.2589484764895198 0 -0.1593990608277665 0.26226189644582071 0 -0.1613020889038615 0.23837444865205379 0 -0.14911298171075679 0.24967097175487091 0 -0.17798103800664031 0.2589484764895198 0 -0.1593990608277665 0.26226189644582071 0 -0.1765110772481347 0.2431385849621667 0 -0.1593990608277665 0.26226189644582071 0 -0.1613020889038615 0.23837444865205379 0 -0.17798103800664031 0.2589484764895198 0 -0.1593990608277665 0.26226189644582071 0 -0.17625891120693621 0.27267786553860818 0 -0.1593990608277665 0.26226189644582071 0 -0.1625734141651913 0.27864750634068558 0 -0.17625891120693621 0.27267786553860818 0 -0.1625734141651913 0.27864750634068558 0 -0.17625891120693621 0.27267786553860818 0 -0.1759785768112396 0.28549188808856729 0 -0.19076826268548239 0.26827287779833747 0 -0.17798103800664031 0.2589484764895198 0 -0.17625891120693621 0.27267786553860818 0 -0.19085311474529701 0.28244454806871849 0 -0.19076826268548239 0.26827287779833747 0 -0.17625891120693621 0.27267786553860818 0 -0.19085311474529701 0.28244454806871849 0 -0.17625891120693621 0.27267786553860818 0 -0.1759785768112396 0.28549188808856729 0 -0.19085311474529701 0.28244454806871849 0 -0.1759785768112396 0.28549188808856729 0 -0.18259298835682489 0.29782857031946008 0 -0.1759785768112396 0.28549188808856729 0 -0.18259298835682489 0.29782857031946008 0 -0.16136995080389721 0.29864400117774398 0 -0.17861358928141469 0.31234998356939919 0 -0.18259298835682489 0.29782857031946008 0 -0.16136995080389721 0.29864400117774398 0 -0.19906220937645289 0.30981321912625731 0 -0.17861358928141469 0.31234998356939919 0 -0.18259298835682489 0.29782857031946008 0 -0.14495419486811961 0.31734813855161759 0 -0.16290230207748849 0.31861206890147392 0 -0.16136995080389721 0.29864400117774398 0 -0.16290230207748849 0.31861206890147392 0 -0.17861358928141469 0.31234998356939919 0 -0.16136995080389721 0.29864400117774398 0 -0.1625734141651913 0.27864750634068558 0 -0.16136995080389721 0.29864400117774398 0 -0.1450808597671244 0.27950790118027541 0 -0.1625734141651913 0.27864750634068558 0 -0.1759785768112396 0.28549188808856729 0 -0.16136995080389721 0.29864400117774398 0 -0.16136995080389721 0.29864400117774398 0 -0.14126992245711781 0.29947087285495883 0 -0.1450808597671244 0.27950790118027541 0 -0.14495419486811961 0.31734813855161759 0 -0.16136995080389721 0.29864400117774398 0 -0.14126992245711781 0.29947087285495883 0 -0.14126992245711781 0.29947087285495883 0 -0.12577302420238409 0.3093301053864293 0 -0.12922822593455879 0.28960894173240792 0 -0.14495419486811961 0.31734813855161759 0 -0.14126992245711781 0.29947087285495883 0 -0.12577302420238409 0.3093301053864293 0 -0.14126992245711781 0.29947087285495883 0 -0.12922822593455879 0.28960894173240792 0 -0.1450808597671244 0.27950790118027541 0 -0.12922822593455879 0.28960894173240792 0 -0.1349930010153193 0.26255216121800568 0 -0.12922822593455879 0.28960894173240792 0 -0.1349930010153193 0.26255216121800568 0 -0.1450808597671244 0.27950790118027541 0 -0.12922822593455879 0.28960894173240792 0 -0.1349930010153193 0.26255216121800568 0 -0.1154385093851408 0.26413547420137762 0 -0.1593990608277665 0.26226189644582071 0 -0.1349930010153193 0.26255216121800568 0 -0.14911298171075679 0.24967097175487091 0 -0.1593990608277665 0.26226189644582071 0 -0.1349930010153193 0.26255216121800568 0 -0.1450808597671244 0.27950790118027541 0 -0.1593990608277665 0.26226189644582071 0 -0.1625734141651913 0.27864750634068558 0 -0.1450808597671244 0.27950790118027541 0 -0.1125365884501535 0.28353815127968629 0 -0.09362037031597753 0.26527792879994888 0 -0.1125365884501535 0.28353815127968629 0 -0.093128128460342754 0.28254352657507131 0 -0.09362037031597753 0.26527792879994888 0 -0.1154385093851408 0.26413547420137762 0 -0.1125365884501535 0.28353815127968629 0 -0.09362037031597753 0.26527792879994888 0 -0.1154385093851408 0.26413547420137762 0 -0.09362037031597753 0.26527792879994888 0 -0.097135213821017974 0.2450179218164267 0 -0.1154385093851408 0.26413547420137762 0 -0.097135213821017974 0.2450179218164267 0 -0.11832329044822951 0.24304604882281969 0 -0.1349930010153193 0.26255216121800568 0 -0.1154385093851408 0.26413547420137762 0 -0.11832329044822951 0.24304604882281969 0 -0.12922822593455879 0.28960894173240792 0 -0.1154385093851408 0.26413547420137762 0 -0.1125365884501535 0.28353815127968629 0 -0.12922822593455879 0.28960894173240792 0 -0.1125365884501535 0.28353815127968629 0 -0.11715930820710339 0.29724977554595788 0 -0.1125365884501535 0.28353815127968629 0 -0.11715930820710339 0.29724977554595788 0 -0.1038404580068167 0.30398166541893579 0 -0.12577302420238409 0.3093301053864293 0 -0.1038404580068167 0.30398166541893579 0 -0.11250071635914489 0.32397018824961021 0 -0.12577302420238409 0.3093301053864293 0 -0.11715930820710339 0.29724977554595788 0 -0.1038404580068167 0.30398166541893579 0 -0.12577302420238409 0.3093301053864293 0 -0.12922822593455879 0.28960894173240792 0 -0.11715930820710339 0.29724977554595788 0 -0.1125365884501535 0.28353815127968629 0 -0.1038404580068167 0.30398166541893579 0 -0.093128128460342754 0.28254352657507131 0 -0.083140595227089928 0.29591471829194321 0 -0.093128128460342754 0.28254352657507131 0 -0.06936539161773822 0.28020753346750782 0 -0.1038404580068167 0.30398166541893579 0 -0.083140595227089928 0.29591471829194321 0 -0.093128128460342754 0.28254352657507131 0 -0.1038404580068167 0.30398166541893579 0 -0.083140595227089928 0.29591471829194321 0 -0.090988500091643998 0.31647506579520901 0 -0.083140595227089928 0.29591471829194321 0 -0.073171874186503463 0.31004866742903531 0 -0.090988500091643998 0.31647506579520901 0 -0.083140595227089928 0.29591471829194321 0 -0.073171874186503463 0.31004866742903531 0 -0.058649820332164468 0.29485946887662068 0 -0.073171874186503463 0.31004866742903531 0 -0.058649820332164468 0.29485946887662068 0 -0.056101506374375817 0.3128319137626559 0 -0.083140595227089928 0.29591471829194321 0 -0.06936539161773822 0.28020753346750782 0 -0.058649820332164468 0.29485946887662068 0 -0.06936539161773822 0.28020753346750782 0 -0.077315147936728598 0.26324091235374891 0 -0.061029816546774987 0.26105054837526498 0 -0.093128128460342754 0.28254352657507131 0 -0.09362037031597753 0.26527792879994888 0 -0.077315147936728598 0.26324091235374891 0 -0.093128128460342754 0.28254352657507131 0 -0.06936539161773822 0.28020753346750782 0 -0.077315147936728598 0.26324091235374891 0 -0.09362037031597753 0.26527792879994888 0 -0.097135213821017974 0.2450179218164267 0 -0.074704152181801681 0.24701770632021169 0 -0.09362037031597753 0.26527792879994888 0 -0.077315147936728598 0.26324091235374891 0 -0.074704152181801681 0.24701770632021169 0 -0.09362037031597753 0.26527792879994888 0 -0.074704152181801681 0.24701770632021169 0 -0.061029816546774987 0.26105054837526498 0 -0.074704152181801681 0.24701770632021169 0 -0.057747386715908428 0.24463041023760571 0 -0.077315147936728598 0.26324091235374891 0 -0.061029816546774987 0.26105054837526498 0 -0.074704152181801681 0.24701770632021169 0 -0.061029816546774987 0.26105054837526498 0 -0.03742977218140614 0.26357467527551443 0 -0.046594812073733123 0.24823599275617891 0 -0.061029816546774987 0.26105054837526498 0 -0.046594812073733123 0.24823599275617891 0 -0.057747386715908428 0.24463041023760571 0 -0.06936539161773822 0.28020753346750782 0 -0.061029816546774987 0.26105054837526498 0 -0.048476972550706023 0.27982564543664679 0 -0.061029816546774987 0.26105054837526498 0 -0.048476972550706023 0.27982564543664679 0 -0.03742977218140614 0.26357467527551443 0 -0.061029816546774987 0.26105054837526498 0 -0.048476972550706023 0.27982564543664679 0 -0.048476972550706023 0.27982564543664679 0 -0.031819983271387867 0.27999546987022927 0 -0.03742977218140614 0.26357467527551443 0 -0.03742977218140614 0.26357467527551443 0 -0.03189830216395443 0.24568919817845219 0 -0.046594812073733123 0.24823599275617891 0 -0.03742977218140614 0.26357467527551443 0 -0.020565667716041462 0.25572736355358933 0 -0.03189830216395443 0.24568919817845219 0 -0.03742977218140614 0.26357467527551443 0 -0.020565667716041462 0.25572736355358933 0 -0.022715456858953278 0.26994870387583431 0 -0.020565667716041462 0.25572736355358933 0 -0.022715456858953278 0.26994870387583431 0 -0.0080731797928139601 0.26595294531788349 0 -0.031819983271387867 0.27999546987022927 0 -0.03742977218140614 0.26357467527551443 0 -0.022715456858953278 0.26994870387583431 0 -0.031819983271387867 0.27999546987022927 0 -0.022715456858953278 0.26994870387583431 0 -0.01304989637173277 0.28246747093767138 0 -0.022715456858953278 0.26994870387583431 0 -0.0080731797928139601 0.26595294531788349 0 -0.01304989637173277 0.28246747093767138 0 -0.0080731797928139601 0.26595294531788349 0 -0.01304989637173277 0.28246747093767138 0 0.0042686616650212863 0.27440264234540929 0 -0.0080731797928139601 0.26595294531788349 0 -0.004361582131907446 0.25012675423618741 0 0.0045166499774289158 0.26107549289106269 0 -0.020565667716041462 0.25572736355358933 0 -0.0080731797928139601 0.26595294531788349 0 -0.004361582131907446 0.25012675423618741 0 -0.0025045175740335168 0.31031314766219981 0 -0.001308369768482999 0.29320410557187471 0 -0.016598711115656001 0.30159589275249321 0 -0.0025045175740335168 0.31031314766219981 0 -0.016598711115656001 0.30159589275249321 0 -0.021593132986752129 0.32003539370993961 0 -0.001308369768482999 0.29320410557187471 0 -0.01304989637173277 0.28246747093767138 0 0.0042686616650212863 0.27440264234540929 0 -0.001308369768482999 0.29320410557187471 0 -0.01304989637173277 0.28246747093767138 0 -0.016598711115656001 0.30159589275249321 0 -0.01304989637173277 0.28246747093767138 0 -0.035924128554638488 0.29860074249802943 0 -0.01304989637173277 0.28246747093767138 0 -0.016598711115656001 0.30159589275249321 0 -0.035924128554638488 0.29860074249802943 0 -0.031819983271387867 0.27999546987022927 0 -0.01304989637173277 0.28246747093767138 0 -0.035924128554638488 0.29860074249802943 0 -0.016598711115656001 0.30159589275249321 0 -0.035924128554638488 0.29860074249802943 0 -0.021593132986752129 0.32003539370993961 0 -0.035924128554638488 0.29860074249802943 0 -0.021593132986752129 0.32003539370993961 0 -0.035924128554638488 0.29860074249802943 0 -0.056101506374375817 0.3128319137626559 0 -0.035924128554638488 0.29860074249802943 0 -0.038849285662232391 0.31623083740802288 0 -0.021593132986752129 0.32003539370993961 0 -0.035924128554638488 0.29860074249802943 0 -0.056101506374375817 0.3128319137626559 0 -0.038849285662232391 0.31623083740802288 0 -0.048476972550706023 0.27982564543664679 0 -0.031819983271387867 0.27999546987022927 0 -0.035924128554638488 0.29860074249802943 0 -0.048476972550706023 0.27982564543664679 0 -0.035924128554638488 0.29860074249802943 0 -0.06936539161773822 0.28020753346750782 0 -0.048476972550706023 0.27982564543664679 0 -0.058649820332164468 0.29485946887662068 0 -0.048476972550706023 0.27982564543664679 0 -0.035924128554638488 0.29860074249802943 0 -0.058649820332164468 0.29485946887662068 0 -0.035924128554638488 0.29860074249802943 0 -0.058649820332164468 0.29485946887662068 0 -0.056101506374375817 0.3128319137626559 0 -0.056101506374375817 0.3128319137626559 0 -0.061273612338163523 0.34168082392211641 0 -0.041778374733163148 0.33345529966146709 0 -0.041778374733163148 0.33345529966146709 0 -0.038849285662232391 0.31623083740802288 0 -0.021593132986752129 0.32003539370993961 0 -0.056101506374375817 0.3128319137626559 0 -0.041778374733163148 0.33345529966146709 0 -0.038849285662232391 0.31623083740802288 0 -0.021593132986752129 0.32003539370993961 0 -0.0072621374188671052 0.34147004492185079 0 -0.026756520995263839 0.34622662442059521 0 -0.041778374733163148 0.33345529966146709 0 -0.021593132986752129 0.32003539370993961 0 -0.026756520995263839 0.34622662442059521 0 -0.021593132986752129 0.32003539370993961 0 -0.0072621374188671052 0.34147004492185079 0 -0.021593132986752129 0.32003539370993961 0 -0.0072621374188671052 0.34147004492185079 0 -0.00017254440855824261 0.32560037032276101 0 -0.0025045175740335168 0.31031314766219981 0 -0.021593132986752129 0.32003539370993961 0 -0.00017254440855824261 0.32560037032276101 0 -0.017975249263795932 0.36469023687930041 0 -0.0036227877329230301 0.37947700469323042 0 0.0070688581490178301 0.36290469613376197 0 -0.017975249263795932 0.36469023687930041 0 -0.017202423973373768 0.37968737263981228 0 -0.0036227877329230301 0.37947700469323042 0 -0.0072621374188671052 0.34147004492185079 0 0.0070688581490178301 0.36290469613376197 0 -0.0072621374188671052 0.34147004492185079 0 -0.017975249263795932 0.36469023687930041 0 0.0070688581490178301 0.36290469613376197 0 -0.0072621374188671052 0.34147004492185079 0 -0.026756520995263839 0.34622662442059521 0 -0.017975249263795932 0.36469023687930041 0 -0.026756520995263839 0.34622662442059521 0 -0.017975249263795932 0.36469023687930041 0 -0.044972299261370183 0.36017708579622421 0 -0.017975249263795932 0.36469023687930041 0 -0.044972299261370183 0.36017708579622421 0 -0.033696569954803593 0.38151106350699548 0 -0.044972299261370183 0.36017708579622421 0 -0.056355392512392112 0.37995563405969551 0 -0.033696569954803593 0.38151106350699548 0 -0.041778374733163148 0.33345529966146709 0 -0.026756520995263839 0.34622662442059521 0 -0.044972299261370183 0.36017708579622421 0 -0.061273612338163523 0.34168082392211641 0 -0.044972299261370183 0.36017708579622421 0 -0.06521228616511808 0.36405037212009378 0 -0.061273612338163523 0.34168082392211641 0 -0.041778374733163148 0.33345529966146709 0 -0.044972299261370183 0.36017708579622421 0 -0.044972299261370183 0.36017708579622421 0 -0.06521228616511808 0.36405037212009378 0 -0.056355392512392112 0.37995563405969551 0 -0.06521228616511808 0.36405037212009378 0 -0.083611302269088666 0.35468926302163939 0 -0.079848824444575958 0.38374905380079372 0 -0.083611302269088666 0.35468926302163939 0 -0.096975471326963783 0.37148378381343322 0 -0.079848824444575958 0.38374905380079372 0 -0.061273612338163523 0.34168082392211641 0 -0.06521228616511808 0.36405037212009378 0 -0.083611302269088666 0.35468926302163939 0 -0.061273612338163523 0.34168082392211641 0 -0.083611302269088666 0.35468926302163939 0 -0.076278884194113258 0.32706308502728249 0 -0.056101506374375817 0.3128319137626559 0 -0.076278884194113258 0.32706308502728249 0 -0.056101506374375817 0.3128319137626559 0 -0.061273612338163523 0.34168082392211641 0 -0.076278884194113258 0.32706308502728249 0 -0.073171874186503463 0.31004866742903531 0 -0.056101506374375817 0.3128319137626559 0 -0.076278884194113258 0.32706308502728249 0 -0.076278884194113258 0.32706308502728249 0 -0.090988500091643998 0.31647506579520901 0 -0.096998472576195746 0.33787207035444761 0 -0.073171874186503463 0.31004866742903531 0 -0.076278884194113258 0.32706308502728249 0 -0.090988500091643998 0.31647506579520901 0 -0.083611302269088666 0.35468926302163939 0 -0.076278884194113258 0.32706308502728249 0 -0.096998472576195746 0.33787207035444761 0 -0.090988500091643998 0.31647506579520901 0 -0.096998472576195746 0.33787207035444761 0 -0.11250071635914489 0.32397018824961021 0 -0.1038404580068167 0.30398166541893579 0 -0.090988500091643998 0.31647506579520901 0 -0.11250071635914489 0.32397018824961021 0 -0.1315170279352865 0.33102482385584192 0 -0.12577302420238409 0.3093301053864293 0 -0.11250071635914489 0.32397018824961021 0 -0.1315170279352865 0.33102482385584192 0 -0.11250071635914489 0.32397018824961021 0 -0.1189994847652637 0.3425748687043878 0 -0.096998472576195746 0.33787207035444761 0 -0.11250071635914489 0.32397018824961021 0 -0.1189994847652637 0.3425748687043878 0 -0.12710123171609961 0.3622807710251873 0 -0.1189994847652637 0.3425748687043878 0 -0.1089146800649551 0.3561770594294375 0 -0.12710123171609961 0.3622807710251873 0 -0.1130895959368447 0.37246627340933908 0 -0.1089146800649551 0.3561770594294375 0 -0.12655549565904481 0.38459039506062281 0 -0.12710123171609961 0.3622807710251873 0 -0.1130895959368447 0.37246627340933908 0 -0.1130895959368447 0.37246627340933908 0 -0.096975471326963783 0.37148378381343322 0 -0.1089146800649551 0.3561770594294375 0 -0.083611302269088666 0.35468926302163939 0 -0.096975471326963783 0.37148378381343322 0 -0.1089146800649551 0.3561770594294375 0 -0.096998472576195746 0.33787207035444761 0 -0.1189994847652637 0.3425748687043878 0 -0.1089146800649551 0.3561770594294375 0 -0.083611302269088666 0.35468926302163939 0 -0.096998472576195746 0.33787207035444761 0 -0.1089146800649551 0.3561770594294375 0 -0.10335637586111809 0.38776536102133979 0 -0.1122756033997336 0.40440751886529608 0 -0.092626744140319878 0.40339206391310989 0 -0.1130895959368447 0.37246627340933908 0 -0.096975471326963783 0.37148378381343322 0 -0.10335637586111809 0.38776536102133979 0 -0.12655549565904481 0.38459039506062281 0 -0.1130895959368447 0.37246627340933908 0 -0.10335637586111809 0.38776536102133979 0 -0.12655549565904481 0.38459039506062281 0 -0.10335637586111809 0.38776536102133979 0 -0.1122756033997336 0.40440751886529608 0 -0.1342738988421254 0.39940632656162323 0 -0.12655549565904481 0.38459039506062281 0 -0.1122756033997336 0.40440751886529608 0 -0.12548201032280559 0.41579856094527679 0 -0.1122756033997336 0.40440751886529608 0 -0.1104394098233438 0.42174348832390141 0 -0.12548201032280559 0.41579856094527679 0 -0.1342738988421254 0.39940632656162323 0 -0.1122756033997336 0.40440751886529608 0 -0.13175207046494611 0.44346192959665548 0 -0.1221002198223846 0.42926878838971572 0 -0.1064787913094135 0.43730588845956792 0 -0.12548201032280559 0.41579856094527679 0 -0.1104394098233438 0.42174348832390141 0 -0.1221002198223846 0.42926878838971572 0 -0.1104394098233438 0.42174348832390141 0 -0.1221002198223846 0.42926878838971572 0 -0.1064787913094135 0.43730588845956792 0 -0.1064787913094135 0.43730588845956792 0 -0.08120551215388104 0.43114984732248018 0 -0.1064787913094135 0.43730588845956792 0 -0.097026127818036836 0.42472771569137829 0 -0.08120551215388104 0.43114984732248018 0 -0.1104394098233438 0.42174348832390141 0 -0.1064787913094135 0.43730588845956792 0 -0.097026127818036836 0.42472771569137829 0 -0.1122756033997336 0.40440751886529608 0 -0.098824778170087071 0.41543684488035082 0 -0.092626744140319878 0.40339206391310989 0 -0.1122756033997336 0.40440751886529608 0 -0.1104394098233438 0.42174348832390141 0 -0.098824778170087071 0.41543684488035082 0 -0.1104394098233438 0.42174348832390141 0 -0.097026127818036836 0.42472771569137829 0 -0.098824778170087071 0.41543684488035082 0 -0.097026127818036836 0.42472771569137829 0 -0.098824778170087071 0.41543684488035082 0 -0.088182147633458732 0.41800250947059109 0 -0.088182147633458732 0.41800250947059109 0 -0.075766822878524695 0.41019172804676379 0 -0.092626744140319878 0.40339206391310989 0 -0.088182147633458732 0.41800250947059109 0 -0.08120551215388104 0.43114984732248018 0 -0.075766822878524695 0.41019172804676379 0 -0.098824778170087071 0.41543684488035082 0 -0.088182147633458732 0.41800250947059109 0 -0.092626744140319878 0.40339206391310989 0 -0.08120551215388104 0.43114984732248018 0 -0.071684821312473307 0.43663440229273398 0 -0.093222345705159748 0.44373923815992428 0 -0.097026127818036836 0.42472771569137829 0 -0.088182147633458732 0.41800250947059109 0 -0.08120551215388104 0.43114984732248018 0 -0.1064787913094135 0.43730588845956792 0 -0.08120551215388104 0.43114984732248018 0 -0.093222345705159748 0.44373923815992428 0 -0.065135249615538293 0.42231944082984091 0 -0.071684821312473307 0.43663440229273398 0 -0.055943765893954757 0.43144171565494821 0 -0.065135249615538293 0.42231944082984091 0 -0.071684821312473307 0.43663440229273398 0 -0.075766822878524695 0.41019172804676379 0 -0.08120551215388104 0.43114984732248018 0 -0.071684821312473307 0.43663440229273398 0 -0.075766822878524695 0.41019172804676379 0 -0.071684821312473307 0.43663440229273398 0 -0.055943765893954757 0.43144171565494821 0 -0.071684821312473307 0.43663440229273398 0 -0.075766822878524695 0.41019172804676379 0 -0.065135249615538293 0.42231944082984091 0 -0.075766822878524695 0.41019172804676379 0 -0.05600936231039217 0.41342904923233581 0 -0.075766822878524695 0.41019172804676379 0 -0.063299398534094969 0.39691509799282482 0 -0.05600936231039217 0.41342904923233581 0 -0.075766822878524695 0.41019172804676379 0 -0.063299398534094969 0.39691509799282482 0 -0.079848824444575958 0.38374905380079372 0 -0.075766822878524695 0.41019172804676379 0 -0.079848824444575958 0.38374905380079372 0 -0.10335637586111809 0.38776536102133979 0 -0.092626744140319878 0.40339206391310989 0 -0.079848824444575958 0.38374905380079372 0 -0.075766822878524695 0.41019172804676379 0 -0.092626744140319878 0.40339206391310989 0 -0.079848824444575958 0.38374905380079372 0 -0.096975471326963783 0.37148378381343322 0 -0.10335637586111809 0.38776536102133979 0 -0.079848824444575958 0.38374905380079372 0 -0.06521228616511808 0.36405037212009378 0 -0.079848824444575958 0.38374905380079372 0 -0.056355392512392112 0.37995563405969551 0 -0.063299398534094969 0.39691509799282482 0 -0.079848824444575958 0.38374905380079372 0 -0.056355392512392112 0.37995563405969551 0 -0.063299398534094969 0.39691509799282482 0 -0.056355392512392112 0.37995563405969551 0 -0.048516590524589932 0.3972500248245352 0 -0.063299398534094969 0.39691509799282482 0 -0.048516590524589932 0.3972500248245352 0 -0.05600936231039217 0.41342904923233581 0 -0.048516590524589932 0.3972500248245352 0 -0.032850518460687449 0.39898186447299261 0 -0.037770955976974781 0.41204834058667128 0 -0.048516590524589932 0.3972500248245352 0 -0.032850518460687449 0.39898186447299261 0 -0.033696569954803593 0.38151106350699548 0 -0.056355392512392112 0.37995563405969551 0 -0.048516590524589932 0.3972500248245352 0 -0.033696569954803593 0.38151106350699548 0 -0.017975249263795932 0.36469023687930041 0 -0.033696569954803593 0.38151106350699548 0 -0.017202423973373768 0.37968737263981228 0 -0.033696569954803593 0.38151106350699548 0 -0.017202423973373768 0.37968737263981228 0 -0.018646700241063071 0.39302480292672293 0 -0.018646700241063071 0.39302480292672293 0 -0.0081246324890641812 0.40805065625530412 0 -0.02380123978217763 0.41023834757766542 0 -0.032850518460687449 0.39898186447299261 0 -0.018646700241063071 0.39302480292672293 0 -0.02380123978217763 0.41023834757766542 0 -0.032850518460687449 0.39898186447299261 0 -0.033696569954803593 0.38151106350699548 0 -0.018646700241063071 0.39302480292672293 0 -0.018646700241063071 0.39302480292672293 0 -0.0081246324890641812 0.40805065625530412 0 0.0058412231562265226 0.39891749499975832 0 -0.018646700241063071 0.39302480292672293 0 -0.0036227877329230301 0.37947700469323042 0 0.0058412231562265226 0.39891749499975832 0 -0.017202423973373768 0.37968737263981228 0 -0.018646700241063071 0.39302480292672293 0 -0.0036227877329230301 0.37947700469323042 0 -0.0072392309157056894 0.43649428994281841 0 -0.01082192781792536 0.4212785973985777 0 -0.025245314308565012 0.42614172839533782 0 -0.0072392309157056894 0.43649428994281841 0 -0.01082192781792536 0.4212785973985777 0 0.0059488009041311612 0.41735624870114602 0 -0.0081246324890641812 0.40805065625530412 0 -0.01082192781792536 0.4212785973985777 0 -0.02380123978217763 0.41023834757766542 0 -0.0081246324890641812 0.40805065625530412 0 -0.01082192781792536 0.4212785973985777 0 0.0059488009041311612 0.41735624870114602 0 -0.02380123978217763 0.41023834757766542 0 -0.025245314308565012 0.42614172839533782 0 -0.037770955976974781 0.41204834058667128 0 -0.01082192781792536 0.4212785973985777 0 -0.02380123978217763 0.41023834757766542 0 -0.025245314308565012 0.42614172839533782 0 -0.0072392309157056894 0.43649428994281841 0 -0.025245314308565012 0.42614172839533782 0 -0.027102965719072159 0.44246949839488359 0 -0.025245314308565012 0.42614172839533782 0 -0.040202710475436512 0.4262490290171615 0 -0.027102965719072159 0.44246949839488359 0 -0.040202710475436512 0.4262490290171615 0 -0.037770955976974781 0.41204834058667128 0 -0.05600936231039217 0.41342904923233581 0 -0.032850518460687449 0.39898186447299261 0 -0.02380123978217763 0.41023834757766542 0 -0.037770955976974781 0.41204834058667128 0 -0.025245314308565012 0.42614172839533782 0 -0.040202710475436512 0.4262490290171615 0 -0.037770955976974781 0.41204834058667128 0 -0.048516590524589932 0.3972500248245352 0 -0.037770955976974781 0.41204834058667128 0 -0.05600936231039217 0.41342904923233581 0 -0.040202710475436512 0.4262490290171615 0 -0.055943765893954757 0.43144171565494821 0 -0.065135249615538293 0.42231944082984091 0 -0.05600936231039217 0.41342904923233581 0 -0.055943765893954757 0.43144171565494821 0 -0.040202710475436512 0.4262490290171615 0 -0.055943765893954757 0.43144171565494821 0 -0.044517274739645132 0.44459183642540612 0 -0.040202710475436512 0.4262490290171615 0 -0.05600936231039217 0.41342904923233581 0 -0.055943765893954757 0.43144171565494821 0 -0.058335943557526457 0.44624868987483279 0 -0.051109653666529857 0.46081922680591902 0 -0.044517274739645132 0.44459183642540612 0 -0.071684821312473307 0.43663440229273398 0 -0.055943765893954757 0.43144171565494821 0 -0.058335943557526457 0.44624868987483279 0 -0.055943765893954757 0.43144171565494821 0 -0.058335943557526457 0.44624868987483279 0 -0.044517274739645132 0.44459183642540612 0 -0.051109653666529857 0.46081922680591902 0 -0.065163583037585071 0.47887813409757868 0 -0.068424202175029258 0.45775626819515641 0 -0.058335943557526457 0.44624868987483279 0 -0.051109653666529857 0.46081922680591902 0 -0.068424202175029258 0.45775626819515641 0 -0.051109653666529857 0.46081922680591902 0 -0.032757904119458489 0.46093040696708881 0 -0.044531910374045837 0.48023148171387958 0 -0.051109653666529857 0.46081922680591902 0 -0.032757904119458489 0.46093040696708881 0 -0.044517274739645132 0.44459183642540612 0 -0.040202710475436512 0.4262490290171615 0 -0.044517274739645132 0.44459183642540612 0 -0.027102965719072159 0.44246949839488359 0 -0.032757904119458489 0.46093040696708881 0 -0.044517274739645132 0.44459183642540612 0 -0.027102965719072159 0.44246949839488359 0 -0.0072392309157056894 0.43649428994281841 0 -0.027102965719072159 0.44246949839488359 0 -0.01461213653914459 0.45725057482734738 0 -0.032757904119458489 0.46093040696708881 0 -0.027102965719072159 0.44246949839488359 0 -0.01461213653914459 0.45725057482734738 0 -0.032757904119458489 0.46093040696708881 0 -0.01461213653914459 0.45725057482734738 0 -0.02185909025790168 0.48076112241269181 0 -0.01461213653914459 0.45725057482734738 0 -0.003089566724048357 0.47326761514296101 0 0.0026031304198410629 0.45131346537392758 0 -0.0072392309157056894 0.43649428994281841 0 -0.01461213653914459 0.45725057482734738 0 0.0026031304198410629 0.45131346537392758 0 -0.0068935706251778139 0.5 0 -0.003089566724048357 0.47326761514296101 0 -0.02185909025790168 0.48076112241269181 0 -0.01461213653914459 0.45725057482734738 0 -0.003089566724048357 0.47326761514296101 0 -0.02185909025790168 0.48076112241269181 0 -0.0068935706251778139 0.5 0 -0.02185909025790168 0.48076112241269181 0 -0.034398267262659273 0.5 0 -0.02185909025790168 0.48076112241269181 0 -0.034398267262659273 0.5 0 -0.044531910374045837 0.48023148171387958 0 -0.032757904119458489 0.46093040696708881 0 -0.02185909025790168 0.48076112241269181 0 -0.044531910374045837 0.48023148171387958 0 -0.051109653666529857 0.46081922680591902 0 -0.044531910374045837 0.48023148171387958 0 -0.065163583037585071 0.47887813409757868 0 -0.044531910374045837 0.48023148171387958 0 -0.061902963900140731 0.50000000000000089 0 -0.065163583037585071 0.47887813409757868 0 -0.034398267262659273 0.5 0 -0.044531910374045837 0.48023148171387958 0 -0.061902963900140731 0.50000000000000089 0 -0.061902963900140731 0.50000000000000089 0 -0.065163583037585071 0.47887813409757868 0 -0.061902963900140731 0.50000000000000089 0 -0.077838109667281524 0.48710250329852411 0 -0.087854509421354754 0.5 0 -0.061902963900140731 0.50000000000000089 0 -0.077838109667281524 0.48710250329852411 0 -0.065163583037585071 0.47887813409757868 0 -0.077838109667281524 0.48710250329852411 0 -0.087854509421354754 0.5 0 -0.093631833857276997 0.48378290981445132 0 -0.077838109667281524 0.48710250329852411 0 -0.093631833857276997 0.48378290981445132 0 -0.080637658120050082 0.47285147258059063 0 -0.093631833857276997 0.48378290981445132 0 -0.080637658120050082 0.47285147258059063 0 -0.095304075467821936 0.46893627996427029 0 -0.080637658120050082 0.47285147258059063 0 -0.065163583037585071 0.47887813409757868 0 -0.068424202175029258 0.45775626819515641 0 -0.077838109667281524 0.48710250329852411 0 -0.080637658120050082 0.47285147258059063 0 -0.065163583037585071 0.47887813409757868 0 -0.065163583037585071 0.47887813409757868 0 -0.068424202175029258 0.45775626819515641 0 -0.068424202175029258 0.45775626819515641 0 -0.079579065155363032 0.44906004053067289 0 -0.084984891428789844 0.45811025347487683 0 -0.080637658120050082 0.47285147258059063 0 -0.068424202175029258 0.45775626819515641 0 -0.084984891428789844 0.45811025347487683 0 -0.071684821312473307 0.43663440229273398 0 -0.058335943557526457 0.44624868987483279 0 -0.068424202175029258 0.45775626819515641 0 -0.071684821312473307 0.43663440229273398 0 -0.068424202175029258 0.45775626819515641 0 -0.071684821312473307 0.43663440229273398 0 -0.068424202175029258 0.45775626819515641 0 -0.079579065155363032 0.44906004053067289 0 -0.071684821312473307 0.43663440229273398 0 -0.079579065155363032 0.44906004053067289 0 -0.093222345705159748 0.44373923815992428 0 -0.071684821312473307 0.43663440229273398 0 -0.093222345705159748 0.44373923815992428 0 -0.079579065155363032 0.44906004053067289 0 -0.093222345705159748 0.44373923815992428 0 -0.084984891428789844 0.45811025347487683 0 -0.093222345705159748 0.44373923815992428 0 -0.084984891428789844 0.45811025347487683 0 -0.099437105326258865 0.45731761566948659 0 -0.084984891428789844 0.45811025347487683 0 -0.099437105326258865 0.45731761566948659 0 -0.095304075467821936 0.46893627996427029 0 -0.080637658120050082 0.47285147258059063 0 -0.084984891428789844 0.45811025347487683 0 -0.095304075467821936 0.46893627996427029 0 -0.099437105326258865 0.45731761566948659 0 -0.10891434393167621 0.46495823272124781 0 -0.095304075467821936 0.46893627996427029 0 -0.099437105326258865 0.45731761566948659 0 -0.10891434393167621 0.46495823272124781 0 -0.11475987009784661 0.45084407402711402 0 -0.093222345705159748 0.44373923815992428 0 -0.099437105326258865 0.45731761566948659 0 -0.11475987009784661 0.45084407402711402 0 -0.1064787913094135 0.43730588845956792 0 -0.093222345705159748 0.44373923815992428 0 -0.11475987009784661 0.45084407402711402 0 -0.093222345705159748 0.44373923815992428 0 -0.11475987009784661 0.45084407402711402 0 -0.13175207046494611 0.44346192959665548 0 -0.1064787913094135 0.43730588845956792 0 -0.13175207046494611 0.44346192959665548 0 -0.1064787913094135 0.43730588845956792 0 -0.11475987009784661 0.45084407402711402 0 -0.1336307511693739 0.45491465667522191 0 -0.12544051825853689 0.4631374593356033 0 -0.11475987009784661 0.45084407402711402 0 -0.12544051825853689 0.4631374593356033 0 -0.10891434393167621 0.46495823272124781 0 -0.1136160252334053 0.47771856728300521 0 -0.12544051825853689 0.4631374593356033 0 -0.10891434393167621 0.46495823272124781 0 -0.11475987009784661 0.45084407402711402 0 -0.13298062755884579 0.48255116261061692 0 -0.12544051825853689 0.4631374593356033 0 -0.1136160252334053 0.47771856728300521 0 -0.13298062755884579 0.48255116261061692 0 -0.1058458182692171 0.49480807365413371 0 -0.13298062755884579 0.48255116261061692 0 -0.11380605494256869 0.5 0 -0.1058458182692171 0.49480807365413371 0 -0.13298062755884579 0.48255116261061692 0 -0.1136160252334053 0.47771856728300521 0 -0.1058458182692171 0.49480807365413371 0 -0.087854509421354754 0.5 0 -0.11380605494256869 0.5 0 -0.1058458182692171 0.49480807365413371 0 -0.087854509421354754 0.5 0 -0.093631833857276997 0.48378290981445132 0 -0.1058458182692171 0.49480807365413371 0 -0.1136160252334053 0.47771856728300521 0 -0.1058458182692171 0.49480807365413371 0 -0.1043559736166358 0.48381945471134902 0 -0.093631833857276997 0.48378290981445132 0 -0.1058458182692171 0.49480807365413371 0 -0.1043559736166358 0.48381945471134902 0 -0.093631833857276997 0.48378290981445132 0 -0.1048057889081305 0.47442420204765762 0 -0.1043559736166358 0.48381945471134902 0 -0.093631833857276997 0.48378290981445132 0 -0.095304075467821936 0.46893627996427029 0 -0.1048057889081305 0.47442420204765762 0 -0.10891434393167621 0.46495823272124781 0 -0.1136160252334053 0.47771856728300521 0 -0.1048057889081305 0.47442420204765762 0 -0.10891434393167621 0.46495823272124781 0 -0.095304075467821936 0.46893627996427029 0 -0.1048057889081305 0.47442420204765762 0 -0.1136160252334053 0.47771856728300521 0 -0.1048057889081305 0.47442420204765762 0 -0.1043559736166358 0.48381945471134902 0 -0.16372231175516949 0.08442819848465731 0 -0.15093626356447659 0.087069345181943508 0 -0.15518952671466241 0.069788713381716036 0 -0.16372231175516949 0.08442819848465731 0 -0.1756345505012066 0.070889783495268699 0 -0.1751333004977583 0.097143888168289519 0 -0.16372231175516949 0.08442819848465731 0 -0.1751333004977583 0.097143888168289519 0 -0.16171791749774381 0.097249262196068775 0 -0.16372231175516949 0.08442819848465731 0 -0.16171791749774381 0.097249262196068775 0 -0.15093626356447659 0.087069345181943508 0 -0.16372231175516949 0.08442819848465731 0 -0.1756345505012066 0.070889783495268699 0 -0.15518952671466241 0.069788713381716036 0 -0.1756345505012066 0.070889783495268699 0 -0.15518952671466241 0.069788713381716036 0 -0.16223695238926561 0.052594200190125132 0 -0.1756345505012066 0.070889783495268699 0 -0.19053419445951161 0.052610770621845292 0 -0.19612483249420401 0.068091746174319415 0 -0.1756345505012066 0.070889783495268699 0 -0.18871947576181089 0.093673214670465021 0 -0.19612483249420401 0.068091746174319415 0 -0.1756345505012066 0.070889783495268699 0 -0.1751333004977583 0.097143888168289519 0 -0.1756345505012066 0.070889783495268699 0 -0.1751333004977583 0.097143888168289519 0 -0.18871947576181089 0.093673214670465021 0 -0.18131411902941769 0.11925468316661041 0 -0.18871947576181089 0.093673214670465021 0 -0.1751333004977583 0.097143888168289519 0 -0.18131411902941769 0.11925468316661041 0 -0.18871947576181089 0.093673214670465021 0 -0.1751333004977583 0.097143888168289519 0 -0.17463205049430791 0.1233979928413103 0 -0.18131411902941769 0.11925468316661041 0 -0.17463205049430791 0.1233979928413103 0 -0.19892457962824481 0.1205653340059829 0 -0.17463205049430791 0.1233979928413103 0 -0.19892457962824481 0.1205653340059829 0 -0.18530606321329801 0.12949084902847491 0 -0.1751333004977583 0.097143888168289519 0 -0.18131411902941769 0.11925468316661041 0 -0.17463205049430791 0.1233979928413103 0 -0.17463205049430791 0.1233979928413103 0 -0.19892457962824481 0.1205653340059829 0 -0.1751333004977583 0.097143888168289519 0 -0.17463205049430791 0.1233979928413103 0 -0.165591889364022 0.1100935584672583 0 -0.17463205049430791 0.1233979928413103 0 -0.1598554046101329 0.12512104095579701 0 -0.17463205049430791 0.1233979928413103 0 -0.16396547557359309 0.1179523604009539 0 -0.1598554046101329 0.12512104095579701 0 -0.17463205049430791 0.1233979928413103 0 -0.165591889364022 0.1100935584672583 0 -0.16396547557359309 0.1179523604009539 0 -0.165591889364022 0.1100935584672583 0 -0.16396547557359309 0.1179523604009539 0 -0.1557825578259103 0.11319684933944919 0 -0.16396547557359309 0.1179523604009539 0 -0.1557825578259103 0.11319684933944919 0 -0.1598554046101329 0.12512104095579701 0 -0.1751333004977583 0.097143888168289519 0 -0.165591889364022 0.1100935584672583 0 -0.16171791749774381 0.097249262196068775 0 -0.165591889364022 0.1100935584672583 0 -0.1513048045227823 0.10252569531319269 0 -0.1557825578259103 0.11319684933944919 0 -0.165591889364022 0.1100935584672583 0 -0.16171791749774381 0.097249262196068775 0 -0.1513048045227823 0.10252569531319269 0 -0.1513048045227823 0.10252569531319269 0 -0.1355182161913136 0.10914070680675041 0 -0.13964798444238999 0.092855372928561969 0 -0.16171791749774381 0.097249262196068775 0 -0.1513048045227823 0.10252569531319269 0 -0.15093626356447659 0.087069345181943508 0 -0.1513048045227823 0.10252569531319269 0 -0.1557825578259103 0.11319684933944919 0 -0.1355182161913136 0.10914070680675041 0 -0.1513048045227823 0.10252569531319269 0 -0.13964798444238999 0.092855372928561969 0 -0.15093626356447659 0.087069345181943508 0 -0.1557825578259103 0.11319684933944919 0 -0.1355182161913136 0.10914070680675041 0 -0.1598554046101329 0.12512104095579701 0 -0.1355182161913136 0.10914070680675041 0 -0.1598554046101329 0.12512104095579701 0 -0.14280445220814469 0.1192500300409249 0 -0.1598554046101329 0.12512104095579701 0 -0.13922952195075211 0.12752614618091959 0 -0.14280445220814469 0.1192500300409249 0 -0.1355182161913136 0.10914070680675041 0 -0.1598554046101329 0.12512104095579701 0 -0.13074244959953979 0.11946175785799951 0 -0.1355182161913136 0.10914070680675041 0 -0.123743476780604 0.10140915347104661 0 -0.14280445220814469 0.1192500300409249 0 -0.13074244959953979 0.11946175785799951 0 -0.13922952195075211 0.12752614618091959 0 -0.14280445220814469 0.1192500300409249 0 -0.1355182161913136 0.10914070680675041 0 -0.14280445220814469 0.1192500300409249 0 -0.13074244959953979 0.11946175785799951 0 -0.1355182161913136 0.10914070680675041 0 -0.1355182161913136 0.10914070680675041 0 -0.12576525993317081 0.095608920700106598 0 -0.13964798444238999 0.092855372928561969 0 -0.1355182161913136 0.10914070680675041 0 -0.12576525993317081 0.095608920700106598 0 -0.1355182161913136 0.10914070680675041 0 -0.12576525993317081 0.095608920700106598 0 -0.123743476780604 0.10140915347104661 0 -0.1355182161913136 0.10914070680675041 0 -0.123743476780604 0.10140915347104661 0 -0.12576525993317081 0.095608920700106598 0 -0.13964798444238999 0.092855372928561969 0 -0.13471537800020611 0.069932196640817734 0 -0.12576525993317081 0.095608920700106598 0 -0.13471537800020611 0.069932196640817734 0 -0.1158200249735767 0.081810356583590621 0 -0.12576525993317081 0.095608920700106598 0 -0.13471537800020611 0.069932196640817734 0 -0.13964798444238999 0.092855372928561969 0 -0.15093626356447659 0.087069345181943508 0 -0.13471537800020611 0.069932196640817734 0 -0.15093626356447659 0.087069345181943508 0 -0.15518952671466241 0.069788713381716036 0 -0.13471537800020611 0.069932196640817734 0 -0.13471537800020611 0.069932196640817734 0 -0.12657932631233151 0.049909814768299969 0 -0.1143187324205953 0.061132814960732959 0 -0.13471537800020611 0.069932196640817734 0 -0.14366549606724091 0.044255472581528732 0 -0.13471537800020611 0.069932196640817734 0 -0.12657932631233151 0.049909814768299969 0 -0.14366549606724091 0.044255472581528732 0 -0.12657932631233151 0.049909814768299969 0 -0.1284208098020175 0.033179877632891097 0 -0.14366549606724091 0.044255472581528732 0 -0.1284208098020175 0.033179877632891097 0 -0.14366549606724091 0.044255472581528732 0 -0.1467564914265658 0.025061264112791169 0 -0.14366549606724091 0.044255472581528732 0 -0.16223695238926561 0.052594200190125132 0 -0.1605593881585633 0.033401352669864208 0 -0.14366549606724091 0.044255472581528732 0 -0.1467564914265658 0.025061264112791169 0 -0.1605593881585633 0.033401352669864208 0 -0.15518952671466241 0.069788713381716036 0 -0.13471537800020611 0.069932196640817734 0 -0.14366549606724091 0.044255472581528732 0 -0.15518952671466241 0.069788713381716036 0 -0.14366549606724091 0.044255472581528732 0 -0.16223695238926561 0.052594200190125132 0 -0.13137048688310951 -0.003337023478303953 0 -0.13460564055411489 0.01723703355858653 0 -0.11131614731463491 0.019777731715017489 0 -0.13137048688310951 -0.003337023478303953 0 -0.13460564055411489 0.01723703355858653 0 -0.1433170204333889 0.0042533116210359059 0 -0.13137048688310951 -0.003337023478303953 0 -0.1433170204333889 0.0042533116210359059 0 -0.1284208098020175 0.033179877632891097 0 -0.13460564055411489 0.01723703355858653 0 -0.1467564914265658 0.025061264112791169 0 -0.13460564055411489 0.01723703355858653 0 -0.1467564914265658 0.025061264112791169 0 -0.15542372099760421 0.0119454102405231 0 -0.1467564914265658 0.025061264112791169 0 -0.15542372099760421 0.0119454102405231 0 -0.1605593881585633 0.033401352669864208 0 -0.13460564055411489 0.01723703355858653 0 -0.15542372099760421 0.0119454102405231 0 -0.1433170204333889 0.0042533116210359059 0 -0.15542372099760421 0.0119454102405231 0 -0.1433170204333889 0.0042533116210359059 0 -0.1564869492866878 -0.00059129627401754796 0 -0.15542372099760421 0.0119454102405231 0 -0.1433170204333889 0.0042533116210359059 0 -0.15542372099760421 0.0119454102405231 0 -0.17947695511209899 0.027227843959349921 0 -0.17208342559322409 0.0058404778805985873 0 -0.1564869492866878 -0.00059129627401754796 0 -0.15542372099760421 0.0119454102405231 0 -0.17208342559322409 0.0058404778805985873 0 -0.15542372099760421 0.0119454102405231 0 -0.17947695511209899 0.027227843959349921 0 -0.1605593881585633 0.033401352669864208 0 -0.15542372099760421 0.0119454102405231 0 -0.17947695511209899 0.027227843959349921 0 -0.18418091461086311 -0.0067458590849352237 0 -0.17208342559322409 0.0058404778805985873 0 -0.19246094727398991 0.01350162855121731 0 -0.17947695511209899 0.027227843959349921 0 -0.17208342559322409 0.0058404778805985873 0 -0.19246094727398991 0.01350162855121731 0 -0.1756345505012066 0.070889783495268699 0 -0.16223695238926561 0.052594200190125132 0 -0.17613580050465499 0.044635678822247941 0 -0.16223695238926561 0.052594200190125132 0 -0.1605593881585633 0.033401352669864208 0 -0.17613580050465499 0.044635678822247941 0 -0.17947695511209899 0.027227843959349921 0 -0.17613580050465499 0.044635678822247941 0 -0.19053419445951161 0.052610770621845292 0 -0.17947695511209899 0.027227843959349921 0 -0.1605593881585633 0.033401352669864208 0 -0.17613580050465499 0.044635678822247941 0 -0.1756345505012066 0.070889783495268699 0 -0.17613580050465499 0.044635678822247941 0 -0.1756345505012066 0.070889783495268699 0 -0.17613580050465499 0.044635678822247941 0 -0.19053419445951161 0.052610770621845292 0 -0.20353018922659619 0.042510277678173593 0 -0.19612483249420401 0.068091746174319415 0 -0.19053419445951161 0.052610770621845292 0 -0.20353018922659619 0.042510277678173593 0 -0.19612483249420401 0.068091746174319415 0 -0.17947695511209899 0.027227843959349921 0 -0.20353018922659619 0.042510277678173593 0 -0.17947695511209899 0.027227843959349921 0 -0.19053419445951161 0.052610770621845292 0 -0.20353018922659619 0.042510277678173593 0 -0.20353018922659619 0.042510277678173593 0 -0.21955159654467851 0.052689619643397433 0 -0.22113039192623851 0.032431486205985689 0 -0.20353018922659619 0.042510277678173593 0 -0.2127216369241372 0.066942535097736622 0 -0.19612483249420401 0.068091746174319415 0 -0.20353018922659619 0.042510277678173593 0 -0.21955159654467851 0.052689619643397433 0 -0.20353018922659619 0.042510277678173593 0 -0.21955159654467851 0.052689619643397433 0 -0.2127216369241372 0.066942535097736622 0 -0.2008908429601583 -0.001101000049535744 0 -0.19246094727398991 0.01350162855121731 0 -0.21117588750041991 0.016098560242972841 0 -0.18418091461086311 -0.0067458590849352237 0 -0.2008908429601583 -0.001101000049535744 0 -0.19246094727398991 0.01350162855121731 0 -0.17947695511209899 0.027227843959349921 0 -0.20353018922659619 0.042510277678173593 0 -0.19246094727398991 0.01350162855121731 0 -0.20353018922659619 0.042510277678173593 0 -0.19246094727398991 0.01350162855121731 0 -0.21117588750041991 0.016098560242972841 0 -0.20353018922659619 0.042510277678173593 0 -0.21117588750041991 0.016098560242972841 0 -0.22113039192623851 0.032431486205985689 0 -0.20353018922659619 0.042510277678173593 0 -0.21117588750041991 0.016098560242972841 0 -0.21882158577424271 -0.0103131571922281 0 -0.21117588750041991 0.016098560242972841 0 -0.2008908429601583 -0.001101000049535744 0 -0.21882158577424271 -0.0103131571922281 0 -0.21117588750041991 0.016098560242972841 0 -0.21882158577424271 -0.0103131571922281 0 -0.21117588750041991 0.016098560242972841 0 -0.23546354233931949 0.0078270751002715265 0 -0.23546354233931949 0.0078270751002715265 0 -0.22113039192623851 0.032431486205985689 0 -0.24192231969137759 0.032530148466345048 0 -0.21117588750041991 0.016098560242972841 0 -0.23546354233931949 0.0078270751002715265 0 -0.22113039192623851 0.032431486205985689 0 -0.26249405175029211 0.007662734938978108 0 -0.23546354233931949 0.0078270751002715265 0 -0.24192231969137759 0.032530148466345048 0 -0.21955159654467851 0.052689619643397433 0 -0.235573003862763 0.062868961608618018 0 -0.21955159654467851 0.052689619643397433 0 -0.235573003862763 0.062868961608618018 0 -0.2127216369241372 0.066942535097736622 0 -0.21955159654467851 0.052689619643397433 0 -0.24450296286368231 0.049373315754277197 0 -0.235573003862763 0.062868961608618018 0 -0.21955159654467851 0.052689619643397433 0 -0.22113039192623851 0.032431486205985689 0 -0.24192231969137759 0.032530148466345048 0 -0.21955159654467851 0.052689619643397433 0 -0.24192231969137759 0.032530148466345048 0 -0.24450296286368231 0.049373315754277197 0 -0.2559826395353394 0.061597363551489349 0 -0.24450296286368231 0.049373315754277197 0 -0.235573003862763 0.062868961608618018 0 -0.2559826395353394 0.061597363551489349 0 -0.235573003862763 0.062868961608618018 0 -0.24672703352553629 0.080158677613093823 0 -0.235573003862763 0.062868961608618018 0 -0.24672703352553629 0.080158677613093823 0 -0.2291931736768115 0.079240865998811236 0 -0.24672703352553629 0.080158677613093823 0 -0.2291931736768115 0.079240865998811236 0 -0.23621836434907981 0.095400964388867249 0 -0.25734245126200062 0.1014160866788785 0 -0.24672703352553629 0.080158677613093823 0 -0.23621836434907981 0.095400964388867249 0 -0.2291931736768115 0.079240865998811236 0 -0.21482055865464289 0.083254774020096164 0 -0.2224133943648228 0.095863443882093446 0 -0.2291931736768115 0.079240865998811236 0 -0.2224133943648228 0.095863443882093446 0 -0.23621836434907981 0.095400964388867249 0 -0.235573003862763 0.062868961608618018 0 -0.2291931736768115 0.079240865998811236 0 -0.2127216369241372 0.066942535097736622 0 -0.2291931736768115 0.079240865998811236 0 -0.2127216369241372 0.066942535097736622 0 -0.21482055865464289 0.083254774020096164 0 -0.2127216369241372 0.066942535097736622 0 -0.21482055865464289 0.083254774020096164 0 -0.203099952488771 0.082051867707200909 0 -0.2127216369241372 0.066942535097736622 0 -0.203099952488771 0.082051867707200909 0 -0.19612483249420401 0.068091746174319415 0 -0.21482055865464289 0.083254774020096164 0 -0.203099952488771 0.082051867707200909 0 -0.20375886312158339 0.098403164090322431 0 -0.21482055865464289 0.083254774020096164 0 -0.20375886312158339 0.098403164090322431 0 -0.2224133943648228 0.095863443882093446 0 -0.203099952488771 0.082051867707200909 0 -0.18871947576181089 0.093673214670465021 0 -0.19612483249420401 0.068091746174319415 0 -0.203099952488771 0.082051867707200909 0 -0.18871947576181089 0.093673214670465021 0 -0.20375886312158339 0.098403164090322431 0 -0.18871947576181089 0.093673214670465021 0 -0.19612483249420401 0.068091746174319415 0 -0.18131411902941769 0.11925468316661041 0 -0.19892457962824481 0.1205653340059829 0 -0.19516396372389291 0.10855896077987801 0 -0.19892457962824481 0.1205653340059829 0 -0.19516396372389291 0.10855896077987801 0 -0.2064149638336307 0.1103678524700213 0 -0.18131411902941769 0.11925468316661041 0 -0.18871947576181089 0.093673214670465021 0 -0.19516396372389291 0.10855896077987801 0 -0.18871947576181089 0.093673214670465021 0 -0.19516396372389291 0.10855896077987801 0 -0.20375886312158339 0.098403164090322431 0 -0.19516396372389291 0.10855896077987801 0 -0.20375886312158339 0.098403164090322431 0 -0.2064149638336307 0.1103678524700213 0 -0.20375886312158339 0.098403164090322431 0 -0.21522430961498251 0.1066047727861448 0 -0.2064149638336307 0.1103678524700213 0 -0.20375886312158339 0.098403164090322431 0 -0.21522430961498251 0.1066047727861448 0 -0.2224133943648228 0.095863443882093446 0 -0.19892457962824481 0.1205653340059829 0 -0.2064149638336307 0.1103678524700213 0 -0.22321710876218179 0.117732675170656 0 -0.19892457962824481 0.1205653340059829 0 -0.22321710876218179 0.117732675170656 0 -0.21198243415042209 0.1273270768851994 0 -0.19892457962824481 0.1205653340059829 0 -0.22321710876218179 0.117732675170656 0 -0.21522430961498251 0.1066047727861448 0 -0.2064149638336307 0.1103678524700213 0 -0.22321710876218179 0.117732675170656 0 -0.22321710876218179 0.117732675170656 0 -0.22699489982736379 0.11729216141517949 0 -0.22321710876218179 0.117732675170656 0 -0.22699489982736379 0.11729216141517949 0 -0.22407622611686431 0.1086811689817279 0 -0.21522430961498251 0.1066047727861448 0 -0.22321710876218179 0.117732675170656 0 -0.21522430961498251 0.1066047727861448 0 -0.22321710876218179 0.117732675170656 0 -0.22407622611686431 0.1086811689817279 0 -0.22699489982736379 0.11729216141517949 0 -0.22407622611686431 0.1086811689817279 0 -0.23779668997176759 0.1099640720218579 0 -0.21522430961498251 0.1066047727861448 0 -0.2224133943648228 0.095863443882093446 0 -0.22407622611686431 0.1086811689817279 0 -0.22407622611686431 0.1086811689817279 0 -0.23621836434907981 0.095400964388867249 0 -0.23779668997176759 0.1099640720218579 0 -0.2224133943648228 0.095863443882093446 0 -0.22407622611686431 0.1086811689817279 0 -0.23621836434907981 0.095400964388867249 0 -0.25734245126200062 0.1014160866788785 0 -0.23621836434907981 0.095400964388867249 0 -0.23779668997176759 0.1099640720218579 0 -0.25734245126200062 0.1014160866788785 0 -0.23779668997176759 0.1099640720218579 0 -0.24895710550971339 0.12165530893482571 0 -0.2385801137665676 0.122701518390659 0 -0.23779668997176759 0.1099640720218579 0 -0.24895710550971339 0.12165530893482571 0 -0.22699489982736379 0.11729216141517949 0 -0.2385801137665676 0.122701518390659 0 -0.23779668997176759 0.1099640720218579 0 -0.22699489982736379 0.11729216141517949 0 -0.2385801137665676 0.122701518390659 0 -0.2405717597574257 0.1418945311907728 0 -0.2385801137665676 0.122701518390659 0 -0.24895710550971339 0.12165530893482571 0 -0.2405717597574257 0.1418945311907728 0 -0.25608290515330878 0.14176455504424121 0 -0.24895710550971339 0.12165530893482571 0 -0.2405717597574257 0.1418945311907728 0 -0.24895710550971339 0.12165530893482571 0 -0.2405717597574257 0.1418945311907728 0 -0.22321710876218179 0.117732675170656 0 -0.22354757195218369 0.13155214617265881 0 -0.2405717597574257 0.1418945311907728 0 -0.22321710876218179 0.117732675170656 0 -0.22699489982736379 0.11729216141517949 0 -0.2405717597574257 0.1418945311907728 0 -0.22321710876218179 0.117732675170656 0 -0.2405717597574257 0.1418945311907728 0 -0.22354757195218369 0.13155214617265881 0 -0.22866128532361621 0.14153149423513051 0 -0.2405717597574257 0.1418945311907728 0 -0.21878746546912231 0.1392010645796998 0 -0.22354757195218369 0.13155214617265881 0 -0.22866128532361621 0.14153149423513051 0 -0.21878746546912231 0.1392010645796998 0 -0.22354757195218369 0.13155214617265881 0 -0.2159650745918322 0.13357921232561451 0 -0.22321710876218179 0.117732675170656 0 -0.22354757195218369 0.13155214617265881 0 -0.21198243415042209 0.1273270768851994 0 -0.22866128532361621 0.14153149423513051 0 -0.2405717597574257 0.1418945311907728 0 -0.23379856030635021 0.15824260950785349 0 -0.2220979066771098 0.14976549412664819 0 -0.22866128532361621 0.14153149423513051 0 -0.23379856030635021 0.15824260950785349 0 -0.2220979066771098 0.14976549412664819 0 -0.23379856030635021 0.15824260950785349 0 -0.21909321543322929 0.1606009590281276 0 -0.21878746546912231 0.1392010645796998 0 -0.2220979066771098 0.14976549412664819 0 -0.22866128532361621 0.14153149423513051 0 -0.25072842261960387 0.15603505327837411 0 -0.2405717597574257 0.1418945311907728 0 -0.23379856030635021 0.15824260950785349 0 -0.2405717597574257 0.1418945311907728 0 -0.23379856030635021 0.15824260950785349 0 -0.25072842261960387 0.15603505327837411 0 -0.25608290515330878 0.14176455504424121 0 -0.2405717597574257 0.1418945311907728 0 -0.25072842261960387 0.15603505327837411 0 -0.2405717597574257 0.1418945311907728 0 -0.24346313069296871 0.16633892637512099 0 -0.22702536085527411 0.17459068782493389 0 -0.23379856030635021 0.15824260950785349 0 -0.25072842261960387 0.15603505327837411 0 -0.24346313069296871 0.16633892637512099 0 -0.23379856030635021 0.15824260950785349 0 -0.24593749817207319 0.17922101447869401 0 -0.22702536085527411 0.17459068782493389 0 -0.23531355475386351 0.19206411553567329 0 -0.24346313069296871 0.16633892637512099 0 -0.24593749817207319 0.17922101447869401 0 -0.22702536085527411 0.17459068782493389 0 -0.22702536085527411 0.17459068782493389 0 -0.23531355475386351 0.19206411553567329 0 -0.21668486691279551 0.1896349297876268 0 -0.22702536085527411 0.17459068782493389 0 -0.21909321543322929 0.1606009590281276 0 -0.21078083849551829 0.1734645188772713 0 -0.22702536085527411 0.17459068782493389 0 -0.23379856030635021 0.15824260950785349 0 -0.22702536085527411 0.17459068782493389 0 -0.23379856030635021 0.15824260950785349 0 -0.21909321543322929 0.1606009590281276 0 -0.21909321543322929 0.1606009590281276 0 -0.20917883787537819 0.16210322782447459 0 -0.21014900685323101 0.14925134328242939 0 -0.21909321543322929 0.1606009590281276 0 -0.20917883787537819 0.16210322782447459 0 -0.21078083849551829 0.1734645188772713 0 -0.20917883787537819 0.16210322782447459 0 -0.21078083849551829 0.1734645188772713 0 -0.19690649474481761 0.16930016240990661 0 -0.22702536085527411 0.17459068782493389 0 -0.21078083849551829 0.1734645188772713 0 -0.21668486691279551 0.1896349297876268 0 -0.21078083849551829 0.1734645188772713 0 -0.21668486691279551 0.1896349297876268 0 -0.19675568901559279 0.189567439062066 0 -0.21078083849551829 0.1734645188772713 0 -0.19690649474481761 0.16930016240990661 0 -0.19675568901559279 0.189567439062066 0 -0.19690649474481761 0.16930016240990661 0 -0.19675568901559279 0.189567439062066 0 -0.1806498087268969 0.1809583004820513 0 -0.20917883787537819 0.16210322782447459 0 -0.20149615309500679 0.15718250099910261 0 -0.19690649474481761 0.16930016240990661 0 -0.20149615309500679 0.15718250099910261 0 -0.19690649474481761 0.16930016240990661 0 -0.1900737238031488 0.15648625425656729 0 -0.19690649474481761 0.16930016240990661 0 -0.1900737238031488 0.15648625425656729 0 -0.18329050548046091 0.16641049957591181 0 -0.1900737238031488 0.15648625425656729 0 -0.1892816596668532 0.14729824464464031 0 -0.18348409084234379 0.15060627553684849 0 -0.1900737238031488 0.15648625425656729 0 -0.19814782504055481 0.14911065488519101 0 -0.1892816596668532 0.14729824464464031 0 -0.20149615309500679 0.15718250099910261 0 -0.1900737238031488 0.15648625425656729 0 -0.19814782504055481 0.14911065488519101 0 -0.19814782504055481 0.14911065488519101 0 -0.2022681758196824 0.14167303138421811 0 -0.1943649823155553 0.141902467696427 0 -0.19814782504055481 0.14911065488519101 0 -0.1943649823155553 0.141902467696427 0 -0.1892816596668532 0.14729824464464031 0 -0.1943649823155553 0.141902467696427 0 -0.1892816596668532 0.14729824464464031 0 -0.18843187665971381 0.14117764216521481 0 -0.1943649823155553 0.141902467696427 0 -0.18843187665971381 0.14117764216521481 0 -0.1909929067815555 0.135001194222511 0 -0.18843187665971381 0.14117764216521481 0 -0.1909929067815555 0.135001194222511 0 -0.18421136551585299 0.13733957154214979 0 -0.19892457962824481 0.1205653340059829 0 -0.1909929067815555 0.135001194222511 0 -0.18530606321329801 0.12949084902847491 0 -0.19892457962824481 0.1205653340059829 0 -0.1909929067815555 0.135001194222511 0 -0.20124287374027899 0.13384974139548031 0 -0.2022681758196824 0.14167303138421811 0 -0.1943649823155553 0.141902467696427 0 -0.20124287374027899 0.13384974139548031 0 -0.1943649823155553 0.141902467696427 0 -0.1909929067815555 0.135001194222511 0 -0.20124287374027899 0.13384974139548031 0 -0.2022681758196824 0.14167303138421811 0 -0.20124287374027899 0.13384974139548031 0 -0.20954282679560091 0.1362365616649002 0 -0.20124287374027899 0.13384974139548031 0 -0.20954282679560091 0.1362365616649002 0 -0.21198243415042209 0.1273270768851994 0 -0.19892457962824481 0.1205653340059829 0 -0.20124287374027899 0.13384974139548031 0 -0.21198243415042209 0.1273270768851994 0 -0.22354757195218369 0.13155214617265881 0 -0.21198243415042209 0.1273270768851994 0 -0.2159650745918322 0.13357921232561451 0 -0.20954282679560091 0.1362365616649002 0 -0.21198243415042209 0.1273270768851994 0 -0.2159650745918322 0.13357921232561451 0 -0.21878746546912231 0.1392010645796998 0 -0.20954282679560091 0.1362365616649002 0 -0.2159650745918322 0.13357921232561451 0 -0.21878746546912231 0.1392010645796998 0 -0.2220979066771098 0.14976549412664819 0 -0.21014900685323101 0.14925134328242939 0 -0.21878746546912231 0.1392010645796998 0 -0.20954282679560091 0.1362365616649002 0 -0.21014900685323101 0.14925134328242939 0 -0.2220979066771098 0.14976549412664819 0 -0.21909321543322929 0.1606009590281276 0 -0.21014900685323101 0.14925134328242939 0 -0.20149615309500679 0.15718250099910261 0 -0.19814782504055481 0.14911065488519101 0 -0.21014900685323101 0.14925134328242939 0 -0.20917883787537819 0.16210322782447459 0 -0.20149615309500679 0.15718250099910261 0 -0.21014900685323101 0.14925134328242939 0 -0.19814782504055481 0.14911065488519101 0 -0.2022681758196824 0.14167303138421811 0 -0.21014900685323101 0.14925134328242939 0 -0.2022681758196824 0.14167303138421811 0 -0.20954282679560091 0.1362365616649002 0 -0.21014900685323101 0.14925134328242939 0 -0.2254770662958033 0.23770261769940551 0 -0.2355501434136231 0.2478522206023164 0 -0.23301571208005251 0.22631711136445781 0 -0.2254770662958033 0.23770261769940551 0 -0.21946187770755399 0.2272335662722752 0 -0.2144294763495698 0.23954399660221651 0 -0.22222104444170529 0.2467327462878163 0 -0.2254770662958033 0.23770261769940551 0 -0.2144294763495698 0.23954399660221651 0 -0.22222104444170529 0.2467327462878163 0 -0.2254770662958033 0.23770261769940551 0 -0.2355501434136231 0.2478522206023164 0 -0.25210514226647263 0.23555423440704959 0 -0.2355501434136231 0.2478522206023164 0 -0.2466801300010773 0.2452604621424746 0 -0.2355501434136231 0.2478522206023164 0 -0.248734035528067 0.22266264303674471 0 -0.25210514226647263 0.23555423440704959 0 -0.2355501434136231 0.2478522206023164 0 -0.248734035528067 0.22266264303674471 0 -0.23310158204141429 0.25640081827561029 0 -0.2355501434136231 0.2478522206023164 0 -0.2466801300010773 0.2452604621424746 0 -0.25210514226647263 0.23555423440704959 0 -0.2466801300010773 0.2452604621424746 0 -0.25054816238852479 0.24059870715785611 0 -0.25210514226647263 0.23555423440704959 0 -0.2466801300010773 0.2452604621424746 0 -0.25272816581491458 0.21503132644266379 0 -0.23589780562791721 0.22466705357138941 0 -0.2355501434136231 0.2478522206023164 0 -0.23589780562791721 0.22466705357138941 0 -0.23301571208005251 0.22631711136445781 0 -0.2355501434136231 0.2478522206023164 0 -0.248734035528067 0.22266264303674471 0 -0.23589780562791721 0.22466705357138941 0 -0.25272816581491458 0.21503132644266379 0 -0.248734035528067 0.22266264303674471 0 -0.23589780562791721 0.22466705357138941 0 -0.248734035528067 0.22266264303674471 0 -0.23589780562791721 0.22466705357138941 0 -0.23589780562791721 0.22466705357138941 0 -0.23301571208005251 0.22631711136445781 0 -0.23589780562791721 0.22466705357138941 0 -0.21946187770755399 0.2272335662722752 0 -0.225888155969557 0.21631124094479351 0 -0.23589780562791721 0.22466705357138941 0 -0.23301571208005251 0.22631711136445781 0 -0.21946187770755399 0.2272335662722752 0 -0.23589780562791721 0.22466705357138941 0 -0.21946187770755399 0.2272335662722752 0 -0.2254770662958033 0.23770261769940551 0 -0.23301571208005251 0.22631711136445781 0 -0.21946187770755399 0.2272335662722752 0 -0.21946187770755399 0.2272335662722752 0 -0.225888155969557 0.21631124094479351 0 -0.2147498456923036 0.21679580952784941 0 -0.225888155969557 0.21631124094479351 0 -0.2163983660951504 0.20664118688365379 0 -0.2147498456923036 0.21679580952784941 0 -0.225888155969557 0.21631124094479351 0 -0.22900898315534271 0.20498679461036609 0 -0.2163983660951504 0.20664118688365379 0 -0.225888155969557 0.21631124094479351 0 -0.22900898315534271 0.20498679461036609 0 -0.23632785610705401 0.21457891752941979 0 -0.23589780562791721 0.22466705357138941 0 -0.225888155969557 0.21631124094479351 0 -0.23632785610705401 0.21457891752941979 0 -0.25272816581491458 0.21503132644266379 0 -0.23632785610705401 0.21457891752941979 0 -0.24165148627456459 0.20791054123727601 0 -0.25272816581491458 0.21503132644266379 0 -0.23589780562791721 0.22466705357138941 0 -0.23632785610705401 0.21457891752941979 0 -0.25462413856064708 0.2114088186030785 0 -0.24165148627456459 0.20791054123727601 0 -0.23531355475386351 0.19206411553567329 0 -0.25272816581491458 0.21503132644266379 0 -0.25462413856064708 0.2114088186030785 0 -0.24165148627456459 0.20791054123727601 0 -0.22900898315534271 0.20498679461036609 0 -0.23632785610705401 0.21457891752941979 0 -0.24165148627456459 0.20791054123727601 0 -0.25193880530206408 0.19370481573741441 0 -0.24593749817207319 0.17922101447869401 0 -0.23531355475386351 0.19206411553567329 0 -0.25462413856064708 0.2114088186030785 0 -0.23531355475386351 0.19206411553567329 0 -0.25193880530206408 0.19370481573741441 0 -0.25462413856064708 0.2114088186030785 0 -0.23531355475386351 0.19206411553567329 0 -0.22900898315534271 0.20498679461036609 0 -0.24165148627456459 0.20791054123727601 0 -0.23531355475386351 0.19206411553567329 0 -0.22900898315534271 0.20498679461036609 0 -0.21668486691279551 0.1896349297876268 0 -0.2163983660951504 0.20664118688365379 0 -0.22900898315534271 0.20498679461036609 0 -0.23531355475386351 0.19206411553567329 0 -0.21668486691279551 0.1896349297876268 0 -0.21668486691279551 0.1896349297876268 0 -0.20588600075920099 0.20051631774142969 0 -0.2163983660951504 0.20664118688365379 0 -0.21668486691279551 0.1896349297876268 0 -0.20588600075920099 0.20051631774142969 0 -0.19675568901559279 0.189567439062066 0 -0.20588600075920099 0.20051631774142969 0 -0.19675568901559279 0.189567439062066 0 -0.1872373767624223 0.2114249087681892 0 -0.20588600075920099 0.20051631774142969 0 -0.203925412238775 0.2130566048024192 0 -0.1872373767624223 0.2114249087681892 0 -0.203925412238775 0.2130566048024192 0 -0.20302594978719091 0.22980007897316179 0 -0.1872373767624223 0.2114249087681892 0 -0.20588600075920099 0.20051631774142969 0 -0.203925412238775 0.2130566048024192 0 -0.2163983660951504 0.20664118688365379 0 -0.203925412238775 0.2130566048024192 0 -0.2163983660951504 0.20664118688365379 0 -0.2147498456923036 0.21679580952784941 0 -0.21946187770755399 0.2272335662722752 0 -0.20302594978719091 0.22980007897316179 0 -0.2144294763495698 0.23954399660221651 0 -0.21946187770755399 0.2272335662722752 0 -0.20302594978719091 0.22980007897316179 0 -0.21946187770755399 0.2272335662722752 0 -0.2147498456923036 0.21679580952784941 0 -0.20302594978719091 0.22980007897316179 0 -0.203925412238775 0.2130566048024192 0 -0.2147498456923036 0.21679580952784941 0 -0.20302594978719091 0.22980007897316179 0 -0.20302594978719091 0.22980007897316179 0 -0.1861179612628448 0.23220845709977719 0 -0.1872373767624223 0.2114249087681892 0 -0.18859670902218051 0.25052543551881717 0 -0.20132404028626799 0.2438270423260239 0 -0.1861179612628448 0.23220845709977719 0 -0.20302594978719091 0.22980007897316179 0 -0.20132404028626799 0.2438270423260239 0 -0.1861179612628448 0.23220845709977719 0 -0.21371201764358261 0.25214650866738469 0 -0.20132404028626799 0.2438270423260239 0 -0.2144294763495698 0.23954399660221651 0 -0.20302594978719091 0.22980007897316179 0 -0.20132404028626799 0.2438270423260239 0 -0.2144294763495698 0.23954399660221651 0 -0.21371201764358261 0.25214650866738469 0 -0.22222104444170529 0.2467327462878163 0 -0.2144294763495698 0.23954399660221651 0 -0.1613020889038615 0.23837444865205379 0 -0.1765110772481347 0.2431385849621667 0 -0.17254032084098081 0.22750047358122369 0 -0.1593990608277665 0.26226189644582071 0 -0.1613020889038615 0.23837444865205379 0 -0.1765110772481347 0.2431385849621667 0 -0.18859670902218051 0.25052543551881717 0 -0.1765110772481347 0.2431385849621667 0 -0.1861179612628448 0.23220845709977719 0 -0.17254032084098081 0.22750047358122369 0 -0.1861179612628448 0.23220845709977719 0 -0.1872373767624223 0.2114249087681892 0 -0.1765110772481347 0.2431385849621667 0 -0.17254032084098081 0.22750047358122369 0 -0.1861179612628448 0.23220845709977719 0 -0.1613020889038615 0.23837444865205379 0 -0.17254032084098081 0.22750047358122369 0 -0.16320511697995649 0.2144870008582867 0 -0.1613020889038615 0.23837444865205379 0 -0.16320511697995649 0.2144870008582867 0 -0.1529468832891846 0.22419885760078639 0 -0.1613020889038615 0.23837444865205379 0 -0.16320511697995649 0.2144870008582867 0 -0.16320511697995649 0.2144870008582867 0 -0.1872373767624223 0.2114249087681892 0 -0.17633970375998559 0.20030682361007979 0 -0.17254032084098081 0.22750047358122369 0 -0.16320511697995649 0.2144870008582867 0 -0.1872373767624223 0.2114249087681892 0 -0.19675568901559279 0.189567439062066 0 -0.17633970375998559 0.20030682361007979 0 -0.1806498087268969 0.1809583004820513 0 -0.19675568901559279 0.189567439062066 0 -0.1872373767624223 0.2114249087681892 0 -0.17633970375998559 0.20030682361007979 0 -0.17633970375998559 0.20030682361007979 0 -0.16510814505605159 0.19059955306451951 0 -0.1806498087268969 0.1809583004820513 0 -0.16320511697995649 0.2144870008582867 0 -0.16510814505605159 0.19059955306451951 0 -0.16320511697995649 0.2144870008582867 0 -0.17633970375998559 0.20030682361007979 0 -0.16510814505605159 0.19059955306451951 0 -0.16320511697995649 0.2144870008582867 0 -0.16510814505605159 0.19059955306451951 0 -0.15189646247486119 0.19678216421774269 0 -0.15189646247486119 0.19678216421774269 0 -0.1348313290251755 0.19391948141146001 0 -0.14981517013628179 0.1764661855652461 0 -0.15189646247486119 0.19678216421774269 0 -0.1348313290251755 0.19391948141146001 0 -0.1465225511768404 0.20843860018920141 0 -0.16510814505605159 0.19059955306451951 0 -0.15189646247486119 0.19678216421774269 0 -0.14981517013628179 0.1764661855652461 0 -0.1348313290251755 0.19391948141146001 0 -0.1252468427212147 0.2168953735999099 0 -0.1203089118816133 0.20055052938219861 0 -0.1348313290251755 0.19391948141146001 0 -0.1252468427212147 0.2168953735999099 0 -0.1465225511768404 0.20843860018920141 0 -0.16320511697995649 0.2144870008582867 0 -0.1465225511768404 0.20843860018920141 0 -0.1529468832891846 0.22419885760078639 0 -0.16320511697995649 0.2144870008582867 0 -0.15189646247486119 0.19678216421774269 0 -0.1465225511768404 0.20843860018920141 0 -0.1465225511768404 0.20843860018920141 0 -0.14075777609607981 0.2354953807036036 0 -0.1465225511768404 0.20843860018920141 0 -0.1529468832891846 0.22419885760078639 0 -0.14075777609607981 0.2354953807036036 0 -0.1613020889038615 0.23837444865205379 0 -0.1529468832891846 0.22419885760078639 0 -0.14075777609607981 0.2354953807036036 0 -0.1252468427212147 0.2168953735999099 0 -0.1465225511768404 0.20843860018920141 0 -0.14075777609607981 0.2354953807036036 0 -0.1252468427212147 0.2168953735999099 0 -0.14075777609607981 0.2354953807036036 0 -0.11832329044822951 0.24304604882281969 0 -0.1349930010153193 0.26255216121800568 0 -0.14075777609607981 0.2354953807036036 0 -0.1349930010153193 0.26255216121800568 0 -0.14075777609607981 0.2354953807036036 0 -0.11832329044822951 0.24304604882281969 0 -0.1349930010153193 0.26255216121800568 0 -0.14075777609607981 0.2354953807036036 0 -0.14911298171075679 0.24967097175487091 0 -0.1613020889038615 0.23837444865205379 0 -0.14075777609607981 0.2354953807036036 0 -0.14911298171075679 0.24967097175487091 0 -0.1662144153725649 0.14970975453020571 0 -0.1667765488875127 0.13812225091292091 0 -0.17427879965612819 0.14190030589397651 0 -0.1662144153725649 0.14970975453020571 0 -0.15453424001036289 0.15945434353378279 0 -0.15202557664741981 0.14720865995561999 0 -0.1662144153725649 0.14970975453020571 0 -0.15911751616331751 0.1391979048316449 0 -0.15202557664741981 0.14720865995561999 0 -0.1662144153725649 0.14970975453020571 0 -0.15911751616331751 0.1391979048316449 0 -0.1667765488875127 0.13812225091292091 0 -0.15911751616331751 0.1391979048316449 0 -0.1598554046101329 0.12512104095579701 0 -0.1667765488875127 0.13812225091292091 0 -0.15911751616331751 0.1391979048316449 0 -0.1598554046101329 0.12512104095579701 0 -0.1500033633973421 0.13584755301834109 0 -0.1598554046101329 0.12512104095579701 0 -0.1667765488875127 0.13812225091292091 0 -0.1744166086354216 0.1346822483529781 0 -0.17463205049430791 0.1233979928413103 0 -0.1598554046101329 0.12512104095579701 0 -0.1744166086354216 0.1346822483529781 0 -0.1598554046101329 0.12512104095579701 0 -0.1744166086354216 0.1346822483529781 0 -0.1667765488875127 0.13812225091292091 0 -0.1744166086354216 0.1346822483529781 0 -0.17427879965612819 0.14190030589397651 0 -0.1744166086354216 0.1346822483529781 0 -0.17427879965612819 0.14190030589397651 0 -0.1744166086354216 0.1346822483529781 0 -0.17777111929803571 0.13688489396563699 0 -0.17427879965612819 0.14190030589397651 0 -0.1744166086354216 0.1346822483529781 0 -0.17777111929803571 0.13688489396563699 0 -0.1744166086354216 0.1346822483529781 0 -0.17777111929803571 0.13688489396563699 0 -0.1798721579770142 0.13261044405125519 0 -0.17777111929803571 0.13688489396563699 0 -0.17908323016457489 0.14155253666455231 0 -0.17427879965612819 0.14190030589397651 0 -0.17463205049430791 0.1233979928413103 0 -0.1744166086354216 0.1346822483529781 0 -0.1798721579770142 0.13261044405125519 0 -0.17463205049430791 0.1233979928413103 0 -0.1744166086354216 0.1346822483529781 0 -0.17463205049430791 0.1233979928413103 0 -0.18530606321329801 0.12949084902847491 0 -0.1798721579770142 0.13261044405125519 0 -0.1909929067815555 0.135001194222511 0 -0.18530606321329801 0.12949084902847491 0 -0.18421136551585299 0.13733957154214979 0 -0.18530606321329801 0.12949084902847491 0 -0.1798721579770142 0.13261044405125519 0 -0.18421136551585299 0.13733957154214979 0 -0.17777111929803571 0.13688489396563699 0 -0.18421136551585299 0.13733957154214979 0 -0.17908323016457489 0.14155253666455231 0 -0.17777111929803571 0.13688489396563699 0 -0.1798721579770142 0.13261044405125519 0 -0.18421136551585299 0.13733957154214979 0 -0.1892816596668532 0.14729824464464031 0 -0.18843187665971381 0.14117764216521481 0 -0.183308469018752 0.14434673272034601 0 -0.18843187665971381 0.14117764216521481 0 -0.18421136551585299 0.13733957154214979 0 -0.183308469018752 0.14434673272034601 0 -0.1892816596668532 0.14729824464464031 0 -0.183308469018752 0.14434673272034601 0 -0.18348409084234379 0.15060627553684849 0 -0.183308469018752 0.14434673272034601 0 -0.1769770860414964 0.14813931566199959 0 -0.18348409084234379 0.15060627553684849 0 -0.183308469018752 0.14434673272034601 0 -0.17908323016457489 0.14155253666455231 0 -0.1769770860414964 0.14813931566199959 0 -0.18421136551585299 0.13733957154214979 0 -0.183308469018752 0.14434673272034601 0 -0.17908323016457489 0.14155253666455231 0 -0.1662144153725649 0.14970975453020571 0 -0.1769770860414964 0.14813931566199959 0 -0.17427879965612819 0.14190030589397651 0 -0.17908323016457489 0.14155253666455231 0 -0.1769770860414964 0.14813931566199959 0 -0.17427879965612819 0.14190030589397651 0 -0.1662144153725649 0.14970975453020571 0 -0.1769770860414964 0.14813931566199959 0 -0.17777951568146841 0.15676083040068911 0 -0.1769770860414964 0.14813931566199959 0 -0.18348409084234379 0.15060627553684849 0 -0.17777951568146841 0.15676083040068911 0 -0.1900737238031488 0.15648625425656729 0 -0.18348409084234379 0.15060627553684849 0 -0.17777951568146841 0.15676083040068911 0 -0.18329050548046091 0.16641049957591181 0 -0.1806498087268969 0.1809583004820513 0 -0.16701117313214661 0.16671210527075239 0 -0.18329050548046091 0.16641049957591181 0 -0.17777951568146841 0.15676083040068911 0 -0.16701117313214661 0.16671210527075239 0 -0.1900737238031488 0.15648625425656729 0 -0.18329050548046091 0.16641049957591181 0 -0.17777951568146841 0.15676083040068911 0 -0.19690649474481761 0.16930016240990661 0 -0.18329050548046091 0.16641049957591181 0 -0.1806498087268969 0.1809583004820513 0 -0.16510814505605159 0.19059955306451951 0 -0.16701117313214661 0.16671210527075239 0 -0.16510814505605159 0.19059955306451951 0 -0.1806498087268969 0.1809583004820513 0 -0.16701117313214661 0.16671210527075239 0 -0.16510814505605159 0.19059955306451951 0 -0.16701117313214661 0.16671210527075239 0 -0.14981517013628179 0.1764661855652461 0 -0.1662144153725649 0.14970975453020571 0 -0.16701117313214661 0.16671210527075239 0 -0.15453424001036289 0.15945434353378279 0 -0.1662144153725649 0.14970975453020571 0 -0.17777951568146841 0.15676083040068911 0 -0.16701117313214661 0.16671210527075239 0 -0.16701117313214661 0.16671210527075239 0 -0.15453424001036289 0.15945434353378279 0 -0.14981517013628179 0.1764661855652461 0 -0.14981517013628179 0.1764661855652461 0 -0.13268914273538329 0.1750509562650924 0 -0.1400456084615111 0.15909886324928099 0 -0.15453424001036289 0.15945434353378279 0 -0.14981517013628179 0.1764661855652461 0 -0.1400456084615111 0.15909886324928099 0 -0.1348313290251755 0.19391948141146001 0 -0.13268914273538329 0.1750509562650924 0 -0.1144809389531023 0.1869767666301351 0 -0.1348313290251755 0.19391948141146001 0 -0.14981517013628179 0.1764661855652461 0 -0.13268914273538329 0.1750509562650924 0 -0.1400456084615111 0.15909886324928099 0 -0.12711493411718411 0.1494661060528254 0 -0.1194513481457689 0.1635609988765839 0 -0.13268914273538329 0.1750509562650924 0 -0.1400456084615111 0.15909886324928099 0 -0.1194513481457689 0.1635609988765839 0 -0.1400456084615111 0.15909886324928099 0 -0.12711493411718411 0.1494661060528254 0 -0.1393467656979451 0.14225431360183649 0 -0.12711493411718411 0.1494661060528254 0 -0.1393467656979451 0.14225431360183649 0 -0.12653041952395039 0.1354161737842513 0 -0.1400456084615111 0.15909886324928099 0 -0.1393467656979451 0.14225431360183649 0 -0.15202557664741981 0.14720865995561999 0 -0.1393467656979451 0.14225431360183649 0 -0.15202557664741981 0.14720865995561999 0 -0.1500033633973421 0.13584755301834109 0 -0.15911751616331751 0.1391979048316449 0 -0.15202557664741981 0.14720865995561999 0 -0.1500033633973421 0.13584755301834109 0 -0.15453424001036289 0.15945434353378279 0 -0.1400456084615111 0.15909886324928099 0 -0.15202557664741981 0.14720865995561999 0 -0.1598554046101329 0.12512104095579701 0 -0.1500033633973421 0.13584755301834109 0 -0.13922952195075211 0.12752614618091959 0 -0.1598554046101329 0.12512104095579701 0 -0.13922952195075211 0.12752614618091959 0 -0.1393467656979451 0.14225431360183649 0 -0.1500033633973421 0.13584755301834109 0 -0.13922952195075211 0.12752614618091959 0 -0.13074244959953979 0.11946175785799951 0 -0.13922952195075211 0.12752614618091959 0 -0.12653041952395039 0.1354161737842513 0 -0.1393467656979451 0.14225431360183649 0 -0.13922952195075211 0.12752614618091959 0 -0.12653041952395039 0.1354161737842513 0 -0.12653041952395039 0.1354161737842513 0 -0.11549744085296181 0.12506595749432459 0 -0.1072514049253199 0.14872276151760261 0 -0.13074244959953979 0.11946175785799951 0 -0.12653041952395039 0.1354161737842513 0 -0.11549744085296181 0.12506595749432459 0 -0.11549744085296181 0.12506595749432459 0 -0.1072514049253199 0.14872276151760261 0 -0.11549744085296181 0.12506595749432459 0 -0.097351596905396909 0.1366011738647028 0 -0.095157466154961498 0.1222738246889692 0 -0.11549744085296181 0.12506595749432459 0 -0.097351596905396909 0.1366011738647028 0 -0.1072514049253199 0.14872276151760261 0 -0.097351596905396909 0.1366011738647028 0 -0.1072514049253199 0.14872276151760261 0 -0.095429287301162569 0.1538271060288352 0 -0.12711493411718411 0.1494661060528254 0 -0.12653041952395039 0.1354161737842513 0 -0.1072514049253199 0.14872276151760261 0 -0.12711493411718411 0.1494661060528254 0 -0.1072514049253199 0.14872276151760261 0 -0.1194513481457689 0.1635609988765839 0 -0.1194513481457689 0.1635609988765839 0 -0.1144809389531023 0.1869767666301351 0 -0.099005368997678006 0.1723795655408806 0 -0.13268914273538329 0.1750509562650924 0 -0.1194513481457689 0.1635609988765839 0 -0.1144809389531023 0.1869767666301351 0 -0.1144809389531023 0.1869767666301351 0 -0.099005368997678006 0.1723795655408806 0 -0.0907593330700361 0.19603636956415871 0 -0.099005368997678006 0.1723795655408806 0 -0.0907593330700361 0.19603636956415871 0 -0.1072514049253199 0.14872276151760261 0 -0.1194513481457689 0.1635609988765839 0 -0.099005368997678006 0.1723795655408806 0 -0.1072514049253199 0.14872276151760261 0 -0.095429287301162569 0.1538271060288352 0 -0.099005368997678006 0.1723795655408806 0 -0.1072514049253199 0.14872276151760261 0 -0.099005368997678006 0.1723795655408806 0 -0.095429287301162569 0.1538271060288352 0 -0.099005368997678006 0.1723795655408806 0 -0.089264976304947813 0.16305913715607981 0 -0.089264976304947813 0.16305913715607981 0 -0.078726297129264447 0.1568051313220773 0 -0.070728802668765189 0.16298784849958539 0 -0.099005368997678006 0.1723795655408806 0 -0.089264976304947813 0.16305913715607981 0 -0.083173158014857834 0.1819778711413477 0 -0.089264976304947813 0.16305913715607981 0 -0.083173158014857834 0.1819778711413477 0 -0.06435517074193417 0.179531982830265 0 -0.099005368997678006 0.1723795655408806 0 -0.083173158014857834 0.1819778711413477 0 -0.0907593330700361 0.19603636956415871 0 -0.083173158014857834 0.1819778711413477 0 -0.06435517074193417 0.179531982830265 0 -0.072480940959693013 0.1988823006153542 0 -0.089264976304947813 0.16305913715607981 0 -0.06435517074193417 0.179531982830265 0 -0.070728802668765189 0.16298784849958539 0 -0.089264976304947813 0.16305913715607981 0 -0.06435517074193417 0.179531982830265 0 -0.06435517074193417 0.179531982830265 0 -0.070728802668765189 0.16298784849958539 0 -0.060817304647522517 0.16063211997463811 0 -0.078726297129264447 0.1568051313220773 0 -0.070728802668765189 0.16298784849958539 0 -0.070638320170874583 0.15280064756773359 0 -0.070728802668765189 0.16298784849958539 0 -0.070638320170874583 0.15280064756773359 0 -0.060817304647522517 0.16063211997463811 0 -0.070638320170874583 0.15280064756773359 0 -0.06050925962069742 0.14933122419088271 0 -0.060817304647522517 0.16063211997463811 0 -0.078726297129264447 0.1568051313220773 0 -0.070638320170874583 0.15280064756773359 0 -0.084273089372470245 0.14837289206491031 0 -0.070638320170874583 0.15280064756773359 0 -0.073986689617270868 0.1403986132245284 0 -0.084273089372470245 0.14837289206491031 0 -0.073986689617270868 0.1403986132245284 0 -0.060395274942560528 0.13416549391068189 0 -0.06050925962069742 0.14933122419088271 0 -0.070638320170874583 0.15280064756773359 0 -0.073986689617270868 0.1403986132245284 0 -0.06050925962069742 0.14933122419088271 0 -0.073986689617270868 0.1403986132245284 0 -0.079964733767734122 0.12668506296934109 0 -0.060395274942560528 0.13416549391068189 0 -0.060395274942560528 0.13416549391068189 0 -0.068008023874607193 0.1194813826226566 0 -0.073986689617270868 0.1403986132245284 0 -0.085757333202322553 0.1342092020786384 0 -0.079964733767734122 0.12668506296934109 0 -0.097351596905396909 0.1366011738647028 0 -0.085757333202322553 0.1342092020786384 0 -0.095157466154961498 0.1222738246889692 0 -0.085757333202322553 0.1342092020786384 0 -0.079964733767734122 0.12668506296934109 0 -0.095157466154961498 0.1222738246889692 0 -0.097351596905396909 0.1366011738647028 0 -0.085757333202322553 0.1342092020786384 0 -0.084273089372470245 0.14837289206491031 0 -0.097351596905396909 0.1366011738647028 0 -0.095429287301162569 0.1538271060288352 0 -0.084273089372470245 0.14837289206491031 0 -0.095429287301162569 0.1538271060288352 0 -0.089264976304947813 0.16305913715607981 0 -0.084273089372470245 0.14837289206491031 0 -0.089264976304947813 0.16305913715607981 0 -0.078726297129264447 0.1568051313220773 0 -0.084273089372470245 0.14837289206491031 0 -0.073986689617270868 0.1403986132245284 0 -0.085757333202322553 0.1342092020786384 0 -0.084273089372470245 0.14837289206491031 0 -0.097135213821017974 0.2450179218164267 0 -0.11832329044822951 0.24304604882281969 0 -0.10188732904743091 0.22416775388930879 0 -0.1252468427212147 0.2168953735999099 0 -0.11832329044822951 0.24304604882281969 0 -0.10188732904743091 0.22416775388930879 0 -0.10188732904743091 0.22416775388930879 0 -0.10553645135762139 0.20639637139721009 0 -0.085647611720234704 0.211582202570961 0 -0.10553645135762139 0.20639637139721009 0 -0.0907593330700361 0.19603636956415871 0 -0.085647611720234704 0.211582202570961 0 -0.1252468427212147 0.2168953735999099 0 -0.10553645135762139 0.20639637139721009 0 -0.1203089118816133 0.20055052938219861 0 -0.1252468427212147 0.2168953735999099 0 -0.10188732904743091 0.22416775388930879 0 -0.10553645135762139 0.20639637139721009 0 -0.1144809389531023 0.1869767666301351 0 -0.10553645135762139 0.20639637139721009 0 -0.1203089118816133 0.20055052938219861 0 -0.1348313290251755 0.19391948141146001 0 -0.1144809389531023 0.1869767666301351 0 -0.1203089118816133 0.20055052938219861 0 -0.1144809389531023 0.1869767666301351 0 -0.10553645135762139 0.20639637139721009 0 -0.0907593330700361 0.19603636956415871 0 -0.083173158014857834 0.1819778711413477 0 -0.0907593330700361 0.19603636956415871 0 -0.072480940959693013 0.1988823006153542 0 -0.0907593330700361 0.19603636956415871 0 -0.072480940959693013 0.1988823006153542 0 -0.085647611720234704 0.211582202570961 0 -0.06435517074193417 0.179531982830265 0 -0.072480940959693013 0.1988823006153542 0 -0.057501641022342467 0.1963435114306189 0 -0.065516926835851183 0.21659017637723951 0 -0.085647611720234704 0.211582202570961 0 -0.078837631547527487 0.22646261886489361 0 -0.072480940959693013 0.1988823006153542 0 -0.065516926835851183 0.21659017637723951 0 -0.085647611720234704 0.211582202570961 0 -0.072480940959693013 0.1988823006153542 0 -0.065516926835851183 0.21659017637723951 0 -0.056774781747103042 0.20807563334730969 0 -0.097135213821017974 0.2450179218164267 0 -0.10188732904743091 0.22416775388930879 0 -0.078837631547527487 0.22646261886489361 0 -0.10188732904743091 0.22416775388930879 0 -0.078837631547527487 0.22646261886489361 0 -0.10188732904743091 0.22416775388930879 0 -0.085647611720234704 0.211582202570961 0 -0.078837631547527487 0.22646261886489361 0 -0.078837631547527487 0.22646261886489361 0 -0.055787934047623812 0.22875748384047651 0 -0.078837631547527487 0.22646261886489361 0 -0.074704152181801681 0.24701770632021169 0 -0.055787934047623812 0.22875748384047651 0 -0.065516926835851183 0.21659017637723951 0 -0.078837631547527487 0.22646261886489361 0 -0.055787934047623812 0.22875748384047651 0 -0.074704152181801681 0.24701770632021169 0 -0.055787934047623812 0.22875748384047651 0 -0.074704152181801681 0.24701770632021169 0 -0.057747386715908428 0.24463041023760571 0 -0.055787934047623812 0.22875748384047651 0 -0.097135213821017974 0.2450179218164267 0 -0.078837631547527487 0.22646261886489361 0 -0.074704152181801681 0.24701770632021169 0 -0.03189830216395443 0.24568919817845219 0 -0.04135776092400012 0.23809779795821551 0 -0.030614146685572802 0.23126382662090891 0 -0.04135776092400012 0.23809779795821551 0 -0.046594812073733123 0.24823599275617891 0 -0.049952252460554 0.2397627017524232 0 -0.03189830216395443 0.24568919817845219 0 -0.04135776092400012 0.23809779795821551 0 -0.046594812073733123 0.24823599275617891 0 -0.046594812073733123 0.24823599275617891 0 -0.057747386715908428 0.24463041023760571 0 -0.049952252460554 0.2397627017524232 0 -0.057747386715908428 0.24463041023760571 0 -0.049952252460554 0.2397627017524232 0 -0.055787934047623812 0.22875748384047651 0 -0.04135776092400012 0.23809779795821551 0 -0.049952252460554 0.2397627017524232 0 -0.055787934047623812 0.22875748384047651 0 -0.055787934047623812 0.22875748384047651 0 -0.052323738254648429 0.22541342291643321 0 -0.065516926835851183 0.21659017637723951 0 -0.055787934047623812 0.22875748384047651 0 -0.054616056031908368 0.21893633417385969 0 -0.055787934047623812 0.22875748384047651 0 -0.052323738254648429 0.22541342291643321 0 -0.042225130782071622 0.22351742659662871 0 -0.054616056031908368 0.21893633417385969 0 -0.052323738254648429 0.22541342291643321 0 -0.049046602241481829 0.2206752111693363 0 -0.052323738254648429 0.22541342291643321 0 -0.049046602241481829 0.2206752111693363 0 -0.042225130782071622 0.22351742659662871 0 -0.055787934047623812 0.22875748384047651 0 -0.054616056031908368 0.21893633417385969 0 -0.052323738254648429 0.22541342291643321 0 -0.055787934047623812 0.22875748384047651 0 -0.042225130782071622 0.22351742659662871 0 -0.030614146685572802 0.23126382662090891 0 -0.055787934047623812 0.22875748384047651 0 -0.030614146685572802 0.23126382662090891 0 -0.049046602241481829 0.2206752111693363 0 -0.042225130782071622 0.22351742659662871 0 -0.047021483897298919 0.2148336609904237 0 -0.04135776092400012 0.23809779795821551 0 -0.055787934047623812 0.22875748384047651 0 -0.030614146685572802 0.23126382662090891 0 -0.042225130782071622 0.22351742659662871 0 -0.035706106933987618 0.212040288753787 0 -0.024813853389476559 0.2211714782904188 0 -0.042225130782071622 0.22351742659662871 0 -0.024813853389476559 0.2211714782904188 0 -0.030614146685572802 0.23126382662090891 0 -0.035706106933987618 0.212040288753787 0 -0.047940973094851513 0.204892605264445 0 -0.039445365178920423 0.19600482850445031 0 -0.035706106933987618 0.212040288753787 0 -0.047021483897298919 0.2148336609904237 0 -0.047940973094851513 0.204892605264445 0 -0.042225130782071622 0.22351742659662871 0 -0.035706106933987618 0.212040288753787 0 -0.047021483897298919 0.2148336609904237 0 -0.054616056031908368 0.21893633417385969 0 -0.049046602241481829 0.2206752111693363 0 -0.047021483897298919 0.2148336609904237 0 -0.054616056031908368 0.21893633417385969 0 -0.047021483897298919 0.2148336609904237 0 -0.056774781747103042 0.20807563334730969 0 -0.065516926835851183 0.21659017637723951 0 -0.054616056031908368 0.21893633417385969 0 -0.056774781747103042 0.20807563334730969 0 -0.047021483897298919 0.2148336609904237 0 -0.056774781747103042 0.20807563334730969 0 -0.047940973094851513 0.204892605264445 0 -0.047940973094851513 0.204892605264445 0 -0.057501641022342467 0.1963435114306189 0 -0.039445365178920423 0.19600482850445031 0 -0.06435517074193417 0.179531982830265 0 -0.039445365178920423 0.19600482850445031 0 -0.072480940959693013 0.1988823006153542 0 -0.056774781747103042 0.20807563334730969 0 -0.057501641022342467 0.1963435114306189 0 -0.056774781747103042 0.20807563334730969 0 -0.047940973094851513 0.204892605264445 0 -0.057501641022342467 0.1963435114306189 0 -0.06435517074193417 0.179531982830265 0 -0.057501641022342467 0.1963435114306189 0 -0.039445365178920423 0.19600482850445031 0 -0.039445365178920423 0.19600482850445031 0 -0.027727343604313569 0.197178151178412 0 -0.038616654050395688 0.17617393208916859 0 -0.039445365178920423 0.19600482850445031 0 -0.027727343604313569 0.197178151178412 0 -0.014535559615906669 0.2124776741786355 0 -0.027727343604313569 0.197178151178412 0 -0.010915521324717001 0.1993315760592379 0 -0.014535559615906669 0.2124776741786355 0 -0.027727343604313569 0.197178151178412 0 -0.010915521324717001 0.1993315760592379 0 -0.020104729349334449 0.1840085448946619 0 -0.027727343604313569 0.197178151178412 0 -0.028750072776026619 0.18228756371234331 0 -0.020104729349334449 0.1840085448946619 0 -0.010915521324717001 0.1993315760592379 0 -0.0058150648891281392 0.18464487058732859 0 0.0047479160901643591 0.19966970600779571 0 -0.010915521324717001 0.1993315760592379 0 -0.020104729349334449 0.1840085448946619 0 -0.0058150648891281392 0.18464487058732859 0 -0.010915521324717001 0.1993315760592379 0 -0.001618838316679704 0.21186515805952549 0 -0.014535559615906669 0.2124776741786355 0 -0.010915521324717001 0.1993315760592379 0 -0.001618838316679704 0.21186515805952549 0 0.0047479160901643591 0.19966970600779571 0 -0.001618838316679704 0.21186515805952549 0 -0.010819744977475119 0.2201826338773481 0 0.0022205822065663882 0.22338098429998751 0 -0.001618838316679704 0.21186515805952549 0 -0.014535559615906669 0.2124776741786355 0 -0.010819744977475119 0.2201826338773481 0 -0.039445365178920423 0.19600482850445031 0 -0.014535559615906669 0.2124776741786355 0 -0.035706106933987618 0.212040288753787 0 -0.039445365178920423 0.19600482850445031 0 -0.014535559615906669 0.2124776741786355 0 -0.014535559615906669 0.2124776741786355 0 -0.024813853389476559 0.2211714782904188 0 -0.010819744977475119 0.2201826338773481 0 -0.035706106933987618 0.212040288753787 0 -0.014535559615906669 0.2124776741786355 0 -0.024813853389476559 0.2211714782904188 0 -0.030614146685572802 0.23126382662090891 0 -0.0054403593235216562 0.23377016940133941 0 -0.030614146685572802 0.23126382662090891 0 -0.0054403593235216562 0.23377016940133941 0 -0.01514813330815701 0.23061359466582701 0 -0.024813853389476559 0.2211714782904188 0 -0.030614146685572802 0.23126382662090891 0 -0.01514813330815701 0.23061359466582701 0 -0.024813853389476559 0.2211714782904188 0 -0.010819744977475119 0.2201826338773481 0 -0.01514813330815701 0.23061359466582701 0 -0.010819744977475119 0.2201826338773481 0 -0.01514813330815701 0.23061359466582701 0 0.0022205822065663882 0.22338098429998751 0 -0.01514813330815701 0.23061359466582701 0 0.0022205822065663882 0.22338098429998751 0 -0.0054403593235216562 0.23377016940133941 0 -0.01514813330815701 0.23061359466582701 0 0.0022205822065663882 0.22338098429998751 0 -0.004361582131907446 0.25012675423618741 0 -0.0054403593235216562 0.23377016940133941 0 0.0051881906427589239 0.2429023142665572 0 -0.004361582131907446 0.25012675423618741 0 -0.0054403593235216562 0.23377016940133941 0 -0.018506566158488919 0.2431339505957798 0 -0.020565667716041462 0.25572736355358933 0 -0.004361582131907446 0.25012675423618741 0 -0.018506566158488919 0.2431339505957798 0 -0.030614146685572802 0.23126382662090891 0 -0.0054403593235216562 0.23377016940133941 0 -0.018506566158488919 0.2431339505957798 0 -0.03189830216395443 0.24568919817845219 0 -0.030614146685572802 0.23126382662090891 0 -0.018506566158488919 0.2431339505957798 0 -0.020565667716041462 0.25572736355358933 0 -0.03189830216395443 0.24568919817845219 0 -0.018506566158488919 0.2431339505957798 0 -0.042460363287522958 0.14347988613362259 0 -0.044473419521311869 0.15297756029890641 0 -0.037891307588098999 0.15301779907060481 0 -0.044473419521311869 0.15297756029890641 0 -0.037891307588098999 0.15301779907060481 0 -0.031636506627965313 0.16150224911057051 0 -0.042460363287522958 0.14347988613362259 0 -0.035174347344809967 0.15001976644272921 0 -0.037891307588098999 0.15301779907060481 0 -0.035174347344809967 0.15001976644272921 0 -0.037891307588098999 0.15301779907060481 0 -0.033404653207921721 0.15507918068198209 0 -0.035174347344809967 0.15001976644272921 0 -0.033404653207921721 0.15507918068198209 0 -0.02776282729533102 0.15476173176141739 0 -0.035174347344809967 0.15001976644272921 0 -0.034180114506779158 0.14292432320853909 0 -0.02883591677782232 0.14796437992771719 0 -0.042460363287522958 0.14347988613362259 0 -0.035174347344809967 0.15001976644272921 0 -0.034180114506779158 0.14292432320853909 0 -0.042460363287522958 0.14347988613362259 0 -0.034180114506779158 0.14292432320853909 0 -0.038211226953362397 0.13781437243294631 0 -0.034180114506779158 0.14292432320853909 0 -0.032488323731578138 0.13717556183428281 0 -0.038211226953362397 0.13781437243294631 0 -0.034180114506779158 0.14292432320853909 0 -0.032488323731578138 0.13717556183428281 0 -0.027483842170251089 0.14162756103877569 0 -0.032488323731578138 0.13717556183428281 0 -0.035266368379565052 0.13009707587939279 0 -0.02667969692195489 0.13460984520473249 0 -0.032488323731578138 0.13717556183428281 0 -0.038211226953362397 0.13781437243294631 0 -0.035266368379565052 0.13009707587939279 0 -0.035266368379565052 0.13009707587939279 0 -0.046331318124510253 0.13174141938699169 0 -0.041763705598505362 0.11912362676530031 0 -0.038211226953362397 0.13781437243294631 0 -0.035266368379565052 0.13009707587939279 0 -0.046331318124510253 0.13174141938699169 0 -0.042460363287522958 0.14347988613362259 0 -0.038211226953362397 0.13781437243294631 0 -0.046331318124510253 0.13174141938699169 0 -0.042460363287522958 0.14347988613362259 0 -0.046331318124510253 0.13174141938699169 0 -0.060395274942560528 0.13416549391068189 0 -0.046331318124510253 0.13174141938699169 0 -0.060395274942560528 0.13416549391068189 0 -0.057376161549244957 0.12328487032798489 0 -0.060395274942560528 0.13416549391068189 0 -0.057376161549244957 0.12328487032798489 0 -0.068008023874607193 0.1194813826226566 0 -0.044473419521311869 0.15297756029890641 0 -0.060395274942560528 0.13416549391068189 0 -0.049505964496477838 0.1551697129999251 0 -0.060395274942560528 0.13416549391068189 0 -0.049505964496477838 0.1551697129999251 0 -0.060395274942560528 0.13416549391068189 0 -0.049505964496477838 0.1551697129999251 0 -0.06050925962069742 0.14933122419088271 0 -0.042460363287522958 0.14347988613362259 0 -0.044473419521311869 0.15297756029890641 0 -0.060395274942560528 0.13416549391068189 0 -0.044473419521311869 0.15297756029890641 0 -0.060395274942560528 0.13416549391068189 0 -0.06050925962069742 0.14933122419088271 0 -0.055951783244603238 0.15683636846341581 0 -0.060817304647522517 0.16063211997463811 0 -0.049505964496477838 0.1551697129999251 0 -0.06050925962069742 0.14933122419088271 0 -0.055951783244603238 0.15683636846341581 0 -0.06435517074193417 0.179531982830265 0 -0.060817304647522517 0.16063211997463811 0 -0.054190933413391887 0.1696376128955723 0 -0.055951783244603238 0.15683636846341581 0 -0.060817304647522517 0.16063211997463811 0 -0.051816527970478227 0.163689949284544 0 -0.060817304647522517 0.16063211997463811 0 -0.054190933413391887 0.1696376128955723 0 -0.051816527970478227 0.163689949284544 0 -0.054190933413391887 0.1696376128955723 0 -0.051816527970478227 0.163689949284544 0 -0.038616654050395688 0.17617393208916859 0 -0.049505964496477838 0.1551697129999251 0 -0.055951783244603238 0.15683636846341581 0 -0.051816527970478227 0.163689949284544 0 -0.06435517074193417 0.179531982830265 0 -0.039445365178920423 0.19600482850445031 0 -0.038616654050395688 0.17617393208916859 0 -0.06435517074193417 0.179531982830265 0 -0.054190933413391887 0.1696376128955723 0 -0.038616654050395688 0.17617393208916859 0 -0.027727343604313569 0.197178151178412 0 -0.038616654050395688 0.17617393208916859 0 -0.027727343604313569 0.197178151178412 0 -0.038616654050395688 0.17617393208916859 0 -0.028750072776026619 0.18228756371234331 0 -0.038616654050395688 0.17617393208916859 0 -0.028551564100062751 0.1717896266871306 0 -0.028750072776026619 0.18228756371234331 0 -0.044473419521311869 0.15297756029890641 0 -0.028551564100062751 0.1717896266871306 0 -0.049505964496477838 0.1551697129999251 0 -0.051816527970478227 0.163689949284544 0 -0.038616654050395688 0.17617393208916859 0 -0.044473419521311869 0.15297756029890641 0 -0.031636506627965313 0.16150224911057051 0 -0.028551564100062751 0.1717896266871306 0 -0.049505964496477838 0.1551697129999251 0 -0.038616654050395688 0.17617393208916859 0 -0.044473419521311869 0.15297756029890641 0 -0.049505964496477838 0.1551697129999251 0 -0.038616654050395688 0.17617393208916859 0 -0.044473419521311869 0.15297756029890641 0 -0.038616654050395688 0.17617393208916859 0 -0.028551564100062751 0.1717896266871306 0 -0.037891307588098999 0.15301779907060481 0 -0.033404653207921721 0.15507918068198209 0 -0.031636506627965313 0.16150224911057051 0 -0.031636506627965313 0.16150224911057051 0 -0.02253447650115362 0.1626338424728738 0 -0.02776282729533102 0.15476173176141739 0 -0.033404653207921721 0.15507918068198209 0 -0.031636506627965313 0.16150224911057051 0 -0.02776282729533102 0.15476173176141739 0 -0.031636506627965313 0.16150224911057051 0 -0.028551564100062751 0.1717896266871306 0 -0.02253447650115362 0.1626338424728738 0 -0.028551564100062751 0.1717896266871306 0 -0.02253447650115362 0.1626338424728738 0 -0.01498566762474032 0.1721399223420339 0 -0.02253447650115362 0.1626338424728738 0 -0.01498566762474032 0.1721399223420339 0 -0.012046897657486009 0.15973393686910059 0 -0.02253447650115362 0.1626338424728738 0 -0.012046897657486009 0.15973393686910059 0 -0.01974455104335017 0.1550417818637245 0 -0.02253447650115362 0.1626338424728738 0 -0.01974455104335017 0.1550417818637245 0 -0.02776282729533102 0.15476173176141739 0 -0.028551564100062751 0.1717896266871306 0 -0.028750072776026619 0.18228756371234331 0 -0.020104729349334449 0.1840085448946619 0 -0.028551564100062751 0.1717896266871306 0 -0.020104729349334449 0.1840085448946619 0 -0.01498566762474032 0.1721399223420339 0 -0.020104729349334449 0.1840085448946619 0 -0.01498566762474032 0.1721399223420339 0 -0.0058150648891281392 0.18464487058732859 0 -0.01498566762474032 0.1721399223420339 0 -0.0058150648891281392 0.18464487058732859 0 9.8439874396488518e-06 0.16909653965514321 0 -0.01498566762474032 0.1721399223420339 0 -0.012046897657486009 0.15973393686910059 0 9.8439874396488518e-06 0.16909653965514321 0 -0.012046897657486009 0.15973393686910059 0 -0.001399927819642065 0.15853034608675531 0 -0.0067216127360385028 0.15176017281181059 0 -0.012046897657486009 0.15973393686910059 0 -0.001399927819642065 0.15853034608675531 0 9.8439874396488518e-06 0.16909653965514321 0 -0.0067216127360385028 0.15176017281181059 0 -0.001932496299644968 0.1459540675981712 0 0.002037105597096525 0.15151695060409001 0 -0.001399927819642065 0.15853034608675531 0 -0.0067216127360385028 0.15176017281181059 0 0.002037105597096525 0.15151695060409001 0 -0.001932496299644968 0.1459540675981712 0 -0.0047871023855838284 0.14117591745817429 0 0.000228448927285114 0.14012311706009631 0 -0.0067216127360385028 0.15176017281181059 0 -0.001932496299644968 0.1459540675981712 0 -0.0088873299160877918 0.1454187600715697 0 -0.001932496299644968 0.1459540675981712 0 -0.0047871023855838284 0.14117591745817429 0 -0.0088873299160877918 0.1454187600715697 0 -0.0047871023855838284 0.14117591745817429 0 -0.0088873299160877918 0.1454187600715697 0 -0.010460643721398131 0.13913610184510419 0 -0.0088873299160877918 0.1454187600715697 0 -0.015535574841907601 0.14368344141407929 0 -0.010460643721398131 0.13913610184510419 0 -0.0088873299160877918 0.1454187600715697 0 -0.015535574841907601 0.14368344141407929 0 -0.014413369338275051 0.15020994658701309 0 -0.012046897657486009 0.15973393686910059 0 -0.014413369338275051 0.15020994658701309 0 -0.01974455104335017 0.1550417818637245 0 -0.012046897657486009 0.15973393686910059 0 -0.0067216127360385028 0.15176017281181059 0 -0.014413369338275051 0.15020994658701309 0 -0.0067216127360385028 0.15176017281181059 0 -0.0088873299160877918 0.1454187600715697 0 -0.014413369338275051 0.15020994658701309 0 -0.01974455104335017 0.1550417818637245 0 -0.021965184424505169 0.1478694516282176 0 -0.02776282729533102 0.15476173176141739 0 -0.014413369338275051 0.15020994658701309 0 -0.01974455104335017 0.1550417818637245 0 -0.021965184424505169 0.1478694516282176 0 -0.015535574841907601 0.14368344141407929 0 -0.014413369338275051 0.15020994658701309 0 -0.021965184424505169 0.1478694516282176 0 -0.015535574841907601 0.14368344141407929 0 -0.02085887518683055 0.14051112573817109 0 -0.01572570720539903 0.1386245228663322 0 -0.015535574841907601 0.14368344141407929 0 -0.021965184424505169 0.1478694516282176 0 -0.02085887518683055 0.14051112573817109 0 -0.021965184424505169 0.1478694516282176 0 -0.027483842170251089 0.14162756103877569 0 -0.02085887518683055 0.14051112573817109 0 -0.021965184424505169 0.1478694516282176 0 -0.027483842170251089 0.14162756103877569 0 -0.02883591677782232 0.14796437992771719 0 -0.034180114506779158 0.14292432320853909 0 -0.027483842170251089 0.14162756103877569 0 -0.02883591677782232 0.14796437992771719 0 -0.035174347344809967 0.15001976644272921 0 -0.02883591677782232 0.14796437992771719 0 -0.02776282729533102 0.15476173176141739 0 -0.021965184424505169 0.1478694516282176 0 -0.02883591677782232 0.14796437992771719 0 -0.02776282729533102 0.15476173176141739 0 -0.035266368379565052 0.13009707587939279 0 -0.02498016711913827 0.1241785180753891 0 -0.033110622576494379 0.1214386067867833 0 -0.02667969692195489 0.13460984520473249 0 -0.019000604944366228 0.13406922866238341 0 -0.02498016711913827 0.1241785180753891 0 -0.035266368379565052 0.13009707587939279 0 -0.02667969692195489 0.13460984520473249 0 -0.02498016711913827 0.1241785180753891 0 -0.032488323731578138 0.13717556183428281 0 -0.027483842170251089 0.14162756103877569 0 -0.02667969692195489 0.13460984520473249 0 -0.027483842170251089 0.14162756103877569 0 -0.02667969692195489 0.13460984520473249 0 -0.02085887518683055 0.14051112573817109 0 -0.02667969692195489 0.13460984520473249 0 -0.02085887518683055 0.14051112573817109 0 -0.019000604944366228 0.13406922866238341 0 -0.02085887518683055 0.14051112573817109 0 -0.01572570720539903 0.1386245228663322 0 -0.019000604944366228 0.13406922866238341 0 -0.019000604944366228 0.13406922866238341 0 -0.013108962008021981 0.1259178359004969 0 -0.02498016711913827 0.1241785180753891 0 -0.019000604944366228 0.13406922866238341 0 -0.013108962008021981 0.1259178359004969 0 -0.011245417678365909 0.1339710152718474 0 -0.013108962008021981 0.1259178359004969 0 -0.011245417678365909 0.1339710152718474 0 -0.0043823690024683438 0.12942386948176529 0 -0.015535574841907601 0.14368344141407929 0 -0.01572570720539903 0.1386245228663322 0 -0.010460643721398131 0.13913610184510419 0 -0.01572570720539903 0.1386245228663322 0 -0.011245417678365909 0.1339710152718474 0 -0.010460643721398131 0.13913610184510419 0 -0.01572570720539903 0.1386245228663322 0 -0.019000604944366228 0.13406922866238341 0 -0.011245417678365909 0.1339710152718474 0 -0.011245417678365909 0.1339710152718474 0 -0.010460643721398131 0.13913610184510419 0 -0.0049074646713017818 0.13634897063783119 0 -0.0047871023855838284 0.14117591745817429 0 -0.010460643721398131 0.13913610184510419 0 -0.0049074646713017818 0.13634897063783119 0 -0.011245417678365909 0.1339710152718474 0 -0.0049074646713017818 0.13634897063783119 0 -0.0043823690024683438 0.12942386948176529 0 -0.0049074646713017818 0.13634897063783119 0 -0.0043823690024683438 0.12942386948176529 0 0.0012022958327204049 0.13426380270999949 0 -0.0047871023855838284 0.14117591745817429 0 -0.0049074646713017818 0.13634897063783119 0 0.000228448927285114 0.14012311706009631 0 -0.0049074646713017818 0.13634897063783119 0 0.000228448927285114 0.14012311706009631 0 0.0012022958327204049 0.13426380270999949 0 -0.0043823690024683438 0.12942386948176529 0 -0.0015382865690094869 0.1195819360983075 0 0.0028297340199113529 0.12737786763030409 0 -0.0043823690024683438 0.12942386948176529 0 0.0028297340199113529 0.12737786763030409 0 0.0012022958327204049 0.13426380270999949 0 -0.013108962008021981 0.1259178359004969 0 -0.0015382865690094869 0.1195819360983075 0 -0.018013141318310021 0.1118215823196331 0 -0.0015382865690094869 0.1195819360983075 0 -0.0093267163156350585 0.10220622611456499 0 -0.018013141318310021 0.1118215823196331 0 -0.0015382865690094869 0.1195819360983075 0 -0.0093267163156350585 0.10220622611456499 0 0.0088418889268726004 0.1125261115153213 0 -0.013108962008021981 0.1259178359004969 0 -0.0043823690024683438 0.12942386948176529 0 -0.0015382865690094869 0.1195819360983075 0 -0.0093267163156350585 0.10220622611456499 0 -0.028384651446471159 0.094232735224306696 0 -0.028384651446471159 0.094232735224306696 0 -0.030432249208768851 0.112355206427051 0 -0.018013141318310021 0.1118215823196331 0 -0.0093267163156350585 0.10220622611456499 0 -0.028384651446471159 0.094232735224306696 0 -0.018013141318310021 0.1118215823196331 0 -0.030432249208768851 0.112355206427051 0 -0.02498016711913827 0.1241785180753891 0 -0.018013141318310021 0.1118215823196331 0 -0.030432249208768851 0.112355206427051 0 -0.02498016711913827 0.1241785180753891 0 -0.033110622576494379 0.1214386067867833 0 -0.013108962008021981 0.1259178359004969 0 -0.02498016711913827 0.1241785180753891 0 -0.018013141318310021 0.1118215823196331 0 -0.019815605255134251 0.077564307382831099 0 -0.01123722517146284 0.061714947321965113 0 0.0078113760670387236 0.068869370431613411 0 -0.019815605255134251 0.077564307382831099 0 0.0078113760670387236 0.068869370431613411 0 -0.0022168413230157229 0.085736250976024914 0 -0.019815605255134251 0.077564307382831099 0 0.0078113760670387236 0.068869370431613411 0 -0.0093267163156350585 0.10220622611456499 0 -0.0022168413230157229 0.085736250976024914 0 -0.019815605255134251 0.077564307382831099 0 -0.0093267163156350585 0.10220622611456499 0 -0.028384651446471159 0.094232735224306696 0 -0.019815605255134251 0.077564307382831099 0 -0.019815605255134251 0.077564307382831099 0 -0.02897814582929455 0.062873885781940531 0 -0.01123722517146284 0.061714947321965113 0 -0.019815605255134251 0.077564307382831099 0 -0.02897814582929455 0.062873885781940531 0 -0.037351726516990362 0.072256576054196331 0 -0.037351726516990362 0.072256576054196331 0 -0.04744258657730735 0.086259244334048468 0 -0.048521472395479701 0.069705355416953899 0 -0.042000822527735973 0.064880087355207783 0 -0.037351726516990362 0.072256576054196331 0 -0.048521472395479701 0.069705355416953899 0 -0.042000822527735973 0.064880087355207783 0 -0.048521472395479701 0.069705355416953899 0 -0.048543751051203898 0.057697742817346243 0 -0.02897814582929455 0.062873885781940531 0 -0.042000822527735973 0.064880087355207783 0 -0.037351726516990362 0.072256576054196331 0 -0.028384651446471159 0.094232735224306696 0 -0.048484368781985768 0.092953390863835139 0 -0.04744258657730735 0.086259244334048468 0 -0.019815605255134251 0.077564307382831099 0 -0.037351726516990362 0.072256576054196331 0 -0.04744258657730735 0.086259244334048468 0 -0.019815605255134251 0.077564307382831099 0 -0.04744258657730735 0.086259244334048468 0 -0.028384651446471159 0.094232735224306696 0 -0.04744258657730735 0.086259244334048468 0 -0.028384651446471159 0.094232735224306696 0 -0.019815605255134251 0.077564307382831099 0 -0.04744258657730735 0.086259244334048468 0 -0.04744258657730735 0.086259244334048468 0 -0.056352896539992578 0.082531333895216066 0 -0.048521472395479701 0.069705355416953899 0 -0.04744258657730735 0.086259244334048468 0 -0.055667229109567583 0.088847755450422561 0 -0.048484368781985768 0.092953390863835139 0 -0.04744258657730735 0.086259244334048468 0 -0.055667229109567583 0.088847755450422561 0 -0.055667229109567583 0.088847755450422561 0 -0.056352896539992578 0.082531333895216066 0 -0.055667229109567583 0.088847755450422561 0 -0.056352896539992578 0.082531333895216066 0 -0.068535421204038979 0.084669133357873919 0 -0.04744258657730735 0.086259244334048468 0 -0.055667229109567583 0.088847755450422561 0 -0.056352896539992578 0.082531333895216066 0 -0.04744258657730735 0.086259244334048468 0 -0.056352896539992578 0.082531333895216066 0 -0.056352896539992578 0.082531333895216066 0 -0.048521472395479701 0.069705355416953899 0 -0.059557339835071388 0.053011753697425897 0 -0.056352896539992578 0.082531333895216066 0 -0.065455038900646412 0.063135680861219914 0 -0.059557339835071388 0.053011753697425897 0 -0.056352896539992578 0.082531333895216066 0 -0.059557339835071388 0.053011753697425897 0 -0.041763705598505362 0.11912362676530031 0 -0.040355805924582322 0.10811297036328291 0 -0.053061720868948711 0.1128498994681193 0 -0.030432249208768851 0.112355206427051 0 -0.041763705598505362 0.11912362676530031 0 -0.033110622576494379 0.1214386067867833 0 -0.035266368379565052 0.13009707587939279 0 -0.041763705598505362 0.11912362676530031 0 -0.033110622576494379 0.1214386067867833 0 -0.030432249208768851 0.112355206427051 0 -0.041763705598505362 0.11912362676530031 0 -0.040355805924582322 0.10811297036328291 0 -0.028384651446471159 0.094232735224306696 0 -0.040355805924582322 0.10811297036328291 0 -0.047601570349403252 0.1001146928854318 0 -0.028384651446471159 0.094232735224306696 0 -0.048484368781985768 0.092953390863835139 0 -0.047601570349403252 0.1001146928854318 0 -0.028384651446471159 0.094232735224306696 0 -0.030432249208768851 0.112355206427051 0 -0.040355805924582322 0.10811297036328291 0 -0.055667229109567583 0.088847755450422561 0 -0.047601570349403252 0.1001146928854318 0 -0.053061720868948711 0.1128498994681193 0 -0.055667229109567583 0.088847755450422561 0 -0.053061720868948711 0.1128498994681193 0 -0.040355805924582322 0.10811297036328291 0 -0.047601570349403252 0.1001146928854318 0 -0.053061720868948711 0.1128498994681193 0 -0.055667229109567583 0.088847755450422561 0 -0.061317563763440802 0.10299561175118491 0 -0.053061720868948711 0.1128498994681193 0 -0.048484368781985768 0.092953390863835139 0 -0.055667229109567583 0.088847755450422561 0 -0.047601570349403252 0.1001146928854318 0 -0.055667229109567583 0.088847755450422561 0 -0.061317563763440802 0.10299561175118491 0 -0.06797342141030252 0.10030920148610591 0 -0.061317563763440802 0.10299561175118491 0 -0.053061720868948711 0.1128498994681193 0 -0.066574353573826517 0.1091611438734031 0 -0.046331318124510253 0.13174141938699169 0 -0.041763705598505362 0.11912362676530031 0 -0.057376161549244957 0.12328487032798489 0 -0.041763705598505362 0.11912362676530031 0 -0.053061720868948711 0.1128498994681193 0 -0.057376161549244957 0.12328487032798489 0 -0.053061720868948711 0.1128498994681193 0 -0.057376161549244957 0.12328487032798489 0 -0.068008023874607193 0.1194813826226566 0 -0.060395274942560528 0.13416549391068189 0 -0.068008023874607193 0.1194813826226566 0 -0.077957056184904241 0.1134158145620357 0 -0.060395274942560528 0.13416549391068189 0 -0.077957056184904241 0.1134158145620357 0 -0.079964733767734122 0.12668506296934109 0 -0.060395274942560528 0.13416549391068189 0 -0.077957056184904241 0.1134158145620357 0 -0.053061720868948711 0.1128498994681193 0 -0.068008023874607193 0.1194813826226566 0 -0.066574353573826517 0.1091611438734031 0 -0.068008023874607193 0.1194813826226566 0 -0.075620772806654399 0.1047972713346316 0 -0.066574353573826517 0.1091611438734031 0 -0.068008023874607193 0.1194813826226566 0 -0.077957056184904241 0.1134158145620357 0 -0.075620772806654399 0.1047972713346316 0 -0.068008023874607193 0.1194813826226566 0 -0.075620772806654399 0.1047972713346316 0 -0.079964733767734122 0.12668506296934109 0 -0.077957056184904241 0.1134158145620357 0 -0.086534582504385088 0.1156474293511931 0 -0.077957056184904241 0.1134158145620357 0 -0.086534582504385088 0.1156474293511931 0 -0.083947310206231279 0.1074935535689709 0 -0.086534582504385088 0.1156474293511931 0 -0.095157466154961498 0.1222738246889692 0 -0.093760682860616423 0.1071519620079809 0 -0.086534582504385088 0.1156474293511931 0 -0.083947310206231279 0.1074935535689709 0 -0.093760682860616423 0.1071519620079809 0 -0.079964733767734122 0.12668506296934109 0 -0.086534582504385088 0.1156474293511931 0 -0.095157466154961498 0.1222738246889692 0 -0.084868150004751591 0.098297010781769723 0 -0.085645907343274513 0.087820148674278453 0 -0.093949525724613639 0.096173232947952741 0 -0.084868150004751591 0.098297010781769723 0 -0.093760682860616423 0.1071519620079809 0 -0.093949525724613639 0.096173232947952741 0 -0.083947310206231279 0.1074935535689709 0 -0.084868150004751591 0.098297010781769723 0 -0.093760682860616423 0.1071519620079809 0 -0.083947310206231279 0.1074935535689709 0 -0.084868150004751591 0.098297010781769723 0 -0.075620772806654399 0.1047972713346316 0 -0.077957056184904241 0.1134158145620357 0 -0.083947310206231279 0.1074935535689709 0 -0.075620772806654399 0.1047972713346316 0 -0.084868150004751591 0.098297010781769723 0 -0.07416284546680918 0.094668811910581629 0 -0.075620772806654399 0.1047972713346316 0 -0.07416284546680918 0.094668811910581629 0 -0.075620772806654399 0.1047972713346316 0 -0.06797342141030252 0.10030920148610591 0 -0.055667229109567583 0.088847755450422561 0 -0.07416284546680918 0.094668811910581629 0 -0.06797342141030252 0.10030920148610591 0 -0.075620772806654399 0.1047972713346316 0 -0.066574353573826517 0.1091611438734031 0 -0.06797342141030252 0.10030920148610591 0 -0.061317563763440802 0.10299561175118491 0 -0.066574353573826517 0.1091611438734031 0 -0.06797342141030252 0.10030920148610591 0 -0.055667229109567583 0.088847755450422561 0 -0.07416284546680918 0.094668811910581629 0 -0.055667229109567583 0.088847755450422561 0 -0.07416284546680918 0.094668811910581629 0 -0.068535421204038979 0.084669133357873919 0 -0.056352896539992578 0.082531333895216066 0 -0.068535421204038979 0.084669133357873919 0 -0.079954973421325709 0.072656657351692189 0 -0.068535421204038979 0.084669133357873919 0 -0.077074786858862099 0.084953687823606544 0 -0.079954973421325709 0.072656657351692189 0 -0.07416284546680918 0.094668811910581629 0 -0.068535421204038979 0.084669133357873919 0 -0.077074786858862099 0.084953687823606544 0 -0.056352896539992578 0.082531333895216066 0 -0.079954973421325709 0.072656657351692189 0 -0.056352896539992578 0.082531333895216066 0 -0.065455038900646412 0.063135680861219914 0 -0.079954973421325709 0.072656657351692189 0 -0.065455038900646412 0.063135680861219914 0 -0.079954973421325709 0.072656657351692189 0 -0.065455038900646412 0.063135680861219914 0 -0.079954973421325709 0.072656657351692189 0 -0.076524839145482512 0.060394734624827362 0 -0.079954973421325709 0.072656657351692189 0 -0.093524594780215381 0.066979376389898315 0 -0.098442440583084309 0.07567796336267002 0 -0.079954973421325709 0.072656657351692189 0 -0.087851637875022454 0.059069255740853588 0 -0.076524839145482512 0.060394734624827362 0 -0.079954973421325709 0.072656657351692189 0 -0.093524594780215381 0.066979376389898315 0 -0.079954973421325709 0.072656657351692189 0 -0.093524594780215381 0.066979376389898315 0 -0.087851637875022454 0.059069255740853588 0 -0.079954973421325709 0.072656657351692189 0 -0.085645907343274513 0.087820148674278453 0 -0.1018492251009645 0.087032905411369765 0 -0.079954973421325709 0.072656657351692189 0 -0.1018492251009645 0.087032905411369765 0 -0.079954973421325709 0.072656657351692189 0 -0.1018492251009645 0.087032905411369765 0 -0.098442440583084309 0.07567796336267002 0 -0.084868150004751591 0.098297010781769723 0 -0.07416284546680918 0.094668811910581629 0 -0.085645907343274513 0.087820148674278453 0 -0.07416284546680918 0.094668811910581629 0 -0.077074786858862099 0.084953687823606544 0 -0.085645907343274513 0.087820148674278453 0 -0.077074786858862099 0.084953687823606544 0 -0.079954973421325709 0.072656657351692189 0 -0.085645907343274513 0.087820148674278453 0 -0.085645907343274513 0.087820148674278453 0 -0.1018492251009645 0.087032905411369765 0 -0.093949525724613639 0.096173232947952741 0 -0.1018492251009645 0.087032905411369765 0 -0.098442440583084309 0.07567796336267002 0 -0.1104905068726369 0.082990227197258584 0 -0.093524594780215381 0.066979376389898315 0 -0.106392902740279 0.068730650463131246 0 -0.095695867018895209 0.061386095523021718 0 -0.093524594780215381 0.066979376389898315 0 -0.098442440583084309 0.07567796336267002 0 -0.106392902740279 0.068730650463131246 0 -0.098442440583084309 0.07567796336267002 0 -0.106392902740279 0.068730650463131246 0 -0.1104905068726369 0.082990227197258584 0 -0.106392902740279 0.068730650463131246 0 -0.1143187324205953 0.061132814960732959 0 -0.1040003188276042 0.06051796656090451 0 -0.13471537800020611 0.069932196640817734 0 -0.1158200249735767 0.081810356583590621 0 -0.1143187324205953 0.061132814960732959 0 -0.1158200249735767 0.081810356583590621 0 -0.1143187324205953 0.061132814960732959 0 -0.106392902740279 0.068730650463131246 0 -0.1158200249735767 0.081810356583590621 0 -0.1143187324205953 0.061132814960732959 0 -0.106392902740279 0.068730650463131246 0 -0.1104905068726369 0.082990227197258584 0 -0.1158200249735767 0.081810356583590621 0 -0.106392902740279 0.068730650463131246 0 -0.1158200249735767 0.081810356583590621 0 -0.1104905068726369 0.082990227197258584 0 -0.1158200249735767 0.081810356583590621 0 -0.123743476780604 0.10140915347104661 0 -0.12576525993317081 0.095608920700106598 0 -0.1158200249735767 0.081810356583590621 0 -0.123743476780604 0.10140915347104661 0 -0.1018492251009645 0.087032905411369765 0 -0.1104905068726369 0.082990227197258584 0 -0.123743476780604 0.10140915347104661 0 -0.12576525993317081 0.095608920700106598 0 -0.1158200249735767 0.081810356583590621 0 -0.1018492251009645 0.087032905411369765 0 -0.123743476780604 0.10140915347104661 0 -0.10362366331346121 0.1005641378643648 0 -0.123743476780604 0.10140915347104661 0 -0.1048537663643479 0.1137288284916211 0 -0.10362366331346121 0.1005641378643648 0 -0.1018492251009645 0.087032905411369765 0 -0.123743476780604 0.10140915347104661 0 -0.12576525993317081 0.095608920700106598 0 -0.123743476780604 0.10140915347104661 0 -0.13074244959953979 0.11946175785799951 0 -0.11549744085296181 0.12506595749432459 0 -0.123743476780604 0.10140915347104661 0 -0.11549744085296181 0.12506595749432459 0 -0.123743476780604 0.10140915347104661 0 -0.1048537663643479 0.1137288284916211 0 -0.11549744085296181 0.12506595749432459 0 -0.123743476780604 0.10140915347104661 0 -0.11549744085296181 0.12506595749432459 0 -0.1048537663643479 0.1137288284916211 0 -0.095157466154961498 0.1222738246889692 0 -0.1048537663643479 0.1137288284916211 0 -0.095157466154961498 0.1222738246889692 0 -0.093760682860616423 0.1071519620079809 0 -0.1048537663643479 0.1137288284916211 0 -0.093760682860616423 0.1071519620079809 0 -0.10362366331346121 0.1005641378643648 0 -0.093760682860616423 0.1071519620079809 0 -0.093949525724613639 0.096173232947952741 0 -0.10362366331346121 0.1005641378643648 0 -0.1018492251009645 0.087032905411369765 0 -0.093949525724613639 0.096173232947952741 0 -0.10362366331346121 0.1005641378643648 0 -0.098111174817663571 0.029299933210101211 0 -0.11131614731463491 0.019777731715017489 0 -0.093270919285344131 0.021002023320940321 0 -0.099902477996615974 0.0097047614334804834 0 -0.11131614731463491 0.019777731715017489 0 -0.093270919285344131 0.021002023320940321 0 -0.098111174817663571 0.029299933210101211 0 -0.11131614731463491 0.019777731715017489 0 -0.1037154685123088 0.036850908914803658 0 -0.11131614731463491 0.019777731715017489 0 -0.1037154685123088 0.036850908914803658 0 -0.099902477996615974 0.0097047614334804834 0 -0.1099986790197032 0.001632030897992919 0 -0.11131614731463491 0.019777731715017489 0 -0.097318817554363779 -0.0057286893867275063 0 -0.099902477996615974 0.0097047614334804834 0 -0.087524390624848222 0.006688577221896419 0 -0.097318817554363779 -0.0057286893867275063 0 -0.099902477996615974 0.0097047614334804834 0 -0.1099986790197032 0.001632030897992919 0 -0.1236122261121546 -0.0078425818954372464 0 -0.13137048688310951 -0.003337023478303953 0 -0.11131614731463491 0.019777731715017489 0 -0.1099986790197032 0.001632030897992919 0 -0.11131614731463491 0.019777731715017489 0 -0.1236122261121546 -0.0078425818954372464 0 -0.1099986790197032 0.001632030897992919 0 -0.11131614731463491 0.019777731715017489 0 -0.1236122261121546 -0.0078425818954372464 0 -0.11131614731463491 0.019777731715017489 0 -0.1284208098020175 0.033179877632891097 0 -0.13460564055411489 0.01723703355858653 0 -0.11131614731463491 0.019777731715017489 0 -0.11131614731463491 0.019777731715017489 0 -0.1128174398676144 0.040455273337875242 0 -0.1284208098020175 0.033179877632891097 0 -0.11131614731463491 0.019777731715017489 0 -0.1128174398676144 0.040455273337875242 0 -0.12657932631233151 0.049909814768299969 0 -0.1284208098020175 0.033179877632891097 0 -0.1128174398676144 0.040455273337875242 0 -0.12657932631233151 0.049909814768299969 0 -0.1128174398676144 0.040455273337875242 0 -0.1143187324205953 0.061132814960732959 0 -0.1128174398676144 0.040455273337875242 0 -0.1143187324205953 0.061132814960732959 0 -0.1082223027228006 0.050485275180462093 0 -0.1128174398676144 0.040455273337875242 0 -0.1143187324205953 0.061132814960732959 0 -0.1143187324205953 0.061132814960732959 0 -0.10610639822075781 0.055771586811031351 0 -0.1082223027228006 0.050485275180462093 0 -0.1025152677102278 0.050750948389364392 0 -0.096114789709981496 0.053924086114589299 0 -0.1037154685123088 0.036850908914803658 0 -0.106392902740279 0.068730650463131246 0 -0.1040003188276042 0.06051796656090451 0 -0.096965780506980889 0.055650944342672051 0 -0.106392902740279 0.068730650463131246 0 -0.096965780506980889 0.055650944342672051 0 -0.1143187324205953 0.061132814960732959 0 -0.1040003188276042 0.06051796656090451 0 -0.10610639822075781 0.055771586811031351 0 -0.1040003188276042 0.06051796656090451 0 -0.10610639822075781 0.055771586811031351 0 -0.1014753694225613 0.055970928963692809 0 -0.10610639822075781 0.055771586811031351 0 -0.1025152677102278 0.050750948389364392 0 -0.1014753694225613 0.055970928963692809 0 -0.10610639822075781 0.055771586811031351 0 -0.1082223027228006 0.050485275180462093 0 -0.1025152677102278 0.050750948389364392 0 -0.1082223027228006 0.050485275180462093 0 -0.1025152677102278 0.050750948389364392 0 -0.1067356553623631 0.044178634216678392 0 -0.096408734094846682 0.047028599374544268 0 -0.094016665615900177 0.045027451179461733 0 -0.091788012541196298 0.052311951289322388 0 -0.096114789709981496 0.053924086114589299 0 -0.093744419191978248 0.056500250678553403 0 -0.091788012541196298 0.052311951289322388 0 -0.096408734094846682 0.047028599374544268 0 -0.096114789709981496 0.053924086114589299 0 -0.091788012541196298 0.052311951289322388 0 -0.096114789709981496 0.053924086114589299 0 -0.099124967027144822 0.054450492792824511 0 -0.096965780506980889 0.055650944342672051 0 -0.1025152677102278 0.050750948389364392 0 -0.096114789709981496 0.053924086114589299 0 -0.099124967027144822 0.054450492792824511 0 -0.1025152677102278 0.050750948389364392 0 -0.099124967027144822 0.054450492792824511 0 -0.1014753694225613 0.055970928963692809 0 -0.106392902740279 0.068730650463131246 0 -0.096965780506980889 0.055650944342672051 0 -0.095695867018895209 0.061386095523021718 0 -0.1040003188276042 0.06051796656090451 0 -0.1014753694225613 0.055970928963692809 0 -0.096965780506980889 0.055650944342672051 0 -0.099124967027144822 0.054450492792824511 0 -0.1014753694225613 0.055970928963692809 0 -0.096965780506980889 0.055650944342672051 0 -0.096965780506980889 0.055650944342672051 0 -0.095695867018895209 0.061386095523021718 0 -0.093744419191978248 0.056500250678553403 0 -0.096114789709981496 0.053924086114589299 0 -0.096965780506980889 0.055650944342672051 0 -0.093744419191978248 0.056500250678553403 0 -0.096408734094846682 0.047028599374544268 0 -0.096114789709981496 0.053924086114589299 0 -0.1037154685123088 0.036850908914803658 0 -0.11131614731463491 0.019777731715017489 0 -0.1128174398676144 0.040455273337875242 0 -0.1037154685123088 0.036850908914803658 0 -0.096114789709981496 0.053924086114589299 0 -0.1037154685123088 0.036850908914803658 0 -0.1128174398676144 0.040455273337875242 0 -0.1037154685123088 0.036850908914803658 0 -0.1067356553623631 0.044178634216678392 0 -0.1128174398676144 0.040455273337875242 0 -0.1082223027228006 0.050485275180462093 0 -0.1067356553623631 0.044178634216678392 0 -0.1025152677102278 0.050750948389364392 0 -0.1037154685123088 0.036850908914803658 0 -0.1067356553623631 0.044178634216678392 0 -0.096408734094846682 0.047028599374544268 0 -0.1037154685123088 0.036850908914803658 0 -0.094016665615900177 0.045027451179461733 0 -0.1037154685123088 0.036850908914803658 0 -0.094016665615900177 0.045027451179461733 0 -0.094491571965461013 0.037104767562455593 0 -0.098111174817663571 0.029299933210101211 0 -0.1037154685123088 0.036850908914803658 0 -0.094491571965461013 0.037104767562455593 0 -0.098111174817663571 0.029299933210101211 0 -0.094491571965461013 0.037104767562455593 0 -0.087647185425064736 0.031842659612238623 0 -0.087647185425064736 0.031842659612238623 0 -0.089854685869044451 0.040908764775179712 0 -0.081629424010395357 0.041419166804349421 0 -0.094491571965461013 0.037104767562455593 0 -0.087647185425064736 0.031842659612238623 0 -0.089854685869044451 0.040908764775179712 0 -0.089854685869044451 0.040908764775179712 0 -0.081629424010395357 0.041419166804349421 0 -0.086707275669269182 0.049908642651155542 0 -0.094016665615900177 0.045027451179461733 0 -0.089854685869044451 0.040908764775179712 0 -0.086707275669269182 0.049908642651155542 0 -0.094016665615900177 0.045027451179461733 0 -0.094491571965461013 0.037104767562455593 0 -0.089854685869044451 0.040908764775179712 0 -0.087647185425064736 0.031842659612238623 0 -0.081629424010395357 0.041419166804349421 0 -0.076164181077954182 0.032009494226678391 0 -0.095695867018895209 0.061386095523021718 0 -0.087851637875022454 0.059069255740853588 0 -0.093744419191978248 0.056500250678553403 0 -0.093524594780215381 0.066979376389898315 0 -0.095695867018895209 0.061386095523021718 0 -0.087851637875022454 0.059069255740853588 0 -0.087851637875022454 0.059069255740853588 0 -0.093744419191978248 0.056500250678553403 0 -0.091788012541196298 0.052311951289322388 0 -0.087851637875022454 0.059069255740853588 0 -0.091788012541196298 0.052311951289322388 0 -0.086707275669269182 0.049908642651155542 0 -0.094016665615900177 0.045027451179461733 0 -0.091788012541196298 0.052311951289322388 0 -0.086707275669269182 0.049908642651155542 0 -0.086707275669269182 0.049908642651155542 0 -0.081818850965788142 0.055238295402956307 0 -0.077896340682555187 0.050949615115596543 0 -0.081629424010395357 0.041419166804349421 0 -0.086707275669269182 0.049908642651155542 0 -0.077896340682555187 0.050949615115596543 0 -0.087851637875022454 0.059069255740853588 0 -0.086707275669269182 0.049908642651155542 0 -0.081818850965788142 0.055238295402956307 0 -0.081818850965788142 0.055238295402956307 0 -0.076524839145482512 0.060394734624827362 0 -0.077896340682555187 0.050949615115596543 0 -0.087851637875022454 0.059069255740853588 0 -0.081818850965788142 0.055238295402956307 0 -0.076524839145482512 0.060394734624827362 0 -0.076524839145482512 0.060394734624827362 0 -0.077896340682555187 0.050949615115596543 0 -0.069328576095109715 0.053744354209428961 0 -0.065455038900646412 0.063135680861219914 0 -0.076524839145482512 0.060394734624827362 0 -0.069328576095109715 0.053744354209428961 0 -0.077896340682555187 0.050949615115596543 0 -0.069328576095109715 0.053744354209428961 0 -0.071506875338484571 0.042895824445247768 0 -0.069328576095109715 0.053744354209428961 0 -0.071506875338484571 0.042895824445247768 0 -0.059557339835071388 0.053011753697425897 0 -0.065455038900646412 0.063135680861219914 0 -0.069328576095109715 0.053744354209428961 0 -0.059557339835071388 0.053011753697425897 0 -0.076164181077954182 0.032009494226678391 0 -0.071506875338484571 0.042895824445247768 0 -0.062761783130148519 0.02349217349963555 0 -0.071506875338484571 0.042895824445247768 0 -0.062761783130148519 0.02349217349963555 0 -0.059557339835071388 0.053011753697425897 0 -0.081629424010395357 0.041419166804349421 0 -0.076164181077954182 0.032009494226678391 0 -0.071506875338484571 0.042895824445247768 0 -0.081629424010395357 0.041419166804349421 0 -0.077896340682555187 0.050949615115596543 0 -0.071506875338484571 0.042895824445247768 0 -0.076164181077954182 0.032009494226678391 0 -0.062761783130148519 0.02349217349963555 0 -0.078304733749917463 0.018406078267593839 0 -0.087647185425064736 0.031842659612238623 0 -0.076164181077954182 0.032009494226678391 0 -0.078304733749917463 0.018406078267593839 0 -0.098111174817663571 0.029299933210101211 0 -0.087647185425064736 0.031842659612238623 0 -0.093270919285344131 0.021002023320940321 0 -0.087647185425064736 0.031842659612238623 0 -0.078304733749917463 0.018406078267593839 0 -0.093270919285344131 0.021002023320940321 0 -0.099902477996615974 0.0097047614334804834 0 -0.093270919285344131 0.021002023320940321 0 -0.087524390624848222 0.006688577221896419 0 -0.078304733749917463 0.018406078267593839 0 -0.093270919285344131 0.021002023320940321 0 -0.087524390624848222 0.006688577221896419 0 -0.065966226425225663 -0.0060274066981548767 0 -0.062761783130148519 0.02349217349963555 0 -0.078304733749917463 0.018406078267593839 0 -0.065966226425225663 -0.0060274066981548767 0 -0.078304733749917463 0.018406078267593839 0 -0.087524390624848222 0.006688577221896419 0 -0.065966226425225663 -0.0060274066981548767 0 -0.062761783130148519 0.02349217349963555 0 -0.065966226425225663 -0.0060274066981548767 0 -0.062761783130148519 0.02349217349963555 0 -0.041285176168578859 0.002941795093874656 0 -0.062761783130148519 0.02349217349963555 0 -0.036272784281526353 0.030700192342145501 0 -0.041285176168578859 0.002941795093874656 0 -0.036272784281526353 0.030700192342145501 0 -0.041285176168578859 0.002941795093874656 0 -0.01693898921702304 0.0117618500821222 0 -0.048521472395479701 0.069705355416953899 0 -0.048543751051203898 0.057697742817346243 0 -0.059557339835071388 0.053011753697425897 0 -0.048543751051203898 0.057697742817346243 0 -0.059557339835071388 0.053011753697425897 0 -0.04189961413571635 0.0481337511233643 0 -0.062761783130148519 0.02349217349963555 0 -0.059557339835071388 0.053011753697425897 0 -0.062761783130148519 0.02349217349963555 0 -0.036272784281526353 0.030700192342145501 0 -0.04189961413571635 0.0481337511233643 0 -0.062761783130148519 0.02349217349963555 0 -0.059557339835071388 0.053011753697425897 0 -0.04189961413571635 0.0481337511233643 0 -0.036272784281526353 0.030700192342145501 0 -0.04189961413571635 0.0481337511233643 0 -0.022255981323007819 0.049811798938199467 0 -0.042000822527735973 0.064880087355207783 0 -0.048543751051203898 0.057697742817346243 0 -0.04189961413571635 0.0481337511233643 0 -0.02897814582929455 0.062873885781940531 0 -0.042000822527735973 0.064880087355207783 0 -0.04189961413571635 0.0481337511233643 0 -0.02897814582929455 0.062873885781940531 0 -0.022255981323007819 0.049811798938199467 0 -0.01123722517146284 0.061714947321965113 0 -0.02897814582929455 0.062873885781940531 0 -0.04189961413571635 0.0481337511233643 0 -0.022255981323007819 0.049811798938199467 0 -0.036272784281526353 0.030700192342145501 0 -0.022255981323007819 0.049811798938199467 0 -0.01438021634244922 0.03170234610626791 0 -0.01438021634244922 0.03170234610626791 0 0.0022615025708572051 0.02103125876278546 0 0.0031430691038015031 0.043008717564808917 0 -0.022255981323007819 0.049811798938199467 0 -0.01438021634244922 0.03170234610626791 0 0.0031430691038015031 0.043008717564808917 0 -0.022255981323007819 0.049811798938199467 0 -0.01123722517146284 0.061714947321965113 0 0.0031430691038015031 0.043008717564808917 0 -0.01123722517146284 0.061714947321965113 0 0.0031430691038015031 0.043008717564808917 0 0.0078113760670387236 0.068869370431613411 0 -0.018090432812363919 -0.0051789454257338127 0 -0.041285176168578859 0.002941795093874656 0 -0.01693898921702304 0.0117618500821222 0 -0.036272784281526353 0.030700192342145501 0 -0.01693898921702304 0.0117618500821222 0 -0.036272784281526353 0.030700192342145501 0 -0.01438021634244922 0.03170234610626791 0 -0.01693898921702304 0.0117618500821222 0 -0.01438021634244922 0.03170234610626791 0 -0.01693898921702304 0.0117618500821222 0 0.0022615025708572051 0.02103125876278546 0 -0.01693898921702304 0.0117618500821222 0 0.002394805847480138 -0.0071764921779012506 0 -0.01693898921702304 0.0117618500821222 0 0.0022615025708572051 0.02103125876278546 0 0.002394805847480138 -0.0071764921779012506 0 0.0022615025708572051 0.02103125876278546 0 0.01988593924933146 0.01021281285273932 0 0.002394805847480138 -0.0071764921779012506 0 0.01988593924933146 0.01021281285273932 0 0.018044735406519189 -0.0027914786915071068 0 0.002394805847480138 -0.0071764921779012506 0 0.01988593924933146 0.01021281285273932 0 0.002394805847480138 -0.0071764921779012506 0 0.0022615025708572051 0.02103125876278546 0 0.01988593924933146 0.01021281285273932 0 0.01967507988536589 0.033248318378640847 0 0.01988593924933146 0.01021281285273932 0 0.037377072651182792 0.027602117883379889 0 0.01988593924933146 0.01021281285273932 0 0.01967507988536589 0.033248318378640847 0 0.037377072651182792 0.027602117883379889 0 0.01988593924933146 0.01021281285273932 0 0.035622497167505339 0.0063925700628825917 0 0.018044735406519189 -0.0027914786915071068 0 0.01988593924933146 0.01021281285273932 0 0.035622497167505339 0.0063925700628825917 0 0.037377072651182792 0.027602117883379889 0 0.0031430691038015031 0.043008717564808917 0 0.019783223174817739 0.050872415177661792 0 0.0078113760670387236 0.068869370431613411 0 0.0031430691038015031 0.043008717564808917 0 0.0078113760670387236 0.068869370431613411 0 0.0031430691038015031 0.043008717564808917 0 0.01967507988536589 0.033248318378640847 0 0.019783223174817739 0.050872415177661792 0 0.0022615025708572051 0.02103125876278546 0 0.0031430691038015031 0.043008717564808917 0 0.01967507988536589 0.033248318378640847 0 0.01967507988536589 0.033248318378640847 0 0.019783223174817739 0.050872415177661792 0 0.035662389103733989 0.047481221614176811 0 0.01967507988536589 0.033248318378640847 0 0.035662389103733989 0.047481221614176811 0 0.037377072651182792 0.027602117883379889 0 0.019783223174817739 0.050872415177661792 0 0.035662389103733989 0.047481221614176811 0 0.032141493454138102 0.060275729162332752 0 0.019783223174817739 0.050872415177661792 0 0.021142096610139102 0.064673842397447556 0 0.0078113760670387236 0.068869370431613411 0 0.019783223174817739 0.050872415177661792 0 0.032141493454138102 0.060275729162332752 0 0.021142096610139102 0.064673842397447556 0 0.035662389103733989 0.047481221614176811 0 0.032141493454138102 0.060275729162332752 0 0.049290572992936238 0.066355209737614357 0 0.035662389103733989 0.047481221614176811 0 0.054868206053034503 0.044991422914020113 0 0.049290572992936238 0.066355209737614357 0 0.054868206053034503 0.044991422914020113 0 0.037377072651182792 0.027602117883379889 0 0.035662389103733989 0.047481221614176811 0 0.054868206053034503 0.044991422914020113 0 0.037377072651182792 0.027602117883379889 0 0.054868206053034503 0.044991422914020113 0 0.037377072651182792 0.027602117883379889 0 0.059466454908930037 0.027378932586910581 0 0.054868206053034503 0.044991422914020113 0 0.059466454908930037 0.027378932586910581 0 0.054868206053034503 0.044991422914020113 0 0.049290572992936238 0.066355209737614357 0 0.054868206053034503 0.044991422914020113 0 0.067806688972275458 0.057854581689803772 0 0.049290572992936238 0.066355209737614357 0 0.054868206053034503 0.044991422914020113 0 0.067806688972275458 0.057854581689803772 0 0.035622497167505339 0.0063925700628825917 0 0.048661329883321183 0.016868832195515299 0 0.04884534130661923 0.0054823796607835363 0 0.035622497167505339 0.0063925700628825917 0 0.04884534130661923 0.0054823796607835363 0 0.045210290485040869 -0.0034719151203993228 0 0.035622497167505339 0.0063925700628825917 0 0.037377072651182792 0.027602117883379889 0 0.048661329883321183 0.016868832195515299 0 0.037377072651182792 0.027602117883379889 0 0.048661329883321183 0.016868832195515299 0 0.059466454908930037 0.027378932586910581 0 0.048661329883321183 0.016868832195515299 0 0.059466454908930037 0.027378932586910581 0 0.059551554903704583 0.012329945274186901 0 0.048661329883321183 0.016868832195515299 0 0.059551554903704583 0.012329945274186901 0 0.04884534130661923 0.0054823796607835363 0 0.04884534130661923 0.0054823796607835363 0 0.058196269712748661 -0.0010094984802769141 0 0.045210290485040869 -0.0034719151203993228 0 0.059551554903704583 0.012329945274186901 0 0.04884534130661923 0.0054823796607835363 0 0.058196269712748661 -0.0010094984802769141 0 0.059551554903704583 0.012329945274186901 0 0.070381517258247442 0.0054324954822656396 0 0.058196269712748661 -0.0010094984802769141 0 0.059551554903704583 0.012329945274186901 0 0.070381517258247442 0.0054324954822656396 0 0.071076364355982968 0.019572888861291889 0 0.070381517258247442 0.0054324954822656396 0 0.083131704911828669 0.010948624559543209 0 0.071076364355982968 0.019572888861291889 0 0.083131704911828669 0.010948624559543209 0 0.096167504599054904 0.0042442054759202954 0 0.09879577097810871 0.02017555683513389 0 0.070381517258247442 0.0054324954822656396 0 0.083131704911828669 0.010948624559543209 0 0.081717153665888317 -0.0025063239881197622 0 0.083131704911828669 0.010948624559543209 0 0.096167504599054904 0.0042442054759202954 0 0.081717153665888317 -0.0025063239881197622 0 0.083131704911828669 0.010948624559543209 0 0.084020254894405358 0.02481244236443322 0 0.09879577097810871 0.02017555683513389 0 0.084020254894405358 0.02481244236443322 0 0.089449236229465365 0.03685286092118592 0 0.09879577097810871 0.02017555683513389 0 0.083131704911828669 0.010948624559543209 0 0.084020254894405358 0.02481244236443322 0 0.071076364355982968 0.019572888861291889 0 0.084020254894405358 0.02481244236443322 0 0.071076364355982968 0.019572888861291889 0 0.073196751006103261 0.040000434485980937 0 0.059466454908930037 0.027378932586910581 0 0.071076364355982968 0.019572888861291889 0 0.073196751006103261 0.040000434485980937 0 0.059466454908930037 0.027378932586910581 0 0.059551554903704583 0.012329945274186901 0 0.071076364355982968 0.019572888861291889 0 0.054868206053034503 0.044991422914020113 0 0.059466454908930037 0.027378932586910581 0 0.073196751006103261 0.040000434485980937 0 0.073196751006103261 0.040000434485980937 0 0.067806688972275458 0.057854581689803772 0 0.092977810154944648 0.053070117425326267 0 0.054868206053034503 0.044991422914020113 0 0.073196751006103261 0.040000434485980937 0 0.067806688972275458 0.057854581689803772 0 0.092977810154944648 0.053070117425326267 0 0.080745171891517087 0.070717740465586792 0 0.067806688972275458 0.057854581689803772 0 0.092977810154944648 0.053070117425326267 0 0.080745171891517087 0.070717740465586792 0 0.084020254894405358 0.02481244236443322 0 0.073196751006103261 0.040000434485980937 0 0.089449236229465365 0.03685286092118592 0 0.073196751006103261 0.040000434485980937 0 0.092977810154944648 0.053070117425326267 0 0.089449236229465365 0.03685286092118592 0 0.092977810154944648 0.053070117425326267 0 0.10521044841837041 0.035422494385064417 0 0.092977810154944648 0.053070117425326267 0 0.089449236229465365 0.03685286092118592 0 0.10521044841837041 0.035422494385064417 0 0.092977810154944648 0.053070117425326267 0 0.1133392402374467 0.053204142399891047 0 0.1035655079248483 0.069632380985197889 0 0.092977810154944648 0.053070117425326267 0 0.10521044841837041 0.035422494385064417 0 0.1133392402374467 0.053204142399891047 0 0.1133392402374467 0.053204142399891047 0 0.1220245952479405 0.07004619687739172 0 0.13318341665519781 0.054736537254868822 0 0.1133392402374467 0.053204142399891047 0 0.12506256882025399 0.035699134337412737 0 0.13318341665519781 0.054736537254868822 0 0.10521044841837041 0.035422494385064417 0 0.1133392402374467 0.053204142399891047 0 0.12506256882025399 0.035699134337412737 0 0.10521044841837041 0.035422494385064417 0 0.11744308668179609 0.017774871344802521 0 0.12506256882025399 0.035699134337412737 0 0.10521044841837041 0.035422494385064417 0 0.11744308668179609 0.017774871344802521 0 0.10847276501169199 0.0092252325767439008 0 0.12681727907172599 0.0028609529651058472 0 0.11158832231026521 -0.002538519333972472 0 0.11744308668179609 0.017774871344802521 0 0.10847276501169199 0.0092252325767439008 0 0.12681727907172599 0.0028609529651058472 0 0.10847276501169199 0.0092252325767439008 0 0.096167504599054904 0.0042442054759202954 0 0.09879577097810871 0.02017555683513389 0 0.10847276501169199 0.0092252325767439008 0 0.096167504599054904 0.0042442054759202954 0 0.11158832231026521 -0.002538519333972472 0 0.10521044841837041 0.035422494385064417 0 0.11744308668179609 0.017774871344802521 0 0.09879577097810871 0.02017555683513389 0 0.089449236229465365 0.03685286092118592 0 0.10521044841837041 0.035422494385064417 0 0.09879577097810871 0.02017555683513389 0 0.11744308668179609 0.017774871344802521 0 0.10847276501169199 0.0092252325767439008 0 0.09879577097810871 0.02017555683513389 0 0.10882650996042049 0.098635597023528671 0 0.099321881767187231 0.10979448526446239 0 0.11057203073837581 0.10974959828000851 0 0.10882650996042049 0.098635597023528671 0 0.099321881767187231 0.10979448526446239 0 0.093532106097527157 0.097201512098380446 0 0.099321881767187231 0.10979448526446239 0 0.10718004060487731 0.1186919078288297 0 0.094925170845575335 0.12812185349131111 0 0.099321881767187231 0.10979448526446239 0 0.10718004060487731 0.1186919078288297 0 0.11057203073837581 0.10974959828000851 0 0.10718004060487731 0.1186919078288297 0 0.11057203073837581 0.10974959828000851 0 0.11923934643535521 0.1171320194813406 0 0.11923934643535521 0.1171320194813406 0 0.11184177323789279 0.12866158262702601 0 0.12877089149896251 0.12628235461406201 0 0.11057203073837581 0.10974959828000851 0 0.11923934643535521 0.1171320194813406 0 0.1204523462490521 0.10350528248164099 0 0.10718004060487731 0.1186919078288297 0 0.11923934643535521 0.1171320194813406 0 0.11184177323789279 0.12866158262702601 0 0.11923934643535521 0.1171320194813406 0 0.1204523462490521 0.10350528248164099 0 0.13278919984088661 0.11230677671938701 0 0.10882650996042049 0.098635597023528671 0 0.1204523462490521 0.10350528248164099 0 0.1175203890912727 0.086079419998433368 0 0.1204523462490521 0.10350528248164099 0 0.1175203890912727 0.086079419998433368 0 0.13376660142800201 0.097128283387147629 0 0.10882650996042049 0.098635597023528671 0 0.11057203073837581 0.10974959828000851 0 0.1204523462490521 0.10350528248164099 0 0.1175203890912727 0.086079419998433368 0 0.1220245952479405 0.07004619687739172 0 0.1035655079248483 0.069632380985197889 0 0.1133392402374467 0.053204142399891047 0 0.1220245952479405 0.07004619687739172 0 0.1035655079248483 0.069632380985197889 0 0.1175203890912727 0.086079419998433368 0 0.1035655079248483 0.069632380985197889 0 0.094785840925968687 0.084676668744557898 0 0.10882650996042049 0.098635597023528671 0 0.1175203890912727 0.086079419998433368 0 0.094785840925968687 0.084676668744557898 0 0.10882650996042049 0.098635597023528671 0 0.094785840925968687 0.084676668744557898 0 0.10882650996042049 0.098635597023528671 0 0.094785840925968687 0.084676668744557898 0 0.093532106097527157 0.097201512098380446 0 0.094785840925968687 0.084676668744557898 0 0.083309168386930019 0.090214104788044758 0 0.093532106097527157 0.097201512098380446 0 0.094785840925968687 0.084676668744557898 0 0.083309168386930019 0.090214104788044758 0 0.080745171891517087 0.070717740465586792 0 0.092977810154944648 0.053070117425326267 0 0.1035655079248483 0.069632380985197889 0 0.080745171891517087 0.070717740465586792 0 0.1035655079248483 0.069632380985197889 0 0.094785840925968687 0.084676668744557898 0 0.080745171891517087 0.070717740465586792 0 0.094785840925968687 0.084676668744557898 0 0.080745171891517087 0.070717740465586792 0 0.067806688972275458 0.057854581689803772 0 0.080745171891517087 0.070717740465586792 0 0.06101355018332804 0.07564509050647375 0 0.067806688972275458 0.057854581689803772 0 0.080745171891517087 0.070717740465586792 0 0.080745171891517087 0.070717740465586792 0 0.063512377127071362 0.095578924078155048 0 0.083309168386930019 0.090214104788044758 0 0.080745171891517087 0.070717740465586792 0 0.063512377127071362 0.095578924078155048 0 0.080745171891517087 0.070717740465586792 0 0.063512377127071362 0.095578924078155048 0 0.06101355018332804 0.07564509050647375 0 0.083309168386930019 0.090214104788044758 0 0.063512377127071362 0.095578924078155048 0 0.081417129447129324 0.1026867046713085 0 0.063512377127071362 0.095578924078155048 0 0.081417129447129324 0.1026867046713085 0 0.063512377127071362 0.095578924078155048 0 0.081417129447129324 0.1026867046713085 0 0.067817743154455989 0.1135840018968045 0 0.099321881767187231 0.10979448526446239 0 0.081417129447129324 0.1026867046713085 0 0.093532106097527157 0.097201512098380446 0 0.099321881767187231 0.10979448526446239 0 0.081417129447129324 0.1026867046713085 0 0.083309168386930019 0.090214104788044758 0 0.081417129447129324 0.1026867046713085 0 0.093532106097527157 0.097201512098380446 0 0.099321881767187231 0.10979448526446239 0 0.081417129447129324 0.1026867046713085 0 0.08262403040743542 0.1174427642681065 0 0.099321881767187231 0.10979448526446239 0 0.08262403040743542 0.1174427642681065 0 0.094925170845575335 0.12812185349131111 0 0.067817743154455989 0.1135840018968045 0 0.056785074219297037 0.123962922715022 0 0.069638226822829233 0.13302677601664631 0 0.08262403040743542 0.1174427642681065 0 0.067817743154455989 0.1135840018968045 0 0.069638226822829233 0.13302677601664631 0 0.081417129447129324 0.1026867046713085 0 0.08262403040743542 0.1174427642681065 0 0.067817743154455989 0.1135840018968045 0 0.067817743154455989 0.1135840018968045 0 0.056785074219297037 0.123962922715022 0 0.051472524226887043 0.11294842204475181 0 0.056785074219297037 0.123962922715022 0 0.051472524226887043 0.11294842204475181 0 0.045358146108277778 0.122235841909611 0 0.063512377127071362 0.095578924078155048 0 0.067817743154455989 0.1135840018968045 0 0.051472524226887043 0.11294842204475181 0 0.063512377127071362 0.095578924078155048 0 0.04894346805059932 0.099918275759685315 0 0.043712939932840048 0.087718996561209156 0 0.063512377127071362 0.095578924078155048 0 0.051472524226887043 0.11294842204475181 0 0.04894346805059932 0.099918275759685315 0 0.063512377127071362 0.095578924078155048 0 0.051472524226887043 0.11294842204475181 0 0.038417021745327531 0.1080037420749501 0 0.043712939932840048 0.087718996561209156 0 0.028330160343379221 0.096092512071592709 0 0.051472524226887043 0.11294842204475181 0 0.04894346805059932 0.099918275759685315 0 0.038417021745327531 0.1080037420749501 0 0.04894346805059932 0.099918275759685315 0 0.038417021745327531 0.1080037420749501 0 0.043712939932840048 0.087718996561209156 0 0.038417021745327531 0.1080037420749501 0 0.043712939932840048 0.087718996561209156 0 0.038417021745327531 0.1080037420749501 0 0.028403759718925791 0.1183090902513565 0 0.03312110355781811 0.12828848758869171 0 0.038417021745327531 0.1080037420749501 0 0.03312110355781811 0.12828848758869171 0 0.038417021745327531 0.1080037420749501 0 0.045358146108277778 0.122235841909611 0 0.03312110355781811 0.12828848758869171 0 0.051472524226887043 0.11294842204475181 0 0.038417021745327531 0.1080037420749501 0 0.045358146108277778 0.122235841909611 0 0.06101355018332804 0.07564509050647375 0 0.049290572992936238 0.066355209737614357 0 0.043712939932840048 0.087718996561209156 0 0.067806688972275458 0.057854581689803772 0 0.06101355018332804 0.07564509050647375 0 0.049290572992936238 0.066355209737614357 0 0.063512377127071362 0.095578924078155048 0 0.06101355018332804 0.07564509050647375 0 0.043712939932840048 0.087718996561209156 0 0.063512377127071362 0.095578924078155048 0 0.043712939932840048 0.087718996561209156 0 0.043712939932840048 0.087718996561209156 0 0.034829185389063419 0.071995956884763276 0 0.02079066235970875 0.078619372239532512 0 0.043712939932840048 0.087718996561209156 0 0.02079066235970875 0.078619372239532512 0 0.032141493454138102 0.060275729162332752 0 0.049290572992936238 0.066355209737614357 0 0.034829185389063419 0.071995956884763276 0 0.049290572992936238 0.066355209737614357 0 0.043712939932840048 0.087718996561209156 0 0.049290572992936238 0.066355209737614357 0 0.043712939932840048 0.087718996561209156 0 0.034829185389063419 0.071995956884763276 0 0.032141493454138102 0.060275729162332752 0 0.034829185389063419 0.071995956884763276 0 0.021142096610139102 0.064673842397447556 0 0.034829185389063419 0.071995956884763276 0 0.021142096610139102 0.064673842397447556 0 0.02079066235970875 0.078619372239532512 0 0.021142096610139102 0.064673842397447556 0 0.02079066235970875 0.078619372239532512 0 0.0078113760670387236 0.068869370431613411 0 0.043712939932840048 0.087718996561209156 0 0.02079066235970875 0.078619372239532512 0 0.028330160343379221 0.096092512071592709 0 0.02079066235970875 0.078619372239532512 0 0.028330160343379221 0.096092512071592709 0 0.013121597576430799 0.098285986815611973 0 -0.0022168413230157229 0.085736250976024914 0 0.0078113760670387236 0.068869370431613411 0 0.013121597576430799 0.098285986815611973 0 0.02079066235970875 0.078619372239532512 0 0.0078113760670387236 0.068869370431613411 0 0.013121597576430799 0.098285986815611973 0 0.0078113760670387236 0.068869370431613411 0 0.013121597576430799 0.098285986815611973 0 0.021142096610139102 0.064673842397447556 0 0.0078113760670387236 0.068869370431613411 0 0.013121597576430799 0.098285986815611973 0 0.018955942675363529 0.12769885014017149 0 0.018915766464259819 0.12208814763948179 0 0.025608580102588829 0.10783446266666021 0 0.013121597576430799 0.098285986815611973 0 0.018915766464259819 0.12208814763948179 0 0.013121597576430799 0.098285986815611973 0 0.018955942675363529 0.12769885014017149 0 0.018915766464259819 0.12208814763948179 0 0.018955942675363529 0.12769885014017149 0 0.028403759718925791 0.1183090902513565 0 0.025756287217072099 0.1254558848223972 0 0.03312110355781811 0.12828848758869171 0 0.018915766464259819 0.12208814763948179 0 0.028403759718925791 0.1183090902513565 0 0.025756287217072099 0.1254558848223972 0 0.038417021745327531 0.1080037420749501 0 0.028403759718925791 0.1183090902513565 0 0.025608580102588829 0.10783446266666021 0 0.018915766464259819 0.12208814763948179 0 0.028403759718925791 0.1183090902513565 0 0.025608580102588829 0.10783446266666021 0 0.038417021745327531 0.1080037420749501 0 0.025608580102588829 0.10783446266666021 0 0.028330160343379221 0.096092512071592709 0 0.025608580102588829 0.10783446266666021 0 0.028330160343379221 0.096092512071592709 0 0.013121597576430799 0.098285986815611973 0 -0.0093267163156350585 0.10220622611456499 0 -0.0022168413230157229 0.085736250976024914 0 0.013121597576430799 0.098285986815611973 0 -0.0093267163156350585 0.10220622611456499 0 0.013121597576430799 0.098285986815611973 0 0.0088418889268726004 0.1125261115153213 0 -0.0015382865690094869 0.1195819360983075 0 0.0088418889268726004 0.1125261115153213 0 0.0068357907514690393 0.1194307534492897 0 0.013121597576430799 0.098285986815611973 0 0.0088418889268726004 0.1125261115153213 0 0.018955942675363529 0.12769885014017149 0 0.01159030187937234 0.123800118292041 0 0.0068357907514690393 0.1194307534492897 0 0.0093864348306887096 0.12963523465885829 0 0.0088418889268726004 0.1125261115153213 0 0.01159030187937234 0.123800118292041 0 0.0068357907514690393 0.1194307534492897 0 0.0088418889268726004 0.1125261115153213 0 0.01159030187937234 0.123800118292041 0 0.018955942675363529 0.12769885014017149 0 -0.0015382865690094869 0.1195819360983075 0 0.0068357907514690393 0.1194307534492897 0 0.0028297340199113529 0.12737786763030409 0 0.0068357907514690393 0.1194307534492897 0 0.0028297340199113529 0.12737786763030409 0 0.0093864348306887096 0.12963523465885829 0 0.0028297340199113529 0.12737786763030409 0 0.0012022958327204049 0.13426380270999949 0 0.0063902301850321547 0.13414384741273511 0 0.0028297340199113529 0.12737786763030409 0 0.0063902301850321547 0.13414384741273511 0 0.0093864348306887096 0.12963523465885829 0 0.000228448927285114 0.14012311706009631 0 0.0012022958327204049 0.13426380270999949 0 0.0046739851119457828 0.13844047711548191 0 0.0012022958327204049 0.13426380270999949 0 0.0063902301850321547 0.13414384741273511 0 0.0046739851119457828 0.13844047711548191 0 0.0063902301850321547 0.13414384741273511 0 0.0046739851119457828 0.13844047711548191 0 0.0087417741184536643 0.13987837293796551 0 0.0063902301850321547 0.13414384741273511 0 0.0087417741184536643 0.13987837293796551 0 0.01188448664637911 0.13630481734698929 0 0.0087417741184536643 0.13987837293796551 0 0.01188448664637911 0.13630481734698929 0 0.01238480926519909 0.14086949425419931 0 0.0063902301850321547 0.13414384741273511 0 0.01188448664637911 0.13630481734698929 0 0.0093864348306887096 0.12963523465885829 0 0.01538181754864224 0.13462442671806851 0 0.01188448664637911 0.13630481734698929 0 0.01363814740762942 0.13063558522106289 0 0.01538181754864224 0.13462442671806851 0 0.01188448664637911 0.13630481734698929 0 0.014424460637306021 0.13832412831929569 0 0.01188448664637911 0.13630481734698929 0 0.014424460637306021 0.13832412831929569 0 0.01238480926519909 0.14086949425419931 0 0.014424460637306021 0.13832412831929569 0 0.01238480926519909 0.14086949425419931 0 0.015363480448823189 0.14129096320990631 0 0.01159030187937234 0.123800118292041 0 0.0093864348306887096 0.12963523465885829 0 0.01363814740762942 0.13063558522106289 0 0.01188448664637911 0.13630481734698929 0 0.0093864348306887096 0.12963523465885829 0 0.01363814740762942 0.13063558522106289 0 0.01159030187937234 0.123800118292041 0 0.01363814740762942 0.13063558522106289 0 0.018955942675363529 0.12769885014017149 0 0.018915766464259819 0.12208814763948179 0 0.018955942675363529 0.12769885014017149 0 0.022387711081268351 0.13069146168119281 0 0.025814451866404291 0.1323851931955756 0 0.019064338777337181 0.1428366210673169 0 0.044351282800083193 0.13793169854198151 0 0.018915766464259819 0.12208814763948179 0 0.022387711081268351 0.13069146168119281 0 0.025756287217072099 0.1254558848223972 0 0.01538181754864224 0.13462442671806851 0 0.01363814740762942 0.13063558522106289 0 0.018955942675363529 0.12769885014017149 0 0.022387711081268351 0.13069146168119281 0 0.025814451866404291 0.1323851931955756 0 0.019064338777337181 0.1428366210673169 0 0.01538181754864224 0.13462442671806851 0 0.018955942675363529 0.12769885014017149 0 0.01710770927748647 0.13853094006731531 0 0.018955942675363529 0.12769885014017149 0 0.01710770927748647 0.13853094006731531 0 0.019064338777337181 0.1428366210673169 0 0.018955942675363529 0.12769885014017149 0 0.019064338777337181 0.1428366210673169 0 0.018955942675363529 0.12769885014017149 0 0.022387711081268351 0.13069146168119281 0 0.019064338777337181 0.1428366210673169 0 0.01538181754864224 0.13462442671806851 0 0.014424460637306021 0.13832412831929569 0 0.01710770927748647 0.13853094006731531 0 0.014424460637306021 0.13832412831929569 0 0.01710770927748647 0.13853094006731531 0 0.015363480448823189 0.14129096320990631 0 0.01710770927748647 0.13853094006731531 0 0.017202595513394939 0.14154074390788901 0 0.015363480448823189 0.14129096320990631 0 0.025756287217072099 0.1254558848223972 0 0.025814451866404291 0.1323851931955756 0 0.03312110355781811 0.12828848758869171 0 0.022387711081268351 0.13069146168119281 0 0.025756287217072099 0.1254558848223972 0 0.025814451866404291 0.1323851931955756 0 0.019064338777337181 0.1428366210673169 0 0.01923932509198778 0.16727387202292701 0 0.034840635627581551 0.15270641195697809 0 0.019064338777337181 0.1428366210673169 0 0.01923932509198778 0.16727387202292701 0 0.01710770927748647 0.13853094006731531 0 0.019064338777337181 0.1428366210673169 0 0.017202595513394939 0.14154074390788901 0 0.019064338777337181 0.1428366210673169 0 0.017214352546369539 0.14319546392027949 0 0.017202595513394939 0.14154074390788901 0 0.019064338777337181 0.1428366210673169 0 0.017214352546369539 0.14319546392027949 0 0.017214352546369539 0.14319546392027949 0 0.017202595513394939 0.14154074390788901 0 0.015363480448823189 0.14129096320990631 0 0.019064338777337181 0.1428366210673169 0 0.010573304973877311 0.14810099588445341 0 0.0097219217107780143 0.1605441304936322 0 0.019064338777337181 0.1428366210673169 0 0.017214352546369539 0.14319546392027949 0 0.010573304973877311 0.14810099588445341 0 0.017214352546369539 0.14319546392027949 0 0.015363480448823189 0.14129096320990631 0 0.01311844662929992 0.14341517628664141 0 0.01238480926519909 0.14086949425419931 0 0.015363480448823189 0.14129096320990631 0 0.01311844662929992 0.14341517628664141 0 0.01238480926519909 0.14086949425419931 0 0.01311844662929992 0.14341517628664141 0 0.010056285912230499 0.14361896416436881 0 0.017214352546369539 0.14319546392027949 0 0.01311844662929992 0.14341517628664141 0 0.010573304973877311 0.14810099588445341 0 0.010573304973877311 0.14810099588445341 0 0.010056285912230499 0.14361896416436881 0 0.0052711451322874966 0.14430649706712931 0 0.01311844662929992 0.14341517628664141 0 0.010573304973877311 0.14810099588445341 0 0.010056285912230499 0.14361896416436881 0 0.0087417741184536643 0.13987837293796551 0 0.010056285912230499 0.14361896416436881 0 0.0052711451322874966 0.14430649706712931 0 0.0087417741184536643 0.13987837293796551 0 0.01238480926519909 0.14086949425419931 0 0.010056285912230499 0.14361896416436881 0 0.010573304973877311 0.14810099588445341 0 0.0052711451322874966 0.14430649706712931 0 0.002037105597096525 0.15151695060409001 0 0.0046739851119457828 0.13844047711548191 0 0.0087417741184536643 0.13987837293796551 0 0.0052711451322874966 0.14430649706712931 0 -0.001932496299644968 0.1459540675981712 0 0.0052711451322874966 0.14430649706712931 0 0.002037105597096525 0.15151695060409001 0 -0.001932496299644968 0.1459540675981712 0 0.000228448927285114 0.14012311706009631 0 0.0052711451322874966 0.14430649706712931 0 0.000228448927285114 0.14012311706009631 0 0.0046739851119457828 0.13844047711548191 0 0.0052711451322874966 0.14430649706712931 0 0.010573304973877311 0.14810099588445341 0 0.002037105597096525 0.15151695060409001 0 0.0097219217107780143 0.1605441304936322 0 -0.001399927819642065 0.15853034608675531 0 9.8439874396488518e-06 0.16909653965514321 0 0.0097219217107780143 0.1605441304936322 0 9.8439874396488518e-06 0.16909653965514321 0 0.0097219217107780143 0.1605441304936322 0 0.01923932509198778 0.16727387202292701 0 -0.001399927819642065 0.15853034608675531 0 0.002037105597096525 0.15151695060409001 0 0.0097219217107780143 0.1605441304936322 0 0.0075192663374202447 0.1824792222503463 0 0.01923932509198778 0.16727387202292701 0 0.019414311406637581 0.19171112297853721 0 9.8439874396488518e-06 0.16909653965514321 0 0.0075192663374202447 0.1824792222503463 0 0.01923932509198778 0.16727387202292701 0 -0.0058150648891281392 0.18464487058732859 0 9.8439874396488518e-06 0.16909653965514321 0 0.0075192663374202447 0.1824792222503463 0 0.01923932509198778 0.16727387202292701 0 0.019414311406637581 0.19171112297853721 0 0.01923932509198778 0.16727387202292701 0 0.041253151311174942 0.18351428487242299 0 0.019414311406637581 0.19171112297853721 0 0.019064338777337181 0.1428366210673169 0 0.0097219217107780143 0.1605441304936322 0 0.01923932509198778 0.16727387202292701 0 0.01923932509198778 0.16727387202292701 0 0.045192968381937218 0.16506141320240761 0 0.034840635627581551 0.15270641195697809 0 0.01923932509198778 0.16727387202292701 0 0.045192968381937218 0.16506141320240761 0 0.041253151311174942 0.18351428487242299 0 0.041253151311174942 0.18351428487242299 0 0.056495320393279057 0.1758938039325593 0 0.06399941055398814 0.19765529411200519 0 0.045192968381937218 0.16506141320240761 0 0.041253151311174942 0.18351428487242299 0 0.056495320393279057 0.1758938039325593 0 0.045192968381937218 0.16506141320240761 0 0.058418108920392182 0.16045602069262471 0 0.053913444208845418 0.15009958673064799 0 0.045192968381937218 0.16506141320240761 0 0.056495320393279057 0.1758938039325593 0 0.058418108920392182 0.16045602069262471 0 0.058418108920392182 0.16045602069262471 0 0.053913444208845418 0.15009958673064799 0 0.071039442700249214 0.1514151999732502 0 0.053913444208845418 0.15009958673064799 0 0.044351282800083193 0.13793169854198151 0 0.069638226822829233 0.13302677601664631 0 0.044351282800083193 0.13793169854198151 0 0.069638226822829233 0.13302677601664631 0 0.056785074219297037 0.123962922715022 0 0.045358146108277778 0.122235841909611 0 0.044351282800083193 0.13793169854198151 0 0.056785074219297037 0.123962922715022 0 0.044351282800083193 0.13793169854198151 0 0.069638226822829233 0.13302677601664631 0 0.025814451866404291 0.1323851931955756 0 0.044351282800083193 0.13793169854198151 0 0.03312110355781811 0.12828848758869171 0 0.045358146108277778 0.122235841909611 0 0.044351282800083193 0.13793169854198151 0 0.03312110355781811 0.12828848758869171 0 0.019064338777337181 0.1428366210673169 0 0.044351282800083193 0.13793169854198151 0 0.053913444208845418 0.15009958673064799 0 0.044351282800083193 0.13793169854198151 0 0.034840635627581551 0.15270641195697809 0 0.045192968381937218 0.16506141320240761 0 0.053913444208845418 0.15009958673064799 0 0.034840635627581551 0.15270641195697809 0 0.019064338777337181 0.1428366210673169 0 0.044351282800083193 0.13793169854198151 0 0.034840635627581551 0.15270641195697809 0 0.019733428038529611 0.23627651218177001 0 0.032395297456559217 0.24990448186487541 0 0.01992807415890703 0.26345930130890138 0 0.019733428038529611 0.23627651218177001 0 0.01992807415890703 0.26345930130890138 0 0.019733428038529611 0.23627651218177001 0 0.032900500049065431 0.23758744706011731 0 0.032395297456559217 0.24990448186487541 0 0.019733428038529611 0.23627651218177001 0 0.032900500049065431 0.23758744706011731 0 -0.0054403593235216562 0.23377016940133941 0 0.019733428038529611 0.23627651218177001 0 -0.0054403593235216562 0.23377016940133941 0 0.019733428038529611 0.23627651218177001 0 0.0051881906427589239 0.2429023142665572 0 0.019733428038529611 0.23627651218177001 0 0.0051881906427589239 0.2429023142665572 0 0.0108212759879371 0.25143582124693198 0 -0.004361582131907446 0.25012675423618741 0 0.0051881906427589239 0.2429023142665572 0 0.0108212759879371 0.25143582124693198 0 -0.0054403593235216562 0.23377016940133941 0 0.019733428038529611 0.23627651218177001 0 0.0022205822065663882 0.22338098429998751 0 0.0022205822065663882 0.22338098429998751 0 0.019589297721289551 0.2161483739341474 0 0.019733428038529611 0.23627651218177001 0 0.0022205822065663882 0.22338098429998751 0 0.019589297721289551 0.2161483739341474 0 0.019733428038529611 0.23627651218177001 0 0.019589297721289551 0.2161483739341474 0 0.034101449494264802 0.22244897456428839 0 0.019733428038529611 0.23627651218177001 0 0.019589297721289551 0.2161483739341474 0 0.019733428038529611 0.23627651218177001 0 0.034101449494264802 0.22244897456428839 0 0.032900500049065431 0.23758744706011731 0 0.019589297721289551 0.2161483739341474 0 0.019414311406637581 0.19171112297853721 0 0.041794354137638927 0.20690183402307669 0 0.019589297721289551 0.2161483739341474 0 0.041794354137638927 0.20690183402307669 0 0.019589297721289551 0.2161483739341474 0 0.019414311406637581 0.19171112297853721 0 -0.001618838316679704 0.21186515805952549 0 0.0022205822065663882 0.22338098429998751 0 0.019589297721289551 0.2161483739341474 0 -0.001618838316679704 0.21186515805952549 0 0.019589297721289551 0.2161483739341474 0 0.0047479160901643591 0.19966970600779571 0 0.0075192663374202447 0.1824792222503463 0 0.0047479160901643591 0.19966970600779571 0 0.019414311406637581 0.19171112297853721 0 0.019589297721289551 0.2161483739341474 0 0.0047479160901643591 0.19966970600779571 0 0.019414311406637581 0.19171112297853721 0 -0.0058150648891281392 0.18464487058732859 0 0.0075192663374202447 0.1824792222503463 0 0.0047479160901643591 0.19966970600779571 0 0.041253151311174942 0.18351428487242299 0 0.019414311406637581 0.19171112297853721 0 0.041794354137638927 0.20690183402307669 0 0.041253151311174942 0.18351428487242299 0 0.041794354137638927 0.20690183402307669 0 0.06399941055398814 0.19765529411200519 0 0.041794354137638927 0.20690183402307669 0 0.06399941055398814 0.19765529411200519 0 0.061093413050727782 0.21440081318481749 0 0.041794354137638927 0.20690183402307669 0 0.06399941055398814 0.19765529411200519 0 0.061093413050727782 0.21440081318481749 0 0.041794354137638927 0.20690183402307669 0 0.049967951794046297 0.22590254710105601 0 0.019589297721289551 0.2161483739341474 0 0.041794354137638927 0.20690183402307669 0 0.034101449494264802 0.22244897456428839 0 0.041794354137638927 0.20690183402307669 0 0.034101449494264802 0.22244897456428839 0 0.049967951794046297 0.22590254710105601 0 0.034101449494264802 0.22244897456428839 0 0.049967951794046297 0.22590254710105601 0 0.032900500049065431 0.23758744706011731 0 0.049967951794046297 0.22590254710105601 0 0.049298807743375681 0.24401567068345059 0 0.070152213389441304 0.23042254488525729 0 0.061093413050727782 0.21440081318481749 0 0.049967951794046297 0.22590254710105601 0 0.070152213389441304 0.23042254488525729 0 0.049298807743375681 0.24401567068345059 0 0.032900500049065431 0.23758744706011731 0 0.032395297456559217 0.24990448186487541 0 0.049967951794046297 0.22590254710105601 0 0.049298807743375681 0.24401567068345059 0 0.032900500049065431 0.23758744706011731 0 0.081494970558903312 0.2413152449973858 0 0.068539877812152941 0.25484826761588569 0 0.094153496178737847 0.25278652485753728 0 0.081494970558903312 0.2413152449973858 0 0.092408256837057293 0.22639029288367121 0 0.094153496178737847 0.25278652485753728 0 0.081494970558903312 0.2413152449973858 0 0.070152213389441304 0.23042254488525729 0 0.068539877812152941 0.25484826761588569 0 0.049298807743375681 0.24401567068345059 0 0.070152213389441304 0.23042254488525729 0 0.068539877812152941 0.25484826761588569 0 0.070152213389441304 0.23042254488525729 0 0.079553135378524209 0.21112184580269211 0 0.081494970558903312 0.2413152449973858 0 0.070152213389441304 0.23042254488525729 0 0.092408256837057293 0.22639029288367121 0 0.070152213389441304 0.23042254488525729 0 0.092408256837057293 0.22639029288367121 0 0.079553135378524209 0.21112184580269211 0 0.092408256837057293 0.22639029288367121 0 0.090685729118578778 0.2092827598877062 0 0.079553135378524209 0.21112184580269211 0 0.090685729118578778 0.2092827598877062 0 0.079553135378524209 0.21112184580269211 0 0.088954057367607559 0.19182114672012679 0 0.061093413050727782 0.21440081318481749 0 0.070152213389441304 0.23042254488525729 0 0.079553135378524209 0.21112184580269211 0 0.061093413050727782 0.21440081318481749 0 0.079553135378524209 0.21112184580269211 0 0.06399941055398814 0.19765529411200519 0 0.079553135378524209 0.21112184580269211 0 0.06399941055398814 0.19765529411200519 0 0.086204466970337151 0.18840875420093359 0 0.06399941055398814 0.19765529411200519 0 0.086204466970337151 0.18840875420093359 0 0.079553135378524209 0.21112184580269211 0 0.088954057367607559 0.19182114672012679 0 0.079553135378524209 0.21112184580269211 0 0.086204466970337151 0.18840875420093359 0 0.088954057367607559 0.19182114672012679 0 0.088954057367607559 0.19182114672012679 0 0.091738629482519291 0.1861042405989983 0 0.086204466970337151 0.18840875420093359 0 0.088954057367607559 0.19182114672012679 0 0.091738629482519291 0.1861042405989983 0 0.086204466970337151 0.18840875420093359 0 0.088954057367607559 0.19182114672012679 0 0.10188013338443321 0.1945805347119858 0 0.1223034951297057 0.2015047654836217 0 0.1018274668911264 0.2077977541443348 0 0.090685729118578778 0.2092827598877062 0 0.088954057367607559 0.19182114672012679 0 0.1018274668911264 0.2077977541443348 0 0.088954057367607559 0.19182114672012679 0 0.10188013338443321 0.1945805347119858 0 0.1018274668911264 0.2077977541443348 0 0.088954057367607559 0.19182114672012679 0 0.1018274668911264 0.2077977541443348 0 0.088954057367607559 0.19182114672012679 0 0.10188013338443321 0.1945805347119858 0 0.091738629482519291 0.1861042405989983 0 0.10188013338443321 0.1945805347119858 0 0.1223034951297057 0.2015047654836217 0 0.1143056367611561 0.17670697857169981 0 0.1223034951297057 0.2015047654836217 0 0.1018274668911264 0.2077977541443348 0 0.11470087641464451 0.22377436156854341 0 0.1223034951297057 0.2015047654836217 0 0.11470087641464451 0.22377436156854341 0 0.12985428442346111 0.22473904082679019 0 0.092408256837057293 0.22639029288367121 0 0.090685729118578778 0.2092827598877062 0 0.1018274668911264 0.2077977541443348 0 0.1018274668911264 0.2077977541443348 0 0.11470087641464451 0.22377436156854341 0 0.092408256837057293 0.22639029288367121 0 0.11470087641464451 0.22377436156854341 0 0.1077236677954151 0.23904346403323151 0 0.092408256837057293 0.22639029288367121 0 0.1018274668911264 0.2077977541443348 0 0.11470087641464451 0.22377436156854341 0 0.11470087641464451 0.22377436156854341 0 0.12757428593816261 0.239750968992752 0 0.11470087641464451 0.22377436156854341 0 0.1077236677954151 0.23904346403323151 0 0.12757428593816261 0.239750968992752 0 0.11470087641464451 0.22377436156854341 0 0.12757428593816261 0.239750968992752 0 0.12985428442346111 0.22473904082679019 0 0.1077236677954151 0.23904346403323151 0 0.12757428593816261 0.239750968992752 0 0.1197671145453226 0.2507247820991888 0 0.1077236677954151 0.23904346403323151 0 0.1197671145453226 0.2507247820991888 0 0.094153496178737847 0.25278652485753728 0 0.092408256837057293 0.22639029288367121 0 0.1077236677954151 0.23904346403323151 0 0.094153496178737847 0.25278652485753728 0 0.089241880289002096 0.14489141207420311 0 0.071039442700249214 0.1514151999732502 0 0.087740544640930687 0.16123122417456451 0 0.08262403040743542 0.1174427642681065 0 0.069638226822829233 0.13302677601664631 0 0.094925170845575335 0.12812185349131111 0 0.069638226822829233 0.13302677601664631 0 0.094925170845575335 0.12812185349131111 0 0.089241880289002096 0.14489141207420311 0 0.069638226822829233 0.13302677601664631 0 0.094925170845575335 0.12812185349131111 0 0.053913444208845418 0.15009958673064799 0 0.069638226822829233 0.13302677601664631 0 0.071039442700249214 0.1514151999732502 0 0.089241880289002096 0.14489141207420311 0 0.069638226822829233 0.13302677601664631 0 0.071039442700249214 0.1514151999732502 0 0.058418108920392182 0.16045602069262471 0 0.071039442700249214 0.1514151999732502 0 0.073612962798902823 0.17278200678333611 0 0.071039442700249214 0.1514151999732502 0 0.073612962798902823 0.17278200678333611 0 0.087740544640930687 0.16123122417456451 0 0.056495320393279057 0.1758938039325593 0 0.058418108920392182 0.16045602069262471 0 0.073612962798902823 0.17278200678333611 0 0.06399941055398814 0.19765529411200519 0 0.086204466970337151 0.18840875420093359 0 0.073612962798902823 0.17278200678333611 0 0.056495320393279057 0.1758938039325593 0 0.06399941055398814 0.19765529411200519 0 0.073612962798902823 0.17278200678333611 0 0.086204466970337151 0.18840875420093359 0 0.073612962798902823 0.17278200678333611 0 0.086204466970337151 0.18840875420093359 0 0.073612962798902823 0.17278200678333611 0 0.087615468279621078 0.1760345128920231 0 0.087615468279621078 0.1760345128920231 0 0.091738629482519291 0.1861042405989983 0 0.098780737505415703 0.17164633870228399 0 0.086204466970337151 0.18840875420093359 0 0.087615468279621078 0.1760345128920231 0 0.091738629482519291 0.1861042405989983 0 0.086204466970337151 0.18840875420093359 0 0.091738629482519291 0.1861042405989983 0 0.073612962798902823 0.17278200678333611 0 0.087615468279621078 0.1760345128920231 0 0.087740544640930687 0.16123122417456451 0 0.087615468279621078 0.1760345128920231 0 0.087740544640930687 0.16123122417456451 0 0.098780737505415703 0.17164633870228399 0 0.087740544640930687 0.16123122417456451 0 0.098780737505415703 0.17164633870228399 0 0.10582284552831139 0.15718843680556929 0 0.098780737505415703 0.17164633870228399 0 0.1143056367611561 0.17670697857169981 0 0.11439408025226031 0.1643128731168863 0 0.098780737505415703 0.17164633870228399 0 0.10582284552831139 0.15718843680556929 0 0.11439408025226031 0.1643128731168863 0 0.098780737505415703 0.17164633870228399 0 0.10582284552831139 0.15718843680556929 0 0.091738629482519291 0.1861042405989983 0 0.1143056367611561 0.17670697857169981 0 0.10188013338443321 0.1945805347119858 0 0.091738629482519291 0.1861042405989983 0 0.1143056367611561 0.17670697857169981 0 0.091738629482519291 0.1861042405989983 0 0.098780737505415703 0.17164633870228399 0 0.1143056367611561 0.17670697857169981 0 0.091738629482519291 0.1861042405989983 0 0.098780737505415703 0.17164633870228399 0 0.1223034951297057 0.2015047654836217 0 0.1143056367611561 0.17670697857169981 0 0.12984245568560021 0.18336402612102581 0 0.10582284552831139 0.15718843680556929 0 0.11439408025226031 0.1643128731168863 0 0.118827144549028 0.15045938834785799 0 0.1143056367611561 0.17670697857169981 0 0.11439408025226031 0.1643128731168863 0 0.1269873440417035 0.1621457976822499 0 0.11439408025226031 0.1643128731168863 0 0.118827144549028 0.15045938834785799 0 0.1269873440417035 0.1621457976822499 0 0.10582284552831139 0.15718843680556929 0 0.118827144549028 0.15045938834785799 0 0.1060715668831175 0.14085190817348309 0 0.118827144549028 0.15045938834785799 0 0.1060715668831175 0.14085190817348309 0 0.12165438094055341 0.1382202250837688 0 0.089241880289002096 0.14489141207420311 0 0.10582284552831139 0.15718843680556929 0 0.1060715668831175 0.14085190817348309 0 0.089241880289002096 0.14489141207420311 0 0.087740544640930687 0.16123122417456451 0 0.10582284552831139 0.15718843680556929 0 0.1060715668831175 0.14085190817348309 0 0.094925170845575335 0.12812185349131111 0 0.11184177323789279 0.12866158262702601 0 0.10718004060487731 0.1186919078288297 0 0.094925170845575335 0.12812185349131111 0 0.11184177323789279 0.12866158262702601 0 0.089241880289002096 0.14489141207420311 0 0.1060715668831175 0.14085190817348309 0 0.094925170845575335 0.12812185349131111 0 0.11184177323789279 0.12866158262702601 0 0.12165438094055341 0.1382202250837688 0 0.12877089149896251 0.12628235461406201 0 0.1060715668831175 0.14085190817348309 0 0.11184177323789279 0.12866158262702601 0 0.12165438094055341 0.1382202250837688 0 0.12877089149896251 0.12628235461406201 0 0.13720160688724839 0.13964518263404729 0 0.14559099576285081 0.1211645137464301 0 0.12165438094055341 0.1382202250837688 0 0.13720160688724839 0.13964518263404729 0 0.12165438094055341 0.1382202250837688 0 0.12877089149896251 0.12628235461406201 0 0.13720160688724839 0.13964518263404729 0 0.13720160688724839 0.13964518263404729 0 0.15632661280319129 0.13068902382275449 0 0.14559099576285081 0.1211645137464301 0 0.13720160688724839 0.13964518263404729 0 0.14559099576285081 0.1211645137464301 0 0.13720160688724839 0.13964518263404729 0 0.15632661280319129 0.13068902382275449 0 0.16429194695006341 0.14212810690262639 0 0.13720160688724839 0.13964518263404729 0 0.16429194695006341 0.14212810690262639 0 0.13720160688724839 0.13964518263404729 0 0.14941591407077959 0.14904867938194569 0 0.13673045112737631 0.1565089734740045 0 0.13720160688724839 0.13964518263404729 0 0.14941591407077959 0.14904867938194569 0 0.16429194695006341 0.14212810690262639 0 0.14941591407077959 0.14904867938194569 0 0.13673045112737631 0.1565089734740045 0 0.15943965131843141 0.15791245451710681 0 0.118827144549028 0.15045938834785799 0 0.13720160688724839 0.13964518263404729 0 0.1269873440417035 0.1621457976822499 0 0.13720160688724839 0.13964518263404729 0 0.1269873440417035 0.1621457976822499 0 0.13720160688724839 0.13964518263404729 0 0.1269873440417035 0.1621457976822499 0 0.13673045112737631 0.1565089734740045 0 0.118827144549028 0.15045938834785799 0 0.12165438094055341 0.1382202250837688 0 0.13720160688724839 0.13964518263404729 0 0.1143056367611561 0.17670697857169981 0 0.1269873440417035 0.1621457976822499 0 0.1368726440397933 0.1673097165444021 0 0.1269873440417035 0.1621457976822499 0 0.1368726440397933 0.1673097165444021 0 0.13673045112737631 0.1565089734740045 0 0.1143056367611561 0.17670697857169981 0 0.1368726440397933 0.1673097165444021 0 0.12984245568560021 0.18336402612102581 0 0.1143056367611561 0.17670697857169981 0 0.1368726440397933 0.1673097165444021 0 0.1368726440397933 0.1673097165444021 0 0.12984245568560021 0.18336402612102581 0 0.14395995749662011 0.19046676877908139 0 0.1368726440397933 0.1673097165444021 0 0.1557014301669345 0.17418450516490519 0 0.14395995749662011 0.19046676877908139 0 0.13673045112737631 0.1565089734740045 0 0.15943965131843141 0.15791245451710681 0 0.1368726440397933 0.1673097165444021 0 0.15943965131843141 0.15791245451710681 0 0.1368726440397933 0.1673097165444021 0 0.1557014301669345 0.17418450516490519 0 0.15943965131843141 0.15791245451710681 0 0.1368726440397933 0.1673097165444021 0 0.13673045112737631 0.1565089734740045 0 0.15943965131843141 0.15791245451710681 0 0.1557014301669345 0.17418450516490519 0 0.15943965131843141 0.15791245451710681 0 0.16838221510295989 0.1692040805085635 0 0.15943965131843141 0.15791245451710681 0 0.16838221510295989 0.1692040805085635 0 0.17970147406593759 0.15916468197935521 0 0.15943965131843141 0.15791245451710681 0 0.17970147406593759 0.15916468197935521 0 0.1557014301669345 0.17418450516490519 0 0.16985268287686869 0.18602950547537461 0 0.14395995749662011 0.19046676877908139 0 0.1557014301669345 0.17418450516490519 0 0.16838221510295989 0.1692040805085635 0 0.16985268287686869 0.18602950547537461 0 0.16985268287686869 0.18602950547537461 0 0.17776577537378679 0.1717491724038096 0 0.19009851561998109 0.17546705170333859 0 0.16985268287686869 0.18602950547537461 0 0.1921007491770006 0.19413511782623061 0 0.19009851561998109 0.17546705170333859 0 0.16838221510295989 0.1692040805085635 0 0.16985268287686869 0.18602950547537461 0 0.17776577537378679 0.1717491724038096 0 0.17776577537378679 0.1717491724038096 0 0.17970147406593759 0.15916468197935521 0 0.19009851561998109 0.17546705170333859 0 0.16838221510295989 0.1692040805085635 0 0.17776577537378679 0.1717491724038096 0 0.17970147406593759 0.15916468197935521 0 0.17970147406593759 0.15916468197935521 0 0.17541096916565421 0.151261742844153 0 0.19138228701287849 0.14461103117120311 0 0.17541096916565421 0.151261742844153 0 0.19138228701287849 0.14461103117120311 0 0.17541096916565421 0.151261742844153 0 0.16429194695006341 0.14212810690262639 0 0.19138228701287849 0.14461103117120311 0 0.16429194695006341 0.14212810690262639 0 0.19138228701287849 0.14461103117120311 0 0.1826996939178501 0.134395064982826 0 0.17014020092281509 0.1303647164313487 0 0.16429194695006341 0.14212810690262639 0 0.1826996939178501 0.134395064982826 0 0.16429194695006341 0.14212810690262639 0 0.19138228701287849 0.14461103117120311 0 0.1826996939178501 0.134395064982826 0 0.19400001601888209 0.1301444430180784 0 0.18282874988353909 0.12176719670840121 0 0.1826996939178501 0.134395064982826 0 0.17014020092281509 0.1303647164313487 0 0.18282874988353909 0.12176719670840121 0 0.17014020092281509 0.1303647164313487 0 0.15632661280319129 0.13068902382275449 0 0.1644083134929788 0.12014259939932 0 0.17014020092281509 0.1303647164313487 0 0.15632661280319129 0.13068902382275449 0 0.16429194695006341 0.14212810690262639 0 0.14941591407077959 0.14904867938194569 0 0.15943965131843141 0.15791245451710681 0 0.16429194695006341 0.14212810690262639 0 0.15943965131843141 0.15791245451710681 0 0.17970147406593759 0.15916468197935521 0 0.17541096916565421 0.151261742844153 0 0.15943965131843141 0.15791245451710681 0 0.17541096916565421 0.151261742844153 0 0.15943965131843141 0.15791245451710681 0 0.17541096916565421 0.151261742844153 0 0.16429194695006341 0.14212810690262639 0 0.15269041899089261 0.24018887904249059 0 0.1453807329119074 0.24866303934084041 0 0.15466915334416509 0.25190660019890743 0 0.15269041899089261 0.24018887904249059 0 0.1453807329119074 0.24866303934084041 0 0.14060451702156199 0.2357308345711725 0 0.1453807329119074 0.24866303934084041 0 0.12757428593816261 0.239750968992752 0 0.14060451702156199 0.2357308345711725 0 0.1453807329119074 0.24866303934084041 0 0.1197671145453226 0.2507247820991888 0 0.1453807329119074 0.24866303934084041 0 0.12757428593816261 0.239750968992752 0 0.1197671145453226 0.2507247820991888 0 0.14060451702156199 0.2357308345711725 0 0.12985428442346111 0.22473904082679019 0 0.14752286284338639 0.22531224465298941 0 0.12985428442346111 0.22473904082679019 0 0.14752286284338639 0.22531224465298941 0 0.1398831682024731 0.2101323370399282 0 0.12757428593816261 0.239750968992752 0 0.14060451702156199 0.2357308345711725 0 0.12985428442346111 0.22473904082679019 0 0.15269041899089261 0.24018887904249059 0 0.14752286284338639 0.22531224465298941 0 0.16513181717874489 0.22933158445530699 0 0.14752286284338639 0.22531224465298941 0 0.155775241119192 0.20863886545715829 0 0.16513181717874489 0.22933158445530699 0 0.15269041899089261 0.24018887904249059 0 0.14060451702156199 0.2357308345711725 0 0.14752286284338639 0.22531224465298941 0 0.14752286284338639 0.22531224465298941 0 0.155775241119192 0.20863886545715829 0 0.1398831682024731 0.2101323370399282 0 0.1223034951297057 0.2015047654836217 0 0.12985428442346111 0.22473904082679019 0 0.1398831682024731 0.2101323370399282 0 0.1223034951297057 0.2015047654836217 0 0.12984245568560021 0.18336402612102581 0 0.14395995749662011 0.19046676877908139 0 0.1223034951297057 0.2015047654836217 0 0.1398831682024731 0.2101323370399282 0 0.14395995749662011 0.19046676877908139 0 0.155775241119192 0.20863886545715829 0 0.1398831682024731 0.2101323370399282 0 0.14395995749662011 0.19046676877908139 0 0.16985268287686869 0.18602950547537461 0 0.155775241119192 0.20863886545715829 0 0.17615578699577941 0.211297655888005 0 0.16985268287686869 0.18602950547537461 0 0.155775241119192 0.20863886545715829 0 0.14395995749662011 0.19046676877908139 0 0.16985268287686869 0.18602950547537461 0 0.17615578699577941 0.211297655888005 0 0.1921007491770006 0.19413511782623061 0 0.155775241119192 0.20863886545715829 0 0.17615578699577941 0.211297655888005 0 0.16513181717874489 0.22933158445530699 0 0.17615578699577941 0.211297655888005 0 0.1832321526603185 0.22988712241990911 0 0.19922996910836269 0.2206298732412626 0 0.17615578699577941 0.211297655888005 0 0.16513181717874489 0.22933158445530699 0 0.1832321526603185 0.22988712241990911 0 0.1832321526603185 0.22988712241990911 0 0.17921266192405369 0.24485401564359771 0 0.19643052809465181 0.2433224828713732 0 0.16513181717874489 0.22933158445530699 0 0.1832321526603185 0.22988712241990911 0 0.17921266192405369 0.24485401564359771 0 0.17921266192405369 0.24485401564359771 0 0.19643052809465181 0.2433224828713732 0 0.18608903078984079 0.25995697105729071 0 0.17921266192405369 0.24485401564359771 0 0.1648484701696567 0.24744362212440471 0 0.17332134199895571 0.25758983019522791 0 0.15269041899089261 0.24018887904249059 0 0.16513181717874489 0.22933158445530699 0 0.1648484701696567 0.24744362212440471 0 0.16513181717874489 0.22933158445530699 0 0.17921266192405369 0.24485401564359771 0 0.1648484701696567 0.24744362212440471 0 0.15269041899089261 0.24018887904249059 0 0.1648484701696567 0.24744362212440471 0 0.15466915334416509 0.25190660019890743 0 0.21227379049082179 0.2367256787841478 0 0.19643052809465181 0.2433224828713732 0 0.21668623523937189 0.25273648673926968 0 0.21227379049082179 0.2367256787841478 0 0.19643052809465181 0.2433224828713732 0 0.19922996910836269 0.2206298732412626 0 0.1832321526603185 0.22988712241990911 0 0.19643052809465181 0.2433224828713732 0 0.19922996910836269 0.2206298732412626 0 0.21227379049082179 0.2367256787841478 0 0.19922996910836269 0.2206298732412626 0 0.219709047837161 0.22243828454522341 0 0.19922996910836269 0.2206298732412626 0 0.21843520523288221 0.2053181895842969 0 0.1921007491770006 0.19413511782623061 0 0.19922996910836269 0.2206298732412626 0 0.21843520523288221 0.2053181895842969 0 0.219709047837161 0.22243828454522341 0 0.17615578699577941 0.211297655888005 0 0.19922996910836269 0.2206298732412626 0 0.1921007491770006 0.19413511782623061 0 0.21843520523288221 0.2053181895842969 0 0.1921007491770006 0.19413511782623061 0 0.21508853132578909 0.18630480878971589 0 0.21843520523288221 0.2053181895842969 0 0.1921007491770006 0.19413511782623061 0 0.21843520523288221 0.2053181895842969 0 0.23255597692269961 0.1986700960591046 0 0.21508853132578909 0.18630480878971589 0 0.23255597692269961 0.1986700960591046 0 0.21508853132578909 0.18630480878971589 0 0.23658713197922801 0.1849604865578777 0 0.23255597692269961 0.1986700960591046 0 0.24443808169503289 0.19165573435540739 0 0.23658713197922801 0.1849604865578777 0 0.24443808169503289 0.19165573435540739 0 0.2445919001722652 0.2027793092260104 0 0.25672659357731442 0.18931439154619459 0 0.23255597692269961 0.1986700960591046 0 0.24443808169503289 0.19165573435540739 0 0.2445919001722652 0.2027793092260104 0 0.2445919001722652 0.2027793092260104 0 0.2447696612887639 0.21650126134236319 0 0.26045320274891359 0.2075872277184421 0 0.23255597692269961 0.1986700960591046 0 0.2445919001722652 0.2027793092260104 0 0.2447696612887639 0.21650126134236319 0 0.21843520523288221 0.2053181895842969 0 0.2447696612887639 0.21650126134236319 0 0.21843520523288221 0.2053181895842969 0 0.2447696612887639 0.21650126134236319 0 0.2325803478497725 0.22060216126394189 0 0.21843520523288221 0.2053181895842969 0 0.219709047837161 0.22243828454522341 0 0.2325803478497725 0.22060216126394189 0 0.21843520523288221 0.2053181895842969 0 0.23255597692269961 0.1986700960591046 0 0.2447696612887639 0.21650126134236319 0 0.219709047837161 0.22243828454522341 0 0.2325803478497725 0.22060216126394189 0 0.2358022310961575 0.23066856374322481 0 0.21227379049082179 0.2367256787841478 0 0.219709047837161 0.22243828454522341 0 0.2358022310961575 0.23066856374322481 0 0.2325803478497725 0.22060216126394189 0 0.24210869832250451 0.2249280049623063 0 0.2358022310961575 0.23066856374322481 0 0.2447696612887639 0.21650126134236319 0 0.2325803478497725 0.22060216126394189 0 0.24210869832250451 0.2249280049623063 0 0.2447696612887639 0.21650126134236319 0 0.24210869832250451 0.2249280049623063 0 0.24965972363503919 0.22122943443424911 0 0.24210869832250451 0.2249280049623063 0 0.24965972363503919 0.22122943443424911 0 0.2477315277427897 0.2356386040277525 0 0.24210869832250451 0.2249280049623063 0 0.2358022310961575 0.23066856374322481 0 0.2477315277427897 0.2356386040277525 0 0.2477315277427897 0.2356386040277525 0 0.24791323415382371 0.2458877298954085 0 0.23190300684591059 0.2469757189771403 0 0.2358022310961575 0.23066856374322481 0 0.2477315277427897 0.2356386040277525 0 0.23190300684591059 0.2469757189771403 0 0.21227379049082179 0.2367256787841478 0 0.23190300684591059 0.2469757189771403 0 0.21227379049082179 0.2367256787841478 0 0.23190300684591059 0.2469757189771403 0 0.21668623523937189 0.25273648673926968 0 0.21227379049082179 0.2367256787841478 0 0.2358022310961575 0.23066856374322481 0 0.23190300684591059 0.2469757189771403 0 0.20748271977021249 0.138902265540051 0 0.1939758213121906 0.1435310420930529 0 0.2197013820994709 0.14720657512863261 0 0.19138228701287849 0.14461103117120311 0 0.19996329681344399 0.160416909441601 0 0.2197013820994709 0.14720657512863261 0 0.19138228701287849 0.14461103117120311 0 0.2197013820994709 0.14720657512863261 0 0.2166933327952508 0.13146831334115849 0 0.20748271977021249 0.138902265540051 0 0.2197013820994709 0.14720657512863261 0 0.2166933327952508 0.13146831334115849 0 0.20603233854846789 0.12643210165642249 0 0.20748271977021249 0.138902265540051 0 0.20603233854846789 0.12643210165642249 0 0.20748271977021249 0.138902265540051 0 0.1992161984030385 0.13597632749908109 0 0.20748271977021249 0.138902265540051 0 0.1992161984030385 0.13597632749908109 0 0.1939758213121906 0.1435310420930529 0 0.20603233854846789 0.12643210165642249 0 0.1992161984030385 0.13597632749908109 0 0.19400001601888209 0.1301444430180784 0 0.20603233854846789 0.12643210165642249 0 0.19400001601888209 0.1301444430180784 0 0.19603586944622961 0.11914225126713909 0 0.1826996939178501 0.134395064982826 0 0.19400001601888209 0.1301444430180784 0 0.19225480333296779 0.137731581752848 0 0.1826996939178501 0.134395064982826 0 0.19225480333296779 0.137731581752848 0 0.19138228701287849 0.14461103117120311 0 0.1992161984030385 0.13597632749908109 0 0.19225480333296779 0.137731581752848 0 0.1939758213121906 0.1435310420930529 0 0.1992161984030385 0.13597632749908109 0 0.19400001601888209 0.1301444430180784 0 0.19225480333296779 0.137731581752848 0 0.17970147406593759 0.15916468197935521 0 0.19138228701287849 0.14461103117120311 0 0.19996329681344399 0.160416909441601 0 0.19138228701287849 0.14461103117120311 0 0.1939758213121906 0.1435310420930529 0 0.2197013820994709 0.14720657512863261 0 0.19225480333296779 0.137731581752848 0 0.19138228701287849 0.14461103117120311 0 0.1939758213121906 0.1435310420930529 0 0.19138228701287849 0.14461103117120311 0 0.1939758213121906 0.1435310420930529 0 0.17970147406593759 0.15916468197935521 0 0.19996329681344399 0.160416909441601 0 0.19009851561998109 0.17546705170333859 0 0.19996329681344399 0.160416909441601 0 0.19009851561998109 0.17546705170333859 0 0.20950303158443601 0.17060862998040069 0 0.17970147406593759 0.15916468197935521 0 0.19996329681344399 0.160416909441601 0 0.1921007491770006 0.19413511782623061 0 0.19009851561998109 0.17546705170333859 0 0.21508853132578909 0.18630480878971589 0 0.19009851561998109 0.17546705170333859 0 0.21508853132578909 0.18630480878971589 0 0.20950303158443601 0.17060862998040069 0 0.21508853132578909 0.18630480878971589 0 0.20950303158443601 0.17060862998040069 0 0.2262564526410854 0.1725101510884221 0 0.19996329681344399 0.160416909441601 0 0.22022511956095039 0.16166913690384679 0 0.2197013820994709 0.14720657512863261 0 0.19996329681344399 0.160416909441601 0 0.22022511956095039 0.16166913690384679 0 0.20950303158443601 0.17060862998040069 0 0.22022511956095039 0.16166913690384679 0 0.2262564526410854 0.1725101510884221 0 0.19996329681344399 0.160416909441601 0 0.20950303158443601 0.17060862998040069 0 0.22022511956095039 0.16166913690384679 0 0.22022511956095039 0.16166913690384679 0 0.23219216216083469 0.16070882341124321 0 0.2197013820994709 0.14720657512863261 0 0.23219216216083469 0.16070882341124321 0 0.2262564526410854 0.1725101510884221 0 0.24394273923527451 0.1708090208874482 0 0.22022511956095039 0.16166913690384679 0 0.23219216216083469 0.16070882341124321 0 0.2262564526410854 0.1725101510884221 0 0.21508853132578909 0.18630480878971589 0 0.2262564526410854 0.1725101510884221 0 0.23658713197922801 0.1849604865578777 0 0.2262564526410854 0.1725101510884221 0 0.23658713197922801 0.1849604865578777 0 0.24394273923527451 0.1708090208874482 0 0.23658713197922801 0.1849604865578777 0 0.24394273923527451 0.1708090208874482 0 0.25069145747160237 0.17986975870422739 0 0.24443808169503289 0.19165573435540739 0 0.23658713197922801 0.1849604865578777 0 0.25069145747160237 0.17986975870422739 0 0.23219216216083469 0.16070882341124321 0 0.24394273923527451 0.1708090208874482 0 0.24802047718606329 0.14980211908606039 0 0.24802047718606329 0.14980211908606039 0 0.2197013820994709 0.14720657512863261 0 0.23748423865396681 0.1372069433891186 0 0.24802047718606329 0.14980211908606039 0 0.23748423865396681 0.1372069433891186 0 0.23219216216083469 0.16070882341124321 0 0.24802047718606329 0.14980211908606039 0 0.2197013820994709 0.14720657512863261 0 0.24802047718606329 0.14980211908606039 0 0.2197013820994709 0.14720657512863261 0 0.2166933327952508 0.13146831334115849 0 0.23748423865396681 0.1372069433891186 0 0.2269480001218708 0.1246117676921763 0 0.2166933327952508 0.13146831334115849 0 0.2197013820994709 0.14720657512863261 0 0.23748423865396681 0.1372069433891186 0 0.23748423865396681 0.1372069433891186 0 0.2269480001218708 0.1246117676921763 0 0.23748423865396681 0.1372069433891186 0 0.23787758618680691 0.12376630322824581 0 0.2269480001218708 0.1246117676921763 0 0.24802047718606329 0.14980211908606039 0 0.23748423865396681 0.1372069433891186 0 0.25370366287882878 0.1241816415692342 0 0.23748423865396681 0.1372069433891186 0 0.23787758618680691 0.12376630322824581 0 0.25370366287882878 0.1241816415692342 0 0.24537668551697431 0.097277083683747018 0 0.23337444309256139 0.1090648602624541 0 0.25370366287882878 0.1241816415692342 0 0.24537668551697431 0.097277083683747018 0 0.25370366287882878 0.1241816415692342 0 0.23787758618680691 0.12376630322824581 0 0.23337444309256139 0.1090648602624541 0 0.25370366287882878 0.1241816415692342 0 0.24537668551697431 0.097277083683747018 0 0.23337444309256139 0.1090648602624541 0 0.22484289426170589 0.086614640480542404 0 0.23337444309256139 0.1090648602624541 0 0.21826071202707401 0.1016769895838342 0 0.22484289426170589 0.086614640480542404 0 0.23337444309256139 0.1090648602624541 0 0.21899261390952071 0.1157063141952675 0 0.21826071202707401 0.1016769895838342 0 0.2166933327952508 0.13146831334115849 0 0.2269480001218708 0.1246117676921763 0 0.21899261390952071 0.1157063141952675 0 0.23787758618680691 0.12376630322824581 0 0.23337444309256139 0.1090648602624541 0 0.2269480001218708 0.1246117676921763 0 0.23337444309256139 0.1090648602624541 0 0.2269480001218708 0.1246117676921763 0 0.21899261390952071 0.1157063141952675 0 0.20603233854846789 0.12643210165642249 0 0.21899261390952071 0.1157063141952675 0 0.20619401079708341 0.1103047766005421 0 0.2166933327952508 0.13146831334115849 0 0.20603233854846789 0.12643210165642249 0 0.21899261390952071 0.1157063141952675 0 0.20619401079708341 0.1103047766005421 0 0.20469956129863859 0.094216075576966402 0 0.21826071202707401 0.1016769895838342 0 0.21899261390952071 0.1157063141952675 0 0.20619401079708341 0.1103047766005421 0 0.21826071202707401 0.1016769895838342 0 0.20469956129863859 0.094216075576966402 0 0.21826071202707401 0.1016769895838342 0 0.22484289426170589 0.086614640480542404 0 0.20469956129863859 0.094216075576966402 0 0.1920226837756919 0.1062731432897658 0 0.18562998291260069 0.083724599791867624 0 0.20619401079708341 0.1103047766005421 0 0.20469956129863859 0.094216075576966402 0 0.1920226837756919 0.1062731432897658 0 0.1920226837756919 0.1062731432897658 0 0.19603586944622961 0.11914225126713909 0 0.18282874988353909 0.12176719670840121 0 0.20603233854846789 0.12643210165642249 0 0.20619401079708341 0.1103047766005421 0 0.19603586944622961 0.11914225126713909 0 0.19400001601888209 0.1301444430180784 0 0.19603586944622961 0.11914225126713909 0 0.18282874988353909 0.12176719670840121 0 0.20619401079708341 0.1103047766005421 0 0.1920226837756919 0.1062731432897658 0 0.19603586944622961 0.11914225126713909 0 0.19477888427106471 0.068028226971776184 0 0.20783404156105389 0.078077887697304768 0 0.18562998291260069 0.083724599791867624 0 0.20469956129863859 0.094216075576966402 0 0.20783404156105389 0.078077887697304768 0 0.18562998291260069 0.083724599791867624 0 0.20469956129863859 0.094216075576966402 0 0.20783404156105389 0.078077887697304768 0 0.22484289426170589 0.086614640480542404 0 0.20783404156105389 0.078077887697304768 0 0.2213202312424721 0.066581526905057059 0 0.20805697342917059 0.059178341543759817 0 0.20783404156105389 0.078077887697304768 0 0.2213202312424721 0.066581526905057059 0 0.22484289426170589 0.086614640480542404 0 0.19477888427106471 0.068028226971776184 0 0.20783404156105389 0.078077887697304768 0 0.20805697342917059 0.059178341543759817 0 0.2213202312424721 0.066581526905057059 0 0.23704970815511969 0.070372525798259866 0 0.2300545306497668 0.055557326715756347 0 0.2213202312424721 0.066581526905057059 0 0.22484289426170589 0.086614640480542404 0 0.23704970815511969 0.070372525798259866 0 0.24537668551697431 0.097277083683747018 0 0.22484289426170589 0.086614640480542404 0 0.23704970815511969 0.070372525798259866 0 0.24537668551697431 0.097277083683747018 0 0.23704970815511969 0.070372525798259866 0 0.25923100858263742 0.079351551944828513 0 0.24537668551697431 0.097277083683747018 0 0.23704970815511969 0.070372525798259866 0 0.23704970815511969 0.070372525798259866 0 0.24612717135886061 0.053158967820149818 0 0.25923100858263742 0.079351551944828513 0 0.23704970815511969 0.070372525798259866 0 0.24612717135886061 0.053158967820149818 0 0.2300545306497668 0.055557326715756347 0 0.24612717135886061 0.053158967820149818 0 0.22874243829254329 0.043439904086905012 0 0.2300545306497668 0.055557326715756347 0 0.24612717135886061 0.053158967820149818 0 0.24915942417082321 0.043562136642382059 0 0.25194780840825542 0.047502886957762752 0 0.24612717135886061 0.053158967820149818 0 0.2330233341350838 0.026966383695471149 0 0.24915942417082321 0.043562136642382059 0 0.24442705739527931 0.034620488068712277 0 0.25585841565974538 0.042233258010133973 0 0.24442705739527931 0.034620488068712277 0 0.2489069739425 0.021637400389674748 0 0.25585841565974538 0.042233258010133973 0 0.24612717135886061 0.053158967820149818 0 0.24442705739527931 0.034620488068712277 0 0.2330233341350838 0.026966383695471149 0 0.24612717135886061 0.053158967820149818 0 0.24915942417082321 0.043562136642382059 0 0.24442705739527931 0.034620488068712277 0 0.24612717135886061 0.053158967820149818 0 0.22874243829254329 0.043439904086905012 0 0.2330233341350838 0.026966383695471149 0 0.22874243829254329 0.043439904086905012 0 0.2330233341350838 0.026966383695471149 0 0.21578861999574539 0.032179983081358873 0 0.22874243829254329 0.043439904086905012 0 0.21871853532325961 0.049336859121788867 0 0.21578861999574539 0.032179983081358873 0 0.22874243829254329 0.043439904086905012 0 0.2300545306497668 0.055557326715756347 0 0.21871853532325961 0.049336859121788867 0 0.2213202312424721 0.066581526905057059 0 0.2300545306497668 0.055557326715756347 0 0.21871853532325961 0.049336859121788867 0 0.2489069739425 0.021637400389674748 0 0.2403210271001277 -0.0038011986657945939 0 0.2489069739425 0.021637400389674748 0 0.25900523844679291 0.0090906536209348996 0 0.2403210271001277 -0.0038011986657945939 0 0.23441323542690259 0.011205599980234709 0 0.2489069739425 0.021637400389674748 0 0.2403210271001277 -0.0038011986657945939 0 0.23441323542690259 0.011205599980234709 0 0.24019265022494121 0.023607468033523541 0 0.2330233341350838 0.026966383695471149 0 0.23441323542690259 0.011205599980234709 0 0.2489069739425 0.021637400389674748 0 0.23441323542690259 0.011205599980234709 0 0.2489069739425 0.021637400389674748 0 0.24019265022494121 0.023607468033523541 0 0.24442705739527931 0.034620488068712277 0 0.2489069739425 0.021637400389674748 0 0.24019265022494121 0.023607468033523541 0 0.24442705739527931 0.034620488068712277 0 0.24019265022494121 0.023607468033523541 0 0.2330233341350838 0.026966383695471149 0 0.2330233341350838 0.026966383695471149 0 0.2171386306806895 0.017395263111216398 0 0.21578861999574539 0.032179983081358873 0 0.23441323542690259 0.011205599980234709 0 0.2330233341350838 0.026966383695471149 0 0.21991949691130641 0.00077379957079282309 0 0.2330233341350838 0.026966383695471149 0 0.21991949691130641 0.00077379957079282309 0 0.2171386306806895 0.017395263111216398 0 0.2330233341350838 0.026966383695471149 0 0.21991949691130641 0.00077379957079282309 0 0.23441323542690259 0.011205599980234709 0 0.21991949691130641 0.00077379957079282309 0 0.2403210271001277 -0.0038011986657945939 0 0.23441323542690259 0.011205599980234709 0 0.21991949691130641 0.00077379957079282309 0 0.21991949691130641 0.00077379957079282309 0 0.21233724185039379 0.0083260795074358591 0 0.2171386306806895 0.017395263111216398 0 0.1913914811785945 0.0015479160267864781 0 0.21709144706251299 -0.0012616760615819459 0 0.21233724185039379 0.0083260795074358591 0 0.1913914811785945 0.0015479160267864781 0 0.21709144706251299 -0.0012616760615819459 0 0.21991949691130641 0.00077379957079282309 0 0.21233724185039379 0.0083260795074358591 0 0.21709144706251299 -0.0012616760615819459 0 0.21233724185039379 0.0083260795074358591 0 0.20462446051091829 0.018730069701022731 0 0.2171386306806895 0.017395263111216398 0 0.20462446051091829 0.018730069701022731 0 0.21578861999574539 0.032179983081358873 0 0.19600975553610309 0.033109727657073172 0 0.20462446051091829 0.018730069701022731 0 0.2171386306806895 0.017395263111216398 0 0.21578861999574539 0.032179983081358873 0 0.20462446051091829 0.018730069701022731 0 0.18949896143577891 0.016667400663256809 0 0.19600975553610309 0.033109727657073172 0 0.18949896143577891 0.016667400663256809 0 0.19600975553610309 0.033109727657073172 0 0.17707217964719771 0.025267716345226881 0 0.20462446051091829 0.018730069701022731 0 0.18949896143577891 0.016667400663256809 0 0.1913914811785945 0.0015479160267864781 0 0.21233724185039379 0.0083260795074358591 0 0.20462446051091829 0.018730069701022731 0 0.1913914811785945 0.0015479160267864781 0 0.2213202312424721 0.066581526905057059 0 0.20805697342917059 0.059178341543759817 0 0.21871853532325961 0.049336859121788867 0 0.20805697342917059 0.059178341543759817 0 0.2071731341036451 0.043988411023532258 0 0.1951942265281848 0.052365244609145413 0 0.20805697342917059 0.059178341543759817 0 0.21871853532325961 0.049336859121788867 0 0.2071731341036451 0.043988411023532258 0 0.21578861999574539 0.032179983081358873 0 0.2071731341036451 0.043988411023532258 0 0.19600975553610309 0.033109727657073172 0 0.21871853532325961 0.049336859121788867 0 0.21578861999574539 0.032179983081358873 0 0.2071731341036451 0.043988411023532258 0 0.19600975553610309 0.033109727657073172 0 0.1951942265281848 0.052365244609145413 0 0.18205947828297289 0.04260924739081328 0 0.2071731341036451 0.043988411023532258 0 0.19600975553610309 0.033109727657073172 0 0.1951942265281848 0.052365244609145413 0 0.19477888427106471 0.068028226971776184 0 0.20805697342917059 0.059178341543759817 0 0.1951942265281848 0.052365244609145413 0 0.19477888427106471 0.068028226971776184 0 0.1951942265281848 0.052365244609145413 0 0.1764837945120816 0.061910742511003793 0 0.1951942265281848 0.052365244609145413 0 0.1764837945120816 0.061910742511003793 0 0.18205947828297289 0.04260924739081328 0 0.1764837945120816 0.061910742511003793 0 0.18205947828297289 0.04260924739081328 0 0.16553743519129729 0.040392805831617133 0 0.18205947828297289 0.04260924739081328 0 0.16553743519129729 0.040392805831617133 0 0.17707217964719771 0.025267716345226881 0 0.19600975553610309 0.033109727657073172 0 0.18205947828297289 0.04260924739081328 0 0.17707217964719771 0.025267716345226881 0 0.16553743519129729 0.040392805831617133 0 0.1613139894326964 0.024121653580078981 0 0.1482006011997502 0.031747138067586222 0 0.1764837945120816 0.061910742511003793 0 0.16553743519129729 0.040392805831617133 0 0.15002216982279071 0.058334232048501217 0 0.177795833794237 0.0058736288592868176 0 0.17707217964719771 0.025267716345226881 0 0.16471785852727919 0.01090484445761932 0 0.18949896143577891 0.016667400663256809 0 0.1913914811785945 0.0015479160267864781 0 0.177795833794237 0.0058736288592868176 0 0.18949896143577891 0.016667400663256809 0 0.177795833794237 0.0058736288592868176 0 0.17707217964719771 0.025267716345226881 0 0.16553743519129729 0.040392805831617133 0 0.17707217964719771 0.025267716345226881 0 0.1613139894326964 0.024121653580078981 0 0.17707217964719771 0.025267716345226881 0 0.1613139894326964 0.024121653580078981 0 0.16471785852727919 0.01090484445761932 0 0.1613139894326964 0.024121653580078981 0 0.16471785852727919 0.01090484445761932 0 0.1510418725979574 0.012295763198345371 0 0.16471785852727919 0.01090484445761932 0 0.15628357420278671 0.003810722324721363 0 0.1510418725979574 0.012295763198345371 0 0.16471785852727919 0.01090484445761932 0 0.15628357420278671 0.003810722324721363 0 0.16638725000284621 -0.0041024332455818144 0 0.177795833794237 0.0058736288592868176 0 0.16471785852727919 0.01090484445761932 0 0.16638725000284621 -0.0041024332455818144 0 0.15628357420278671 0.003810722324721363 0 0.1463790325767105 0.0051600440866713393 0 0.1510418725979574 0.012295763198345371 0 0.15628357420278671 0.003810722324721363 0 0.1463790325767105 0.0051600440866713393 0 0.15462421245165581 -0.0058893527151400796 0 0.1463790325767105 0.0051600440866713393 0 0.1510418725979574 0.012295763198345371 0 0.1613139894326964 0.024121653580078981 0 0.1510418725979574 0.012295763198345371 0 0.1482006011997502 0.031747138067586222 0 0.1463790325767105 0.0051600440866713393 0 0.1482006011997502 0.031747138067586222 0 0.1463790325767105 0.0051600440866713393 0 0.1510418725979574 0.012295763198345371 0 0.1482006011997502 0.031747138067586222 0 0.1463790325767105 0.0051600440866713393 0 0.13437116548480091 0.018926778797625429 0 0.1482006011997502 0.031747138067586222 0 0.11744308668179609 0.017774871344802521 0 0.13437116548480091 0.018926778797625429 0 0.12506256882025399 0.035699134337412737 0 0.13437116548480091 0.018926778797625429 0 0.1482006011997502 0.031747138067586222 0 0.12506256882025399 0.035699134337412737 0 0.11744308668179609 0.017774871344802521 0 0.13437116548480091 0.018926778797625429 0 0.12681727907172599 0.0028609529651058472 0 0.1463790325767105 0.0051600440866713393 0 0.13437116548480091 0.018926778797625429 0 0.12681727907172599 0.0028609529651058472 0 0.15002216982279071 0.058334232048501217 0 0.1482006011997502 0.031747138067586222 0 0.13318341665519781 0.054736537254868822 0 0.16553743519129729 0.040392805831617133 0 0.15002216982279071 0.058334232048501217 0 0.1482006011997502 0.031747138067586222 0 0.15002216982279071 0.058334232048501217 0 0.1482006011997502 0.031747138067586222 0 0.1482006011997502 0.031747138067586222 0 0.12506256882025399 0.035699134337412737 0 0.13318341665519781 0.054736537254868822 0 0.1220245952479405 0.07004619687739172 0 0.13318341665519781 0.054736537254868822 0 0.140451324603005 0.079388379798429956 0 0.15002216982279071 0.058334232048501217 0 0.13318341665519781 0.054736537254868822 0 0.140451324603005 0.079388379798429956 0 0.15002216982279071 0.058334232048501217 0 0.140451324603005 0.079388379798429956 0 0.16236977351405571 0.08420317597119574 0 0.140451324603005 0.079388379798429956 0 0.13376660142800201 0.097128283387147629 0 0.1539803846384532 0.10268384485881291 0 0.140451324603005 0.079388379798429956 0 0.1539803846384532 0.10268384485881291 0 0.16236977351405571 0.08420317597119574 0 0.1175203890912727 0.086079419998433368 0 0.140451324603005 0.079388379798429956 0 0.13376660142800201 0.097128283387147629 0 0.1175203890912727 0.086079419998433368 0 0.1220245952479405 0.07004619687739172 0 0.140451324603005 0.079388379798429956 0 0.13376660142800201 0.097128283387147629 0 0.13278919984088661 0.11230677671938701 0 0.1539803846384532 0.10268384485881291 0 0.1204523462490521 0.10350528248164099 0 0.13376660142800201 0.097128283387147629 0 0.13278919984088661 0.11230677671938701 0 0.12877089149896251 0.12628235461406201 0 0.13278919984088661 0.11230677671938701 0 0.14559099576285081 0.1211645137464301 0 0.11923934643535521 0.1171320194813406 0 0.12877089149896251 0.12628235461406201 0 0.13278919984088661 0.11230677671938701 0 0.14559099576285081 0.1211645137464301 0 0.1539803846384532 0.10268384485881291 0 0.15632661280319129 0.13068902382275449 0 0.14559099576285081 0.1211645137464301 0 0.1644083134929788 0.12014259939932 0 0.13278919984088661 0.11230677671938701 0 0.14559099576285081 0.1211645137464301 0 0.1539803846384532 0.10268384485881291 0 0.14559099576285081 0.1211645137464301 0 0.1539803846384532 0.10268384485881291 0 0.1644083134929788 0.12014259939932 0 0.1539803846384532 0.10268384485881291 0 0.1644083134929788 0.12014259939932 0 0.1735399813695532 0.1031324266698939 0 0.1539803846384532 0.10268384485881291 0 0.1735399813695532 0.1031324266698939 0 0.16236977351405571 0.08420317597119574 0 0.1644083134929788 0.12014259939932 0 0.18282874988353909 0.12176719670840121 0 0.1735399813695532 0.1031324266698939 0 0.17014020092281509 0.1303647164313487 0 0.1644083134929788 0.12014259939932 0 0.18282874988353909 0.12176719670840121 0 0.1920226837756919 0.1062731432897658 0 0.18282874988353909 0.12176719670840121 0 0.1735399813695532 0.1031324266698939 0 0.1920226837756919 0.1062731432897658 0 0.1735399813695532 0.1031324266698939 0 0.18562998291260069 0.083724599791867624 0 0.1735399813695532 0.1031324266698939 0 0.18562998291260069 0.083724599791867624 0 0.16236977351405571 0.08420317597119574 0 0.1764837945120816 0.061910742511003793 0 0.18562998291260069 0.083724599791867624 0 0.16236977351405571 0.08420317597119574 0 0.19477888427106471 0.068028226971776184 0 0.1764837945120816 0.061910742511003793 0 0.18562998291260069 0.083724599791867624 0 0.1764837945120816 0.061910742511003793 0 0.15002216982279071 0.058334232048501217 0 0.16236977351405571 0.08420317597119574 0 0.1539803846384532 0.10268384485881291 0 0.16236977351405571 0.08420317597119574 0 0.1048222847563673 0.4786668097115272 0 0.091479988498646442 0.48354315307299939 0 0.09327677099031946 0.46903920507515112 0 0.1048222847563673 0.4786668097115272 0 0.10316008329641591 0.49260778903299252 0 0.092978519966910561 0.49654355170423659 0 0.1048222847563673 0.4786668097115272 0 0.092978519966910561 0.49654355170423659 0 0.1048222847563673 0.4786668097115272 0 0.091479988498646442 0.48354315307299939 0 0.092978519966910561 0.49654355170423659 0 0.10316008329641591 0.49260778903299252 0 0.10312521592474901 0.5 0 0.092978519966910561 0.49654355170423659 0 0.10316008329641591 0.49260778903299252 0 0.10312521592474901 0.5 0 0.1137569863567818 0.48891352741171218 0 0.1048222847563673 0.4786668097115272 0 0.10316008329641591 0.49260778903299252 0 0.1137569863567818 0.48891352741171218 0 0.1048222847563673 0.4786668097115272 0 0.10316008329641591 0.49260778903299252 0 0.1137569863567818 0.48891352741171218 0 0.12567845600013469 0.47929569400969452 0 0.1306299125622308 0.5 0 0.10312521592474901 0.5 0 0.1137569863567818 0.48891352741171218 0 0.1306299125622308 0.5 0 0.1048222847563673 0.4786668097115272 0 0.11648320602364499 0.46106604807885698 0 0.12567845600013469 0.47929569400969452 0 0.1048222847563673 0.4786668097115272 0 0.1137569863567818 0.48891352741171218 0 0.12567845600013469 0.47929569400969452 0 0.1048222847563673 0.4786668097115272 0 0.11648320602364499 0.46106604807885698 0 0.1048222847563673 0.4786668097115272 0 0.11648320602364499 0.46106604807885698 0 0.1073203574995146 0.45771532982499841 0 0.1119099515656637 0.4541769576285038 0 0.11648320602364499 0.46106604807885698 0 0.1073203574995146 0.45771532982499841 0 0.1119099515656637 0.4541769576285038 0 0.11648320602364499 0.46106604807885698 0 0.128144127290927 0.44346528644618949 0 0.1119099515656637 0.4541769576285038 0 0.1098184302426566 0.43676384993846878 0 0.128144127290927 0.44346528644618949 0 0.1119099515656637 0.4541769576285038 0 0.1073203574995146 0.45771532982499841 0 0.1098184302426566 0.43676384993846878 0 0.11648320602364499 0.46106604807885698 0 0.128144127290927 0.44346528644618949 0 0.1119099515656637 0.4541769576285038 0 0.1098184302426566 0.43676384993846878 0 0.1007171253458153 0.44820701469258212 0 0.1073203574995146 0.45771532982499841 0 0.1098184302426566 0.43676384993846878 0 0.1073203574995146 0.45771532982499841 0 0.1098184302426566 0.43676384993846878 0 0.1007171253458153 0.44820701469258212 0 0.097642268156116166 0.44157878137516282 0 0.1098184302426566 0.43676384993846878 0 0.097642268156116166 0.44157878137516282 0 0.1020591419526216 0.43422428691783338 0 0.1098184302426566 0.43676384993846878 0 0.097642268156116166 0.44157878137516282 0 0.1098184302426566 0.43676384993846878 0 0.09475968248970798 0.44694335582238792 0 0.1007171253458153 0.44820701469258212 0 0.092889002414179245 0.45276651635374332 0 0.1007171253458153 0.44820701469258212 0 0.096868601935243229 0.45789063626048049 0 0.092889002414179245 0.45276651635374332 0 0.09475968248970798 0.44694335582238792 0 0.1007171253458153 0.44820701469258212 0 0.097642268156116166 0.44157878137516282 0 0.09475968248970798 0.44694335582238792 0 0.097642268156116166 0.44157878137516282 0 0.088987703810336438 0.44500113512203671 0 0.1007171253458153 0.44820701469258212 0 0.097642268156116166 0.44157878137516282 0 0.1048222847563673 0.4786668097115272 0 0.1073203574995146 0.45771532982499841 0 0.09327677099031946 0.46903920507515112 0 0.1048222847563673 0.4786668097115272 0 0.1073203574995146 0.45771532982499841 0 0.1007171253458153 0.44820701469258212 0 0.1073203574995146 0.45771532982499841 0 0.096868601935243229 0.45789063626048049 0 0.1073203574995146 0.45771532982499841 0 0.096868601935243229 0.45789063626048049 0 0.09327677099031946 0.46903920507515112 0 0.090139753426387581 0.46172511535592747 0 0.079256630923375745 0.46616111205340521 0 0.09327677099031946 0.46903920507515112 0 0.096868601935243229 0.45789063626048049 0 0.090139753426387581 0.46172511535592747 0 0.09327677099031946 0.46903920507515112 0 0.090139753426387581 0.46172511535592747 0 0.092889002414179245 0.45276651635374332 0 0.081384578054001289 0.45283886102268139 0 0.096868601935243229 0.45789063626048049 0 0.090139753426387581 0.46172511535592747 0 0.092889002414179245 0.45276651635374332 0 0.090139753426387581 0.46172511535592747 0 0.079256630923375745 0.46616111205340521 0 0.081384578054001289 0.45283886102268139 0 0.088987703810336438 0.44500113512203671 0 0.082419728037930629 0.44071508101891732 0 0.08961571608665983 0.43565438773200948 0 0.097642268156116166 0.44157878137516282 0 0.088987703810336438 0.44500113512203671 0 0.097642268156116166 0.44157878137516282 0 0.088987703810336438 0.44500113512203671 0 0.08961571608665983 0.43565438773200948 0 0.088987703810336438 0.44500113512203671 0 0.092889002414179245 0.45276651635374332 0 0.081384578054001289 0.45283886102268139 0 0.09475968248970798 0.44694335582238792 0 0.088987703810336438 0.44500113512203671 0 0.092889002414179245 0.45276651635374332 0 0.088987703810336438 0.44500113512203671 0 0.081384578054001289 0.45283886102268139 0 0.082419728037930629 0.44071508101891732 0 0.067599685253138281 0.45287595272104653 0 0.081892131328371143 0.4314429342789402 0 0.067599685253138281 0.45287595272104653 0 0.066001473138610989 0.43632828312433408 0 0.081892131328371143 0.4314429342789402 0 0.082419728037930629 0.44071508101891732 0 0.067599685253138281 0.45287595272104653 0 0.081892131328371143 0.4314429342789402 0 0.081384578054001289 0.45283886102268139 0 0.082419728037930629 0.44071508101891732 0 0.067599685253138281 0.45287595272104653 0 0.079256630923375745 0.46616111205340521 0 0.067599685253138281 0.45287595272104653 0 0.069001794002684108 0.47224329730437981 0 0.067599685253138281 0.45287595272104653 0 0.069001794002684108 0.47224329730437981 0 0.053307239177905349 0.47430897116315313 0 0.079256630923375745 0.46616111205340521 0 0.081384578054001289 0.45283886102268139 0 0.067599685253138281 0.45287595272104653 0 0.069001794002684108 0.47224329730437981 0 0.079794243665170225 0.47979706117662119 0 0.065051170993830898 0.48807338940767292 0 0.079256630923375745 0.46616111205340521 0 0.069001794002684108 0.47224329730437981 0 0.079794243665170225 0.47979706117662119 0 0.079256630923375745 0.46616111205340521 0 0.079794243665170225 0.47979706117662119 0 0.09327677099031946 0.46903920507515112 0 0.079794243665170225 0.47979706117662119 0 0.091479988498646442 0.48354315307299939 0 0.09327677099031946 0.46903920507515112 0 0.092978519966910561 0.49654355170423659 0 0.084553660660575528 0.49009386622585083 0 0.075620519287267318 0.5 0 0.10312521592474901 0.5 0 0.092978519966910561 0.49654355170423659 0 0.075620519287267318 0.5 0 0.091479988498646442 0.48354315307299939 0 0.092978519966910561 0.49654355170423659 0 0.084553660660575528 0.49009386622585083 0 0.079794243665170225 0.47979706117662119 0 0.091479988498646442 0.48354315307299939 0 0.084553660660575528 0.49009386622585083 0 0.079794243665170225 0.47979706117662119 0 0.084553660660575528 0.49009386622585083 0 0.065051170993830898 0.48807338940767292 0 0.065051170993830898 0.48807338940767292 0 0.075620519287267318 0.5 0 0.048115822649785527 0.5 0 0.084553660660575528 0.49009386622585083 0 0.065051170993830898 0.48807338940767292 0 0.075620519287267318 0.5 0 0.065051170993830898 0.48807338940767292 0 0.048115822649785527 0.5 0 0.053307239177905349 0.47430897116315313 0 0.069001794002684108 0.47224329730437981 0 0.065051170993830898 0.48807338940767292 0 0.053307239177905349 0.47430897116315313 0 0.053307239177905349 0.47430897116315313 0 0.036467756559221701 0.47774208688151631 0 0.038707058205945111 0.46145460703462421 0 0.036467756559221701 0.47774208688151631 0 0.024551868698660679 0.47115282030446087 0 0.038707058205945111 0.46145460703462421 0 0.053307239177905349 0.47430897116315313 0 0.036467756559221701 0.47774208688151631 0 0.039014793102672522 0.49574198960525939 0 0.053307239177905349 0.47430897116315313 0 0.039014793102672522 0.49574198960525939 0 0.048115822649785527 0.5 0 0.053307239177905349 0.47430897116315313 0 0.039014793102672522 0.49574198960525939 0 0.048115822649785527 0.5 0 0.039014793102672522 0.49574198960525939 0 0.020611126012303801 0.5 0 0.036467756559221701 0.47774208688151631 0 0.039014793102672522 0.49574198960525939 0 0.026757823610924832 0.48605204630008392 0 0.039014793102672522 0.49574198960525939 0 0.020611126012303801 0.5 0 0.026757823610924832 0.48605204630008392 0 0.020611126012303801 0.5 0 0.026757823610924832 0.48605204630008392 0 0.01184792134048173 0.48364435332619582 0 0.036467756559221701 0.47774208688151631 0 0.026757823610924832 0.48605204630008392 0 0.024551868698660679 0.47115282030446087 0 0.024551868698660679 0.47115282030446087 0 0.01184792134048173 0.48364435332619582 0 0.0113986727330041 0.46548394976725249 0 0.026757823610924832 0.48605204630008392 0 0.024551868698660679 0.47115282030446087 0 0.01184792134048173 0.48364435332619582 0 -0.003089566724048357 0.47326761514296101 0 0.01184792134048173 0.48364435332619582 0 0.0113986727330041 0.46548394976725249 0 -0.0068935706251778139 0.5 0 -0.003089566724048357 0.47326761514296101 0 0.01184792134048173 0.48364435332619582 0 -0.0068935706251778139 0.5 0 0.020611126012303801 0.5 0 0.01184792134048173 0.48364435332619582 0 -0.0072392309157056894 0.43649428994281841 0 0.0026031304198410629 0.45131346537392758 0 0.017959463550051329 0.43401198815683267 0 0.0026031304198410629 0.45131346537392758 0 0.021372524407465811 0.45253342051953771 0 0.017959463550051329 0.43401198815683267 0 0.0026031304198410629 0.45131346537392758 0 0.0113986727330041 0.46548394976725249 0 0.021372524407465811 0.45253342051953771 0 -0.003089566724048357 0.47326761514296101 0 0.0026031304198410629 0.45131346537392758 0 0.0113986727330041 0.46548394976725249 0 0.024551868698660679 0.47115282030446087 0 0.0113986727330041 0.46548394976725249 0 0.021372524407465811 0.45253342051953771 0 0.024551868698660679 0.47115282030446087 0 0.021372524407465811 0.45253342051953771 0 0.038707058205945111 0.46145460703462421 0 0.021372524407465811 0.45253342051953771 0 0.037958531274121507 0.44366308696102769 0 0.017959463550051329 0.43401198815683267 0 0.037958531274121507 0.44366308696102769 0 0.05227214254911447 0.45021359508833869 0 0.050058868244965561 0.43265066952584708 0 0.021372524407465811 0.45253342051953771 0 0.037958531274121507 0.44366308696102769 0 0.038707058205945111 0.46145460703462421 0 0.037958531274121507 0.44366308696102769 0 0.038707058205945111 0.46145460703462421 0 0.05227214254911447 0.45021359508833869 0 0.067599685253138281 0.45287595272104653 0 0.053307239177905349 0.47430897116315313 0 0.053307239177905349 0.47430897116315313 0 0.038707058205945111 0.46145460703462421 0 0.05227214254911447 0.45021359508833869 0 0.067599685253138281 0.45287595272104653 0 0.053307239177905349 0.47430897116315313 0 0.05227214254911447 0.45021359508833869 0 0.05227214254911447 0.45021359508833869 0 0.050058868244965561 0.43265066952584708 0 0.066001473138610989 0.43632828312433408 0 0.067599685253138281 0.45287595272104653 0 0.05227214254911447 0.45021359508833869 0 0.066001473138610989 0.43632828312433408 0 0.050058868244965561 0.43265066952584708 0 0.068804754243522781 0.41994166461739918 0 0.066001473138610989 0.43632828312433408 0 0.050058868244965561 0.43265066952584708 0 0.048852687291388877 0.41459777654824598 0 0.068804754243522781 0.41994166461739918 0 0.048852687291388877 0.41459777654824598 0 0.061313779414970418 0.39987885693449271 0 0.068804754243522781 0.41994166461739918 0 0.048852687291388877 0.41459777654824598 0 0.068804754243522781 0.41994166461739918 0 0.048852687291388877 0.41459777654824598 0 0.036746034139956453 0.42683548193420928 0 0.028900620339254991 0.40925388847909272 0 0.048852687291388877 0.41459777654824598 0 0.028900620339254991 0.40925388847909272 0 0.048852687291388877 0.41459777654824598 0 0.028900620339254991 0.40925388847909272 0 0.042007131815748507 0.39655655075565333 0 0.050058868244965561 0.43265066952584708 0 0.048852687291388877 0.41459777654824598 0 0.036746034139956453 0.42683548193420928 0 0.037958531274121507 0.44366308696102769 0 0.050058868244965561 0.43265066952584708 0 0.036746034139956453 0.42683548193420928 0 0.037958531274121507 0.44366308696102769 0 0.036746034139956453 0.42683548193420928 0 0.017959463550051329 0.43401198815683267 0 0.036746034139956453 0.42683548193420928 0 0.017959463550051329 0.43401198815683267 0 0.028900620339254991 0.40925388847909272 0 0.017959463550051329 0.43401198815683267 0 0.028900620339254991 0.40925388847909272 0 0.0059488009041311612 0.41735624870114602 0 0.028900620339254991 0.40925388847909272 0 0.0059488009041311612 0.41735624870114602 0 0.0058412231562265226 0.39891749499975832 0 -0.0081246324890641812 0.40805065625530412 0 0.0059488009041311612 0.41735624870114602 0 0.0058412231562265226 0.39891749499975832 0 -0.0072392309157056894 0.43649428994281841 0 0.017959463550051329 0.43401198815683267 0 0.0059488009041311612 0.41735624870114602 0 -0.0036227877329230301 0.37947700469323042 0 0.0058412231562265226 0.39891749499975832 0 0.017841208666312069 0.37762534579018298 0 0.028900620339254991 0.40925388847909272 0 0.0058412231562265226 0.39891749499975832 0 0.024450360446550148 0.39274026509825583 0 0.024450360446550148 0.39274026509825583 0 0.017841208666312069 0.37762534579018298 0 0.035089121590226528 0.38253825820529852 0 0.0058412231562265226 0.39891749499975832 0 0.024450360446550148 0.39274026509825583 0 0.017841208666312069 0.37762534579018298 0 0.035089121590226528 0.38253825820529852 0 0.042007131815748507 0.39655655075565333 0 0.051605655867250001 0.38149668432143541 0 0.035089121590226528 0.38253825820529852 0 0.051605655867250001 0.38149668432143541 0 0.039541251155271878 0.36427244506096468 0 0.024450360446550148 0.39274026509825583 0 0.035089121590226528 0.38253825820529852 0 0.042007131815748507 0.39655655075565333 0 0.028900620339254991 0.40925388847909272 0 0.024450360446550148 0.39274026509825583 0 0.042007131815748507 0.39655655075565333 0 0.048852687291388877 0.41459777654824598 0 0.042007131815748507 0.39655655075565333 0 0.061313779414970418 0.39987885693449271 0 0.042007131815748507 0.39655655075565333 0 0.061313779414970418 0.39987885693449271 0 0.051605655867250001 0.38149668432143541 0 0.051605655867250001 0.38149668432143541 0 0.071205150989249344 0.38459031979425368 0 0.062117748859898458 0.36500130546073062 0 0.061313779414970418 0.39987885693449271 0 0.051605655867250001 0.38149668432143541 0 0.071205150989249344 0.38459031979425368 0 0.071205150989249344 0.38459031979425368 0 0.082619379705498486 0.3760424233717975 0 0.075022727430642186 0.36942391052545742 0 0.082619379705498486 0.3760424233717975 0 0.089989672908486834 0.38531380646189939 0 0.096111415589441723 0.36906918257109511 0 0.071205150989249344 0.38459031979425368 0 0.082619379705498486 0.3760424233717975 0 0.089989672908486834 0.38531380646189939 0 0.071205150989249344 0.38459031979425368 0 0.089989672908486834 0.38531380646189939 0 0.080292553118600216 0.40417933412777668 0 0.089989672908486834 0.38531380646189939 0 0.080292553118600216 0.40417933412777668 0 0.098794269534858231 0.4008464147916751 0 0.071205150989249344 0.38459031979425368 0 0.080292553118600216 0.40417933412777668 0 0.061313779414970418 0.39987885693449271 0 0.071205150989249344 0.38459031979425368 0 0.080292553118600216 0.40417933412777668 0 0.061313779414970418 0.39987885693449271 0 0.080292553118600216 0.40417933412777668 0 0.068804754243522781 0.41994166461739918 0 0.068804754243522781 0.41994166461739918 0 0.066001473138610989 0.43632828312433408 0 0.081892131328371143 0.4314429342789402 0 0.068804754243522781 0.41994166461739918 0 0.088756821195656727 0.42528555268655249 0 0.089379955247950782 0.42376834846129979 0 0.068804754243522781 0.41994166461739918 0 0.081892131328371143 0.4314429342789402 0 0.088756821195656727 0.42528555268655249 0 0.068804754243522781 0.41994166461739918 0 0.088756821195656727 0.42528555268655249 0 0.097642268156116166 0.44157878137516282 0 0.090272059233259302 0.42569138845737808 0 0.08961571608665983 0.43565438773200948 0 0.082419728037930629 0.44071508101891732 0 0.088756821195656727 0.42528555268655249 0 0.082419728037930629 0.44071508101891732 0 0.081892131328371143 0.4314429342789402 0 0.088756821195656727 0.42528555268655249 0 0.088756821195656727 0.42528555268655249 0 0.090272059233259302 0.42569138845737808 0 0.08961571608665983 0.43565438773200948 0 0.089379955247950782 0.42376834846129979 0 0.090272059233259302 0.42569138845737808 0 0.100849049247472 0.42323949502706593 0 0.088756821195656727 0.42528555268655249 0 0.089379955247950782 0.42376834846129979 0 0.090272059233259302 0.42569138845737808 0 0.088756821195656727 0.42528555268655249 0 0.090272059233259302 0.42569138845737808 0 0.089379955247950782 0.42376834846129979 0 0.090272059233259302 0.42569138845737808 0 0.088756821195656727 0.42528555268655249 0 0.089379955247950782 0.42376834846129979 0 0.082419728037930629 0.44071508101891732 0 0.088756821195656727 0.42528555268655249 0 0.08961571608665983 0.43565438773200948 0 0.080292553118600216 0.40417933412777668 0 0.089379955247950782 0.42376834846129979 0 0.080292553118600216 0.40417933412777668 0 0.068804754243522781 0.41994166461739918 0 0.089379955247950782 0.42376834846129979 0 0.080292553118600216 0.40417933412777668 0 0.089379955247950782 0.42376834846129979 0 0.098794269534858231 0.4008464147916751 0 0.089379955247950782 0.42376834846129979 0 0.10179294521624289 0.41380452076605601 0 0.098794269534858231 0.4008464147916751 0 0.089379955247950782 0.42376834846129979 0 0.098794269534858231 0.4008464147916751 0 0.10179294521624289 0.41380452076605601 0 0.1107041231999616 0.42933549212480232 0 0.10945635351086461 0.40362998662342647 0 0.089379955247950782 0.42376834846129979 0 0.10179294521624289 0.41380452076605601 0 0.100849049247472 0.42323949502706593 0 0.097642268156116166 0.44157878137516282 0 0.090272059233259302 0.42569138845737808 0 0.1020591419526216 0.43422428691783338 0 0.090272059233259302 0.42569138845737808 0 0.1020591419526216 0.43422428691783338 0 0.1093682320879097 0.430806037006286 0 0.090272059233259302 0.42569138845737808 0 0.1093682320879097 0.430806037006286 0 0.090272059233259302 0.42569138845737808 0 0.100849049247472 0.42323949502706593 0 0.1093682320879097 0.430806037006286 0 0.097642268156116166 0.44157878137516282 0 0.090272059233259302 0.42569138845737808 0 0.100849049247472 0.42323949502706593 0 0.1093682320879097 0.430806037006286 0 0.1107041231999616 0.42933549212480232 0 0.10179294521624289 0.41380452076605601 0 0.100849049247472 0.42323949502706593 0 0.1107041231999616 0.42933549212480232 0 0.1020591419526216 0.43422428691783338 0 0.1093682320879097 0.430806037006286 0 0.1103398931765668 0.43239031029619718 0 0.1020591419526216 0.43422428691783338 0 0.1098184302426566 0.43676384993846878 0 0.1103398931765668 0.43239031029619718 0 0.1020591419526216 0.43422428691783338 0 0.1103398931765668 0.43239031029619718 0 0.1103398931765668 0.43239031029619718 0 0.1206950902667107 0.42206632785564402 0 0.13429496844172059 0.42708486797366702 0 0.1098184302426566 0.43676384993846878 0 0.1103398931765668 0.43239031029619718 0 0.13429496844172059 0.42708486797366702 0 0.1098184302426566 0.43676384993846878 0 0.13429496844172059 0.42708486797366702 0 0.128144127290927 0.44346528644618949 0 0.1103398931765668 0.43239031029619718 0 0.13429496844172059 0.42708486797366702 0 0.1098184302426566 0.43676384993846878 0 0.13429496844172059 0.42708486797366702 0 0.1098184302426566 0.43676384993846878 0 0.1103398931765668 0.43239031029619718 0 0.1093682320879097 0.430806037006286 0 0.1103398931765668 0.43239031029619718 0 0.1107041231999616 0.42933549212480232 0 0.1103398931765668 0.43239031029619718 0 0.1107041231999616 0.42933549212480232 0 0.1103398931765668 0.43239031029619718 0 0.1107041231999616 0.42933549212480232 0 0.1206950902667107 0.42206632785564402 0 0.1107041231999616 0.42933549212480232 0 0.10945635351086461 0.40362998662342647 0 0.1107041231999616 0.42933549212480232 0 0.1127079119913361 0.41252960019287183 0 0.10945635351086461 0.40362998662342647 0 0.1107041231999616 0.42933549212480232 0 0.1206950902667107 0.42206632785564402 0 0.1127079119913361 0.41252960019287183 0 0.1107041231999616 0.42933549212480232 0 0.1127079119913361 0.41252960019287183 0 0.1127079119913361 0.41252960019287183 0 0.11966152561727041 0.40521647558469348 0 0.10945635351086461 0.40362998662342647 0 0.1206950902667107 0.42206632785564402 0 0.1127079119913361 0.41252960019287183 0 0.1238244133614653 0.41259348140785829 0 0.1127079119913361 0.41252960019287183 0 0.1238244133614653 0.41259348140785829 0 0.11966152561727041 0.40521647558469348 0 0.10945635351086461 0.40362998662342647 0 0.12302526621810631 0.39483339242702431 0 0.1082085838217669 0.37792448112205068 0 0.11966152561727041 0.40521647558469348 0 0.12302526621810631 0.39483339242702431 0 0.1317921164680903 0.40545952647836342 0 0.11966152561727041 0.40521647558469348 0 0.10945635351086461 0.40362998662342647 0 0.12302526621810631 0.39483339242702431 0 0.12302526621810631 0.39483339242702431 0 0.1082085838217669 0.37792448112205068 0 0.12936302614305781 0.3806702380723882 0 0.1082085838217669 0.37792448112205068 0 0.1269429757455281 0.3700741961410311 0 0.12936302614305781 0.3806702380723882 0 0.089989672908486834 0.38531380646189939 0 0.1082085838217669 0.37792448112205068 0 0.098794269534858231 0.4008464147916751 0 0.089989672908486834 0.38531380646189939 0 0.1082085838217669 0.37792448112205068 0 0.096111415589441723 0.36906918257109511 0 0.1082085838217669 0.37792448112205068 0 0.098794269534858231 0.4008464147916751 0 0.10945635351086461 0.40362998662342647 0 0.1082085838217669 0.37792448112205068 0 0.098794269534858231 0.4008464147916751 0 0.10945635351086461 0.40362998662342647 0 0.1082085838217669 0.37792448112205068 0 0.10179294521624289 0.41380452076605601 0 0.10945635351086461 0.40362998662342647 0 0.098794269534858231 0.4008464147916751 0 0.1071786794515654 0.3567072543489932 0 0.10614877508136331 0.33549002757593549 0 0.1071786794515654 0.3567072543489932 0 0.113306419652784 0.34577619835524942 0 0.10614877508136331 0.33549002757593549 0 0.1071786794515654 0.3567072543489932 0 0.095546341163152998 0.34721348103654748 0 0.10614877508136331 0.33549002757593549 0 0.1071786794515654 0.3567072543489932 0 0.095546341163152998 0.34721348103654748 0 0.095306363846323322 0.35760506086541671 0 0.1082085838217669 0.37792448112205068 0 0.1071786794515654 0.3567072543489932 0 0.096111415589441723 0.36906918257109511 0 0.1082085838217669 0.37792448112205068 0 0.1071786794515654 0.3567072543489932 0 0.1071786794515654 0.3567072543489932 0 0.095306363846323322 0.35760506086541671 0 0.096111415589441723 0.36906918257109511 0 0.1082085838217669 0.37792448112205068 0 0.1071786794515654 0.3567072543489932 0 0.1164276567709608 0.35791271614101089 0 0.1082085838217669 0.37792448112205068 0 0.1207019799918789 0.36117572882690419 0 0.1269429757455281 0.3700741961410311 0 0.1082085838217669 0.37792448112205068 0 0.1207019799918789 0.36117572882690419 0 0.1164276567709608 0.35791271614101089 0 0.1082085838217669 0.37792448112205068 0 0.1164276567709608 0.35791271614101089 0 0.1207019799918789 0.36117572882690419 0 0.12020614592151201 0.35183052892485178 0 0.1164276567709608 0.35791271614101089 0 0.1207019799918789 0.36117572882690419 0 0.12020614592151201 0.35183052892485178 0 0.1327104347709552 0.34833671648866182 0 0.1071786794515654 0.3567072543489932 0 0.1164276567709608 0.35791271614101089 0 0.1142797254492055 0.35305667444252631 0 0.1071786794515654 0.3567072543489932 0 0.1142797254492055 0.35305667444252631 0 0.113306419652784 0.34577619835524942 0 0.12020614592151201 0.35183052892485178 0 0.1164276567709608 0.35791271614101089 0 0.1142797254492055 0.35305667444252631 0 0.12020614592151201 0.35183052892485178 0 0.1142797254492055 0.35305667444252631 0 0.113306419652784 0.34577619835524942 0 0.12020614592151201 0.35183052892485178 0 0.113306419652784 0.34577619835524942 0 0.12565642337597641 0.34531162420386119 0 0.113306419652784 0.34577619835524942 0 0.10614877508136331 0.33549002757593549 0 0.12728204636342119 0.33264440370185788 0 0.113306419652784 0.34577619835524942 0 0.12728204636342119 0.33264440370185788 0 0.12565642337597641 0.34531162420386119 0 0.1046413786221535 0.32421374287331212 0 0.10614877508136331 0.33549002757593549 0 0.12728204636342119 0.33264440370185788 0 0.1046413786221535 0.32421374287331212 0 0.12728204636342119 0.33264440370185788 0 0.1167242617350734 0.31677866348064548 0 0.1046413786221535 0.32421374287331212 0 0.12728204636342119 0.33264440370185788 0 0.1167242617350734 0.31677866348064548 0 0.1046413786221535 0.32421374287331212 0 0.1046413786221535 0.32421374287331212 0 0.077692308094581719 0.31417877058986282 0 0.103629968386694 0.31192557858664272 0 0.1167242617350734 0.31677866348064548 0 0.1046413786221535 0.32421374287331212 0 0.103629968386694 0.31192557858664272 0 0.1046413786221535 0.32421374287331212 0 0.08294133613319174 0.33756664360252769 0 0.1046413786221535 0.32421374287331212 0 0.10614877508136331 0.33549002757593549 0 0.08294133613319174 0.33756664360252769 0 0.095546341163152998 0.34721348103654748 0 0.10614877508136331 0.33549002757593549 0 0.08294133613319174 0.33756664360252769 0 0.1046413786221535 0.32421374287331212 0 0.077692308094581719 0.31417877058986282 0 0.1046413786221535 0.32421374287331212 0 0.08294133613319174 0.33756664360252769 0 0.077692308094581719 0.31417877058986282 0 0.077692308094581719 0.31417877058986282 0 0.067976715374811009 0.32361441744144559 0 0.058789612577710128 0.31476722793512929 0 0.08294133613319174 0.33756664360252769 0 0.077692308094581719 0.31417877058986282 0 0.067976715374811009 0.32361441744144559 0 0.08294133613319174 0.33756664360252769 0 0.067976715374811009 0.32361441744144559 0 0.060135280265193262 0.33376627043538171 0 0.08294133613319174 0.33756664360252769 0 0.061241293644231747 0.35091954433174621 0 0.060135280265193262 0.33376627043538171 0 0.08294133613319174 0.33756664360252769 0 0.061241293644231747 0.35091954433174621 0 0.08294133613319174 0.33756664360252769 0 0.074215767858206258 0.35718016320722129 0 0.061241293644231747 0.35091954433174621 0 0.074215767858206258 0.35718016320722129 0 0.062117748859898458 0.36500130546073062 0 0.061241293644231747 0.35091954433174621 0 0.08294133613319174 0.33756664360252769 0 0.074215767858206258 0.35718016320722129 0 0.086887140600208246 0.35260595290123381 0 0.074215767858206258 0.35718016320722129 0 0.086887140600208246 0.35260595290123381 0 0.085272644414092907 0.36373677956425621 0 0.095546341163152998 0.34721348103654748 0 0.095306363846323322 0.35760506086541671 0 0.086887140600208246 0.35260595290123381 0 0.095306363846323322 0.35760506086541671 0 0.086887140600208246 0.35260595290123381 0 0.085272644414092907 0.36373677956425621 0 0.095546341163152998 0.34721348103654748 0 0.08294133613319174 0.33756664360252769 0 0.086887140600208246 0.35260595290123381 0 0.082619379705498486 0.3760424233717975 0 0.096111415589441723 0.36906918257109511 0 0.085272644414092907 0.36373677956425621 0 0.095306363846323322 0.35760506086541671 0 0.096111415589441723 0.36906918257109511 0 0.085272644414092907 0.36373677956425621 0 0.074215767858206258 0.35718016320722129 0 0.085272644414092907 0.36373677956425621 0 0.075022727430642186 0.36942391052545742 0 0.082619379705498486 0.3760424233717975 0 0.085272644414092907 0.36373677956425621 0 0.075022727430642186 0.36942391052545742 0 0.071205150989249344 0.38459031979425368 0 0.075022727430642186 0.36942391052545742 0 0.062117748859898458 0.36500130546073062 0 0.071205150989249344 0.38459031979425368 0 0.062117748859898458 0.36500130546073062 0 0.074215767858206258 0.35718016320722129 0 0.075022727430642186 0.36942391052545742 0 0.062117748859898458 0.36500130546073062 0 0.062117748859898458 0.36500130546073062 0 0.061241293644231747 0.35091954433174621 0 0.039541251155271878 0.36427244506096468 0 0.051605655867250001 0.38149668432143541 0 0.062117748859898458 0.36500130546073062 0 0.039541251155271878 0.36427244506096468 0 0.061241293644231747 0.35091954433174621 0 0.039541251155271878 0.36427244506096468 0 0.061241293644231747 0.35091954433174621 0 0.044784474582475392 0.34869393697364293 0 0.052607857505341568 0.34198871306916279 0 0.061241293644231747 0.35091954433174621 0 0.044784474582475392 0.34869393697364293 0 0.039541251155271878 0.36427244506096468 0 0.044784474582475392 0.34869393697364293 0 0.039541251155271878 0.36427244506096468 0 0.023969970644136189 0.34780247639640383 0 0.017841208666312069 0.37762534579018298 0 0.039541251155271878 0.36427244506096468 0 0.022364176625033282 0.36301365865426333 0 0.017841208666312069 0.37762534579018298 0 0.035089121590226528 0.38253825820529852 0 0.039541251155271878 0.36427244506096468 0 0.017841208666312069 0.37762534579018298 0 0.039541251155271878 0.36427244506096468 0 0.017841208666312069 0.37762534579018298 0 0.022364176625033282 0.36301365865426333 0 0.0070688581490178301 0.36290469613376197 0 0.022364176625033282 0.36301365865426333 0 0.023969970644136189 0.34780247639640383 0 0.0070688581490178301 0.36290469613376197 0 0.039541251155271878 0.36427244506096468 0 0.022364176625033282 0.36301365865426333 0 0.023969970644136189 0.34780247639640383 0 0.023969970644136189 0.34780247639640383 0 0.0070688581490178301 0.36290469613376197 0 0.010160838263171251 0.33572436441868259 0 -0.0072621374188671052 0.34147004492185079 0 0.0070688581490178301 0.36290469613376197 0 0.010160838263171251 0.33572436441868259 0 -0.0036227877329230301 0.37947700469323042 0 0.017841208666312069 0.37762534579018298 0 0.0070688581490178301 0.36290469613376197 0 -0.00017254440855824261 0.32560037032276101 0 0.010160838263171251 0.33572436441868259 0 0.020336227673690289 0.32045890090113183 0 -0.0025045175740335168 0.31031314766219981 0 -0.00017254440855824261 0.32560037032276101 0 0.020336227673690289 0.32045890090113183 0 -0.0072621374188671052 0.34147004492185079 0 -0.00017254440855824261 0.32560037032276101 0 0.010160838263171251 0.33572436441868259 0 0.023969970644136189 0.34780247639640383 0 0.010160838263171251 0.33572436441868259 0 0.020336227673690289 0.32045890090113183 0 0.023969970644136189 0.34780247639640383 0 0.020336227673690289 0.32045890090113183 0 0.041998086792626607 0.33406523967628299 0 0.04333949094528719 0.3160267531553359 0 0.041998086792626607 0.33406523967628299 0 0.052729264779742331 0.32427979797466039 0 0.020336227673690289 0.32045890090113183 0 0.04333949094528719 0.3160267531553359 0 0.041998086792626607 0.33406523967628299 0 0.044784474582475392 0.34869393697364293 0 0.023969970644136189 0.34780247639640383 0 0.041998086792626607 0.33406523967628299 0 0.044784474582475392 0.34869393697364293 0 0.041998086792626607 0.33406523967628299 0 0.052607857505341568 0.34198871306916279 0 0.061241293644231747 0.35091954433174621 0 0.052607857505341568 0.34198871306916279 0 0.060135280265193262 0.33376627043538171 0 0.041998086792626607 0.33406523967628299 0 0.060135280265193262 0.33376627043538171 0 0.052729264779742331 0.32427979797466039 0 0.041998086792626607 0.33406523967628299 0 0.052607857505341568 0.34198871306916279 0 0.060135280265193262 0.33376627043538171 0 0.04333949094528719 0.3160267531553359 0 0.052729264779742331 0.32427979797466039 0 0.058789612577710128 0.31476722793512929 0 0.067976715374811009 0.32361441744144559 0 0.052729264779742331 0.32427979797466039 0 0.058789612577710128 0.31476722793512929 0 0.067976715374811009 0.32361441744144559 0 0.060135280265193262 0.33376627043538171 0 0.052729264779742331 0.32427979797466039 0 0.058789612577710128 0.31476722793512929 0 0.050743237567011198 0.30414379830640997 0 0.077692308094581719 0.31417877058986282 0 0.058789612577710128 0.31476722793512929 0 0.050743237567011198 0.30414379830640997 0 0.04333949094528719 0.3160267531553359 0 0.058789612577710128 0.31476722793512929 0 0.050743237567011198 0.30414379830640997 0 0.050743237567011198 0.30414379830640997 0 0.057014991513141711 0.27962034081982778 0 0.068251428351683213 0.29416468787043332 0 0.050743237567011198 0.30414379830640997 0 0.035335655862959579 0.28380154980765537 0 0.057014991513141711 0.27962034081982778 0 0.050743237567011198 0.30414379830640997 0 0.035335655862959579 0.28380154980765537 0 0.050743237567011198 0.30414379830640997 0 0.035335655862959579 0.28380154980765537 0 0.035440516280943121 0.29844555413839979 0 0.020336227673690289 0.32045890090113183 0 0.04333949094528719 0.3160267531553359 0 0.035440516280943121 0.29844555413839979 0 0.04333949094528719 0.3160267531553359 0 0.050743237567011198 0.30414379830640997 0 0.035440516280943121 0.29844555413839979 0 0.050743237567011198 0.30414379830640997 0 0.035440516280943121 0.29844555413839979 0 0.020336227673690289 0.32045890090113183 0 0.035440516280943121 0.29844555413839979 0 0.020137794994874249 0.2927473099703915 0 0.020336227673690289 0.32045890090113183 0 0.020137794994874249 0.2927473099703915 0 0.020336227673690289 0.32045890090113183 0 0.020137794994874249 0.2927473099703915 0 0.010209922096268529 0.3014659822355169 0 0.035335655862959579 0.28380154980765537 0 0.035440516280943121 0.29844555413839979 0 0.020137794994874249 0.2927473099703915 0 0.035440516280943121 0.29844555413839979 0 0.020137794994874249 0.2927473099703915 0 0.020137794994874249 0.2927473099703915 0 0.014388475155295941 0.29060644707198668 0 0.01992807415890703 0.26345930130890138 0 0.020137794994874249 0.2927473099703915 0 0.014388475155295941 0.29060644707198668 0 0.020137794994874249 0.2927473099703915 0 0.014388475155295941 0.29060644707198668 0 0.010209922096268529 0.3014659822355169 0 -0.001308369768482999 0.29320410557187471 0 0.014388475155295941 0.29060644707198668 0 0.010209922096268529 0.3014659822355169 0 -0.001308369768482999 0.29320410557187471 0 0.014388475155295941 0.29060644707198668 0 0.0042686616650212863 0.27440264234540929 0 -0.0025045175740335168 0.31031314766219981 0 0.020336227673690289 0.32045890090113183 0 0.010209922096268529 0.3014659822355169 0 -0.0025045175740335168 0.31031314766219981 0 -0.001308369768482999 0.29320410557187471 0 0.010209922096268529 0.3014659822355169 0 0.0108212759879371 0.25143582124693198 0 0.0045166499774289158 0.26107549289106269 0 0.01992807415890703 0.26345930130890138 0 0.0108212759879371 0.25143582124693198 0 0.01992807415890703 0.26345930130890138 0 -0.004361582131907446 0.25012675423618741 0 0.0108212759879371 0.25143582124693198 0 0.0045166499774289158 0.26107549289106269 0 -0.0080731797928139601 0.26595294531788349 0 0.0045166499774289158 0.26107549289106269 0 0.0042686616650212863 0.27440264234540929 0 0.014388475155295941 0.29060644707198668 0 0.0042686616650212863 0.27440264234540929 0 0.01992807415890703 0.26345930130890138 0 0.0045166499774289158 0.26107549289106269 0 0.0042686616650212863 0.27440264234540929 0 0.01992807415890703 0.26345930130890138 0 0.020137794994874249 0.2927473099703915 0 0.01992807415890703 0.26345930130890138 0 0.035335655862959579 0.28380154980765537 0 0.020137794994874249 0.2927473099703915 0 0.01992807415890703 0.26345930130890138 0 0.035335655862959579 0.28380154980765537 0 0.01992807415890703 0.26345930130890138 0 0.019733428038529611 0.23627651218177001 0 0.0108212759879371 0.25143582124693198 0 0.01992807415890703 0.26345930130890138 0 0.032395297456559217 0.24990448186487541 0 0.01992807415890703 0.26345930130890138 0 0.043558334625058162 0.26267399305688549 0 0.049298807743375681 0.24401567068345059 0 0.032395297456559217 0.24990448186487541 0 0.043558334625058162 0.26267399305688549 0 0.035335655862959579 0.28380154980765537 0 0.01992807415890703 0.26345930130890138 0 0.043558334625058162 0.26267399305688549 0 0.035335655862959579 0.28380154980765537 0 0.043558334625058162 0.26267399305688549 0 0.057014991513141711 0.27962034081982778 0 0.043558334625058162 0.26267399305688549 0 0.057014991513141711 0.27962034081982778 0 0.068539877812152941 0.25484826761588569 0 0.049298807743375681 0.24401567068345059 0 0.043558334625058162 0.26267399305688549 0 0.068539877812152941 0.25484826761588569 0 0.068539877812152941 0.25484826761588569 0 0.094153496178737847 0.25278652485753728 0 0.068539877812152941 0.25484826761588569 0 0.094153496178737847 0.25278652485753728 0 0.094570315268327418 0.27155612350054997 0 0.076756394676448791 0.2775889904003081 0 0.087579642181032397 0.29054902922906578 0 0.094570315268327418 0.27155612350054997 0 0.068539877812152941 0.25484826761588569 0 0.076756394676448791 0.2775889904003081 0 0.094570315268327418 0.27155612350054997 0 0.057014991513141711 0.27962034081982778 0 0.068539877812152941 0.25484826761588569 0 0.076756394676448791 0.2775889904003081 0 0.076756394676448791 0.2775889904003081 0 0.068251428351683213 0.29416468787043332 0 0.087579642181032397 0.29054902922906578 0 0.057014991513141711 0.27962034081982778 0 0.076756394676448791 0.2775889904003081 0 0.068251428351683213 0.29416468787043332 0 0.077692308094581719 0.31417877058986282 0 0.050743237567011198 0.30414379830640997 0 0.068251428351683213 0.29416468787043332 0 0.077692308094581719 0.31417877058986282 0 0.050743237567011198 0.30414379830640997 0 0.077692308094581719 0.31417877058986282 0 0.068251428351683213 0.29416468787043332 0 0.087579642181032397 0.29054902922906578 0 0.077692308094581719 0.31417877058986282 0 0.087579642181032397 0.29054902922906578 0 0.1000908984509512 0.30112340397666981 0 0.087579642181032397 0.29054902922906578 0 0.1081165082442021 0.28468219903657133 0 0.1000908984509512 0.30112340397666981 0 0.1081165082442021 0.28468219903657133 0 0.1000908984509512 0.30112340397666981 0 0.1144297267004354 0.30168664743999352 0 0.087579642181032397 0.29054902922906578 0 0.1081165082442021 0.28468219903657133 0 0.094570315268327418 0.27155612350054997 0 0.077692308094581719 0.31417877058986282 0 0.1000908984509512 0.30112340397666981 0 0.103629968386694 0.31192557858664272 0 0.1000908984509512 0.30112340397666981 0 0.103629968386694 0.31192557858664272 0 0.1144297267004354 0.30168664743999352 0 0.1167242617350734 0.31677866348064548 0 0.1144297267004354 0.30168664743999352 0 0.13022117462186741 0.30154725623692402 0 0.1167242617350734 0.31677866348064548 0 0.103629968386694 0.31192557858664272 0 0.1144297267004354 0.30168664743999352 0 0.1081165082442021 0.28468219903657133 0 0.1144297267004354 0.30168664743999352 0 0.12390947864198219 0.28542069115612873 0 0.1144297267004354 0.30168664743999352 0 0.12390947864198219 0.28542069115612873 0 0.13022117462186741 0.30154725623692402 0 0.112671388523889 0.26641905049976811 0 0.123100174820058 0.26168293397560438 0 0.12910128816626559 0.2715879755468264 0 0.1081165082442021 0.28468219903657133 0 0.12390947864198219 0.28542069115612873 0 0.112671388523889 0.26641905049976811 0 0.12390947864198219 0.28542069115612873 0 0.112671388523889 0.26641905049976811 0 0.12910128816626559 0.2715879755468264 0 0.112671388523889 0.26641905049976811 0 0.123100174820058 0.26168293397560438 0 0.1197671145453226 0.2507247820991888 0 0.112671388523889 0.26641905049976811 0 0.1197671145453226 0.2507247820991888 0 0.094153496178737847 0.25278652485753728 0 0.112671388523889 0.26641905049976811 0 0.094153496178737847 0.25278652485753728 0 0.094570315268327418 0.27155612350054997 0 0.1197671145453226 0.2507247820991888 0 0.094153496178737847 0.25278652485753728 0 0.1081165082442021 0.28468219903657133 0 0.112671388523889 0.26641905049976811 0 0.094570315268327418 0.27155612350054997 0 0.1484138213405074 0.25936399499983281 0 0.14891678559523411 0.28660101817668943 0 0.16201232330786131 0.26387346548696822 0 0.1484138213405074 0.25936399499983281 0 0.1401857002278207 0.2693725498640136 0 0.14891678559523411 0.28660101817668943 0 0.1484138213405074 0.25936399499983281 0 0.14891678559523411 0.28660101817668943 0 0.15466915334416509 0.25190660019890743 0 0.1484138213405074 0.25936399499983281 0 0.16201232330786131 0.26387346548696822 0 0.1453807329119074 0.24866303934084041 0 0.15466915334416509 0.25190660019890743 0 0.1484138213405074 0.25936399499983281 0 0.1453807329119074 0.24866303934084041 0 0.1484138213405074 0.25936399499983281 0 0.13431090580927579 0.25993721073270593 0 0.1484138213405074 0.25936399499983281 0 0.13431090580927579 0.25993721073270593 0 0.1401857002278207 0.2693725498640136 0 0.1453807329119074 0.24866303934084041 0 0.1197671145453226 0.2507247820991888 0 0.13431090580927579 0.25993721073270593 0 0.123100174820058 0.26168293397560438 0 0.1197671145453226 0.2507247820991888 0 0.13431090580927579 0.25993721073270593 0 0.123100174820058 0.26168293397560438 0 0.13431090580927579 0.25993721073270593 0 0.12910128816626559 0.2715879755468264 0 0.12910128816626559 0.2715879755468264 0 0.1401857002278207 0.2693725498640136 0 0.14891678559523411 0.28660101817668943 0 0.12390947864198219 0.28542069115612873 0 0.12910128816626559 0.2715879755468264 0 0.14891678559523411 0.28660101817668943 0 0.13431090580927579 0.25993721073270593 0 0.12910128816626559 0.2715879755468264 0 0.1401857002278207 0.2693725498640136 0 0.12390947864198219 0.28542069115612873 0 0.13022117462186741 0.30154725623692402 0 0.14891678559523411 0.28660101817668943 0 0.13022117462186741 0.30154725623692402 0 0.1494197498499607 0.31383804135354598 0 0.13362732087883861 0.31825791726589631 0 0.1167242617350734 0.31677866348064548 0 0.13022117462186741 0.30154725623692402 0 0.13362732087883861 0.31825791726589631 0 0.14891678559523411 0.28660101817668943 0 0.16502192730860321 0.29833672799327199 0 0.1494197498499607 0.31383804135354598 0 0.14891678559523411 0.28660101817668943 0 0.1494197498499607 0.31383804135354598 0 0.13022117462186741 0.30154725623692402 0 0.14891678559523411 0.28660101817668943 0 0.1494197498499607 0.31383804135354598 0 0.14891678559523411 0.28660101817668943 0 0.16502192730860321 0.29833672799327199 0 0.17258825255407231 0.27567175281796641 0 0.16502192730860321 0.29833672799327199 0 0.17750724151807151 0.31691505049664243 0 0.1494197498499607 0.31383804135354598 0 0.16502192730860321 0.29833672799327199 0 0.18306544781706219 0.29535972807124689 0 0.17750724151807151 0.31691505049664243 0 0.18306544781706219 0.29535972807124689 0 0.19825331032735899 0.30649929221888439 0 0.17750724151807151 0.31691505049664243 0 0.16502192730860321 0.29833672799327199 0 0.18306544781706219 0.29535972807124689 0 0.17258825255407231 0.27567175281796641 0 0.18306544781706219 0.29535972807124689 0 0.17258825255407231 0.27567175281796641 0 0.19225514168233229 0.27637801024750158 0 0.17258825255407231 0.27567175281796641 0 0.18608903078984079 0.25995697105729071 0 0.19225514168233229 0.27637801024750158 0 0.17258825255407231 0.27567175281796641 0 0.16201232330786131 0.26387346548696822 0 0.17332134199895571 0.25758983019522791 0 0.14891678559523411 0.28660101817668943 0 0.17258825255407231 0.27567175281796641 0 0.16201232330786131 0.26387346548696822 0 0.1648484701696567 0.24744362212440471 0 0.15466915334416509 0.25190660019890743 0 0.16201232330786131 0.26387346548696822 0 0.1648484701696567 0.24744362212440471 0 0.16201232330786131 0.26387346548696822 0 0.17332134199895571 0.25758983019522791 0 0.17921266192405369 0.24485401564359771 0 0.17332134199895571 0.25758983019522791 0 0.18608903078984079 0.25995697105729071 0 0.17258825255407231 0.27567175281796641 0 0.17332134199895571 0.25758983019522791 0 0.18608903078984079 0.25995697105729071 0 0.19643052809465181 0.2433224828713732 0 0.18608903078984079 0.25995697105729071 0 0.20272625848497891 0.26192573456807738 0 0.18608903078984079 0.25995697105729071 0 0.20272625848497891 0.26192573456807738 0 0.19225514168233229 0.27637801024750158 0 0.19225514168233229 0.27637801024750158 0 0.20931999553351249 0.2747097540570328 0 0.20479240245397259 0.28930189362021808 0 0.20272625848497891 0.26192573456807738 0 0.19225514168233229 0.27637801024750158 0 0.20931999553351249 0.2747097540570328 0 0.20272625848497891 0.26192573456807738 0 0.20931999553351249 0.2747097540570328 0 0.22276706595432569 0.26722786124429282 0 0.19643052809465181 0.2433224828713732 0 0.20272625848497891 0.26192573456807738 0 0.21668623523937189 0.25273648673926968 0 0.20272625848497891 0.26192573456807738 0 0.21668623523937189 0.25273648673926968 0 0.22276706595432569 0.26722786124429282 0 0.23190300684591059 0.2469757189771403 0 0.21668623523937189 0.25273648673926968 0 0.2340167615655426 0.26024144399058702 0 0.21668623523937189 0.25273648673926968 0 0.2340167615655426 0.26024144399058702 0 0.22276706595432569 0.26722786124429282 0 0.20931999553351249 0.2747097540570328 0 0.22276706595432569 0.26722786124429282 0 0.23407023324957901 0.28358253799766081 0 0.22276706595432569 0.26722786124429282 0 0.2428012282252888 0.27040414858390061 0 0.23407023324957901 0.28358253799766081 0 0.2340167615655426 0.26024144399058702 0 0.22276706595432569 0.26722786124429282 0 0.2428012282252888 0.27040414858390061 0 0.2428012282252888 0.27040414858390061 0 0.23407023324957901 0.28358253799766081 0 0.25491758893057909 0.27951005592881761 0 0.2428012282252888 0.27040414858390061 0 0.23407023324957901 0.28358253799766081 0 0.2428012282252888 0.27040414858390061 0 0.25153222320099622 0.25722575917013901 0 0.25536006440587672 0.26878811273571068 0 0.2428012282252888 0.27040414858390061 0 0.25153222320099622 0.25722575917013901 0 0.2340167615655426 0.26024144399058702 0 0.2428012282252888 0.27040414858390061 0 0.25153222320099622 0.25722575917013901 0 0.24791323415382371 0.2458877298954085 0 0.23190300684591059 0.2469757189771403 0 0.25153222320099622 0.25722575917013901 0 0.23190300684591059 0.2469757189771403 0 0.2340167615655426 0.26024144399058702 0 0.25153222320099622 0.25722575917013901 0 0.23190300684591059 0.2469757189771403 0 0.25153222320099622 0.25722575917013901 0 0.24543399627141721 0.29887735901603257 0 0.2199905643657564 0.30483410896799212 0 0.2412863906095909 0.31706614216088019 0 0.24543399627141721 0.29887735901603257 0 0.2412863906095909 0.31706614216088019 0 0.26071219069447599 0.31197788889560879 0 0.24543399627141721 0.29887735901603257 0 0.23407023324957901 0.28358253799766081 0 0.25491758893057909 0.27951005592881761 0 0.23407023324957901 0.28358253799766081 0 0.25491758893057909 0.27951005592881761 0 0.23407023324957901 0.28358253799766081 0 0.2199905643657564 0.30483410896799212 0 0.20479240245397259 0.28930189362021808 0 0.24543399627141721 0.29887735901603257 0 0.23407023324957901 0.28358253799766081 0 0.2199905643657564 0.30483410896799212 0 0.23407023324957901 0.28358253799766081 0 0.20479240245397259 0.28930189362021808 0 0.23407023324957901 0.28358253799766081 0 0.2199905643657564 0.30483410896799212 0 0.2199905643657564 0.30483410896799212 0 0.19825331032735899 0.30649929221888439 0 0.20591089548193209 0.32608567993832238 0 0.2199905643657564 0.30483410896799212 0 0.20479240245397259 0.28930189362021808 0 0.19825331032735899 0.30649929221888439 0 0.20931999553351249 0.2747097540570328 0 0.23407023324957901 0.28358253799766081 0 0.20479240245397259 0.28930189362021808 0 0.18306544781706219 0.29535972807124689 0 0.19225514168233229 0.27637801024750158 0 0.20479240245397259 0.28930189362021808 0 0.18306544781706219 0.29535972807124689 0 0.20479240245397259 0.28930189362021808 0 0.19825331032735899 0.30649929221888439 0 0.19825331032735899 0.30649929221888439 0 0.20591089548193209 0.32608567993832238 0 0.17750724151807151 0.31691505049664243 0 0.20591089548193209 0.32608567993832238 0 0.1834453935528689 0.33477958080273051 0 0.17750724151807151 0.31691505049664243 0 0.20591089548193209 0.32608567993832238 0 0.1918312265981009 0.34733725090864831 0 0.1834453935528689 0.33477958080273051 0 0.20591089548193209 0.32608567993832238 0 0.1918312265981009 0.34733725090864831 0 0.2120062173118393 0.34341212619813682 0 0.20591089548193209 0.32608567993832238 0 0.2241124479696345 0.32285479690430968 0 0.2120062173118393 0.34341212619813682 0 0.20591089548193209 0.32608567993832238 0 0.1918312265981009 0.34733725090864831 0 0.2199905643657564 0.30483410896799212 0 0.20591089548193209 0.32608567993832238 0 0.2199905643657564 0.30483410896799212 0 0.20591089548193209 0.32608567993832238 0 0.2241124479696345 0.32285479690430968 0 0.2199905643657564 0.30483410896799212 0 0.2241124479696345 0.32285479690430968 0 0.2412863906095909 0.31706614216088019 0 0.2241124479696345 0.32285479690430968 0 0.23218120802557979 0.3394870014876365 0 0.2412863906095909 0.31706614216088019 0 0.2120062173118393 0.34341212619813682 0 0.2241124479696345 0.32285479690430968 0 0.23218120802557979 0.3394870014876365 0 0.2120062173118393 0.34341212619813682 0 0.23218120802557979 0.3394870014876365 0 0.23218120802557979 0.3394870014876365 0 0.2412863906095909 0.31706614216088019 0 0.25235619873932041 0.33556187677713623 0 0.23218120802557979 0.3394870014876365 0 0.25235619873932041 0.33556187677713623 0 0.23218120802557979 0.3394870014876365 0 0.2438273554430464 0.34812574592335249 0 0.25235619873932041 0.33556187677713623 0 0.2412863906095909 0.31706614216088019 0 0.25496362040665271 0.32267745764425643 0 0.25235619873932041 0.33556187677713623 0 0.2444030594993066 0.36261468031945582 0 0.22630598985240971 0.37543582988375418 0 0.247713784970646 0.38075050805242922 0 0.2444030594993066 0.36261468031945582 0 0.22630598985240971 0.37543582988375418 0 0.2444030594993066 0.36261468031945582 0 0.247713784970646 0.38075050805242922 0 0.25490457918629872 0.37507349251653871 0 0.2444030594993066 0.36261468031945582 0 0.2438273554430464 0.34812574592335249 0 0.25711451900508148 0.35258648987221092 0 0.23218120802557979 0.3394870014876365 0 0.2438273554430464 0.34812574592335249 0 0.2288636426087374 0.35578594420060722 0 0.2444030594993066 0.36261468031945582 0 0.2438273554430464 0.34812574592335249 0 0.2288636426087374 0.35578594420060722 0 0.2120062173118393 0.34341212619813682 0 0.23218120802557979 0.3394870014876365 0 0.2288636426087374 0.35578594420060722 0 0.2444030594993066 0.36261468031945582 0 0.2288636426087374 0.35578594420060722 0 0.22630598985240971 0.37543582988375418 0 0.2288636426087374 0.35578594420060722 0 0.21324276167256731 0.36206450472990792 0 0.22630598985240971 0.37543582988375418 0 0.21324276167256731 0.36206450472990792 0 0.19654986060048771 0.37047802484019998 0 0.20820892020551271 0.38825697944805271 0 0.2120062173118393 0.34341212619813682 0 0.2288636426087374 0.35578594420060722 0 0.21324276167256731 0.36206450472990792 0 0.2120062173118393 0.34341212619813682 0 0.21324276167256731 0.36206450472990792 0 0.1918312265981009 0.34733725090864831 0 0.2120062173118393 0.34341212619813682 0 0.1918312265981009 0.34733725090864831 0 0.1918312265981009 0.34733725090864831 0 0.19654986060048771 0.37047802484019998 0 0.1753588575145448 0.37220031576602253 0 0.21324276167256731 0.36206450472990792 0 0.1918312265981009 0.34733725090864831 0 0.19654986060048771 0.37047802484019998 0 0.1918312265981009 0.34733725090864831 0 0.1753588575145448 0.37220031576602253 0 0.1731188016947007 0.36781558424519839 0 0.1753588575145448 0.37220031576602253 0 0.1802318714797885 0.35236122573149797 0 0.1731188016947007 0.36781558424519839 0 0.167364966647951 0.35975083588178058 0 0.1802318714797885 0.35236122573149797 0 0.1731188016947007 0.36781558424519839 0 0.1753588575145448 0.37220031576602253 0 0.1731188016947007 0.36781558424519839 0 0.1753588575145448 0.37220031576602253 0 0.16523354001105911 0.37409983959611109 0 0.1731188016947007 0.36781558424519839 0 0.16523354001105911 0.37409983959611109 0 0.1662459251842697 0.36710584608423269 0 0.167364966647951 0.35975083588178058 0 0.15926639238336801 0.36675712461384091 0 0.15018796347142391 0.35543911342959528 0 0.167364966647951 0.35975083588178058 0 0.1662459251842697 0.36710584608423269 0 0.15926639238336801 0.36675712461384091 0 0.1731188016947007 0.36781558424519839 0 0.167364966647951 0.35975083588178058 0 0.1662459251842697 0.36710584608423269 0 0.16523354001105911 0.37409983959611109 0 0.15926639238336801 0.36675712461384091 0 0.15062115634747231 0.37889780715207888 0 0.16523354001105911 0.37409983959611109 0 0.1662459251842697 0.36710584608423269 0 0.15926639238336801 0.36675712461384091 0 0.1753506460241005 0.35054361342806389 0 0.14992271410468949 0.34107506453040248 0 0.167364966647951 0.35975083588178058 0 0.1753506460241005 0.35054361342806389 0 0.15018796347142391 0.35543911342959528 0 0.1753506460241005 0.35054361342806389 0 0.14992271410468949 0.34107506453040248 0 0.15018796347142391 0.35543911342959528 0 0.1753506460241005 0.35054361342806389 0 0.15018796347142391 0.35543911342959528 0 0.1918312265981009 0.34733725090864831 0 0.1753506460241005 0.35054361342806389 0 0.1918312265981009 0.34733725090864831 0 0.1753506460241005 0.35054361342806389 0 0.1834453935528689 0.33477958080273051 0 0.1918312265981009 0.34733725090864831 0 0.1753506460241005 0.35054361342806389 0 0.1802318714797885 0.35236122573149797 0 0.1918312265981009 0.34733725090864831 0 0.1753588575145448 0.37220031576602253 0 0.1802318714797885 0.35236122573149797 0 0.1753506460241005 0.35054361342806389 0 0.1802318714797885 0.35236122573149797 0 0.167364966647951 0.35975083588178058 0 0.1753506460241005 0.35054361342806389 0 0.1802318714797885 0.35236122573149797 0 0.1753506460241005 0.35054361342806389 0 0.1834453935528689 0.33477958080273051 0 0.1666269581421321 0.33301630924197367 0 0.1834453935528689 0.33477958080273051 0 0.17750724151807151 0.31691505049664243 0 0.1666269581421321 0.33301630924197367 0 0.17750724151807151 0.31691505049664243 0 0.1666269581421321 0.33301630924197367 0 0.1494197498499607 0.31383804135354598 0 0.1753506460241005 0.35054361342806389 0 0.1666269581421321 0.33301630924197367 0 0.14992271410468949 0.34107506453040248 0 0.1666269581421321 0.33301630924197367 0 0.14992271410468949 0.34107506453040248 0 0.1494197498499607 0.31383804135354598 0 0.14992271410468949 0.34107506453040248 0 0.1494197498499607 0.31383804135354598 0 0.14992271410468949 0.34107506453040248 0 0.1494197498499607 0.31383804135354598 0 0.13362732087883861 0.31825791726589631 0 0.1167242617350734 0.31677866348064548 0 0.13362732087883861 0.31825791726589631 0 0.12728204636342119 0.33264440370185788 0 0.14992271410468949 0.34107506453040248 0 0.13362732087883861 0.31825791726589631 0 0.12728204636342119 0.33264440370185788 0 0.14992271410468949 0.34107506453040248 0 0.12728204636342119 0.33264440370185788 0 0.1327104347709552 0.34833671648866182 0 0.14992271410468949 0.34107506453040248 0 0.12728204636342119 0.33264440370185788 0 0.12728204636342119 0.33264440370185788 0 0.12565642337597641 0.34531162420386119 0 0.1327104347709552 0.34833671648866182 0 0.1207019799918789 0.36117572882690419 0 0.1327104347709552 0.34833671648866182 0 0.15018796347142391 0.35543911342959528 0 0.12020614592151201 0.35183052892485178 0 0.12565642337597641 0.34531162420386119 0 0.1327104347709552 0.34833671648866182 0 0.1207019799918789 0.36117572882690419 0 0.15018796347142391 0.35543911342959528 0 0.1207019799918789 0.36117572882690419 0 0.13593835547877689 0.36822566204290602 0 0.15018796347142391 0.35543911342959528 0 0.1207019799918789 0.36117572882690419 0 0.1269429757455281 0.3700741961410311 0 0.13593835547877689 0.36822566204290602 0 0.1269429757455281 0.3700741961410311 0 0.13593835547877689 0.36822566204290602 0 0.12936302614305781 0.3806702380723882 0 0.13593835547877689 0.36822566204290602 0 0.15018796347142391 0.35543911342959528 0 0.15062115634747231 0.37889780715207888 0 0.15018796347142391 0.35543911342959528 0 0.15062115634747231 0.37889780715207888 0 0.15926639238336801 0.36675712461384091 0 0.15018796347142391 0.35543911342959528 0 0.15062115634747231 0.37889780715207888 0 0.14992271410468949 0.34107506453040248 0 0.1327104347709552 0.34833671648866182 0 0.15018796347142391 0.35543911342959528 0 0.14992271410468949 0.34107506453040248 0 0.15018796347142391 0.35543911342959528 0 0.14138495384440489 0.39322107909200571 0 0.1317921164680903 0.40545952647836342 0 0.15222999220591241 0.40711056306127658 0 0.14138495384440489 0.39322107909200571 0 0.15222999220591241 0.40711056306127658 0 0.16379442486022849 0.38965543941364961 0 0.14138495384440489 0.39322107909200571 0 0.15062115634747231 0.37889780715207888 0 0.16379442486022849 0.38965543941364961 0 0.13593835547877689 0.36822566204290602 0 0.15062115634747231 0.37889780715207888 0 0.12936302614305781 0.3806702380723882 0 0.14138495384440489 0.39322107909200571 0 0.15062115634747231 0.37889780715207888 0 0.12936302614305781 0.3806702380723882 0 0.12302526621810631 0.39483339242702431 0 0.14138495384440489 0.39322107909200571 0 0.12936302614305781 0.3806702380723882 0 0.12302526621810631 0.39483339242702431 0 0.14138495384440489 0.39322107909200571 0 0.1317921164680903 0.40545952647836342 0 0.1238244133614653 0.41259348140785829 0 0.11966152561727041 0.40521647558469348 0 0.1317921164680903 0.40545952647836342 0 0.1238244133614653 0.41259348140785829 0 0.1317921164680903 0.40545952647836342 0 0.13391702338258271 0.41648007558095218 0 0.1317921164680903 0.40545952647836342 0 0.13391702338258271 0.41648007558095218 0 0.15222999220591241 0.40711056306127658 0 0.1206950902667107 0.42206632785564402 0 0.1238244133614653 0.41259348140785829 0 0.13391702338258271 0.41648007558095218 0 0.14066555955159241 0.42456568670890099 0 0.128144127290927 0.44346528644618949 0 0.13429496844172059 0.42708486797366702 0 0.14066555955159241 0.42456568670890099 0 0.128144127290927 0.44346528644618949 0 0.14066555955159241 0.42456568670890099 0 0.1468621194973313 0.4432032004000479 0 0.128144127290927 0.44346528644618949 0 0.1206950902667107 0.42206632785564402 0 0.13391702338258271 0.41648007558095218 0 0.13429496844172059 0.42708486797366702 0 0.13391702338258271 0.41648007558095218 0 0.13429496844172059 0.42708486797366702 0 0.14066555955159241 0.42456568670890099 0 0.13429496844172059 0.42708486797366702 0 0.14066555955159241 0.42456568670890099 0 0.14066555955159241 0.42456568670890099 0 0.16808955766080291 0.41960022257260449 0 0.15915405200730839 0.43380743940711708 0 0.14066555955159241 0.42456568670890099 0 0.16808955766080291 0.41960022257260449 0 0.14066555955159241 0.42456568670890099 0 0.15915405200730839 0.43380743940711708 0 0.1468621194973313 0.4432032004000479 0 0.14066555955159241 0.42456568670890099 0 0.15222999220591241 0.40711056306127658 0 0.14066555955159241 0.42456568670890099 0 0.15222999220591241 0.40711056306127658 0 0.16201542307939579 0.41612311438285787 0 0.14066555955159241 0.42456568670890099 0 0.16201542307939579 0.41612311438285787 0 0.13391702338258271 0.41648007558095218 0 0.14066555955159241 0.42456568670890099 0 0.15222999220591241 0.40711056306127658 0 0.16201542307939579 0.41612311438285787 0 0.16941052998224071 0.40948279892878392 0 0.18336528660720119 0.40768054205682042 0 0.16808955766080291 0.41960022257260449 0 0.16201542307939579 0.41612311438285787 0 0.18336528660720119 0.40768054205682042 0 0.14066555955159241 0.42456568670890099 0 0.16808955766080291 0.41960022257260449 0 0.16201542307939579 0.41612311438285787 0 0.15222999220591241 0.40711056306127658 0 0.16201542307939579 0.41612311438285787 0 0.1623232745498161 0.40583988766108697 0 0.16201542307939579 0.41612311438285787 0 0.16941052998224071 0.40948279892878392 0 0.1623232745498161 0.40583988766108697 0 0.16808955766080291 0.41960022257260449 0 0.15915405200730839 0.43380743940711708 0 0.1766721112776041 0.43405941705504181 0 0.18398920852212189 0.42222731617319992 0 0.1766721112776041 0.43405941705504181 0 0.19310721835761019 0.42992761007563862 0 0.16808955766080291 0.41960022257260449 0 0.18398920852212189 0.42222731617319992 0 0.1766721112776041 0.43405941705504181 0 0.1766721112776041 0.43405941705504181 0 0.19310721835761019 0.42992761007563862 0 0.189468296445607 0.44161966517716561 0 0.16808955766080291 0.41960022257260449 0 0.18398920852212189 0.42222731617319992 0 0.19637406676339619 0.41333592033168631 0 0.16201542307939579 0.41612311438285787 0 0.18336528660720119 0.40768054205682042 0 0.16808955766080291 0.41960022257260449 0 0.19637406676339619 0.41333592033168631 0 0.16808955766080291 0.41960022257260449 0 0.18336528660720119 0.40768054205682042 0 0.19637406676339619 0.41333592033168631 0 0.16941052998224071 0.40948279892878392 0 0.18336528660720119 0.40768054205682042 0 0.18177969473327391 0.40698117398671069 0 0.16941052998224071 0.40948279892878392 0 0.18177969473327391 0.40698117398671069 0 0.17544170441619431 0.40324048585703531 0 0.17550339911694879 0.39641485139935639 0 0.16379442486022849 0.38965543941364961 0 0.18273535403657959 0.38663922238918558 0 0.18177969473327391 0.40698117398671069 0 0.18171278421578699 0.39924093208501849 0 0.19011185055861429 0.40107812901234902 0 0.18336528660720119 0.40768054205682042 0 0.18177969473327391 0.40698117398671069 0 0.19011185055861429 0.40107812901234902 0 0.18177969473327391 0.40698117398671069 0 0.19011185055861429 0.40107812901234902 0 0.18171278421578699 0.39924093208501849 0 0.17550339911694879 0.39641485139935639 0 0.18273535403657959 0.38663922238918558 0 0.18171278421578699 0.39924093208501849 0 0.18273535403657959 0.38663922238918558 0 0.19011185055861429 0.40107812901234902 0 0.18273535403657959 0.38663922238918558 0 0.19011185055861429 0.40107812901234902 0 0.18177969473327391 0.40698117398671069 0 0.18171278421578699 0.39924093208501849 0 0.17544170441619431 0.40324048585703531 0 0.18171278421578699 0.39924093208501849 0 0.17550339911694879 0.39641485139935639 0 0.17544170441619431 0.40324048585703531 0 0.17550339911694879 0.39641485139935639 0 0.17544170441619431 0.40324048585703531 0 0.1689722959232661 0.40169126431279728 0 0.16941052998224071 0.40948279892878392 0 0.17544170441619431 0.40324048585703531 0 0.1689722959232661 0.40169126431279728 0 0.1689722959232661 0.40169126431279728 0 0.1623232745498161 0.40583988766108697 0 0.16379442486022849 0.38965543941364961 0 0.15222999220591241 0.40711056306127658 0 0.1623232745498161 0.40583988766108697 0 0.16379442486022849 0.38965543941364961 0 0.15222999220591241 0.40711056306127658 0 0.16379442486022849 0.38965543941364961 0 0.16941052998224071 0.40948279892878392 0 0.1689722959232661 0.40169126431279728 0 0.1623232745498161 0.40583988766108697 0 0.17550339911694879 0.39641485139935639 0 0.1689722959232661 0.40169126431279728 0 0.16379442486022849 0.38965543941364961 0 0.1753588575145448 0.37220031576602253 0 0.16523354001105911 0.37409983959611109 0 0.16379442486022849 0.38965543941364961 0 0.1753588575145448 0.37220031576602253 0 0.16379442486022849 0.38965543941364961 0 0.16523354001105911 0.37409983959611109 0 0.15062115634747231 0.37889780715207888 0 0.16379442486022849 0.38965543941364961 0 0.1753588575145448 0.37220031576602253 0 0.18273535403657959 0.38663922238918558 0 0.1753588575145448 0.37220031576602253 0 0.16379442486022849 0.38965543941364961 0 0.18273535403657959 0.38663922238918558 0 0.19654986060048771 0.37047802484019998 0 0.1753588575145448 0.37220031576602253 0 0.18273535403657959 0.38663922238918558 0 0.19654986060048771 0.37047802484019998 0 0.18273535403657959 0.38663922238918558 0 0.20820892020551271 0.38825697944805271 0 0.19011185055861429 0.40107812901234902 0 0.20820892020551271 0.38825697944805271 0 0.19011185055861429 0.40107812901234902 0 0.20429538739721931 0.40183734425620671 0 0.20820892020551271 0.38825697944805271 0 0.18273535403657959 0.38663922238918558 0 0.19011185055861429 0.40107812901234902 0 0.20820892020551271 0.38825697944805271 0 0.19011185055861429 0.40107812901234902 0 0.20429538739721931 0.40183734425620671 0 0.19637406676339619 0.41333592033168631 0 0.20429538739721931 0.40183734425620671 0 0.20820892020551271 0.38825697944805271 0 0.2202735525657262 0.39552406566479109 0 0.20429538739721931 0.40183734425620671 0 0.2202735525657262 0.39552406566479109 0 0.2145024493426794 0.40932094283274068 0 0.21324276167256731 0.36206450472990792 0 0.20820892020551271 0.38825697944805271 0 0.22630598985240971 0.37543582988375418 0 0.20820892020551271 0.38825697944805271 0 0.22630598985240971 0.37543582988375418 0 0.20820892020551271 0.38825697944805271 0 0.22630598985240971 0.37543582988375418 0 0.2202735525657262 0.39552406566479109 0 0.22630598985240971 0.37543582988375418 0 0.2319341774640927 0.38940141535347877 0 0.2202735525657262 0.39552406566479109 0 0.2202735525657262 0.39552406566479109 0 0.23263083192196299 0.40530596533379709 0 0.2145024493426794 0.40932094283274068 0 0.2319341774640927 0.38940141535347877 0 0.2202735525657262 0.39552406566479109 0 0.23263083192196299 0.40530596533379709 0 0.2386671862694576 0.40396906576347452 0 0.24985329529781791 0.39990667252734718 0 0.247713784970646 0.38075050805242922 0 0.2319341774640927 0.38940141535347877 0 0.23263083192196299 0.40530596533379709 0 0.247713784970646 0.38075050805242922 0 0.23263083192196299 0.40530596533379709 0 0.247713784970646 0.38075050805242922 0 0.23263083192196299 0.40530596533379709 0 0.2386671862694576 0.40396906576347452 0 0.247713784970646 0.38075050805242922 0 0.23263083192196299 0.40530596533379709 0 0.2386671862694576 0.40396906576347452 0 0.23263083192196299 0.40530596533379709 0 0.2386671862694576 0.40396906576347452 0 0.23835521004243199 0.40923349084829558 0 0.2386671862694576 0.40396906576347452 0 0.24985329529781791 0.39990667252734718 0 0.23835521004243199 0.40923349084829558 0 0.22630598985240971 0.37543582988375418 0 0.2319341774640927 0.38940141535347877 0 0.247713784970646 0.38075050805242922 0 0.2385665307870003 0.42747740564887549 0 0.25702987725108101 0.42925349536772212 0 0.2385665307870003 0.42747740564887549 0 0.2488221034234695 0.4223051763495565 0 0.25702987725108101 0.42925349536772212 0 0.2385665307870003 0.42747740564887549 0 0.2448364132796593 0.44231000148378752 0 0.25702987725108101 0.42925349536772212 0 0.2385665307870003 0.42747740564887549 0 0.2406669044851476 0.42214558790778223 0 0.2368791315523423 0.42061341875551328 0 0.2385665307870003 0.42747740564887549 0 0.2406669044851476 0.42214558790778223 0 0.2488221034234695 0.4223051763495565 0 0.24985329529781791 0.39990667252734718 0 0.2383998521777784 0.41818635087718381 0 0.24985329529781791 0.39990667252734718 0 0.23835521004243199 0.40923349084829558 0 0.2383998521777784 0.41818635087718381 0 0.24985329529781791 0.39990667252734718 0 0.2383998521777784 0.41818635087718381 0 0.25380059083303341 0.40846212201461762 0 0.2406669044851476 0.42214558790778223 0 0.2488221034234695 0.4223051763495565 0 0.2383998521777784 0.41818635087718381 0 0.23835521004243199 0.40923349084829558 0 0.2350244704201927 0.41211241555610317 0 0.2383998521777784 0.41818635087718381 0 0.23263083192196299 0.40530596533379709 0 0.23835521004243199 0.40923349084829558 0 0.2350244704201927 0.41211241555610317 0 0.2406669044851476 0.42214558790778223 0 0.2383998521777784 0.41818635087718381 0 0.2368791315523423 0.42061341875551328 0 0.2350244704201927 0.41211241555610317 0 0.2383998521777784 0.41818635087718381 0 0.23071198753859651 0.41572385516513549 0 0.2383998521777784 0.41818635087718381 0 0.2368791315523423 0.42061341875551328 0 0.2383998521777784 0.41818635087718381 0 0.2368791315523423 0.42061341875551328 0 0.22312475613875049 0.42078211493492951 0 0.23263083192196299 0.40530596533379709 0 0.2145024493426794 0.40932094283274068 0 0.23263083192196299 0.40530596533379709 0 0.22312475613875049 0.42078211493492951 0 0.2145024493426794 0.40932094283274068 0 0.2383998521777784 0.41818635087718381 0 0.22312475613875049 0.42078211493492951 0 0.2383998521777784 0.41818635087718381 0 0.23071198753859651 0.41572385516513549 0 0.22312475613875049 0.42078211493492951 0 0.23263083192196299 0.40530596533379709 0 0.2350244704201927 0.41211241555610317 0 0.23071198753859651 0.41572385516513549 0 0.23263083192196299 0.40530596533379709 0 0.23071198753859651 0.41572385516513549 0 0.22312475613875049 0.42078211493492951 0 0.23263083192196299 0.40530596533379709 0 0.22312475613875049 0.42078211493492951 0 0.2385665307870003 0.42747740564887549 0 0.2201031843229195 0.42570131593002969 0 0.2201031843229195 0.42570131593002969 0 0.21059740683120351 0.44117697990449289 0 0.23005064234993169 0.44460645584696262 0 0.2385665307870003 0.42747740564887549 0 0.22312475613875049 0.42078211493492951 0 0.2201031843229195 0.42570131593002969 0 0.22312475613875049 0.42078211493492951 0 0.2201031843229195 0.42570131593002969 0 0.2385665307870003 0.42747740564887549 0 0.2201031843229195 0.42570131593002969 0 0.23005064234993169 0.44460645584696262 0 0.2385665307870003 0.42747740564887549 0 0.2368791315523423 0.42061341875551328 0 0.22312475613875049 0.42078211493492951 0 0.22312475613875049 0.42078211493492951 0 0.2201031843229195 0.42570131593002969 0 0.20354836167302259 0.42410881749736329 0 0.20096476004407141 0.4356284052502909 0 0.202011140198494 0.4243700442839049 0 0.21059740683120351 0.44117697990449289 0 0.20354836167302259 0.42410881749736329 0 0.202011140198494 0.4243700442839049 0 0.21059740683120351 0.44117697990449289 0 0.2201031843229195 0.42570131593002969 0 0.21059740683120351 0.44117697990449289 0 0.2201031843229195 0.42570131593002969 0 0.20354836167302259 0.42410881749736329 0 0.21059740683120351 0.44117697990449289 0 0.2201031843229195 0.42570131593002969 0 0.20354836167302259 0.42410881749736329 0 0.202011140198494 0.4243700442839049 0 0.21059740683120351 0.44117697990449289 0 0.22312475613875049 0.42078211493492951 0 0.20354836167302259 0.42410881749736329 0 0.2145024493426794 0.40932094283274068 0 0.19637406676339619 0.41333592033168631 0 0.22312475613875049 0.42078211493492951 0 0.20354836167302259 0.42410881749736329 0 0.2145024493426794 0.40932094283274068 0 0.20429538739721931 0.40183734425620671 0 0.2145024493426794 0.40932094283274068 0 0.19637406676339619 0.41333592033168631 0 0.20354836167302259 0.42410881749736329 0 0.2145024493426794 0.40932094283274068 0 0.19637406676339619 0.41333592033168631 0 0.18398920852212189 0.42222731617319992 0 0.19637406676339619 0.41333592033168631 0 0.202011140198494 0.4243700442839049 0 0.20354836167302259 0.42410881749736329 0 0.19637406676339619 0.41333592033168631 0 0.202011140198494 0.4243700442839049 0 0.19637406676339619 0.41333592033168631 0 0.202011140198494 0.4243700442839049 0 0.19011185055861429 0.40107812901234902 0 0.19637406676339619 0.41333592033168631 0 0.18336528660720119 0.40768054205682042 0 0.19011185055861429 0.40107812901234902 0 0.19637406676339619 0.41333592033168631 0 0.18398920852212189 0.42222731617319992 0 0.202011140198494 0.4243700442839049 0 0.19310721835761019 0.42992761007563862 0 0.18398920852212189 0.42222731617319992 0 0.202011140198494 0.4243700442839049 0 0.20096476004407141 0.4356284052502909 0 0.19931207414017729 0.42860996549168562 0 0.19310721835761019 0.42992761007563862 0 0.19931207414017729 0.42860996549168562 0 0.202011140198494 0.4243700442839049 0 0.19310721835761019 0.42992761007563862 0 0.20096476004407141 0.4356284052502909 0 0.19931207414017729 0.42860996549168562 0 0.202011140198494 0.4243700442839049 0 0.20354836167302259 0.42410881749736329 0 0.202011140198494 0.4243700442839049 0 0.20096476004407141 0.4356284052502909 0 0.19310721835761019 0.42992761007563862 0 0.189468296445607 0.44161966517716561 0 0.189468296445607 0.44161966517716561 0 0.19808345402660399 0.44429013419941671 0 0.18816718916202771 0.45764189265325561 0 0.19808345402660399 0.44429013419941671 0 0.18816718916202771 0.45764189265325561 0 0.20509446468425149 0.45013591920339668 0 0.20096476004407141 0.4356284052502909 0 0.189468296445607 0.44161966517716561 0 0.19808345402660399 0.44429013419941671 0 0.18816718916202771 0.45764189265325561 0 0.2005182123172754 0.46504183791057307 0 0.20509446468425149 0.45013591920339668 0 0.18816718916202771 0.45764189265325561 0 0.2005182123172754 0.46504183791057307 0 0.18719455148605621 0.47613314112345201 0 0.2103116034304838 0.4602104470792151 0 0.21059740683120351 0.44117697990449289 0 0.22229140550900001 0.46406705440744211 0 0.2103116034304838 0.4602104470792151 0 0.22229140550900001 0.46406705440744211 0 0.21058997783642669 0.48154513501692131 0 0.2005182123172754 0.46504183791057307 0 0.2103116034304838 0.4602104470792151 0 0.20509446468425149 0.45013591920339668 0 0.21059740683120351 0.44117697990449289 0 0.22229140550900001 0.46406705440744211 0 0.2103116034304838 0.4602104470792151 0 0.21059740683120351 0.44117697990449289 0 0.20509446468425149 0.45013591920339668 0 0.20096476004407141 0.4356284052502909 0 0.19808345402660399 0.44429013419941671 0 0.21059740683120351 0.44117697990449289 0 0.19808345402660399 0.44429013419941671 0 0.21059740683120351 0.44117697990449289 0 0.20509446468425149 0.45013591920339668 0 0.21059740683120351 0.44117697990449289 0 0.20509446468425149 0.45013591920339668 0 0.21059740683120351 0.44117697990449289 0 0.23005064234993169 0.44460645584696262 0 0.22229140550900001 0.46406705440744211 0 0.23005064234993169 0.44460645584696262 0 0.22229140550900001 0.46406705440744211 0 0.24184120684035099 0.4581976946154846 0 0.22229140550900001 0.46406705440744211 0 0.24184120684035099 0.4581976946154846 0 0.24193409961780649 0.47367643658526698 0 0.24184120684035099 0.4581976946154846 0 0.2448364132796593 0.44231000148378752 0 0.25709847220363119 0.45283566357848187 0 0.23005064234993169 0.44460645584696262 0 0.24184120684035099 0.4581976946154846 0 0.2448364132796593 0.44231000148378752 0 0.2385665307870003 0.42747740564887549 0 0.23005064234993169 0.44460645584696262 0 0.2448364132796593 0.44231000148378752 0 0.24064869911215761 0.50000000000000244 0 0.24324303354975521 0.48909866857844392 0 0.2572356621087325 0.50000000000000155 0 0.24324303354975521 0.48909866857844392 0 0.2339854041867972 0.48695712891039089 0 0.24064869911215761 0.50000000000000244 0 0.24324303354975521 0.48909866857844392 0 0.2339854041867972 0.48695712891039089 0 0.24064869911215761 0.50000000000000244 0 0.2339854041867972 0.48695712891039089 0 0.24184120684035099 0.4581976946154846 0 0.24193409961780649 0.47367643658526698 0 0.25716706715618193 0.47641783178924169 0 0.24324303354975521 0.48909866857844392 0 0.24193409961780649 0.47367643658526698 0 0.25716706715618193 0.47641783178924169 0 0.24324303354975521 0.48909866857844392 0 0.24193409961780649 0.47367643658526698 0 0.2339854041867972 0.48695712891039089 0 0.22229140550900001 0.46406705440744211 0 0.24193409961780649 0.47367643658526698 0 0.2339854041867972 0.48695712891039089 0 0.22229140550900001 0.46406705440744211 0 0.2339854041867972 0.48695712891039089 0 0.22229140550900001 0.46406705440744211 0 0.2339854041867972 0.48695712891039089 0 0.21058997783642669 0.48154513501692131 0 0.2339854041867972 0.48695712891039089 0 0.21058997783642669 0.48154513501692131 0 0.2339854041867972 0.48695712891039089 0 0.21314400247467591 0.5 0 0.21058997783642669 0.48154513501692131 0 0.24064869911215761 0.50000000000000244 0 0.2339854041867972 0.48695712891039089 0 0.21314400247467591 0.5 0 0.21314400247467591 0.5 0 0.21058997783642669 0.48154513501692131 0 0.19841687033665559 0.48922266484742172 0 0.2005182123172754 0.46504183791057307 0 0.2103116034304838 0.4602104470792151 0 0.21058997783642669 0.48154513501692131 0 0.21058997783642669 0.48154513501692131 0 0.18719455148605621 0.47613314112345201 0 0.21058997783642669 0.48154513501692131 0 0.19841687033665559 0.48922266484742172 0 0.18719455148605621 0.47613314112345201 0 0.2005182123172754 0.46504183791057307 0 0.21058997783642669 0.48154513501692131 0 0.18719455148605621 0.47613314112345201 0 0.21314400247467591 0.5 0 0.19841687033665559 0.48922266484742172 0 0.18563930583719421 0.5 0 0.19841687033665559 0.48922266484742172 0 0.18563930583719421 0.5 0 0.18719455148605621 0.47613314112345201 0 0.18563930583719421 0.5 0 0.17133697046385701 0.48683307990629038 0 0.18719455148605621 0.47613314112345201 0 0.17133697046385701 0.48683307990629038 0 0.15813460919971251 0.5 0 0.1479106042039405 0.48283460682922269 0 0.18563930583719421 0.5 0 0.17133697046385701 0.48683307990629038 0 0.15813460919971251 0.5 0 0.17133697046385701 0.48683307990629038 0 0.16379912513568581 0.47072114722998237 0 0.1479106042039405 0.48283460682922269 0 0.17133697046385701 0.48683307990629038 0 0.16379912513568581 0.47072114722998237 0 0.18719455148605621 0.47613314112345201 0 0.16379912513568581 0.47072114722998237 0 0.18719455148605621 0.47613314112345201 0 0.18816718916202771 0.45764189265325561 0 0.16379912513568581 0.47072114722998237 0 0.18719455148605621 0.47613314112345201 0 0.18816718916202771 0.45764189265325561 0 0.16379912513568581 0.47072114722998237 0 0.1764896290127039 0.45007039086196288 0 0.1766721112776041 0.43405941705504181 0 0.1764896290127039 0.45007039086196288 0 0.16434142304259489 0.44630983219436898 0 0.189468296445607 0.44161966517716561 0 0.18816718916202771 0.45764189265325561 0 0.1764896290127039 0.45007039086196288 0 0.1766721112776041 0.43405941705504181 0 0.189468296445607 0.44161966517716561 0 0.1764896290127039 0.45007039086196288 0 0.15915405200730839 0.43380743940711708 0 0.1766721112776041 0.43405941705504181 0 0.16434142304259489 0.44630983219436898 0 0.15915405200730839 0.43380743940711708 0 0.16434142304259489 0.44630983219436898 0 0.1468621194973313 0.4432032004000479 0 0.16379912513568581 0.47072114722998237 0 0.1764896290127039 0.45007039086196288 0 0.16434142304259489 0.44630983219436898 0 0.16379912513568581 0.47072114722998237 0 0.16434142304259489 0.44630983219436898 0 0.15386760244336481 0.45613183796281243 0 0.16379912513568581 0.47072114722998237 0 0.15386760244336481 0.45613183796281243 0 0.14046774209784721 0.46429317202685039 0 0.15386760244336481 0.45613183796281243 0 0.1468621194973313 0.4432032004000479 0 0.14046774209784721 0.46429317202685039 0 0.16434142304259489 0.44630983219436898 0 0.15386760244336481 0.45613183796281243 0 0.1468621194973313 0.4432032004000479 0 0.1468621194973313 0.4432032004000479 0 0.128144127290927 0.44346528644618949 0 0.14046774209784721 0.46429317202685039 0 0.11648320602364499 0.46106604807885698 0 0.128144127290927 0.44346528644618949 0 0.14046774209784721 0.46429317202685039 0 0.11648320602364499 0.46106604807885698 0 0.14046774209784721 0.46429317202685039 0 0.12567845600013469 0.47929569400969452 0 0.14046774209784721 0.46429317202685039 0 0.12567845600013469 0.47929569400969452 0 0.1479106042039405 0.48283460682922269 0 0.12567845600013469 0.47929569400969452 0 0.1306299125622308 0.5 0 0.1479106042039405 0.48283460682922269 0 0.15813460919971251 0.5 0 0.1306299125622308 0.5 0 0.1479106042039405 0.48283460682922269 0 0.16379912513568581 0.47072114722998237 0 0.14046774209784721 0.46429317202685039 0 0.1479106042039405 0.48283460682922269 0 0.34528538451660062 0.47773379418631268 0 0.36004097027348331 0.48461391470660581 0 0.33995603526071178 0.48633656933393699 0 0.3490806650621458 0.46922782941321262 0 0.36004097027348331 0.48461391470660581 0 0.36717500093372668 0.46757054210475929 0 0.3490806650621458 0.46922782941321262 0 0.36004097027348331 0.48461391470660581 0 0.3490806650621458 0.46922782941321262 0 0.34528538451660062 0.47773379418631268 0 0.36004097027348331 0.48461391470660581 0 0.34701069105550569 0.5 0 0.36004097027348331 0.48461391470660581 0 0.33995603526071178 0.48633656933393699 0 0.34701069105550569 0.5 0 0.36004097027348331 0.48461391470660581 0 0.37100127548482031 0.49999999999999922 0 0.36004097027348331 0.48461391470660581 0 0.37100127548482031 0.49999999999999922 0 0.37501723488010369 0.48021086780116401 0 0.36004097027348331 0.48461391470660581 0 0.37100127548482031 0.49999999999999922 0 0.36004097027348331 0.48461391470660581 0 0.36717500093372668 0.46757054210475929 0 0.37501723488010369 0.48021086780116401 0 0.37143629651032872 0.45720686114999193 0 0.36367632925015653 0.45252291112370391 0 0.35567836915472589 0.45678778088016703 0 0.36415499449082389 0.46121224231392488 0 0.37143629651032872 0.45720686114999193 0 0.38198070339643708 0.45705904394289942 0 0.36415499449082389 0.46121224231392488 0 0.37143629651032872 0.45720686114999193 0 0.35567836915472589 0.45678778088016703 0 0.36415499449082389 0.46121224231392488 0 0.36717500093372668 0.46757054210475929 0 0.38198070339643708 0.45705904394289942 0 0.36415499449082389 0.46121224231392488 0 0.38198070339643708 0.45705904394289942 0 0.3490806650621458 0.46922782941321262 0 0.36415499449082389 0.46121224231392488 0 0.36717500093372668 0.46757054210475929 0 0.37143629651032872 0.45720686114999193 0 0.35567836915472589 0.45678778088016703 0 0.37143629651032872 0.45720686114999193 0 0.36657482697318761 0.446748226791508 0 0.38198070339643708 0.45705904394289942 0 0.36657482697318761 0.446748226791508 0 0.37193014631584848 0.42999924720615068 0 0.38198070339643708 0.45705904394289942 0 0.37143629651032872 0.45720686114999193 0 0.36367632925015653 0.45252291112370391 0 0.36657482697318761 0.446748226791508 0 0.36367632925015653 0.45252291112370391 0 0.36657482697318761 0.446748226791508 0 0.3562845012834378 0.4482926986491193 0 0.34808057550305938 0.44600590612250468 0 0.35567836915472589 0.45678778088016703 0 0.33992044179912329 0.45636870061034079 0 0.36657482697318761 0.446748226791508 0 0.3562845012834378 0.4482926986491193 0 0.35414098508291708 0.43540859867718368 0 0.3562845012834378 0.4482926986491193 0 0.34808057550305938 0.44600590612250468 0 0.35414098508291708 0.43540859867718368 0 0.36367632925015653 0.45252291112370391 0 0.3562845012834378 0.4482926986491193 0 0.35567836915472589 0.45678778088016703 0 0.3562845012834378 0.4482926986491193 0 0.34808057550305938 0.44600590612250468 0 0.35567836915472589 0.45678778088016703 0 0.34808057550305938 0.44600590612250468 0 0.33961570140635172 0.4362099185178574 0 0.35414098508291708 0.43540859867718368 0 0.35567836915472589 0.45678778088016703 0 0.34632928558521042 0.46536544068494828 0 0.33992044179912329 0.45636870061034079 0 0.35567836915472589 0.45678778088016703 0 0.33992044179912329 0.45636870061034079 0 0.3490806650621458 0.46922782941321262 0 0.36415499449082389 0.46121224231392488 0 0.34632928558521042 0.46536544068494828 0 0.3490806650621458 0.46922782941321262 0 0.36717500093372668 0.46757054210475929 0 0.36415499449082389 0.46121224231392488 0 0.35567836915472589 0.45678778088016703 0 0.34632928558521042 0.46536544068494828 0 0.36415499449082389 0.46121224231392488 0 0.34632928558521042 0.46536544068494828 0 0.3490806650621458 0.46922782941321262 0 0.34632928558521042 0.46536544068494828 0 0.3490806650621458 0.46922782941321262 0 0.34632928558521042 0.46536544068494828 0 0.32696081697792789 0.47125381941113659 0 0.34632928558521042 0.46536544068494828 0 0.32521862645877231 0.47028399711148339 0 0.34632928558521042 0.46536544068494828 0 0.33992044179912329 0.45636870061034079 0 0.32521862645877231 0.47028399711148339 0 0.34632928558521042 0.46536544068494828 0 0.33992044179912329 0.45636870061034079 0 0.34808057550305938 0.44600590612250468 0 0.3323541236552271 0.44574709709892307 0 0.33961570140635172 0.4362099185178574 0 0.33992044179912329 0.45636870061034079 0 0.3323541236552271 0.44574709709892307 0 0.32253421818534123 0.44684829148095362 0 0.34808057550305938 0.44600590612250468 0 0.33992044179912329 0.45636870061034079 0 0.3323541236552271 0.44574709709892307 0 0.33992044179912329 0.45636870061034079 0 0.3323541236552271 0.44574709709892307 0 0.3323541236552271 0.44574709709892307 0 0.32610359684421192 0.43678193879044119 0 0.33961570140635172 0.4362099185178574 0 0.33992044179912329 0.45636870061034079 0 0.32253421818534123 0.44684829148095362 0 0.3152464127007425 0.45571249763777588 0 0.32253421818534123 0.44684829148095362 0 0.3152464127007425 0.45571249763777588 0 0.31209623941360759 0.43776564917250638 0 0.3152464127007425 0.45571249763777588 0 0.31209623941360759 0.43776564917250638 0 0.3323541236552271 0.44574709709892307 0 0.32253421818534123 0.44684829148095362 0 0.32610359684421192 0.43678193879044119 0 0.32253421818534123 0.44684829148095362 0 0.31209623941360759 0.43776564917250638 0 0.32610359684421192 0.43678193879044119 0 0.33992044179912329 0.45636870061034079 0 0.3152464127007425 0.45571249763777588 0 0.32521862645877231 0.47028399711148339 0 0.3152464127007425 0.45571249763777588 0 0.31913325966346701 0.47785624881888772 0 0.32521862645877231 0.47028399711148339 0 0.33992044179912329 0.45636870061034079 0 0.3152464127007425 0.45571249763777588 0 0.3152464127007425 0.45571249763777588 0 0.31913325966346701 0.47785624881888772 0 0.30420975952634299 0.46947331586472302 0 0.3152464127007425 0.45571249763777588 0 0.31913325966346701 0.47785624881888772 0 0.31913325966346701 0.47785624881888772 0 0.32591742888426312 0.47548348654552591 0 0.329001796240801 0.48161473987402198 0 0.32591742888426312 0.47548348654552591 0 0.32927264508034731 0.47640862751209928 0 0.329001796240801 0.48161473987402198 0 0.31913325966346701 0.47785624881888772 0 0.32591742888426312 0.47548348654552591 0 0.32521862645877231 0.47028399711148339 0 0.32591742888426312 0.47548348654552591 0 0.32696081697792789 0.47125381941113659 0 0.32927264508034731 0.47640862751209928 0 0.32591742888426312 0.47548348654552591 0 0.32521862645877231 0.47028399711148339 0 0.32696081697792789 0.47125381941113659 0 0.3490806650621458 0.46922782941321262 0 0.32696081697792789 0.47125381941113659 0 0.33647616413196407 0.47630837646213342 0 0.34632928558521042 0.46536544068494828 0 0.32521862645877231 0.47028399711148339 0 0.32696081697792789 0.47125381941113659 0 0.32696081697792789 0.47125381941113659 0 0.32927264508034731 0.47640862751209928 0 0.33647616413196407 0.47630837646213342 0 0.3490806650621458 0.46922782941321262 0 0.32696081697792789 0.47125381941113659 0 0.32927264508034731 0.47640862751209928 0 0.329001796240801 0.48161473987402198 0 0.33647616413196407 0.47630837646213342 0 0.329001796240801 0.48161473987402198 0 0.33647616413196407 0.47630837646213342 0 0.33995603526071178 0.48633656933393699 0 0.34528538451660062 0.47773379418631268 0 0.33647616413196407 0.47630837646213342 0 0.33995603526071178 0.48633656933393699 0 0.3490806650621458 0.46922782941321262 0 0.34528538451660062 0.47773379418631268 0 0.33647616413196407 0.47630837646213342 0 0.329001796240801 0.48161473987402198 0 0.33995603526071178 0.48633656933393699 0 0.32302010662619118 0.49999999999999961 0 0.34701069105550569 0.5 0 0.33995603526071178 0.48633656933393699 0 0.32302010662619118 0.49999999999999961 0 0.31913325966346701 0.47785624881888772 0 0.32302010662619118 0.49999999999999961 0 0.30499869470741492 0.48476163660817662 0 0.31913325966346701 0.47785624881888772 0 0.329001796240801 0.48161473987402198 0 0.32302010662619118 0.49999999999999961 0 0.31913325966346701 0.47785624881888772 0 0.32302010662619118 0.49999999999999961 0 0.30109195845370501 0.5 0 0.30499869470741492 0.48476163660817662 0 0.28958375731165181 0.48005255167767952 0 0.32302010662619118 0.49999999999999961 0 0.30109195845370501 0.5 0 0.30499869470741492 0.48476163660817662 0 0.31913325966346701 0.47785624881888772 0 0.30499869470741492 0.48476163660817662 0 0.30420975952634299 0.46947331586472302 0 0.30499869470741492 0.48476163660817662 0 0.30420975952634299 0.46947331586472302 0 0.28958375731165181 0.48005255167767952 0 0.30109195845370501 0.5 0 0.28958375731165181 0.48005255167767952 0 0.27916381028121873 0.5 0 0.27916381028121873 0.5 0 0.27240166341444522 0.48425749185169831 0 0.2572356621087325 0.50000000000000155 0 0.28958375731165181 0.48005255167767952 0 0.27916381028121873 0.5 0 0.27240166341444522 0.48425749185169831 0 0.27240166341444522 0.48425749185169831 0 0.25716706715618193 0.47641783178924169 0 0.27345808637904001 0.4661952126215072 0 0.28958375731165181 0.48005255167767952 0 0.27240166341444522 0.48425749185169831 0 0.27345808637904001 0.4661952126215072 0 0.25716706715618193 0.47641783178924169 0 0.2572356621087325 0.50000000000000155 0 0.24324303354975521 0.48909866857844392 0 0.25716706715618193 0.47641783178924169 0 0.2572356621087325 0.50000000000000155 0 0.27240166341444522 0.48425749185169831 0 0.25716706715618193 0.47641783178924169 0 0.2572356621087325 0.50000000000000155 0 0.25709847220363119 0.45283566357848187 0 0.25702987725108101 0.42925349536772212 0 0.25709847220363119 0.45283566357848187 0 0.25702987725108101 0.42925349536772212 0 0.25836746492245471 0.43174768403659147 0 0.25709847220363119 0.45283566357848187 0 0.2660695066302855 0.43871015010979147 0 0.25836746492245471 0.43174768403659147 0 0.2448364132796593 0.44231000148378752 0 0.25709847220363119 0.45283566357848187 0 0.25702987725108101 0.42925349536772212 0 0.25716706715618193 0.47641783178924169 0 0.25709847220363119 0.45283566357848187 0 0.25716706715618193 0.47641783178924169 0 0.25709847220363119 0.45283566357848187 0 0.27345808637904001 0.4661952126215072 0 0.24184120684035099 0.4581976946154846 0 0.25716706715618193 0.47641783178924169 0 0.25709847220363119 0.45283566357848187 0 0.27345808637904001 0.4661952126215072 0 0.27379346358837398 0.44854793932786308 0 0.29070409459995628 0.45505979750407899 0 0.25709847220363119 0.45283566357848187 0 0.27345808637904001 0.4661952126215072 0 0.27379346358837398 0.44854793932786308 0 0.25709847220363119 0.45283566357848187 0 0.27379346358837398 0.44854793932786308 0 0.2660695066302855 0.43871015010979147 0 0.27379346358837398 0.44854793932786308 0 0.2660695066302855 0.43871015010979147 0 0.27312045032292342 0.43870088492299869 0 0.27379346358837398 0.44854793932786308 0 0.27312045032292342 0.43870088492299869 0 0.28291697042830632 0.43588410089467061 0 0.27379346358837398 0.44854793932786308 0 0.29070409459995628 0.45505979750407899 0 0.28291697042830632 0.43588410089467061 0 0.29070409459995628 0.45505979750407899 0 0.29777872383227422 0.43475991775429229 0 0.28291697042830632 0.43588410089467061 0 0.28958375731165181 0.48005255167767952 0 0.27345808637904001 0.4661952126215072 0 0.29070409459995628 0.45505979750407899 0 0.30420975952634299 0.46947331586472302 0 0.28958375731165181 0.48005255167767952 0 0.29070409459995628 0.45505979750407899 0 0.3152464127007425 0.45571249763777588 0 0.30420975952634299 0.46947331586472302 0 0.29070409459995628 0.45505979750407899 0 0.3152464127007425 0.45571249763777588 0 0.29070409459995628 0.45505979750407899 0 0.3152464127007425 0.45571249763777588 0 0.29070409459995628 0.45505979750407899 0 0.31209623941360759 0.43776564917250638 0 0.29070409459995628 0.45505979750407899 0 0.31209623941360759 0.43776564917250638 0 0.29777872383227422 0.43475991775429229 0 0.29777872383227422 0.43475991775429229 0 0.28982240375417168 0.42299913491174501 0 0.31495791781995791 0.41600820478279921 0 0.31209623941360759 0.43776564917250638 0 0.29777872383227422 0.43475991775429229 0 0.31495791781995791 0.41600820478279921 0 0.28982240375417168 0.42299913491174501 0 0.31495791781995791 0.41600820478279921 0 0.28950248352475311 0.4095022566254774 0 0.28982240375417168 0.42299913491174501 0 0.31495791781995791 0.41600820478279921 0 0.28950248352475311 0.4095022566254774 0 0.29925209770985872 0.40107025153885512 0 0.31495791781995791 0.41600820478279921 0 0.28950248352475311 0.4095022566254774 0 0.28982240375417168 0.42299913491174501 0 0.27496603255160451 0.42014298348928741 0 0.29777872383227422 0.43475991775429229 0 0.28982240375417168 0.42299913491174501 0 0.28291697042830632 0.43588410089467061 0 0.28982240375417168 0.42299913491174501 0 0.26935029905594432 0.43043866375212297 0 0.26468688968838561 0.42999006504069143 0 0.27312045032292342 0.43870088492299869 0 0.28291697042830632 0.43588410089467061 0 0.26935029905594432 0.43043866375212297 0 0.28982240375417168 0.42299913491174501 0 0.26468688968838561 0.42999006504069143 0 0.28982240375417168 0.42299913491174501 0 0.28291697042830632 0.43588410089467061 0 0.26935029905594432 0.43043866375212297 0 0.28982240375417168 0.42299913491174501 0 0.27496603255160451 0.42014298348928741 0 0.26468688968838561 0.42999006504069143 0 0.2660695066302855 0.43871015010979147 0 0.26935029905594432 0.43043866375212297 0 0.26468688968838561 0.42999006504069143 0 0.2660695066302855 0.43871015010979147 0 0.27312045032292342 0.43870088492299869 0 0.26935029905594432 0.43043866375212297 0 0.26935029905594432 0.43043866375212297 0 0.26468688968838561 0.42999006504069143 0 0.27496603255160451 0.42014298348928741 0 0.26468688968838561 0.42999006504069143 0 0.2651281327625446 0.42188031555685962 0 0.28950248352475311 0.4095022566254774 0 0.26395116785126571 0.41384430375133069 0 0.28950248352475311 0.4095022566254774 0 0.27496603255160451 0.42014298348928741 0 0.26395116785126571 0.41384430375133069 0 0.28950248352475311 0.4095022566254774 0 0.26395116785126571 0.41384430375133069 0 0.27343145984221179 0.40601604463393609 0 0.26395116785126571 0.41384430375133069 0 0.26299804800527138 0.40191116090260848 0 0.27343145984221179 0.40601604463393609 0 0.27496603255160451 0.42014298348928741 0 0.26395116785126571 0.41384430375133069 0 0.2651281327625446 0.42188031555685962 0 0.26395116785126571 0.41384430375133069 0 0.25700903327720531 0.4220875730974884 0 0.2651281327625446 0.42188031555685962 0 0.2383998521777784 0.41818635087718381 0 0.26395116785126571 0.41384430375133069 0 0.25380059083303341 0.40846212201461762 0 0.2488221034234695 0.4223051763495565 0 0.2383998521777784 0.41818635087718381 0 0.26395116785126571 0.41384430375133069 0 0.2383998521777784 0.41818635087718381 0 0.26395116785126571 0.41384430375133069 0 0.26395116785126571 0.41384430375133069 0 0.25380059083303341 0.40846212201461762 0 0.26299804800527138 0.40191116090260848 0 0.2488221034234695 0.4223051763495565 0 0.26395116785126571 0.41384430375133069 0 0.25700903327720531 0.4220875730974884 0 0.2488221034234695 0.4223051763495565 0 0.25700903327720531 0.4220875730974884 0 0.25702987725108101 0.42925349536772212 0 0.25700903327720531 0.4220875730974884 0 0.25702987725108101 0.42925349536772212 0 0.25836746492245471 0.43174768403659147 0 0.26468688968838561 0.42999006504069143 0 0.25702987725108101 0.42925349536772212 0 0.25836746492245471 0.43174768403659147 0 0.26468688968838561 0.42999006504069143 0 0.2660695066302855 0.43871015010979147 0 0.25836746492245471 0.43174768403659147 0 0.26468688968838561 0.42999006504069143 0 0.25702987725108101 0.42925349536772212 0 0.26468688968838561 0.42999006504069143 0 0.2651281327625446 0.42188031555685962 0 0.25700903327720531 0.4220875730974884 0 0.25702987725108101 0.42925349536772212 0 0.2651281327625446 0.42188031555685962 0 0.25702987725108101 0.42925349536772212 0 0.26468688968838561 0.42999006504069143 0 0.24985329529781791 0.39990667252734718 0 0.247713784970646 0.38075050805242922 0 0.26130673841785779 0.38162699417751078 0 0.26130673841785779 0.38162699417751078 0 0.25751014003425049 0.39127202551525408 0 0.26130673841785779 0.38162699417751078 0 0.25751014003425049 0.39127202551525408 0 0.26555566989124457 0.39385691981445009 0 0.247713784970646 0.38075050805242922 0 0.26130673841785779 0.38162699417751078 0 0.25490457918629872 0.37507349251653871 0 0.24985329529781791 0.39990667252734718 0 0.26130673841785779 0.38162699417751078 0 0.24985329529781791 0.39990667252734718 0 0.26130673841785779 0.38162699417751078 0 0.25751014003425049 0.39127202551525408 0 0.24985329529781791 0.39990667252734718 0 0.25751014003425049 0.39127202551525408 0 0.26299804800527138 0.40191116090260848 0 0.24985329529781791 0.39990667252734718 0 0.25380059083303341 0.40846212201461762 0 0.26299804800527138 0.40191116090260848 0 0.25751014003425049 0.39127202551525408 0 0.26299804800527138 0.40191116090260848 0 0.26555566989124457 0.39385691981445009 0 0.26555566989124457 0.39385691981445009 0 0.27430006382294309 0.39784586166294189 0 0.27120134665021761 0.38756895009831732 0 0.26299804800527138 0.40191116090260848 0 0.26555566989124457 0.39385691981445009 0 0.27430006382294309 0.39784586166294189 0 0.26299804800527138 0.40191116090260848 0 0.27343145984221179 0.40601604463393609 0 0.27430006382294309 0.39784586166294189 0 0.27343145984221179 0.40601604463393609 0 0.28106797903805247 0.40257602375425933 0 0.27430006382294309 0.39784586166294189 0 0.28106797903805247 0.40257602375425933 0 0.27430006382294309 0.39784586166294189 0 0.28703790896230208 0.39693993209468148 0 0.27430006382294309 0.39784586166294189 0 0.27993136792368678 0.39059144184020128 0 0.27120134665021761 0.38756895009831732 0 0.27430006382294309 0.39784586166294189 0 0.27993136792368678 0.39059144184020128 0 0.28703790896230208 0.39693993209468148 0 0.27993136792368678 0.39059144184020128 0 0.27120134665021761 0.38756895009831732 0 0.27779903165459169 0.3822920493098666 0 0.26130673841785779 0.38162699417751078 0 0.26555566989124457 0.39385691981445009 0 0.27120134665021761 0.38756895009831732 0 0.27120134665021761 0.38756895009831732 0 0.27107463499663109 0.37851234507980008 0 0.27779903165459169 0.3822920493098666 0 0.26130673841785779 0.38162699417751078 0 0.27120134665021761 0.38756895009831732 0 0.27107463499663109 0.37851234507980008 0 0.27107463499663109 0.37851234507980008 0 0.27779903165459169 0.3822920493098666 0 0.2766490591355068 0.37433388147839908 0 0.27779903165459169 0.3822920493098666 0 0.28390095120816711 0.37562544504190132 0 0.2766490591355068 0.37433388147839908 0 0.28390095120816711 0.37562544504190132 0 0.28652318226166418 0.38492160690775928 0 0.29373006398809498 0.37700175091789651 0 0.27779903165459169 0.3822920493098666 0 0.28390095120816711 0.37562544504190132 0 0.28652318226166418 0.38492160690775928 0 0.27993136792368678 0.39059144184020128 0 0.27779903165459169 0.3822920493098666 0 0.28652318226166418 0.38492160690775928 0 0.28652318226166418 0.38492160690775928 0 0.29667622102462171 0.38885955313607279 0 0.28703790896230208 0.39693993209468148 0 0.28652318226166418 0.38492160690775928 0 0.29667622102462171 0.38885955313607279 0 0.29373006398809498 0.37700175091789651 0 0.28950248352475311 0.4095022566254774 0 0.27343145984221179 0.40601604463393609 0 0.28106797903805247 0.40257602375425933 0 0.28950248352475311 0.4095022566254774 0 0.28106797903805247 0.40257602375425933 0 0.28703790896230208 0.39693993209468148 0 0.27993136792368678 0.39059144184020128 0 0.28652318226166418 0.38492160690775928 0 0.28703790896230208 0.39693993209468148 0 0.29667622102462171 0.38885955313607279 0 0.28703790896230208 0.39693993209468148 0 0.29925209770985872 0.40107025153885512 0 0.28950248352475311 0.4095022566254774 0 0.28703790896230208 0.39693993209468148 0 0.29925209770985872 0.40107025153885512 0 0.29925209770985872 0.40107025153885512 0 0.30808595721765852 0.39404131105524431 0 0.31495791781995791 0.41600820478279921 0 0.29667622102462171 0.38885955313607279 0 0.29925209770985872 0.40107025153885512 0 0.30808595721765852 0.39404131105524431 0 0.29667622102462171 0.38885955313607279 0 0.29373006398809498 0.37700175091789651 0 0.30704607127102962 0.37874789135054893 0 0.29667622102462171 0.38885955313607279 0 0.30808595721765852 0.39404131105524431 0 0.30704607127102962 0.37874789135054893 0 0.30808595721765852 0.39404131105524431 0 0.30704607127102962 0.37874789135054893 0 0.32845424032326143 0.38484820442882378 0 0.32845424032326143 0.38484820442882378 0 0.35182903215467742 0.3758796537326512 0 0.34790646022865218 0.39538457505576469 0 0.32845424032326143 0.38484820442882378 0 0.35182903215467742 0.3758796537326512 0 0.33494999436834533 0.36683291921078343 0 0.32845424032326143 0.38484820442882378 0 0.34009343188574281 0.40901727465384918 0 0.34790646022865218 0.39538457505576469 0 0.32845424032326143 0.38484820442882378 0 0.34009343188574281 0.40901727465384918 0 0.32845424032326143 0.38484820442882378 0 0.31495791781995791 0.41600820478279921 0 0.34009343188574281 0.40901727465384918 0 0.30808595721765852 0.39404131105524431 0 0.32845424032326143 0.38484820442882378 0 0.31495791781995791 0.41600820478279921 0 0.31495791781995791 0.41600820478279921 0 0.32365546110746413 0.42694996431045568 0 0.33527312640506091 0.41934143736272778 0 0.31495791781995791 0.41600820478279921 0 0.34009343188574281 0.40901727465384918 0 0.31209623941360759 0.43776564917250638 0 0.31495791781995791 0.41600820478279921 0 0.32365546110746413 0.42694996431045568 0 0.32365546110746413 0.42694996431045568 0 0.32610359684421192 0.43678193879044119 0 0.33309445048640007 0.42842800460629599 0 0.31209623941360759 0.43776564917250638 0 0.32365546110746413 0.42694996431045568 0 0.32610359684421192 0.43678193879044119 0 0.32610359684421192 0.43678193879044119 0 0.33309445048640007 0.42842800460629599 0 0.33961570140635172 0.4362099185178574 0 0.32365546110746413 0.42694996431045568 0 0.33309445048640007 0.42842800460629599 0 0.33527312640506091 0.41934143736272778 0 0.33309445048640007 0.42842800460629599 0 0.33527312640506091 0.41934143736272778 0 0.34392047686629479 0.42488796581179539 0 0.33309445048640007 0.42842800460629599 0 0.33961570140635172 0.4362099185178574 0 0.34392047686629479 0.42488796581179539 0 0.31495791781995791 0.41600820478279921 0 0.33527312640506091 0.41934143736272778 0 0.34009343188574281 0.40901727465384918 0 0.33527312640506091 0.41934143736272778 0 0.34212939465805281 0.41814630590263291 0 0.34392047686629479 0.42488796581179539 0 0.33527312640506091 0.41934143736272778 0 0.34212939465805281 0.41814630590263291 0 0.34186442441667098 0.41269478460960501 0 0.34212939465805281 0.41814630590263291 0 0.34186442441667098 0.41269478460960501 0 0.34552380666320143 0.41323543455967687 0 0.34186442441667098 0.41269478460960501 0 0.34009343188574281 0.40901727465384918 0 0.34552380666320143 0.41323543455967687 0 0.33527312640506091 0.41934143736272778 0 0.34186442441667098 0.41269478460960501 0 0.34009343188574281 0.40901727465384918 0 0.34186442441667098 0.41269478460960501 0 0.34009343188574281 0.40901727465384918 0 0.34009343188574281 0.40901727465384918 0 0.35091829865975332 0.41092335925812529 0 0.35727600754431599 0.40423829199409889 0 0.34009343188574281 0.40901727465384918 0 0.35727600754431599 0.40423829199409889 0 0.34009343188574281 0.40901727465384918 0 0.35091829865975332 0.41092335925812529 0 0.34552380666320143 0.41323543455967687 0 0.35091829865975332 0.41092335925812529 0 0.34552380666320143 0.41323543455967687 0 0.34772672207850669 0.4169791994607831 0 0.34212939465805281 0.41814630590263291 0 0.34772672207850669 0.4169791994607831 0 0.34392047686629479 0.42488796581179539 0 0.34212939465805281 0.41814630590263291 0 0.34552380666320143 0.41323543455967687 0 0.34772672207850669 0.4169791994607831 0 0.34772672207850669 0.4169791994607831 0 0.35532758082363769 0.41783269502340331 0 0.34392047686629479 0.42488796581179539 0 0.35091829865975332 0.41092335925812529 0 0.34772672207850669 0.4169791994607831 0 0.35532758082363769 0.41783269502340331 0 0.35091829865975332 0.41092335925812529 0 0.35532758082363769 0.41783269502340331 0 0.35727600754431599 0.40423829199409889 0 0.35532758082363769 0.41783269502340331 0 0.36187958923526292 0.40293945046940088 0 0.35727600754431599 0.40423829199409889 0 0.35532758082363769 0.41783269502340331 0 0.34392047686629479 0.42488796581179539 0 0.35414098508291708 0.43540859867718368 0 0.33961570140635172 0.4362099185178574 0 0.34392047686629479 0.42488796581179539 0 0.35414098508291708 0.43540859867718368 0 0.35532758082363769 0.41783269502340331 0 0.35414098508291708 0.43540859867718368 0 0.37193014631584848 0.42999924720615068 0 0.36657482697318761 0.446748226791508 0 0.35414098508291708 0.43540859867718368 0 0.37193014631584848 0.42999924720615068 0 0.35532758082363769 0.41783269502340331 0 0.37193014631584848 0.42999924720615068 0 0.36187958923526292 0.40293945046940088 0 0.37193014631584848 0.42999924720615068 0 0.36187958923526292 0.40293945046940088 0 0.37193014631584848 0.42999924720615068 0 0.36187958923526292 0.40293945046940088 0 0.39091832328282361 0.41087193027100549 0 0.36187958923526292 0.40293945046940088 0 0.35182903215467742 0.3758796537326512 0 0.37807898130569972 0.38198010331448301 0 0.36187958923526292 0.40293945046940088 0 0.35182903215467742 0.3758796537326512 0 0.36187958923526292 0.40293945046940088 0 0.35182903215467742 0.3758796537326512 0 0.34790646022865218 0.39538457505576469 0 0.34009343188574281 0.40901727465384918 0 0.34790646022865218 0.39538457505576469 0 0.35727600754431599 0.40423829199409889 0 0.36187958923526292 0.40293945046940088 0 0.34790646022865218 0.39538457505576469 0 0.35727600754431599 0.40423829199409889 0 0.35182903215467742 0.3758796537326512 0 0.3722477765496085 0.35016695762591221 0 0.37807898130569972 0.38198010331448301 0 0.35182903215467742 0.3758796537326512 0 0.3722477765496085 0.35016695762591221 0 0.34177847507409181 0.34881985699590151 0 0.35182903215467742 0.3758796537326512 0 0.34177847507409181 0.34881985699590151 0 0.3722477765496085 0.35016695762591221 0 0.37069175466933912 0.32875176142968793 0 0.35660426620688718 0.33158813156598749 0 0.3722477765496085 0.35016695762591221 0 0.37069175466933912 0.32875176142968793 0 0.38018026091455548 0.33583017463534492 0 0.36908544359869788 0.31711993858565868 0 0.37552929986171052 0.31147094895867028 0 0.37512131353827649 0.31993777409944391 0 0.37069175466933912 0.32875176142968793 0 0.36908544359869788 0.31711993858565868 0 0.37512131353827649 0.31993777409944391 0 0.37069175466933912 0.32875176142968793 0 0.36908544359869788 0.31711993858565868 0 0.36227265828944472 0.32102596309161863 0 0.37069175466933912 0.32875176142968793 0 0.36227265828944472 0.32102596309161863 0 0.35660426620688718 0.33158813156598749 0 0.36908544359869788 0.31711993858565868 0 0.36216199407232552 0.31421251507807352 0 0.36873564116109159 0.30732066885645792 0 0.36908544359869788 0.31711993858565868 0 0.36227265828944472 0.32102596309161863 0 0.36216199407232552 0.31421251507807352 0 0.36227265828944472 0.32102596309161863 0 0.36216199407232552 0.31421251507807352 0 0.35548040964913802 0.3182867922552447 0 0.33172791799350532 0.32176006025915199 0 0.34669185149407039 0.31235854363774268 0 0.35483192959872478 0.30892549123100937 0 0.34679263072992478 0.32222161781041447 0 0.33172791799350532 0.32176006025915199 0 0.35483192959872478 0.30892549123100937 0 0.35548040964913802 0.3182867922552447 0 0.34679263072992478 0.32222161781041447 0 0.35483192959872478 0.30892549123100937 0 0.36216199407232552 0.31421251507807352 0 0.35548040964913802 0.3182867922552447 0 0.35483192959872478 0.30892549123100937 0 0.35548040964913802 0.3182867922552447 0 0.34679263072992478 0.32222161781041447 0 0.35660426620688718 0.33158813156598749 0 0.36227265828944472 0.32102596309161863 0 0.35548040964913802 0.3182867922552447 0 0.35660426620688718 0.33158813156598749 0 0.34679263072992478 0.32222161781041447 0 0.35660426620688718 0.33158813156598749 0 0.34177847507409181 0.34881985699590151 0 0.3722477765496085 0.35016695762591221 0 0.35660426620688718 0.33158813156598749 0 0.34177847507409181 0.34881985699590151 0 0.33172791799350532 0.32176006025915199 0 0.32481653016515311 0.34395618279456119 0 0.34177847507409181 0.34881985699590151 0 0.34679263072992478 0.32222161781041447 0 0.33172791799350532 0.32176006025915199 0 0.34177847507409181 0.34881985699590151 0 0.33172791799350532 0.32176006025915199 0 0.34177847507409181 0.34881985699590151 0 0.33172791799350532 0.32176006025915199 0 0.35483192959872478 0.30892549123100937 0 0.33172791799350532 0.32176006025915199 0 0.33433715661558527 0.30915126849091529 0 0.34669185149407039 0.31235854363774268 0 0.33172791799350532 0.32176006025915199 0 0.32649517228490349 0.30767158395733452 0 0.33433715661558527 0.30915126849091529 0 0.33172791799350532 0.32176006025915199 0 0.32649517228490349 0.30767158395733452 0 0.33172791799350532 0.32176006025915199 0 0.31845188759589887 0.32913506211895882 0 0.3124215414252603 0.31463851826348332 0 0.33172791799350532 0.32176006025915199 0 0.3124215414252603 0.31463851826348332 0 0.32649517228490349 0.30767158395733452 0 0.33172791799350532 0.32176006025915199 0 0.31845188759589887 0.32913506211895882 0 0.33172791799350532 0.32176006025915199 0 0.31845188759589887 0.32913506211895882 0 0.32481653016515311 0.34395618279456119 0 0.31845188759589887 0.32913506211895882 0 0.32481653016515311 0.34395618279456119 0 0.3051758571982971 0.3365100639787737 0 0.32481653016515311 0.34395618279456119 0 0.31681504876077932 0.36067913420379871 0 0.3051758571982971 0.3365100639787737 0 0.32481653016515311 0.34395618279456119 0 0.33494999436834533 0.36683291921078343 0 0.31681504876077932 0.36067913420379871 0 0.32481653016515311 0.34395618279456119 0 0.34177847507409181 0.34881985699590151 0 0.33494999436834533 0.36683291921078343 0 0.35182903215467742 0.3758796537326512 0 0.34177847507409181 0.34881985699590151 0 0.33494999436834533 0.36683291921078343 0 0.30704607127102962 0.37874789135054893 0 0.32845424032326143 0.38484820442882378 0 0.31681504876077932 0.36067913420379871 0 0.32845424032326143 0.38484820442882378 0 0.31681504876077932 0.36067913420379871 0 0.32845424032326143 0.38484820442882378 0 0.33494999436834533 0.36683291921078343 0 0.31681504876077932 0.36067913420379871 0 0.30704607127102962 0.37874789135054893 0 0.31681504876077932 0.36067913420379871 0 0.30062517624183088 0.36676896646786628 0 0.31681504876077932 0.36067913420379871 0 0.30062517624183088 0.36676896646786628 0 0.29985560249366611 0.35416009340586768 0 0.29373006398809498 0.37700175091789651 0 0.30704607127102962 0.37874789135054893 0 0.30062517624183088 0.36676896646786628 0 0.31681504876077932 0.36067913420379871 0 0.3051758571982971 0.3365100639787737 0 0.31681504876077932 0.36067913420379871 0 0.29985560249366611 0.35416009340586768 0 0.3051758571982971 0.3365100639787737 0 0.29985560249366611 0.35416009340586768 0 0.29642893485056382 0.34373170356788069 0 0.3051758571982971 0.3365100639787737 0 0.29156997961887149 0.34921014654590388 0 0.28547266882539629 0.3430582048410174 0 0.29642893485056382 0.34373170356788069 0 0.29985560249366611 0.35416009340586768 0 0.29156997961887149 0.34921014654590388 0 0.29642893485056382 0.34373170356788069 0 0.29985560249366611 0.35416009340586768 0 0.2845227123058599 0.35589058436884952 0 0.28847801066549428 0.36644572303251932 0 0.29985560249366611 0.35416009340586768 0 0.29156997961887149 0.34921014654590388 0 0.2845227123058599 0.35589058436884952 0 0.29156997961887149 0.34921014654590388 0 0.2845227123058599 0.35589058436884952 0 0.28547266882539629 0.3430582048410174 0 0.29373006398809498 0.37700175091789651 0 0.30062517624183088 0.36676896646786628 0 0.28847801066549428 0.36644572303251932 0 0.30062517624183088 0.36676896646786628 0 0.29985560249366611 0.35416009340586768 0 0.28847801066549428 0.36644572303251932 0 0.2845227123058599 0.35589058436884952 0 0.28170395393251652 0.36324765217496502 0 0.28847801066549428 0.36644572303251932 0 0.28170395393251652 0.36324765217496502 0 0.28847801066549428 0.36644572303251932 0 0.28042538913708492 0.36831170178922717 0 0.28390095120816711 0.37562544504190132 0 0.29373006398809498 0.37700175091789651 0 0.28847801066549428 0.36644572303251932 0 0.28390095120816711 0.37562544504190132 0 0.28847801066549428 0.36644572303251932 0 0.28042538913708492 0.36831170178922717 0 0.28042538913708492 0.36831170178922717 0 0.2766490591355068 0.37433388147839908 0 0.27338970362162712 0.36234259950926417 0 0.26130673841785779 0.38162699417751078 0 0.27338970362162712 0.36234259950926417 0 0.26130673841785779 0.38162699417751078 0 0.27338970362162712 0.36234259950926417 0 0.27075156819252399 0.35763296848608189 0 0.26130673841785779 0.38162699417751078 0 0.27107463499663109 0.37851234507980008 0 0.27338970362162712 0.36234259950926417 0 0.26130673841785779 0.38162699417751078 0 0.27075156819252399 0.35763296848608189 0 0.27107463499663109 0.37851234507980008 0 0.2766490591355068 0.37433388147839908 0 0.27338970362162712 0.36234259950926417 0 0.28390095120816711 0.37562544504190132 0 0.28042538913708492 0.36831170178922717 0 0.2766490591355068 0.37433388147839908 0 0.28170395393251652 0.36324765217496502 0 0.28042538913708492 0.36831170178922717 0 0.27338970362162712 0.36234259950926417 0 0.2845227123058599 0.35589058436884952 0 0.28170395393251652 0.36324765217496502 0 0.27338970362162712 0.36234259950926417 0 0.27075156819252399 0.35763296848608189 0 0.26558463596339632 0.34150625501184179 0 0.28019639796719031 0.33363894279465311 0 0.27075156819252399 0.35763296848608189 0 0.28019639796719031 0.33363894279465311 0 0.28547266882539629 0.3430582048410174 0 0.2845227123058599 0.35589058436884952 0 0.27338970362162712 0.36234259950926417 0 0.28547266882539629 0.3430582048410174 0 0.27075156819252399 0.35763296848608189 0 0.28019639796719031 0.33363894279465311 0 0.27338970362162712 0.36234259950926417 0 0.28547266882539629 0.3430582048410174 0 0.27338970362162712 0.36234259950926417 0 0.27075156819252399 0.35763296848608189 0 0.28547266882539629 0.3430582048410174 0 0.27075156819252399 0.35763296848608189 0 0.25711451900508148 0.35258648987221092 0 0.26558463596339632 0.34150625501184179 0 0.2438273554430464 0.34812574592335249 0 0.25711451900508148 0.35258648987221092 0 0.25235619873932041 0.33556187677713623 0 0.27075156819252399 0.35763296848608189 0 0.25711451900508148 0.35258648987221092 0 0.25830082874688443 0.36636652218621663 0 0.26130673841785779 0.38162699417751078 0 0.27075156819252399 0.35763296848608189 0 0.25830082874688443 0.36636652218621663 0 0.2444030594993066 0.36261468031945582 0 0.25711451900508148 0.35258648987221092 0 0.25830082874688443 0.36636652218621663 0 0.2444030594993066 0.36261468031945582 0 0.25490457918629872 0.37507349251653871 0 0.25830082874688443 0.36636652218621663 0 0.26130673841785779 0.38162699417751078 0 0.25490457918629872 0.37507349251653871 0 0.25830082874688443 0.36636652218621663 0 0.2412863906095909 0.31706614216088019 0 0.25496362040665271 0.32267745764425643 0 0.26071219069447599 0.31197788889560879 0 0.25496362040665271 0.32267745764425643 0 0.26589958482641279 0.32752631364072038 0 0.26071219069447599 0.31197788889560879 0 0.25496362040665271 0.32267745764425643 0 0.25235619873932041 0.33556187677713623 0 0.26589958482641279 0.32752631364072038 0 0.25711451900508148 0.35258648987221092 0 0.25235619873932041 0.33556187677713623 0 0.26558463596339632 0.34150625501184179 0 0.25235619873932041 0.33556187677713623 0 0.26558463596339632 0.34150625501184179 0 0.26589958482641279 0.32752631364072038 0 0.26558463596339632 0.34150625501184179 0 0.28019639796719031 0.33363894279465311 0 0.26589958482641279 0.32752631364072038 0 0.28019639796719031 0.33363894279465311 0 0.26589958482641279 0.32752631364072038 0 0.27489680020354851 0.31780650302536112 0 0.26589958482641279 0.32752631364072038 0 0.27489680020354851 0.31780650302536112 0 0.26071219069447599 0.31197788889560879 0 0.28019639796719031 0.33363894279465311 0 0.28964122774185652 0.30964491710322428 0 0.28019639796719031 0.33363894279465311 0 0.27489680020354851 0.31780650302536112 0 0.28964122774185652 0.30964491710322428 0 0.28019639796719031 0.33363894279465311 0 0.29537221966939131 0.31615256727250862 0 0.28964122774185652 0.30964491710322428 0 0.28019639796719031 0.33363894279465311 0 0.29537221966939131 0.31615256727250862 0 0.29755563402916552 0.32377381017277068 0 0.28019639796719031 0.33363894279465311 0 0.28547266882539629 0.3430582048410174 0 0.29755563402916552 0.32377381017277068 0 0.28547266882539629 0.3430582048410174 0 0.29755563402916552 0.32377381017277068 0 0.28547266882539629 0.3430582048410174 0 0.29642893485056382 0.34373170356788069 0 0.29755563402916552 0.32377381017277068 0 0.29642893485056382 0.34373170356788069 0 0.3051758571982971 0.3365100639787737 0 0.29755563402916552 0.32377381017277068 0 0.31845188759589887 0.32913506211895882 0 0.3051758571982971 0.3365100639787737 0 0.29537221966939131 0.31615256727250862 0 0.3051758571982971 0.3365100639787737 0 0.29755563402916552 0.32377381017277068 0 0.31845188759589887 0.32913506211895882 0 0.3051758571982971 0.3365100639787737 0 0.3124215414252603 0.31463851826348332 0 0.29537221966939131 0.31615256727250862 0 0.3051758571982971 0.3365100639787737 0 0.29537221966939131 0.31615256727250862 0 0.3051758571982971 0.3365100639787737 0 0.3124215414252603 0.31463851826348332 0 0.29537221966939131 0.31615256727250862 0 0.3064038210334884 0.30067388223127611 0 0.29780590900410991 0.29124285186599119 0 0.29537221966939131 0.31615256727250862 0 0.3124215414252603 0.31463851826348332 0 0.3064038210334884 0.30067388223127611 0 0.3124215414252603 0.31463851826348332 0 0.3064038210334884 0.30067388223127611 0 0.31797064105596812 0.29669460242380358 0 0.3064038210334884 0.30067388223127611 0 0.30706453001149392 0.28545611992336922 0 0.31797064105596812 0.29669460242380358 0 0.3064038210334884 0.30067388223127611 0 0.30706453001149392 0.28545611992336922 0 0.29780590900410991 0.29124285186599119 0 0.30706453001149392 0.28545611992336922 0 0.29780590900410991 0.29124285186599119 0 0.29516751126046797 0.28001135836836077 0 0.28556858214048553 0.29579507056624349 0 0.28351082165216779 0.2739244349354083 0 0.29516751126046797 0.28001135836836077 0 0.29780590900410991 0.29124285186599119 0 0.28556858214048553 0.29579507056624349 0 0.29516751126046797 0.28001135836836077 0 0.28556858214048553 0.29579507056624349 0 0.27576494461157991 0.27543757385997852 0 0.28351082165216779 0.2739244349354083 0 0.29537221966939131 0.31615256727250862 0 0.29780590900410991 0.29124285186599119 0 0.28556858214048553 0.29579507056624349 0 0.29537221966939131 0.31615256727250862 0 0.28556858214048553 0.29579507056624349 0 0.28964122774185652 0.30964491710322428 0 0.29537221966939131 0.31615256727250862 0 0.28556858214048553 0.29579507056624349 0 0.28556858214048553 0.29579507056624349 0 0.28964122774185652 0.30964491710322428 0 0.27438759942090191 0.30337842557507938 0 0.27489680020354851 0.31780650302536112 0 0.28964122774185652 0.30964491710322428 0 0.27438759942090191 0.30337842557507938 0 0.27489680020354851 0.31780650302536112 0 0.27438759942090191 0.30337842557507938 0 0.26071219069447599 0.31197788889560879 0 0.27248032494705132 0.28939396479480628 0 0.25491758893057909 0.27951005592881761 0 0.27576494461157991 0.27543757385997852 0 0.28556858214048553 0.29579507056624349 0 0.27576494461157991 0.27543757385997852 0 0.28556858214048553 0.29579507056624349 0 0.27248032494705132 0.28939396479480628 0 0.27576494461157991 0.27543757385997852 0 0.28556858214048553 0.29579507056624349 0 0.27438759942090191 0.30337842557507938 0 0.27248032494705132 0.28939396479480628 0 0.27438759942090191 0.30337842557507938 0 0.27248032494705132 0.28939396479480628 0 0.26162700977852021 0.29629342014523508 0 0.27248032494705132 0.28939396479480628 0 0.26162700977852021 0.29629342014523508 0 0.25491758893057909 0.27951005592881761 0 0.24543399627141721 0.29887735901603257 0 0.26162700977852021 0.29629342014523508 0 0.25491758893057909 0.27951005592881761 0 0.27438759942090191 0.30337842557507938 0 0.26162700977852021 0.29629342014523508 0 0.26071219069447599 0.31197788889560879 0 0.24543399627141721 0.29887735901603257 0 0.26162700977852021 0.29629342014523508 0 0.26071219069447599 0.31197788889560879 0 0.25153222320099622 0.25722575917013901 0 0.27218921726664158 0.26801248725998528 0 0.26048617882559622 0.24371083740660091 0 0.25153222320099622 0.25722575917013901 0 0.25536006440587672 0.26878811273571068 0 0.27218921726664158 0.26801248725998528 0 0.25153222320099622 0.25722575917013901 0 0.27218921726664158 0.26801248725998528 0 0.25153222320099622 0.25722575917013901 0 0.26048617882559622 0.24371083740660091 0 0.25491758893057909 0.27951005592881761 0 0.27576494461157991 0.27543757385997852 0 0.25536006440587672 0.26878811273571068 0 0.25491758893057909 0.27951005592881761 0 0.27218921726664158 0.26801248725998528 0 0.2428012282252888 0.27040414858390061 0 0.25536006440587672 0.26878811273571068 0 0.25491758893057909 0.27951005592881761 0 0.25491758893057909 0.27951005592881761 0 0.27218921726664158 0.26801248725998528 0 0.27576494461157991 0.27543757385997852 0 0.27576494461157991 0.27543757385997852 0 0.28351082165216779 0.2739244349354083 0 0.27218921726664158 0.26801248725998528 0 0.28351082165216779 0.2739244349354083 0 0.28241209558822961 0.26632916093747078 0 0.27218921726664158 0.26801248725998528 0 0.27576494461157991 0.27543757385997852 0 0.28351082165216779 0.2739244349354083 0 0.27218921726664158 0.26801248725998528 0 0.28351082165216779 0.2739244349354083 0 0.27218921726664158 0.26801248725998528 0 0.27576494461157991 0.27543757385997852 0 0.27218921726664158 0.26801248725998528 0 0.27691591880596222 0.25729022711116639 0 0.28241209558822961 0.26632916093747078 0 0.27218921726664158 0.26801248725998528 0 0.26048617882559622 0.24371083740660091 0 0.27218921726664158 0.26801248725998528 0 0.27691591880596222 0.25729022711116639 0 0.26048617882559622 0.24371083740660091 0 0.27691591880596222 0.25729022711116639 0 0.28359094229813148 0.25448793817281579 0 0.27685630599777589 0.2478154210616699 0 0.27691591880596222 0.25729022711116639 0 0.28359094229813148 0.25448793817281579 0 0.2851673007449898 0.26023557940088332 0 0.3039173510814423 0.25972757105281219 0 0.28965918427723281 0.24218391352450211 0 0.28359094229813148 0.25448793817281579 0 0.27685630599777589 0.2478154210616699 0 0.28494106210013392 0.2498489505319901 0 0.29345893722613059 0.25129825022350127 0 0.3039173510814423 0.25972757105281219 0 0.28965918427723281 0.24218391352450211 0 0.28868459035541499 0.25311981898255947 0 0.28494106210013392 0.2498489505319901 0 0.28892582916583598 0.2492018439528669 0 0.28868459035541499 0.25311981898255947 0 0.28359094229813148 0.25448793817281579 0 0.28494106210013392 0.2498489505319901 0 0.28868459035541499 0.25311981898255947 0 0.28687158554486092 0.25569243113247692 0 0.28359094229813148 0.25448793817281579 0 0.28687158554486092 0.25569243113247692 0 0.28359094229813148 0.25448793817281579 0 0.2851673007449898 0.26023557940088332 0 0.28687158554486092 0.25569243113247692 0 0.28807077596690611 0.2581880435182905 0 0.28931157611965458 0.25623197766376038 0 0.28868459035541499 0.25311981898255947 0 0.28687158554486092 0.25569243113247692 0 0.28931157611965458 0.25623197766376038 0 0.27691591880596222 0.25729022711116639 0 0.2851673007449898 0.26023557940088332 0 0.28241209558822961 0.26632916093747078 0 0.28612348479105743 0.26557280400170857 0 0.2851673007449898 0.26023557940088332 0 0.28241209558822961 0.26632916093747078 0 0.28612348479105743 0.26557280400170857 0 0.28820153575970392 0.26340271637493412 0 0.2851673007449898 0.26023557940088332 0 0.28612348479105743 0.26557280400170857 0 0.28820153575970392 0.26340271637493412 0 0.28928435291432292 0.26627202701476832 0 0.28820153575970392 0.26340271637493412 0 0.2851673007449898 0.26023557940088332 0 0.28910030818167282 0.2606462295185657 0 0.28687158554486092 0.25569243113247692 0 0.2851673007449898 0.26023557940088332 0 0.28807077596690611 0.2581880435182905 0 0.2851673007449898 0.26023557940088332 0 0.28807077596690611 0.2581880435182905 0 0.28910030818167282 0.2606462295185657 0 0.28807077596690611 0.2581880435182905 0 0.29012458656076978 0.25822105451885852 0 0.28910030818167282 0.2606462295185657 0 0.29012458656076978 0.25822105451885852 0 0.28910030818167282 0.2606462295185657 0 0.29181146649833112 0.25980397671080041 0 0.28910030818167282 0.2606462295185657 0 0.29181146649833112 0.25980397671080041 0 0.29208830856188789 0.26336840763512592 0 0.29012458656076978 0.25822105451885852 0 0.29181146649833112 0.25980397671080041 0 0.29232880603728451 0.25623504518287532 0 0.28820153575970392 0.26340271637493412 0 0.29208830856188789 0.26336840763512592 0 0.28928435291432292 0.26627202701476832 0 0.28820153575970392 0.26340271637493412 0 0.28910030818167282 0.2606462295185657 0 0.29208830856188789 0.26336840763512592 0 0.29208830856188789 0.26336840763512592 0 0.295861748010873 0.25998823260247511 0 0.29765944308527592 0.26593032899830249 0 0.29208830856188789 0.26336840763512592 0 0.29297695870925222 0.26738919668419731 0 0.29765944308527592 0.26593032899830249 0 0.29181146649833112 0.25980397671080041 0 0.29208830856188789 0.26336840763512592 0 0.295861748010873 0.25998823260247511 0 0.29181146649833112 0.25980397671080041 0 0.295861748010873 0.25998823260247511 0 0.29232880603728451 0.25623504518287532 0 0.295861748010873 0.25998823260247511 0 0.29345893722613059 0.25129825022350127 0 0.29232880603728451 0.25623504518287532 0 0.28868459035541499 0.25311981898255947 0 0.29345893722613059 0.25129825022350127 0 0.29232880603728451 0.25623504518287532 0 0.28868459035541499 0.25311981898255947 0 0.29345893722613059 0.25129825022350127 0 0.28892582916583598 0.2492018439528669 0 0.28868459035541499 0.25311981898255947 0 0.28931157611965458 0.25623197766376038 0 0.29232880603728451 0.25623504518287532 0 0.29012458656076978 0.25822105451885852 0 0.28931157611965458 0.25623197766376038 0 0.29232880603728451 0.25623504518287532 0 0.28807077596690611 0.2581880435182905 0 0.29012458656076978 0.25822105451885852 0 0.28931157611965458 0.25623197766376038 0 0.28351082165216779 0.2739244349354083 0 0.28733438825076368 0.27108796110478978 0 0.2907816862342732 0.27306575569366948 0 0.28733438825076368 0.27108796110478978 0 0.28661589797855402 0.26840505384568097 0 0.29024227766669058 0.26954619460490381 0 0.28733438825076368 0.27108796110478978 0 0.2848684593192698 0.27078404615639318 0 0.28661589797855402 0.26840505384568097 0 0.28351082165216779 0.2739244349354083 0 0.28733438825076368 0.27108796110478978 0 0.2848684593192698 0.27078404615639318 0 0.28351082165216779 0.2739244349354083 0 0.2848684593192698 0.27078404615639318 0 0.28241209558822961 0.26632916093747078 0 0.28612348479105743 0.26557280400170857 0 0.28241209558822961 0.26632916093747078 0 0.28661589797855402 0.26840505384568097 0 0.2848684593192698 0.27078404615639318 0 0.28241209558822961 0.26632916093747078 0 0.28661589797855402 0.26840505384568097 0 0.28661589797855402 0.26840505384568097 0 0.28928435291432292 0.26627202701476832 0 0.29024227766669058 0.26954619460490381 0 0.28612348479105743 0.26557280400170857 0 0.28661589797855402 0.26840505384568097 0 0.28928435291432292 0.26627202701476832 0 0.29208830856188789 0.26336840763512592 0 0.28928435291432292 0.26627202701476832 0 0.29297695870925222 0.26738919668419731 0 0.28928435291432292 0.26627202701476832 0 0.29297695870925222 0.26738919668419731 0 0.29024227766669058 0.26954619460490381 0 0.29297695870925222 0.26738919668419731 0 0.29576201226787813 0.27118247982537402 0 0.29024227766669058 0.26954619460490381 0 0.29297695870925222 0.26738919668419731 0 0.29576201226787813 0.27118247982537402 0 0.29765944308527592 0.26593032899830249 0 0.29576201226787813 0.27118247982537402 0 0.29024227766669058 0.26954619460490381 0 0.2907816862342732 0.27306575569366948 0 0.28733438825076368 0.27108796110478978 0 0.29024227766669058 0.26954619460490381 0 0.2907816862342732 0.27306575569366948 0 0.28351082165216779 0.2739244349354083 0 0.2907816862342732 0.27306575569366948 0 0.29516751126046797 0.28001135836836077 0 0.29576201226787813 0.27118247982537402 0 0.2907816862342732 0.27306575569366948 0 0.29516751126046797 0.28001135836836077 0 0.28351082165216779 0.2739244349354083 0 0.29516751126046797 0.28001135836836077 0 0.30323688172566321 0.27316773846810899 0 0.3039173510814423 0.25972757105281219 0 0.31817551788565168 0.27727122858112241 0 0.3039173510814423 0.25972757105281219 0 0.31817551788565168 0.27727122858112241 0 0.29576201226787813 0.27118247982537402 0 0.29516751126046797 0.28001135836836077 0 0.30323688172566321 0.27316773846810899 0 0.30706453001149392 0.28545611992336922 0 0.29516751126046797 0.28001135836836077 0 0.30323688172566321 0.27316773846810899 0 0.30323688172566321 0.27316773846810899 0 0.29765944308527592 0.26593032899830249 0 0.3039173510814423 0.25972757105281219 0 0.29576201226787813 0.27118247982537402 0 0.30323688172566321 0.27316773846810899 0 0.29765944308527592 0.26593032899830249 0 0.30706453001149392 0.28545611992336922 0 0.30323688172566321 0.27316773846810899 0 0.31817551788565168 0.27727122858112241 0 0.3039173510814423 0.25972757105281219 0 0.31246354634074469 0.25301562706991498 0 0.31817551788565168 0.27727122858112241 0 0.3039173510814423 0.25972757105281219 0 0.31246354634074469 0.25301562706991498 0 0.28965918427723281 0.24218391352450211 0 0.295861748010873 0.25998823260247511 0 0.29345893722613059 0.25129825022350127 0 0.3039173510814423 0.25972757105281219 0 0.295861748010873 0.25998823260247511 0 0.29765944308527592 0.26593032899830249 0 0.3039173510814423 0.25972757105281219 0 0.31246354634074469 0.25301562706991498 0 0.33526790840425669 0.26384734061532772 0 0.31246354634074469 0.25301562706991498 0 0.33526790840425669 0.26384734061532772 0 0.32643540241908581 0.2493154440826276 0 0.31246354634074469 0.25301562706991498 0 0.33526790840425669 0.26384734061532772 0 0.31817551788565168 0.27727122858112241 0 0.33526790840425669 0.26384734061532772 0 0.3379127634661398 0.24049180221066491 0 0.32643540241908581 0.2493154440826276 0 0.33526790840425669 0.26384734061532772 0 0.35634129443021012 0.25447852924978431 0 0.3379127634661398 0.24049180221066491 0 0.33526790840425669 0.26384734061532772 0 0.31817551788565168 0.27727122858112241 0 0.34172042880505471 0.28277804546335827 0 0.31817551788565168 0.27727122858112241 0 0.31797064105596812 0.29669460242380358 0 0.33243368468986112 0.29481488610943257 0 0.31817551788565168 0.27727122858112241 0 0.33243368468986112 0.29481488610943257 0 0.30706453001149392 0.28545611992336922 0 0.31817551788565168 0.27727122858112241 0 0.31797064105596812 0.29669460242380358 0 0.3124215414252603 0.31463851826348332 0 0.31797064105596812 0.29669460242380358 0 0.32649517228490349 0.30767158395733452 0 0.31797064105596812 0.29669460242380358 0 0.32649517228490349 0.30767158395733452 0 0.33243368468986112 0.29481488610943257 0 0.33433715661558527 0.30915126849091529 0 0.33243368468986112 0.29481488610943257 0 0.34669185149407039 0.31235854363774268 0 0.33243368468986112 0.29481488610943257 0 0.34669185149407039 0.31235854363774268 0 0.34568712778571031 0.29860929543060832 0 0.33243368468986112 0.29481488610943257 0 0.34669185149407039 0.31235854363774268 0 0.32649517228490349 0.30767158395733452 0 0.33433715661558527 0.30915126849091529 0 0.33243368468986112 0.29481488610943257 0 0.31817551788565168 0.27727122858112241 0 0.34172042880505471 0.28277804546335827 0 0.33243368468986112 0.29481488610943257 0 0.34172042880505471 0.28277804546335827 0 0.33243368468986112 0.29481488610943257 0 0.34568712778571031 0.29860929543060832 0 0.35199353865369548 0.28986078273705529 0 0.36153231744840347 0.2937746187606235 0 0.35807227046776868 0.27467905416074029 0 0.34172042880505471 0.28277804546335827 0 0.35199353865369548 0.28986078273705529 0 0.35807227046776868 0.27467905416074029 0 0.34172042880505471 0.28277804546335827 0 0.35199353865369548 0.28986078273705529 0 0.34568712778571031 0.29860929543060832 0 0.35199353865369548 0.28986078273705529 0 0.34568712778571031 0.29860929543060832 0 0.35295554876154028 0.29946289986994618 0 0.35199353865369548 0.28986078273705529 0 0.35295554876154028 0.29946289986994618 0 0.36153231744840347 0.2937746187606235 0 0.34669185149407039 0.31235854363774268 0 0.350707664864299 0.30502754758011252 0 0.35483192959872478 0.30892549123100937 0 0.34669185149407039 0.31235854363774268 0 0.350707664864299 0.30502754758011252 0 0.34568712778571031 0.29860929543060832 0 0.350707664864299 0.30502754758011252 0 0.34568712778571031 0.29860929543060832 0 0.35295554876154028 0.29946289986994618 0 0.35295554876154028 0.29946289986994618 0 0.35483192959872478 0.30892549123100937 0 0.36153231744840347 0.2937746187606235 0 0.350707664864299 0.30502754758011252 0 0.35295554876154028 0.29946289986994618 0 0.35483192959872478 0.30892549123100937 0 0.35483192959872478 0.30892549123100937 0 0.36873564116109159 0.30732066885645792 0 0.37793594120394791 0.29609092220287331 0 0.35483192959872478 0.30892549123100937 0 0.36153231744840347 0.2937746187606235 0 0.37793594120394791 0.29609092220287331 0 0.35483192959872478 0.30892549123100937 0 0.37793594120394791 0.29609092220287331 0 0.36216199407232552 0.31421251507807352 0 0.35483192959872478 0.30892549123100937 0 0.36873564116109159 0.30732066885645792 0 0.36873564116109159 0.30732066885645792 0 0.37793594120394791 0.29609092220287331 0 0.37618493526913999 0.30531787431980001 0 0.36908544359869788 0.31711993858565868 0 0.36873564116109159 0.30732066885645792 0 0.37552929986171052 0.31147094895867028 0 0.36873564116109159 0.30732066885645792 0 0.37552929986171052 0.31147094895867028 0 0.37618493526913999 0.30531787431980001 0 0.36153231744840347 0.2937746187606235 0 0.3696042904128502 0.28751384070759761 0 0.37793594120394791 0.29609092220287331 0 0.3696042904128502 0.28751384070759761 0 0.35807227046776868 0.27467905416074029 0 0.38087663253128068 0.28551076770615302 0 0.36153231744840347 0.2937746187606235 0 0.3696042904128502 0.28751384070759761 0 0.35807227046776868 0.27467905416074029 0 0.35807227046776868 0.27467905416074029 0 0.38087663253128068 0.28551076770615302 0 0.35807227046776868 0.27467905416074029 0 0.37543677279847171 0.26770278157766031 0 0.38087663253128068 0.28551076770615302 0 0.35634129443021012 0.25447852924978431 0 0.35807227046776868 0.27467905416074029 0 0.37543677279847171 0.26770278157766031 0 0.35634129443021012 0.25447852924978431 0 0.37543677279847171 0.26770278157766031 0 0.37588607332036628 0.2490878796733729 0 0.33526790840425669 0.26384734061532772 0 0.35634129443021012 0.25447852924978431 0 0.35807227046776868 0.27467905416074029 0 0.33526790840425669 0.26384734061532772 0 0.34172042880505471 0.28277804546335827 0 0.35807227046776868 0.27467905416074029 0 0.33526790840425669 0.26384734061532772 0 0.35807227046776868 0.27467905416074029 0 0.39392409312874033 0.26548119861246328 0 0.41196211293711438 0.28187451755155379 0 0.39392409312874033 0.26548119861246328 0 0.38745056937483863 0.27594374287878148 0 0.39653744276239639 0.28470199660397738 0 0.39392409312874033 0.26548119861246328 0 0.39653744276239639 0.28470199660397738 0 0.41196211293711438 0.28187451755155379 0 0.39392409312874033 0.26548119861246328 0 0.41530077718395331 0.26533492563787903 0 0.40933178642478668 0.24530746794650141 0 0.39392409312874033 0.26548119861246328 0 0.37543677279847171 0.26770278157766031 0 0.37588607332036628 0.2490878796733729 0 0.39392409312874033 0.26548119861246328 0 0.37588607332036628 0.2490878796733729 0 0.39392409312874033 0.26548119861246328 0 0.39103074677198191 0.2378645478919707 0 0.37588607332036628 0.2490878796733729 0 0.39392409312874033 0.26548119861246328 0 0.38745056937483863 0.27594374287878148 0 0.37543677279847171 0.26770278157766031 0 0.38745056937483863 0.27594374287878148 0 0.37543677279847171 0.26770278157766031 0 0.38087663253128068 0.28551076770615302 0 0.38087663253128068 0.28551076770615302 0 0.39129466819619951 0.29801807429951538 0 0.39653744276239639 0.28470199660397738 0 0.38745056937483863 0.27594374287878148 0 0.38087663253128068 0.28551076770615302 0 0.39653744276239639 0.28470199660397738 0 0.3696042904128502 0.28751384070759761 0 0.38087663253128068 0.28551076770615302 0 0.37793594120394791 0.29609092220287331 0 0.38087663253128068 0.28551076770615302 0 0.37793594120394791 0.29609092220287331 0 0.39129466819619951 0.29801807429951538 0 0.37552929986171052 0.31147094895867028 0 0.38253885884981009 0.30638895726119819 0 0.38253365066345929 0.31657150904984471 0 0.37552929986171052 0.31147094895867028 0 0.37618493526913999 0.30531787431980001 0 0.38253885884981009 0.30638895726119819 0 0.37793594120394791 0.29609092220287331 0 0.37618493526913999 0.30531787431980001 0 0.38253885884981009 0.30638895726119819 0 0.37793594120394791 0.29609092220287331 0 0.38253885884981009 0.30638895726119819 0 0.39129466819619951 0.29801807429951538 0 0.38253885884981009 0.30638895726119819 0 0.39212940840629362 0.31318847352025442 0 0.38253365066345929 0.31657150904984471 0 0.38253885884981009 0.30638895726119819 0 0.39129466819619951 0.29801807429951538 0 0.39212940840629362 0.31318847352025442 0 0.39129466819619951 0.29801807429951538 0 0.40057903262284272 0.30682002081122939 0 0.39212940840629362 0.31318847352025442 0 0.39129466819619951 0.29801807429951538 0 0.40479167519220871 0.29803551582379922 0 0.40057903262284272 0.30682002081122939 0 0.40057903262284272 0.30682002081122939 0 0.40276015360382211 0.3144041531339446 0 0.39212940840629362 0.31318847352025442 0 0.40479167519220871 0.29803551582379922 0 0.40057903262284272 0.30682002081122939 0 0.40860853726765339 0.309318938863758 0 0.40057903262284272 0.30682002081122939 0 0.40860853726765339 0.309318938863758 0 0.40276015360382211 0.3144041531339446 0 0.40479167519220871 0.29803551582379922 0 0.39653744276239639 0.28470199660397738 0 0.41196211293711438 0.28187451755155379 0 0.39129466819619951 0.29801807429951538 0 0.40479167519220871 0.29803551582379922 0 0.39653744276239639 0.28470199660397738 0 0.40479167519220871 0.29803551582379922 0 0.41196211293711438 0.28187451755155379 0 0.42604734048813458 0.28838989128274578 0 0.40479167519220871 0.29803551582379922 0 0.42604734048813458 0.28838989128274578 0 0.41196211293711438 0.28187451755155379 0 0.42604734048813458 0.28838989128274578 0 0.42096165520647338 0.27640965763746961 0 0.41751736358108449 0.30523346237375532 0 0.43213625579819431 0.30543734923285137 0 0.41316086399048302 0.31918962555795088 0 0.40479167519220871 0.29803551582379922 0 0.41751736358108449 0.30523346237375532 0 0.42604734048813458 0.28838989128274578 0 0.40860853726765339 0.309318938863758 0 0.41751736358108449 0.30523346237375532 0 0.41316086399048302 0.31918962555795088 0 0.40479167519220871 0.29803551582379922 0 0.40860853726765339 0.309318938863758 0 0.41751736358108449 0.30523346237375532 0 0.41751736358108449 0.30523346237375532 0 0.43213625579819431 0.30543734923285137 0 0.42604734048813458 0.28838989128274578 0 0.43213625579819431 0.30543734923285137 0 0.41316086399048302 0.31918962555795088 0 0.43213625579819431 0.30543734923285137 0 0.44422558879226298 0.30694386780845051 0 0.43154308657343537 0.31483265104709918 0 0.42604734048813458 0.28838989128274578 0 0.44730300578406051 0.27874426674169239 0 0.43914956241907371 0.29106414504126032 0 0.43213625579819431 0.30543734923285137 0 0.42604734048813458 0.28838989128274578 0 0.43914956241907371 0.29106414504126032 0 0.42604734048813458 0.28838989128274578 0 0.44730300578406051 0.27874426674169239 0 0.42604734048813458 0.28838989128274578 0 0.43053639021669149 0.27003929607769961 0 0.44730300578406051 0.27874426674169239 0 0.42604734048813458 0.28838989128274578 0 0.43053639021669149 0.27003929607769961 0 0.42096165520647338 0.27640965763746961 0 0.43053639021669149 0.27003929607769961 0 0.42096165520647338 0.27640965763746961 0 0.41530077718395331 0.26533492563787903 0 0.39392409312874033 0.26548119861246328 0 0.41196211293711438 0.28187451755155379 0 0.41530077718395331 0.26533492563787903 0 0.41196211293711438 0.28187451755155379 0 0.42096165520647338 0.27640965763746961 0 0.41530077718395331 0.26533492563787903 0 0.41530077718395331 0.26533492563787903 0 0.42507863072368701 0.2531856777568211 0 0.40933178642478668 0.24530746794650141 0 0.43053639021669149 0.27003929607769961 0 0.42507863072368701 0.2531856777568211 0 0.43671171400039921 0.25931077911745237 0 0.43053639021669149 0.27003929607769961 0 0.41530077718395331 0.26533492563787903 0 0.42507863072368701 0.2531856777568211 0 0.43053639021669149 0.27003929607769961 0 0.43671171400039921 0.25931077911745237 0 0.4433298154441227 0.26629613073356512 0 0.42507863072368701 0.2531856777568211 0 0.43671171400039921 0.25931077911745237 0 0.43876594592942619 0.2491002947533556 0 0.48930401013157893 0.26400543771054868 0 0.5 0.30014541135995981 0 0.50000000000000078 0.23475110787519651 0 0.43671171400039921 0.25931077911745237 0 0.44893917376128722 0.25670587451621701 0 0.43876594592942619 0.2491002947533556 0 0.43671171400039921 0.25931077911745237 0 0.44893917376128722 0.25670587451621701 0 0.4433298154441227 0.26629613073356512 0 0.44893917376128722 0.25670587451621701 0 0.4433298154441227 0.26629613073356512 0 0.45470448649478412 0.26606712633996182 0 0.43053639021669149 0.27003929607769961 0 0.4433298154441227 0.26629613073356512 0 0.44730300578406051 0.27874426674169239 0 0.4433298154441227 0.26629613073356512 0 0.44730300578406051 0.27874426674169239 0 0.45470448649478412 0.26606712633996182 0 0.44730300578406051 0.27874426674169239 0 0.45470448649478412 0.26606712633996182 0 0.46855867107998628 0.26909864220063873 0 0.44730300578406051 0.27874426674169239 0 0.46855867107998628 0.26909864220063873 0 0.47008703941361663 0.27793279658265219 0 0.44730300578406051 0.27874426674169239 0 0.46855867107998628 0.26909864220063873 0 0.44893917376128722 0.25670587451621701 0 0.4657425708042397 0.25282124097232528 0 0.45444189403291402 0.2411770147019261 0 0.46855867107998628 0.26909864220063873 0 0.4657425708042397 0.25282124097232528 0 0.45470448649478412 0.26606712633996182 0 0.46855867107998628 0.26909864220063873 0 0.4657425708042397 0.25282124097232528 0 0.44893917376128722 0.25670587451621701 0 0.45470448649478412 0.26606712633996182 0 0.4657425708042397 0.25282124097232528 0 0.4657425708042397 0.25282124097232528 0 0.48060284673389919 0.263633106558882 0 0.48319944748130261 0.24680576274814439 0 0.48060284673389919 0.263633106558882 0 0.48930401013157893 0.26400543771054868 0 0.48319944748130261 0.24680576274814439 0 0.46855867107998628 0.26909864220063873 0 0.4657425708042397 0.25282124097232528 0 0.48060284673389919 0.263633106558882 0 0.47008703941361663 0.27793279658265219 0 0.48930401013157893 0.26400543771054868 0 0.46855867107998628 0.26909864220063873 0 0.48060284673389919 0.263633106558882 0 0.48060284673389919 0.263633106558882 0 0.47008703941361663 0.27793279658265219 0 0.48930401013157893 0.26400543771054868 0 0.47008703941361663 0.27793279658265219 0 0.48006412771999057 0.27905949761247589 0 0.48930401013157893 0.26400543771054868 0 0.46855867107998628 0.26909864220063873 0 0.48060284673389919 0.263633106558882 0 0.47008703941361663 0.27793279658265219 0 0.46855867107998628 0.26909864220063873 0 0.47008703941361663 0.27793279658265219 0 0.48006412771999057 0.27905949761247589 0 0.48930401013157893 0.26400543771054868 0 0.48625483393177482 0.28246926535835643 0 0.48930401013157893 0.26400543771054868 0 0.5 0.30014541135995981 0 0.48625483393177482 0.28246926535835643 0 0.5 0.30014541135995981 0 0.48970041229178968 0.29406901354624332 0 0.4885492687023667 0.31475660787172299 0 0.5 0.30014541135995981 0 0.48625483393177482 0.28246926535835643 0 0.48970041229178968 0.29406901354624332 0 0.48625483393177482 0.28246926535835643 0 0.48970041229178968 0.29406901354624332 0 0.47848665946962488 0.28859017348115529 0 0.48970041229178968 0.29406901354624332 0 0.47848665946962488 0.28859017348115529 0 0.47416262890117539 0.30149019824985379 0 0.47008703941361663 0.27793279658265219 0 0.47416262890117539 0.30149019824985379 0 0.47008703941361663 0.27793279658265219 0 0.47848665946962488 0.28859017348115529 0 0.47416262890117539 0.30149019824985379 0 0.47008703941361663 0.27793279658265219 0 0.47416262890117539 0.30149019824985379 0 0.46463260069651119 0.29140132306620031 0 0.48006412771999057 0.27905949761247589 0 0.48625483393177482 0.28246926535835643 0 0.47848665946962488 0.28859017348115529 0 0.47008703941361663 0.27793279658265219 0 0.48006412771999057 0.27905949761247589 0 0.47848665946962488 0.28859017348115529 0 0.48970041229178968 0.29406901354624332 0 0.47416262890117539 0.30149019824985379 0 0.4885492687023667 0.31475660787172299 0 0.48970041229178968 0.29406901354624332 0 0.47416262890117539 0.30149019824985379 0 0.47416262890117539 0.30149019824985379 0 0.45853060084376801 0.29977374142415342 0 0.45560674310843452 0.3103528945782269 0 0.47416262890117539 0.30149019824985379 0 0.45560674310843452 0.3103528945782269 0 0.47416262890117539 0.30149019824985379 0 0.45853060084376801 0.29977374142415342 0 0.46463260069651119 0.29140132306620031 0 0.47008703941361663 0.27793279658265219 0 0.46463260069651119 0.29140132306620031 0 0.45111164760590539 0.29168507290775181 0 0.47008703941361663 0.27793279658265219 0 0.45111164760590539 0.29168507290775181 0 0.44730300578406051 0.27874426674169239 0 0.47008703941361663 0.27793279658265219 0 0.45111164760590539 0.29168507290775181 0 0.45853060084376801 0.29977374142415342 0 0.46463260069651119 0.29140132306620031 0 0.45111164760590539 0.29168507290775181 0 0.43213625579819431 0.30543734923285137 0 0.45111164760590539 0.29168507290775181 0 0.43914956241907371 0.29106414504126032 0 0.44730300578406051 0.27874426674169239 0 0.45111164760590539 0.29168507290775181 0 0.43914956241907371 0.29106414504126032 0 0.43213625579819431 0.30543734923285137 0 0.45111164760590539 0.29168507290775181 0 0.43213625579819431 0.30543734923285137 0 0.45111164760590539 0.29168507290775181 0 0.44422558879226298 0.30694386780845051 0 0.45560674310843452 0.3103528945782269 0 0.44422558879226298 0.30694386780845051 0 0.43842966418539248 0.31774810934188358 0 0.45853060084376801 0.29977374142415342 0 0.45560674310843452 0.3103528945782269 0 0.44422558879226298 0.30694386780845051 0 0.45853060084376801 0.29977374142415342 0 0.45111164760590539 0.29168507290775181 0 0.44422558879226298 0.30694386780845051 0 0.45560674310843452 0.3103528945782269 0 0.43705085731569332 0.31921559090659912 0 0.45560674310843452 0.3103528945782269 0 0.445574462909617 0.32293984437028 0 0.43705085731569332 0.31921559090659912 0 0.45560674310843452 0.3103528945782269 0 0.445574462909617 0.32293984437028 0 0.45356547482711718 0.33018117931006491 0 0.45560674310843452 0.3103528945782269 0 0.43842966418539248 0.31774810934188358 0 0.43705085731569332 0.31921559090659912 0 0.44422558879226298 0.30694386780845051 0 0.43842966418539248 0.31774810934188358 0 0.43154308657343537 0.31483265104709918 0 0.43842966418539248 0.31774810934188358 0 0.43705085731569332 0.31921559090659912 0 0.43892997145578388 0.32563168502311662 0 0.445574462909617 0.32293984437028 0 0.44083529419097978 0.33094373067874189 0 0.43892997145578388 0.32563168502311662 0 0.445574462909617 0.32293984437028 0 0.43705085731569332 0.31921559090659912 0 0.445574462909617 0.32293984437028 0 0.44083529419097978 0.33094373067874189 0 0.45356547482711718 0.33018117931006491 0 0.44165801472227312 0.34323984209273423 0 0.45356547482711718 0.33018117931006491 0 0.45850926574073331 0.34651392194864622 0 0.44165801472227312 0.34323984209273423 0 0.44083529419097978 0.33094373067874189 0 0.43166902790598161 0.33929201054700048 0 0.43892997145578388 0.32563168502311662 0 0.44083529419097978 0.33094373067874189 0 0.43317574323615998 0.33104402243960368 0 0.44165801472227312 0.34323984209273423 0 0.44083529419097978 0.33094373067874189 0 0.45356547482711718 0.33018117931006491 0 0.45356547482711718 0.33018117931006491 0 0.47888330231886822 0.32877626329145132 0 0.45850926574073331 0.34651392194864622 0 0.45560674310843452 0.3103528945782269 0 0.45356547482711718 0.33018117931006491 0 0.47888330231886822 0.32877626329145132 0 0.5 0.30014541135995981 0 0.4885492687023667 0.31475660787172299 0 0.5 0.34930215291110689 0 0.47888330231886822 0.32877626329145132 0 0.4885492687023667 0.31475660787172299 0 0.5 0.34930215291110689 0 0.47416262890117539 0.30149019824985379 0 0.45560674310843452 0.3103528945782269 0 0.47888330231886822 0.32877626329145132 0 0.47416262890117539 0.30149019824985379 0 0.47888330231886822 0.32877626329145132 0 0.4885492687023667 0.31475660787172299 0 0.47416262890117539 0.30149019824985379 0 0.47888330231886822 0.32877626329145132 0 0.47888330231886822 0.32877626329145132 0 0.47565767627723321 0.35367653303588131 0 0.45850926574073331 0.34651392194864622 0 0.5 0.34930215291110689 0 0.47565767627723321 0.35367653303588131 0 0.47781149018510388 0.37869427749857482 0 0.47888330231886822 0.32877626329145132 0 0.5 0.34930215291110689 0 0.47565767627723321 0.35367653303588131 0 0.47565767627723321 0.35367653303588131 0 0.45733288770108432 0.36201985544527537 0 0.47781149018510388 0.37869427749857482 0 0.47565767627723321 0.35367653303588131 0 0.45733288770108432 0.36201985544527537 0 0.45850926574073331 0.34651392194864622 0 0.44165801472227312 0.34323984209273423 0 0.45850926574073331 0.34651392194864622 0 0.4413887647347946 0.35929889092681982 0 0.45733288770108432 0.36201985544527537 0 0.45850926574073331 0.34651392194864622 0 0.4413887647347946 0.35929889092681982 0 0.45733288770108432 0.36201985544527537 0 0.4413887647347946 0.35929889092681982 0 0.44153901264778062 0.37343480580038879 0 0.45733288770108432 0.36201985544527537 0 0.44153901264778062 0.37343480580038879 0 0.45482676763662039 0.38809293299633429 0 0.42640845802995259 0.36892404556868708 0 0.41557269665981 0.35954071959013117 0 0.42852438312620561 0.35190461944610102 0 0.4413887647347946 0.35929889092681982 0 0.42640845802995259 0.36892404556868708 0 0.42852438312620561 0.35190461944610102 0 0.4413887647347946 0.35929889092681982 0 0.44153901264778062 0.37343480580038879 0 0.42640845802995259 0.36892404556868708 0 0.41557269665981 0.35954071959013117 0 0.39773627330903077 0.36105859917852151 0 0.40780080352149928 0.37567923871478631 0 0.42640845802995259 0.36892404556868708 0 0.41557269665981 0.35954071959013117 0 0.40780080352149928 0.37567923871478631 0 0.41557269665981 0.35954071959013117 0 0.42852438312620561 0.35190461944610102 0 0.41739356531236188 0.34013709504256018 0 0.41557269665981 0.35954071959013117 0 0.41739356531236188 0.34013709504256018 0 0.39773627330903077 0.36105859917852151 0 0.41739356531236188 0.34013709504256018 0 0.39773627330903077 0.36105859917852151 0 0.42852438312620561 0.35190461944610102 0 0.43166902790598161 0.33929201054700048 0 0.41739356531236188 0.34013709504256018 0 0.44165801472227312 0.34323984209273423 0 0.4413887647347946 0.35929889092681982 0 0.42852438312620561 0.35190461944610102 0 0.44165801472227312 0.34323984209273423 0 0.42852438312620561 0.35190461944610102 0 0.43166902790598161 0.33929201054700048 0 0.43705085731569332 0.31921559090659912 0 0.41739356531236188 0.34013709504256018 0 0.41544983039366512 0.32953271314637039 0 0.43705085731569332 0.31921559090659912 0 0.41739356531236188 0.34013709504256018 0 0.43317574323615998 0.33104402243960368 0 0.43705085731569332 0.31921559090659912 0 0.41739356531236188 0.34013709504256018 0 0.43166902790598161 0.33929201054700048 0 0.43317574323615998 0.33104402243960368 0 0.41739356531236188 0.34013709504256018 0 0.44083529419097978 0.33094373067874189 0 0.43166902790598161 0.33929201054700048 0 0.43317574323615998 0.33104402243960368 0 0.43213625579819431 0.30543734923285137 0 0.43154308657343537 0.31483265104709918 0 0.41316086399048302 0.31918962555795088 0 0.43705085731569332 0.31921559090659912 0 0.41544983039366512 0.32953271314637039 0 0.43705085731569332 0.31921559090659912 0 0.42444684759267981 0.32028615430654062 0 0.41544983039366512 0.32953271314637039 0 0.43154308657343537 0.31483265104709918 0 0.42444684759267981 0.32028615430654062 0 0.41316086399048302 0.31918962555795088 0 0.43154308657343537 0.31483265104709918 0 0.43705085731569332 0.31921559090659912 0 0.42444684759267981 0.32028615430654062 0 0.43842966418539248 0.31774810934188358 0 0.43154308657343537 0.31483265104709918 0 0.43705085731569332 0.31921559090659912 0 0.43892997145578388 0.32563168502311662 0 0.43317574323615998 0.33104402243960368 0 0.43705085731569332 0.31921559090659912 0 0.41316086399048302 0.31918962555795088 0 0.41544983039366512 0.32953271314637039 0 0.39418547218277172 0.33294190188305062 0 0.42444684759267981 0.32028615430654062 0 0.41316086399048302 0.31918962555795088 0 0.41544983039366512 0.32953271314637039 0 0.40860853726765339 0.309318938863758 0 0.41316086399048302 0.31918962555795088 0 0.40276015360382211 0.3144041531339446 0 0.41739356531236188 0.34013709504256018 0 0.41544983039366512 0.32953271314637039 0 0.39384880347163692 0.33984983538614127 0 0.41544983039366512 0.32953271314637039 0 0.39418547218277172 0.33294190188305062 0 0.39384880347163692 0.33984983538614127 0 0.41544983039366512 0.32953271314637039 0 0.39384880347163692 0.33984983538614127 0 0.39418547218277172 0.33294190188305062 0 0.39384880347163692 0.33984983538614127 0 0.38763626903965592 0.33142256612758492 0 0.39418547218277172 0.33294190188305062 0 0.39181849880786379 0.32717555703993689 0 0.38763626903965592 0.33142256612758492 0 0.41316086399048302 0.31918962555795088 0 0.39418547218277172 0.33294190188305062 0 0.39708961803314868 0.32200780813679419 0 0.41316086399048302 0.31918962555795088 0 0.40276015360382211 0.3144041531339446 0 0.39708961803314868 0.32200780813679419 0 0.41316086399048302 0.31918962555795088 0 0.39418547218277172 0.33294190188305062 0 0.39418547218277172 0.33294190188305062 0 0.39708961803314868 0.32200780813679419 0 0.39181849880786379 0.32717555703993689 0 0.39708961803314868 0.32200780813679419 0 0.39181849880786379 0.32717555703993689 0 0.38758066886242332 0.32336225559927501 0 0.39708961803314868 0.32200780813679419 0 0.39212940840629362 0.31318847352025442 0 0.38758066886242332 0.32336225559927501 0 0.40276015360382211 0.3144041531339446 0 0.39708961803314868 0.32200780813679419 0 0.39212940840629362 0.31318847352025442 0 0.39212940840629362 0.31318847352025442 0 0.38758066886242332 0.32336225559927501 0 0.38253365066345929 0.31657150904984471 0 0.38758066886242332 0.32336225559927501 0 0.37951212113643251 0.32682582922079478 0 0.38253365066345929 0.31657150904984471 0 0.39181849880786379 0.32717555703993689 0 0.38758066886242332 0.32336225559927501 0 0.38763626903965592 0.33142256612758492 0 0.38758066886242332 0.32336225559927501 0 0.37951212113643251 0.32682582922079478 0 0.38763626903965592 0.33142256612758492 0 0.37069175466933912 0.32875176142968793 0 0.37951212113643251 0.32682582922079478 0 0.37512131353827649 0.31993777409944391 0 0.37951212113643251 0.32682582922079478 0 0.38253365066345929 0.31657150904984471 0 0.37512131353827649 0.31993777409944391 0 0.37552929986171052 0.31147094895867028 0 0.38253365066345929 0.31657150904984471 0 0.37512131353827649 0.31993777409944391 0 0.3722477765496085 0.35016695762591221 0 0.39384880347163692 0.33984983538614127 0 0.38018026091455548 0.33583017463534492 0 0.39384880347163692 0.33984983538614127 0 0.38763626903965592 0.33142256612758492 0 0.38018026091455548 0.33583017463534492 0 0.37069175466933912 0.32875176142968793 0 0.37951212113643251 0.32682582922079478 0 0.38018026091455548 0.33583017463534492 0 0.37951212113643251 0.32682582922079478 0 0.38763626903965592 0.33142256612758492 0 0.38018026091455548 0.33583017463534492 0 0.3722477765496085 0.35016695762591221 0 0.39384880347163692 0.33984983538614127 0 0.3722477765496085 0.35016695762591221 0 0.39384880347163692 0.33984983538614127 0 0.38596182216836522 0.35527606173029752 0 0.3722477765496085 0.35016695762591221 0 0.38596182216836522 0.35527606173029752 0 0.37807898130569972 0.38198010331448301 0 0.38596182216836522 0.35527606173029752 0 0.39773627330903077 0.36105859917852151 0 0.37807898130569972 0.38198010331448301 0 0.39773627330903077 0.36105859917852151 0 0.37807898130569972 0.38198010331448301 0 0.39773627330903077 0.36105859917852151 0 0.37807898130569972 0.38198010331448301 0 0.40780080352149928 0.37567923871478631 0 0.41739356531236188 0.34013709504256018 0 0.39384880347163692 0.33984983538614127 0 0.39773627330903077 0.36105859917852151 0 0.39384880347163692 0.33984983538614127 0 0.38596182216836522 0.35527606173029752 0 0.39773627330903077 0.36105859917852151 0 0.40390821143883249 0.39309141821086863 0 0.37807898130569972 0.38198010331448301 0 0.39091832328282361 0.41087193027100549 0 0.40390821143883249 0.39309141821086863 0 0.39091832328282361 0.41087193027100549 0 0.41386422373874859 0.406371997932643 0 0.40390821143883249 0.39309141821086863 0 0.37807898130569972 0.38198010331448301 0 0.40780080352149928 0.37567923871478631 0 0.36187958923526292 0.40293945046940088 0 0.37807898130569972 0.38198010331448301 0 0.39091832328282361 0.41087193027100549 0 0.37193014631584848 0.42999924720615068 0 0.39355396721594382 0.43664913910555569 0 0.39091832328282361 0.41087193027100549 0 0.39355396721594382 0.43664913910555569 0 0.4086430402520686 0.43726383809014391 0 0.41286414250946218 0.42378426033622751 0 0.39355396721594382 0.43664913910555569 0 0.39091832328282361 0.41087193027100549 0 0.41286414250946218 0.42378426033622751 0 0.39091832328282361 0.41087193027100549 0 0.41386422373874859 0.406371997932643 0 0.41286414250946218 0.42378426033622751 0 0.41386422373874859 0.406371997932643 0 0.41286414250946218 0.42378426033622751 0 0.43221705047033082 0.4090921792360791 0 0.41286414250946218 0.42378426033622751 0 0.43133933500857929 0.43201167421733949 0 0.41892553910608071 0.43791135523627978 0 0.4086430402520686 0.43726383809014391 0 0.41286414250946218 0.42378426033622751 0 0.41892553910608071 0.43791135523627978 0 0.41286414250946218 0.42378426033622751 0 0.43133933500857929 0.43201167421733949 0 0.41286414250946218 0.42378426033622751 0 0.43133933500857929 0.43201167421733949 0 0.43221705047033082 0.4090921792360791 0 0.41386422373874859 0.406371997932643 0 0.43221705047033082 0.4090921792360791 0 0.42773818513645112 0.38883830406482728 0 0.40390821143883249 0.39309141821086863 0 0.41386422373874859 0.406371997932643 0 0.42773818513645112 0.38883830406482728 0 0.40390821143883249 0.39309141821086863 0 0.40780080352149928 0.37567923871478631 0 0.42773818513645112 0.38883830406482728 0 0.42640845802995259 0.36892404556868708 0 0.40780080352149928 0.37567923871478631 0 0.42773818513645112 0.38883830406482728 0 0.44153901264778062 0.37343480580038879 0 0.42640845802995259 0.36892404556868708 0 0.42773818513645112 0.38883830406482728 0 0.44153901264778062 0.37343480580038879 0 0.42773818513645112 0.38883830406482728 0 0.45482676763662039 0.38809293299633429 0 0.5 0.34930215291110689 0 0.47781149018510388 0.37869427749857482 0 0.5 0.41423412078117261 0 0.43221705047033082 0.4090921792360791 0 0.42773818513645112 0.38883830406482728 0 0.45482676763662039 0.38809293299633429 0 0.43221705047033082 0.4090921792360791 0 0.45482676763662039 0.38809293299633429 0 0.45232064757215651 0.41416601054739322 0 0.45482676763662039 0.38809293299633429 0 0.47121798163558132 0.40484318606820219 0 0.45232064757215651 0.41416601054739322 0 0.45482676763662039 0.38809293299633429 0 0.45232064757215651 0.41416601054739322 0 0.45733288770108432 0.36201985544527537 0 0.45482676763662039 0.38809293299633429 0 0.47781149018510388 0.37869427749857482 0 0.45482676763662039 0.38809293299633429 0 0.47781149018510388 0.37869427749857482 0 0.47121798163558132 0.40484318606820219 0 0.45733288770108432 0.36201985544527537 0 0.45482676763662039 0.38809293299633429 0 0.47781149018510388 0.37869427749857482 0 0.47121798163558132 0.40484318606820219 0 0.5 0.41423412078117261 0 0.5 0.41423412078117261 0 0.47113100278402542 0.42902858851753611 0 0.48237845739663598 0.45474052989964669 0 0.47121798163558132 0.40484318606820219 0 0.5 0.41423412078117261 0 0.47113100278402542 0.42902858851753611 0 0.47113100278402542 0.42902858851753611 0 0.45232064757215651 0.41416601054739322 0 0.44981452750769602 0.44023908809845258 0 0.47121798163558132 0.40484318606820219 0 0.47113100278402542 0.42902858851753611 0 0.45232064757215651 0.41416601054739322 0 0.43133933500857929 0.43201167421733949 0 0.43221705047033082 0.4090921792360791 0 0.45232064757215651 0.41416601054739322 0 0.43133933500857929 0.43201167421733949 0 0.44981452750769602 0.44023908809845258 0 0.45232064757215651 0.41416601054739322 0 0.44981452750769602 0.44023908809845258 0 0.43133933500857929 0.43201167421733949 0 0.45232064757215651 0.41416601054739322 0 0.44981452750769602 0.44023908809845258 0 0.43133933500857929 0.43201167421733949 0 0.44981452750769602 0.44023908809845258 0 0.43647632095713862 0.44436215142212632 0 0.44981452750769602 0.44023908809845258 0 0.44828887142136431 0.4561116514361514 0 0.43647632095713862 0.44436215142212632 0 0.5 0.41423412078117261 0 0.48237845739663598 0.45474052989964669 0 0.5 0.5 0 0.44981452750769602 0.44023908809845258 0 0.44828887142136431 0.4561116514361514 0 0.44828887142136431 0.4561116514361514 0 0.46262912319994498 0.4617517767316669 0 0.44676321533503599 0.47198421477385039 0 0.44828887142136431 0.4561116514361514 0 0.44676321533503599 0.47198421477385039 0 0.44828887142136431 0.4561116514361514 0 0.44676321533503599 0.47198421477385039 0 0.43105685511778941 0.46008286853249242 0 0.44828887142136431 0.4561116514361514 0 0.43105685511778941 0.46008286853249242 0 0.43647632095713862 0.44436215142212632 0 0.44828887142136431 0.4561116514361514 0 0.46262912319994498 0.4617517767316669 0 0.46609649245216622 0.44748980899904922 0 0.44981452750769602 0.44023908809845258 0 0.46609649245216622 0.44748980899904922 0 0.47113100278402542 0.42902858851753611 0 0.44981452750769602 0.44023908809845258 0 0.46609649245216622 0.44748980899904922 0 0.44981452750769602 0.44023908809845258 0 0.44828887142136431 0.4561116514361514 0 0.46609649245216622 0.44748980899904922 0 0.46609649245216622 0.44748980899904922 0 0.48237845739663598 0.45474052989964669 0 0.47113100278402542 0.42902858851753611 0 0.46609649245216622 0.44748980899904922 0 0.48237845739663598 0.45474052989964669 0 0.46262912319994498 0.4617517767316669 0 0.46609649245216622 0.44748980899904922 0 0.48237845739663598 0.45474052989964669 0 0.46262912319994498 0.4617517767316669 0 0.48237845739663598 0.45474052989964669 0 0.46961857939452217 0.47843267854963678 0 0.5 0.5 0 0.46961857939452217 0.47843267854963678 0 0.45695651283274419 0.5 0 0.48237845739663598 0.45474052989964669 0 0.5 0.5 0 0.46961857939452217 0.47843267854963678 0 0.46262912319994498 0.4617517767316669 0 0.46961857939452217 0.47843267854963678 0 0.44676321533503599 0.47198421477385039 0 0.46961857939452217 0.47843267854963678 0 0.45695651283274419 0.5 0 0.44676321533503599 0.47198421477385039 0 0.45695651283274419 0.5 0 0.44676321533503599 0.47198421477385039 0 0.42715067833807191 0.48563837301334373 0 0.45695651283274419 0.5 0 0.42715067833807191 0.48563837301334373 0 0.39792984500105372 0.49999999999999267 0 0.42715067833807191 0.48563837301334373 0 0.40953154044098622 0.4794767255128099 0 0.39792984500105372 0.49999999999999267 0 0.40953154044098622 0.4794767255128099 0 0.41525465208730261 0.46316685488367448 0 0.40032430733366781 0.47438196319643627 0 0.42715067833807191 0.48563837301334373 0 0.40953154044098622 0.4794767255128099 0 0.42565961132635199 0.47168315798381388 0 0.40953154044098622 0.4794767255128099 0 0.42565961132635199 0.47168315798381388 0 0.41525465208730261 0.46316685488367448 0 0.44676321533503599 0.47198421477385039 0 0.42715067833807191 0.48563837301334373 0 0.42565961132635199 0.47168315798381388 0 0.42565961132635199 0.47168315798381388 0 0.43105685511778941 0.46008286853249242 0 0.41525465208730261 0.46316685488367448 0 0.44676321533503599 0.47198421477385039 0 0.42565961132635199 0.47168315798381388 0 0.43105685511778941 0.46008286853249242 0 0.43647632095713862 0.44436215142212632 0 0.4092285121767878 0.4507105976825127 0 0.43133933500857929 0.43201167421733949 0 0.43647632095713862 0.44436215142212632 0 0.41892553910608071 0.43791135523627978 0 0.43105685511778941 0.46008286853249242 0 0.43647632095713862 0.44436215142212632 0 0.4092285121767878 0.4507105976825127 0 0.43647632095713862 0.44436215142212632 0 0.41892553910608071 0.43791135523627978 0 0.4092285121767878 0.4507105976825127 0 0.4086430402520686 0.43726383809014391 0 0.41892553910608071 0.43791135523627978 0 0.4092285121767878 0.4507105976825127 0 0.43105685511778941 0.46008286853249242 0 0.4092285121767878 0.4507105976825127 0 0.41525465208730261 0.46316685488367448 0 0.41525465208730261 0.46316685488367448 0 0.38526933680530762 0.46591325479630669 0 0.40032430733366781 0.47438196319643627 0 0.4092285121767878 0.4507105976825127 0 0.41525465208730261 0.46316685488367448 0 0.38526933680530762 0.46591325479630669 0 0.4092285121767878 0.4507105976825127 0 0.38526933680530762 0.46591325479630669 0 0.38198070339643708 0.45705904394289942 0 0.4092285121767878 0.4507105976825127 0 0.38198070339643708 0.45705904394289942 0 0.41525465208730261 0.46316685488367448 0 0.38526933680530762 0.46591325479630669 0 0.39355396721594382 0.43664913910555569 0 0.4086430402520686 0.43726383809014391 0 0.4092285121767878 0.4507105976825127 0 0.39355396721594382 0.43664913910555569 0 0.4092285121767878 0.4507105976825127 0 0.38198070339643708 0.45705904394289942 0 0.37193014631584848 0.42999924720615068 0 0.39355396721594382 0.43664913910555569 0 0.38198070339643708 0.45705904394289942 0 0.37193014631584848 0.42999924720615068 0 0.38198070339643708 0.45705904394289942 0 0.36717500093372668 0.46757054210475929 0 0.38526933680530762 0.46591325479630669 0 0.36717500093372668 0.46757054210475929 0 0.38526933680530762 0.46591325479630669 0 0.38198070339643708 0.45705904394289942 0 0.38526933680530762 0.46591325479630669 0 0.38198070339643708 0.45705904394289942 0 0.36717500093372668 0.46757054210475929 0 0.38526933680530762 0.46591325479630669 0 0.37501723488010369 0.48021086780116401 0 0.38526933680530762 0.46591325479630669 0 0.39159959090318019 0.48295662739814987 0 0.38526933680530762 0.46591325479630669 0 0.37501723488010369 0.48021086780116401 0 0.39159959090318019 0.48295662739814987 0 0.37100127548482031 0.49999999999999922 0 0.39792984500105372 0.49999999999999267 0 0.39159959090318019 0.48295662739814987 0 0.37100127548482031 0.49999999999999922 0 0.37501723488010369 0.48021086780116401 0 0.39159959090318019 0.48295662739814987 0 0.40953154044098622 0.4794767255128099 0 0.39792984500105372 0.49999999999999267 0 0.39159959090318019 0.48295662739814987 0 0.39792984500105372 0.49999999999999267 0 0.39159959090318019 0.48295662739814987 0 0.38526933680530762 0.46591325479630669 0 0.39159959090318019 0.48295662739814987 0 0.40032430733366781 0.47438196319643627 0 0.40953154044098622 0.4794767255128099 0 0.39159959090318019 0.48295662739814987 0 0.40032430733366781 0.47438196319643627 0 0.33044620589452839 0.087817198709655944 0 0.34171554996877818 0.096966806733087524 0 0.34881532063442522 0.082201530692034883 0 0.33044620589452839 0.087817198709655944 0 0.32566991147381341 0.070879840112157963 0 0.34881532063442522 0.082201530692034883 0 0.32566991147381341 0.070879840112157963 0 0.34881532063442522 0.082201530692034883 0 0.34230685448842202 0.061943355546023537 0 0.32566991147381341 0.070879840112157963 0 0.31072716300308328 0.059331554637136651 0 0.31153776068034922 0.089135316111794982 0 0.33044620589452839 0.087817198709655944 0 0.32806927392538099 0.098855845298032555 0 0.31153776068034922 0.089135316111794982 0 0.33044620589452839 0.087817198709655944 0 0.32566991147381341 0.070879840112157963 0 0.31153776068034922 0.089135316111794982 0 0.32260309590447922 0.1123122165003074 0 0.31153776068034922 0.089135316111794982 0 0.31234835835761571 0.11893907758645331 0 0.32806927392538099 0.098855845298032555 0 0.32260309590447922 0.1123122165003074 0 0.31153776068034922 0.089135316111794982 0 0.32260309590447922 0.1123122165003074 0 0.33019904407723683 0.1184739086744384 0 0.31234835835761571 0.11893907758645331 0 0.33019904407723683 0.1184739086744384 0 0.31234835835761571 0.11893907758645331 0 0.33442235067943221 0.13211305649348251 0 0.32260309590447922 0.1123122165003074 0 0.33019904407723683 0.1184739086744384 0 0.33404375717876961 0.1080476884353169 0 0.33404375717876961 0.1080476884353169 0 0.343988490580944 0.1176741160108202 0 0.33019904407723683 0.1184739086744384 0 0.33404375717876961 0.1080476884353169 0 0.343988490580944 0.1176741160108202 0 0.343988490580944 0.1176741160108202 0 0.33442235067943221 0.13211305649348251 0 0.33019904407723683 0.1184739086744384 0 0.343988490580944 0.1176741160108202 0 0.33442235067943221 0.13211305649348251 0 0.33404375717876961 0.1080476884353169 0 0.34171554996877818 0.096966806733087524 0 0.35392152912869879 0.10268138604034791 0 0.33044620589452839 0.087817198709655944 0 0.32806927392538099 0.098855845298032555 0 0.34171554996877818 0.096966806733087524 0 0.32806927392538099 0.098855845298032555 0 0.33404375717876961 0.1080476884353169 0 0.34171554996877818 0.096966806733087524 0 0.32806927392538099 0.098855845298032555 0 0.32260309590447922 0.1123122165003074 0 0.33404375717876961 0.1080476884353169 0 0.35392152912869879 0.10268138604034791 0 0.35491381869304151 0.1011836439930483 0 0.34881532063442522 0.082201530692034883 0 0.34171554996877818 0.096966806733087524 0 0.35392152912869879 0.10268138604034791 0 0.34881532063442522 0.082201530692034883 0 0.35392152912869879 0.10268138604034791 0 0.35546062987876292 0.1088543734464716 0 0.35491381869304151 0.1011836439930483 0 0.35392152912869879 0.10268138604034791 0 0.35491381869304151 0.1011836439930483 0 0.35392152912869879 0.10268138604034791 0 0.35546062987876292 0.1088543734464716 0 0.33404375717876961 0.1080476884353169 0 0.35392152912869879 0.10268138604034791 0 0.343988490580944 0.1176741160108202 0 0.35546062987876292 0.1088543734464716 0 0.35491381869304151 0.1011836439930483 0 0.36234477620530581 0.12431315491142481 0 0.35491381869304151 0.1011836439930483 0 0.36234477620530581 0.12431315491142481 0 0.343988490580944 0.1176741160108202 0 0.3557614600719885 0.1290702624504714 0 0.35392152912869879 0.10268138604034791 0 0.343988490580944 0.1176741160108202 0 0.35392152912869879 0.10268138604034791 0 0.35546062987876292 0.1088543734464716 0 0.343988490580944 0.1176741160108202 0 0.35546062987876292 0.1088543734464716 0 0.343988490580944 0.1176741160108202 0 0.35889290538618501 0.1204186727105461 0 0.343988490580944 0.1176741160108202 0 0.35889290538618501 0.1204186727105461 0 0.3557614600719885 0.1290702624504714 0 0.35546062987876292 0.1088543734464716 0 0.35889290538618501 0.1204186727105461 0 0.36234477620530581 0.12431315491142481 0 0.35889290538618501 0.1204186727105461 0 0.36234477620530581 0.12431315491142481 0 0.3557614600719885 0.1290702624504714 0 0.35491381869304151 0.1011836439930483 0 0.36234477620530581 0.12431315491142481 0 0.37533236417423199 0.11575217945856781 0 0.35889290538618501 0.1204186727105461 0 0.36234477620530581 0.12431315491142481 0 0.35491381869304151 0.1011836439930483 0 0.36864505415383159 0.080457991471440893 0 0.37989514383216261 0.1008811074142211 0 0.35491381869304151 0.1011836439930483 0 0.37989514383216261 0.1008811074142211 0 0.37533236417423199 0.11575217945856781 0 0.35491381869304151 0.1011836439930483 0 0.36864505415383159 0.080457991471440893 0 0.36864505415383159 0.080457991471440893 0 0.37194242117794668 0.076772614526931793 0 0.37989514383216261 0.1008811074142211 0 0.35491381869304151 0.1011836439930483 0 0.36864505415383159 0.080457991471440893 0 0.34881532063442522 0.082201530692034883 0 0.35491381869304151 0.1011836439930483 0 0.34881532063442522 0.082201530692034883 0 0.35392152912869879 0.10268138604034791 0 0.34881532063442522 0.082201530692034883 0 0.34881532063442522 0.082201530692034883 0 0.34230685448842202 0.061943355546023537 0 0.34881532063442522 0.082201530692034883 0 0.34385440331789768 0.06230440562327498 0 0.34881532063442522 0.082201530692034883 0 0.36113142589940772 0.067155945135465897 0 0.34385440331789768 0.06230440562327498 0 0.34881532063442522 0.082201530692034883 0 0.34385440331789768 0.06230440562327498 0 0.34230685448842202 0.061943355546023537 0 0.36864505415383159 0.080457991471440893 0 0.36113142589940772 0.067155945135465897 0 0.38237628961462611 0.059732338949836518 0 0.36864505415383159 0.080457991471440893 0 0.34881532063442522 0.082201530692034883 0 0.36113142589940772 0.067155945135465897 0 0.36864505415383159 0.080457991471440893 0 0.37194242117794668 0.076772614526931793 0 0.38237628961462611 0.059732338949836518 0 0.36113142589940772 0.067155945135465897 0 0.36196606177625779 0.051083458940742198 0 0.38237628961462611 0.059732338949836518 0 0.36196606177625779 0.051083458940742198 0 0.37923500638336632 0.043068186250585699 0 0.38237628961462611 0.059732338949836518 0 0.36196606177625779 0.051083458940742198 0 0.36321924137845568 0.02934286747329215 0 0.37923500638336632 0.043068186250585699 0 0.36196606177625779 0.051083458940742198 0 0.36321924137845568 0.02934286747329215 0 0.33889348600137009 0.042407280554515127 0 0.36321924137845568 0.02934286747329215 0 0.33393256868484111 0.02251015548575569 0 0.33889348600137009 0.042407280554515127 0 0.36113142589940772 0.067155945135465897 0 0.36196606177625779 0.051083458940742198 0 0.34385440331789768 0.06230440562327498 0 0.36196606177625779 0.051083458940742198 0 0.34385440331789768 0.06230440562327498 0 0.33889348600137009 0.042407280554515127 0 0.37357914744350779 0.002440479778912224 0 0.37424442014871812 0.021820824704299101 0 0.35598292622536432 0.0074660699477739154 0 0.37424442014871812 0.021820824704299101 0 0.35598292622536432 0.0074660699477739154 0 0.36321924137845568 0.02934286747329215 0 0.37424442014871812 0.021820824704299101 0 0.35598292622536432 0.0074660699477739154 0 0.36321924137845568 0.02934286747329215 0 0.34509322139385162 0.01518667904233665 0 0.33393256868484111 0.02251015548575569 0 0.36321924137845568 0.02934286747329215 0 0.33393256868484111 0.02251015548575569 0 0.36321924137845568 0.02934286747329215 0 0.35598292622536432 0.0074660699477739154 0 0.34509322139385162 0.01518667904233665 0 0.35598292622536432 0.0074660699477739154 0 0.33772143230201052 -0.0068886848087512803 0 0.35598292622536432 0.0074660699477739154 0 0.33877017139388149 0.0064718171092321003 0 0.33772143230201052 -0.0068886848087512803 0 0.35598292622536432 0.0074660699477739154 0 0.34509322139385162 0.01518667904233665 0 0.33877017139388149 0.0064718171092321003 0 0.33877017139388149 0.0064718171092321003 0 0.32325249182581611 0.0026349705202008129 0 0.33772143230201052 -0.0068886848087512803 0 0.33877017139388149 0.0064718171092321003 0 0.33180078522236511 0.01396005084460041 0 0.32325249182581611 0.0026349705202008129 0 0.34509322139385162 0.01518667904233665 0 0.33877017139388149 0.0064718171092321003 0 0.33180078522236511 0.01396005084460041 0 0.3292899221964134 0.021427005254001569 0 0.33393256868484111 0.02251015548575569 0 0.33579838834241882 0.04168518040001222 0 0.33180078522236511 0.01396005084460041 0 0.3292899221964134 0.021427005254001569 0 0.33393256868484111 0.02251015548575569 0 0.33180078522236511 0.01396005084460041 0 0.33393256868484111 0.02251015548575569 0 0.3292899221964134 0.021427005254001569 0 0.33393256868484111 0.02251015548575569 0 0.34509322139385162 0.01518667904233665 0 0.33180078522236511 0.01396005084460041 0 0.33393256868484111 0.02251015548575569 0 0.3292899221964134 0.021427005254001569 0 0.31293781791285569 0.017611986042758699 0 0.31923969929816981 0.035830495662194838 0 0.3292899221964134 0.021427005254001569 0 0.31293781791285569 0.017611986042758699 0 0.33180078522236511 0.01396005084460041 0 0.3292899221964134 0.021427005254001569 0 0.32325249182581611 0.0026349705202008129 0 0.3292899221964134 0.021427005254001569 0 0.31293781791285569 0.017611986042758699 0 0.32325249182581611 0.0026349705202008129 0 0.3292899221964134 0.021427005254001569 0 0.32325249182581611 0.0026349705202008129 0 0.31293781791285569 0.017611986042758699 0 0.32325249182581611 0.0026349705202008129 0 0.30690038754225768 -0.0011800486910433781 0 0.34230685448842202 0.061943355546023537 0 0.33579838834241882 0.04168518040001222 0 0.33889348600137009 0.042407280554515127 0 0.34385440331789768 0.06230440562327498 0 0.34230685448842202 0.061943355546023537 0 0.33889348600137009 0.042407280554515127 0 0.32566991147381341 0.070879840112157963 0 0.34230685448842202 0.061943355546023537 0 0.33579838834241882 0.04168518040001222 0 0.34230685448842202 0.061943355546023537 0 0.33579838834241882 0.04168518040001222 0 0.34385440331789768 0.06230440562327498 0 0.33889348600137009 0.042407280554515127 0 0.3292899221964134 0.021427005254001569 0 0.33579838834241882 0.04168518040001222 0 0.33393256868484111 0.02251015548575569 0 0.33889348600137009 0.042407280554515127 0 0.33393256868484111 0.02251015548575569 0 0.33579838834241882 0.04168518040001222 0 0.33889348600137009 0.042407280554515127 0 0.33579838834241882 0.04168518040001222 0 0.31923969929816981 0.035830495662194838 0 0.31072716300308328 0.059331554637136651 0 0.3292899221964134 0.021427005254001569 0 0.33579838834241882 0.04168518040001222 0 0.31923969929816981 0.035830495662194838 0 0.32566991147381341 0.070879840112157963 0 0.33579838834241882 0.04168518040001222 0 0.31072716300308328 0.059331554637136651 0 0.31072716300308328 0.059331554637136651 0 0.30691000426459791 0.042169890293137127 0 0.29424159478151202 0.042911142587019738 0 0.31923969929816981 0.035830495662194838 0 0.30691000426459791 0.042169890293137127 0 0.30060566889494089 0.02714657897289334 0 0.30691000426459791 0.042169890293137127 0 0.29424159478151202 0.042911142587019738 0 0.30060566889494089 0.02714657897289334 0 0.31923969929816981 0.035830495662194838 0 0.31072716300308328 0.059331554637136651 0 0.30691000426459791 0.042169890293137127 0 0.29424159478151202 0.042911142587019738 0 0.30060566889494089 0.02714657897289334 0 0.28762295502011598 0.027200489278051441 0 0.29424159478151202 0.042911142587019738 0 0.28762295502011598 0.027200489278051441 0 0.27805620151387522 0.042617420402232667 0 0.31072716300308328 0.059331554637136651 0 0.29424159478151202 0.042911142587019738 0 0.28127895804124392 0.05869653450612005 0 0.29424159478151202 0.042911142587019738 0 0.28127895804124392 0.05869653450612005 0 0.27805620151387522 0.042617420402232667 0 0.31293781791285569 0.017611986042758699 0 0.29658571362929892 0.01379696683151194 0 0.30690038754225768 -0.0011800486910433781 0 0.29658571362929892 0.01379696683151194 0 0.30050921735997521 -0.004605356182754896 0 0.30690038754225768 -0.0011800486910433781 0 0.29658571362929892 0.01379696683151194 0 0.30690038754225768 -0.0011800486910433781 0 0.31293781791285569 0.017611986042758699 0 0.30060566889494089 0.02714657897289334 0 0.29658571362929892 0.01379696683151194 0 0.31293781791285569 0.017611986042758699 0 0.31923969929816981 0.035830495662194838 0 0.30060566889494089 0.02714657897289334 0 0.31293781791285569 0.017611986042758699 0 0.29658571362929892 0.01379696683151194 0 0.30060566889494089 0.02714657897289334 0 0.29500274332330728 0.016095456443948788 0 0.29658571362929892 0.01379696683151194 0 0.30060566889494089 0.02714657897289334 0 0.28762295502011598 0.027200489278051441 0 0.29289454178864649 0.022456661223579269 0 0.28762295502011598 0.027200489278051441 0 0.28116395689077539 0.015207467567734259 0 0.27775173961206168 0.02941095978416057 0 0.28762295502011598 0.027200489278051441 0 0.28836526088227099 0.018465508051837269 0 0.28116395689077539 0.015207467567734259 0 0.28762295502011598 0.027200489278051441 0 0.28116395689077539 0.015207467567734259 0 0.30060566889494089 0.02714657897289334 0 0.29289454178864649 0.022456661223579269 0 0.29500274332330728 0.016095456443948788 0 0.28836526088227099 0.018465508051837269 0 0.29289454178864649 0.022456661223579269 0 0.29500274332330728 0.016095456443948788 0 0.28762295502011598 0.027200489278051441 0 0.28836526088227099 0.018465508051837269 0 0.29289454178864649 0.022456661223579269 0 0.28514691493175248 0.01112824383243886 0 0.30050921735997521 -0.004605356182754896 0 0.29658571362929892 0.01379696683151194 0 0.28514691493175248 0.01112824383243886 0 0.30050921735997521 -0.004605356182754896 0 0.28514691493175248 0.01112824383243886 0 0.27791710391185381 -0.0010379811687957271 0 0.28512431700806451 -0.0086992195202469716 0 0.29658571362929892 0.01379696683151194 0 0.28514691493175248 0.01112824383243886 0 0.28836526088227099 0.018465508051837269 0 0.29500274332330728 0.016095456443948788 0 0.28514691493175248 0.01112824383243886 0 0.29500274332330728 0.016095456443948788 0 0.29658571362929892 0.01379696683151194 0 0.28514691493175248 0.01112824383243886 0 0.29500274332330728 0.016095456443948788 0 0.29658571362929892 0.01379696683151194 0 0.28836526088227099 0.018465508051837269 0 0.28514691493175248 0.01112824383243886 0 0.28116395689077539 0.015207467567734259 0 0.28514691493175248 0.01112824383243886 0 0.27807895442698177 0.0094792569716416024 0 0.28116395689077539 0.015207467567734259 0 0.28514691493175248 0.01112824383243886 0 0.28116395689077539 0.015207467567734259 0 0.28514691493175248 0.01112824383243886 0 0.27807895442698177 0.0094792569716416024 0 0.27127393371108272 0.0054169343353159512 0 0.27807895442698177 0.0094792569716416024 0 0.2692248172919926 -0.0069610417805164738 0 0.27807895442698177 0.0094792569716416024 0 0.2692248172919926 -0.0069610417805164738 0 0.27807895442698177 0.0094792569716416024 0 0.2692248172919926 -0.0069610417805164738 0 0.27791710391185381 -0.0010379811687957271 0 0.26701986470523431 0.0028523954276382379 0 0.27127393371108272 0.0054169343353159512 0 0.2692248172919926 -0.0069610417805164738 0 0.26701986470523431 0.0028523954276382379 0 0.27127393371108272 0.0054169343353159512 0 0.26928034954363472 0.01099432455637152 0 0.28514691493175248 0.01112824383243886 0 0.27807895442698177 0.0094792569716416024 0 0.27791710391185381 -0.0010379811687957271 0 0.27807895442698177 0.0094792569716416024 0 0.27458783582826463 0.012565755321843329 0 0.27310560452179761 0.0095674853239665035 0 0.27127393371108272 0.0054169343353159512 0 0.27807895442698177 0.0094792569716416024 0 0.27310560452179761 0.0095674853239665035 0 0.27807895442698177 0.0094792569716416024 0 0.28116395689077539 0.015207467567734259 0 0.27807895442698177 0.0094792569716416024 0 0.28116395689077539 0.015207467567734259 0 0.27458783582826463 0.012565755321843329 0 0.27458783582826463 0.012565755321843329 0 0.26928034954363472 0.01099432455637152 0 0.26815911709364498 0.019514489362225031 0 0.27458783582826463 0.012565755321843329 0 0.27310560452179761 0.0095674853239665035 0 0.26928034954363472 0.01099432455637152 0 0.27127393371108272 0.0054169343353159512 0 0.27310560452179761 0.0095674853239665035 0 0.26928034954363472 0.01099432455637152 0 0.28116395689077539 0.015207467567734259 0 0.26416384502347939 0.032618461888623121 0 0.28116395689077539 0.015207467567734259 0 0.26815911709364498 0.019514489362225031 0 0.26416384502347939 0.032618461888623121 0 0.28116395689077539 0.015207467567734259 0 0.27775173961206168 0.02941095978416057 0 0.26416384502347939 0.032618461888623121 0 0.28116395689077539 0.015207467567734259 0 0.27458783582826463 0.012565755321843329 0 0.26815911709364498 0.019514489362225031 0 0.2489069739425 0.021637400389674748 0 0.25228035847618863 0.02688679106582054 0 0.25585841565974538 0.042233258010133973 0 0.26815911709364498 0.019514489362225031 0 0.25311855338379191 0.024668664965947041 0 0.26416384502347939 0.032618461888623121 0 0.25311855338379191 0.024668664965947041 0 0.26416384502347939 0.032618461888623121 0 0.25228035847618863 0.02688679106582054 0 0.25311855338379191 0.024668664965947041 0 0.26416384502347939 0.032618461888623121 0 0.2489069739425 0.021637400389674748 0 0.25228035847618863 0.02688679106582054 0 0.25311855338379191 0.024668664965947041 0 0.25228035847618863 0.02688679106582054 0 0.25311855338379191 0.024668664965947041 0 0.2489069739425 0.021637400389674748 0 0.25311855338379191 0.024668664965947041 0 0.25900523844679291 0.0090906536209348996 0 0.25311855338379191 0.024668664965947041 0 0.25900523844679291 0.0090906536209348996 0 0.2489069739425 0.021637400389674748 0 0.25311855338379191 0.024668664965947041 0 0.26815911709364498 0.019514489362225031 0 0.25311855338379191 0.024668664965947041 0 0.25900523844679291 0.0090906536209348996 0 0.26928034954363472 0.01099432455637152 0 0.26815911709364498 0.019514489362225031 0 0.25900523844679291 0.0090906536209348996 0 0.26701986470523431 0.0028523954276382379 0 0.26928034954363472 0.01099432455637152 0 0.25900523844679291 0.0090906536209348996 0 0.25900523844679291 0.0090906536209348996 0 0.26489192350979318 -0.0064873577240775106 0 0.26701986470523431 0.0028523954276382379 0 0.25900523844679291 0.0090906536209348996 0 0.26489192350979318 -0.0064873577240775106 0 0.28127895804124392 0.05869653450612005 0 0.26794279917258279 0.048584654113773551 0 0.27805620151387522 0.042617420402232667 0 0.28127895804124392 0.05869653450612005 0 0.26794279917258279 0.048584654113773551 0 0.26429652163301431 0.061701359010517647 0 0.26794279917258279 0.048584654113773551 0 0.27805620151387522 0.042617420402232667 0 0.26416384502347939 0.032618461888623121 0 0.28762295502011598 0.027200489278051441 0 0.27775173961206168 0.02941095978416057 0 0.27805620151387522 0.042617420402232667 0 0.27805620151387522 0.042617420402232667 0 0.26416384502347939 0.032618461888623121 0 0.27775173961206168 0.02941095978416057 0 0.27805620151387522 0.042617420402232667 0 0.26416384502347939 0.032618461888623121 0 0.26794279917258279 0.048584654113773551 0 0.2611959089814877 0.042898221548277563 0 0.26416384502347939 0.032618461888623121 0 0.2611959089814877 0.042898221548277563 0 0.25585841565974538 0.042233258010133973 0 0.25799090162224952 0.051667623778106117 0 0.2489069739425 0.021637400389674748 0 0.25585841565974538 0.042233258010133973 0 0.2611959089814877 0.042898221548277563 0 0.25868336492166327 0.038231401890038208 0 0.25585841565974538 0.042233258010133973 0 0.25228035847618863 0.02688679106582054 0 0.26416384502347939 0.032618461888623121 0 0.25868336492166327 0.038231401890038208 0 0.2611959089814877 0.042898221548277563 0 0.26416384502347939 0.032618461888623121 0 0.25868336492166327 0.038231401890038208 0 0.26416384502347939 0.032618461888623121 0 0.25868336492166327 0.038231401890038208 0 0.25228035847618863 0.02688679106582054 0 0.25868336492166327 0.038231401890038208 0 0.25585841565974538 0.042233258010133973 0 0.24915942417082321 0.043562136642382059 0 0.25585841565974538 0.042233258010133973 0 0.25194780840825542 0.047502886957762752 0 0.25585841565974538 0.042233258010133973 0 0.25194780840825542 0.047502886957762752 0 0.25799090162224952 0.051667623778106117 0 0.24612717135886061 0.053158967820149818 0 0.25194780840825542 0.047502886957762752 0 0.25799090162224952 0.051667623778106117 0 0.24612717135886061 0.053158967820149818 0 0.25799090162224952 0.051667623778106117 0 0.26429652163301431 0.061701359010517647 0 0.26794279917258279 0.048584654113773551 0 0.2611959089814877 0.042898221548277563 0 0.25799090162224952 0.051667623778106117 0 0.26794279917258279 0.048584654113773551 0 0.25799090162224952 0.051667623778106117 0 0.26429652163301431 0.061701359010517647 0 0.24612717135886061 0.053158967820149818 0 0.25923100858263742 0.079351551944828513 0 0.24612717135886061 0.053158967820149818 0 0.26429652163301431 0.061701359010517647 0 0.25923100858263742 0.079351551944828513 0 0.24537668551697431 0.097277083683747018 0 0.25923100858263742 0.079351551944828513 0 0.25922747002471352 0.097974378356717087 0 0.27555977218924488 0.077439952611008278 0 0.28759873658278978 0.090030408643589632 0 0.27101928807639453 0.09427347599549088 0 0.25923100858263742 0.079351551944828513 0 0.27555977218924488 0.077439952611008278 0 0.27101928807639453 0.09427347599549088 0 0.25923100858263742 0.079351551944828513 0 0.27101928807639453 0.09427347599549088 0 0.27233484580641432 0.1055441360695072 0 0.25923100858263742 0.079351551944828513 0 0.27233484580641432 0.1055441360695072 0 0.28127895804124392 0.05869653450612005 0 0.26429652163301431 0.061701359010517647 0 0.27555977218924488 0.077439952611008278 0 0.26429652163301431 0.061701359010517647 0 0.25923100858263742 0.079351551944828513 0 0.27555977218924488 0.077439952611008278 0 0.31072716300308328 0.059331554637136651 0 0.28127895804124392 0.05869653450612005 0 0.29303234378028109 0.075428628958087107 0 0.28127895804124392 0.05869653450612005 0 0.27555977218924488 0.077439952611008278 0 0.29303234378028109 0.075428628958087107 0 0.27555977218924488 0.077439952611008278 0 0.29303234378028109 0.075428628958087107 0 0.28759873658278978 0.090030408643589632 0 0.29303234378028109 0.075428628958087107 0 0.28759873658278978 0.090030408643589632 0 0.31153776068034922 0.089135316111794982 0 0.31072716300308328 0.059331554637136651 0 0.29303234378028109 0.075428628958087107 0 0.31153776068034922 0.089135316111794982 0 0.31072716300308328 0.059331554637136651 0 0.31153776068034922 0.089135316111794982 0 0.31234835835761571 0.11893907758645331 0 0.29168382321700531 0.1066062767909717 0 0.29960507646434792 0.12683409122409009 0 0.31234835835761571 0.11893907758645331 0 0.29168382321700531 0.1066062767909717 0 0.31153776068034922 0.089135316111794982 0 0.31234835835761571 0.11893907758645331 0 0.28759873658278978 0.090030408643589632 0 0.31153776068034922 0.089135316111794982 0 0.29168382321700531 0.1066062767909717 0 0.31153776068034922 0.089135316111794982 0 0.31234835835761571 0.11893907758645331 0 0.29168382321700531 0.1066062767909717 0 0.29168382321700531 0.1066062767909717 0 0.27101928807639453 0.09427347599549088 0 0.28759873658278978 0.090030408643589632 0 0.29168382321700531 0.1066062767909717 0 0.27101928807639453 0.09427347599549088 0 0.28726560712948962 0.11768030606968879 0 0.27233484580641432 0.1055441360695072 0 0.28543868303019121 0.131736720194186 0 0.29168382321700531 0.1066062767909717 0 0.28726560712948962 0.11768030606968879 0 0.29960507646434792 0.12683409122409009 0 0.29168382321700531 0.1066062767909717 0 0.28726560712948962 0.11768030606968879 0 0.27233484580641432 0.1055441360695072 0 0.2688255279836298 0.12262400996184721 0 0.27233484580641432 0.1055441360695072 0 0.28543868303019121 0.131736720194186 0 0.2688255279836298 0.12262400996184721 0 0.27233484580641432 0.1055441360695072 0 0.25996734019282808 0.1097247417287856 0 0.27233484580641432 0.1055441360695072 0 0.28543868303019121 0.131736720194186 0 0.29168382321700531 0.1066062767909717 0 0.27101928807639453 0.09427347599549088 0 0.27233484580641432 0.1055441360695072 0 0.25923100858263742 0.079351551944828513 0 0.27233484580641432 0.1055441360695072 0 0.25922747002471352 0.097974378356717087 0 0.27233484580641432 0.1055441360695072 0 0.25922747002471352 0.097974378356717087 0 0.25996734019282808 0.1097247417287856 0 0.24537668551697431 0.097277083683747018 0 0.25922747002471352 0.097974378356717087 0 0.25996734019282808 0.1097247417287856 0 0.24537668551697431 0.097277083683747018 0 0.25996734019282808 0.1097247417287856 0 0.25370366287882878 0.1241816415692342 0 0.2688255279836298 0.12262400996184721 0 0.25996734019282808 0.1097247417287856 0 0.25370366287882878 0.1241816415692342 0 0.25370366287882878 0.1241816415692342 0 0.26203064024068312 0.15108619945472171 0 0.2688255279836298 0.12262400996184721 0 0.25370366287882878 0.1241816415692342 0 0.27163016425534958 0.13738497633274069 0 0.25370366287882878 0.1241816415692342 0 0.27163016425534958 0.13738497633274069 0 0.26203064024068312 0.15108619945472171 0 0.2688255279836298 0.12262400996184721 0 0.27163016425534958 0.13738497633274069 0 0.28543868303019121 0.131736720194186 0 0.27163016425534958 0.13738497633274069 0 0.28543868303019121 0.131736720194186 0 0.2826446853024604 0.14124270427211749 0 0.27163016425534958 0.13738497633274069 0 0.27808704382392468 0.15255782491348299 0 0.26203064024068312 0.15108619945472171 0 0.27808704382392468 0.15255782491348299 0 0.26203064024068312 0.15108619945472171 0 0.26470071343822532 0.15971323610680241 0 0.27808704382392468 0.15255782491348299 0 0.26203064024068312 0.15108619945472171 0 0.27163016425534958 0.13738497633274069 0 0.27808704382392468 0.15255782491348299 0 0.2826446853024604 0.14124270427211749 0 0.27808704382392468 0.15255782491348299 0 0.26470071343822532 0.15971323610680241 0 0.24802047718606329 0.14980211908606039 0 0.25370366287882878 0.1241816415692342 0 0.26203064024068312 0.15108619945472171 0 0.26203064024068312 0.15108619945472171 0 0.26470071343822532 0.15971323610680241 0 0.26203064024068312 0.15108619945472171 0 0.25841385897244001 0.15585338151222791 0 0.26470071343822532 0.15971323610680241 0 0.24802047718606329 0.14980211908606039 0 0.25841385897244001 0.15585338151222791 0 0.25890360502478721 0.16281197140132819 0 0.24802047718606329 0.14980211908606039 0 0.26203064024068312 0.15108619945472171 0 0.24802047718606329 0.14980211908606039 0 0.26203064024068312 0.15108619945472171 0 0.25841385897244001 0.15585338151222791 0 0.26470071343822532 0.15971323610680241 0 0.25890360502478721 0.16281197140132819 0 0.26962736994955661 0.17563131892736969 0 0.24394273923527451 0.1708090208874482 0 0.25890360502478721 0.16281197140132819 0 0.25069145747160237 0.17986975870422739 0 0.24394273923527451 0.1708090208874482 0 0.24802047718606329 0.14980211908606039 0 0.25890360502478721 0.16281197140132819 0 0.24802047718606329 0.14980211908606039 0 0.25890360502478721 0.16281197140132819 0 0.24394273923527451 0.1708090208874482 0 0.25890360502478721 0.16281197140132819 0 0.25890360502478721 0.16281197140132819 0 0.26962736994955661 0.17563131892736969 0 0.26470071343822532 0.15971323610680241 0 0.25890360502478721 0.16281197140132819 0 0.25841385897244001 0.15585338151222791 0 0.26470071343822532 0.15971323610680241 0 0.25890360502478721 0.16281197140132819 0 0.25890360502478721 0.16281197140132819 0 0.25069145747160237 0.17986975870422739 0 0.2622875918713119 0.17871532590777511 0 0.25890360502478721 0.16281197140132819 0 0.2622875918713119 0.17871532590777511 0 0.26962736994955661 0.17563131892736969 0 0.24443808169503289 0.19165573435540739 0 0.25069145747160237 0.17986975870422739 0 0.25672659357731442 0.18931439154619459 0 0.25069145747160237 0.17986975870422739 0 0.2622875918713119 0.17871532590777511 0 0.25672659357731442 0.18931439154619459 0 0.2622875918713119 0.17871532590777511 0 0.2666871346110174 0.18721551203983949 0 0.25672659357731442 0.18931439154619459 0 0.2666871346110174 0.18721551203983949 0 0.2707313294469027 0.17919822452935469 0 0.28262567674856709 0.19158292471432059 0 0.2707313294469027 0.17919822452935469 0 0.26962736994955661 0.17563131892736969 0 0.28262567674856709 0.19158292471432059 0 0.26962736994955661 0.17563131892736969 0 0.28262567674856709 0.19158292471432059 0 0.26962736994955661 0.17563131892736969 0 0.28063414626850292 0.17836588696170111 0 0.28262567674856709 0.19158292471432059 0 0.2622875918713119 0.17871532590777511 0 0.2666871346110174 0.18721551203983949 0 0.2707313294469027 0.17919822452935469 0 0.2622875918713119 0.17871532590777511 0 0.2707313294469027 0.17919822452935469 0 0.26962736994955661 0.17563131892736969 0 0.2707313294469027 0.17919822452935469 0 0.26962736994955661 0.17563131892736969 0 0.26962736994955661 0.17563131892736969 0 0.28063414626850292 0.17836588696170111 0 0.27791551735799302 0.17228039079135241 0 0.26470071343822532 0.15971323610680241 0 0.26962736994955661 0.17563131892736969 0 0.26470071343822532 0.15971323610680241 0 0.26962736994955661 0.17563131892736969 0 0.27525802885731437 0.16516718346708009 0 0.27808704382392468 0.15255782491348299 0 0.26470071343822532 0.15971323610680241 0 0.27525802885731437 0.16516718346708009 0 0.26962736994955661 0.17563131892736969 0 0.27791551735799302 0.17228039079135241 0 0.27525802885731437 0.16516718346708009 0 0.27791551735799302 0.17228039079135241 0 0.27525802885731437 0.16516718346708009 0 0.28614252435659893 0.16995717380925851 0 0.27808704382392468 0.15255782491348299 0 0.27525802885731437 0.16516718346708009 0 0.28831271101088052 0.16150411312056051 0 0.27525802885731437 0.16516718346708009 0 0.28831271101088052 0.16150411312056051 0 0.28614252435659893 0.16995717380925851 0 0.28831271101088052 0.16150411312056051 0 0.28614252435659893 0.16995717380925851 0 0.2949765541501792 0.16654736560739511 0 0.28614252435659893 0.16995717380925851 0 0.2949765541501792 0.16654736560739511 0 0.2966990425067918 0.17398076245598329 0 0.28831271101088052 0.16150411312056051 0 0.2949765541501792 0.16654736560739511 0 0.29843684607612081 0.16152557188150271 0 0.28831271101088052 0.16150411312056051 0 0.29843684607612081 0.16152557188150271 0 0.2957188317017474 0.15417383984422159 0 0.28063414626850292 0.17836588696170111 0 0.28878787233227138 0.1800597202735717 0 0.28262567674856709 0.19158292471432059 0 0.28063414626850292 0.17836588696170111 0 0.28614252435659893 0.16995717380925851 0 0.28878787233227138 0.1800597202735717 0 0.28063414626850292 0.17836588696170111 0 0.27791551735799302 0.17228039079135241 0 0.28614252435659893 0.16995717380925851 0 0.28614252435659893 0.16995717380925851 0 0.28878787233227138 0.1800597202735717 0 0.2966990425067918 0.17398076245598329 0 0.28878787233227138 0.1800597202735717 0 0.2966990425067918 0.17398076245598329 0 0.29802567422580972 0.18704947290502161 0 0.28878787233227138 0.1800597202735717 0 0.29802567422580972 0.18704947290502161 0 0.28262567674856709 0.19158292471432059 0 0.29802567422580972 0.18704947290502161 0 0.32181551132831843 0.18004621980614391 0 0.2966990425067918 0.17398076245598329 0 0.29802567422580972 0.18704947290502161 0 0.31104746434799968 0.1673946430062502 0 0.29802567422580972 0.18704947290502161 0 0.31104746434799968 0.1673946430062502 0 0.29802567422580972 0.18704947290502161 0 0.31104746434799968 0.1673946430062502 0 0.32181551132831843 0.18004621980614391 0 0.30601579003330748 0.16116038764967211 0 0.2957188317017474 0.15417383984422159 0 0.31335061957957011 0.15578985477495891 0 0.29843684607612081 0.16152557188150271 0 0.30601579003330748 0.16116038764967211 0 0.2957188317017474 0.15417383984422159 0 0.29843684607612081 0.16152557188150271 0 0.3040416986791476 0.16682267597464789 0 0.30601579003330748 0.16116038764967211 0 0.2949765541501792 0.16654736560739511 0 0.2966990425067918 0.17398076245598329 0 0.3040416986791476 0.16682267597464789 0 0.2966990425067918 0.17398076245598329 0 0.3040416986791476 0.16682267597464789 0 0.31104746434799968 0.1673946430062502 0 0.2949765541501792 0.16654736560739511 0 0.29843684607612081 0.16152557188150271 0 0.3040416986791476 0.16682267597464789 0 0.3040416986791476 0.16682267597464789 0 0.31104746434799968 0.1673946430062502 0 0.30601579003330748 0.16116038764967211 0 0.3040416986791476 0.16682267597464789 0 0.31104746434799968 0.1673946430062502 0 0.31104746434799968 0.1673946430062502 0 0.30601579003330748 0.16116038764967211 0 0.31349927981525749 0.1612557404164488 0 0.30601579003330748 0.16116038764967211 0 0.31335061957957011 0.15578985477495891 0 0.31349927981525749 0.1612557404164488 0 0.30483300733717872 0.1478702823059759 0 0.29542285010037611 0.14329129564805981 0 0.31275865637682793 0.1340247663826373 0 0.30483300733717872 0.1478702823059759 0 0.31275865637682793 0.1340247663826373 0 0.31335061957957011 0.15578985477495891 0 0.30483300733717872 0.1478702823059759 0 0.2957188317017474 0.15417383984422159 0 0.31335061957957011 0.15578985477495891 0 0.2957188317017474 0.15417383984422159 0 0.31335061957957011 0.15578985477495891 0 0.30483300733717872 0.1478702823059759 0 0.2957188317017474 0.15417383984422159 0 0.29542285010037611 0.14329129564805981 0 0.29960507646434792 0.12683409122409009 0 0.29542285010037611 0.14329129564805981 0 0.31275865637682793 0.1340247663826373 0 0.29542285010037611 0.14329129564805981 0 0.31275865637682793 0.1340247663826373 0 0.31234835835761571 0.11893907758645331 0 0.29960507646434792 0.12683409122409009 0 0.31275865637682793 0.1340247663826373 0 0.29960507646434792 0.12683409122409009 0 0.28543868303019121 0.131736720194186 0 0.29542285010037611 0.14329129564805981 0 0.28726560712948962 0.11768030606968879 0 0.29960507646434792 0.12683409122409009 0 0.28543868303019121 0.131736720194186 0 0.28543868303019121 0.131736720194186 0 0.2826446853024604 0.14124270427211749 0 0.29542285010037611 0.14329129564805981 0 0.27808704382392468 0.15255782491348299 0 0.2826446853024604 0.14124270427211749 0 0.29542285010037611 0.14329129564805981 0 0.27808704382392468 0.15255782491348299 0 0.2957188317017474 0.15417383984422159 0 0.29542285010037611 0.14329129564805981 0 0.27808704382392468 0.15255782491348299 0 0.2957188317017474 0.15417383984422159 0 0.27808704382392468 0.15255782491348299 0 0.29542285010037611 0.14329129564805981 0 0.27808704382392468 0.15255782491348299 0 0.28831271101088052 0.16150411312056051 0 0.2957188317017474 0.15417383984422159 0 0.27685630599777589 0.2478154210616699 0 0.27299157826480569 0.23766007785357521 0 0.26048617882559622 0.24371083740660091 0 0.26048617882559622 0.24371083740660091 0 0.27110411734464762 0.2276843331004246 0 0.27299157826480569 0.23766007785357521 0 0.26048617882559622 0.24371083740660091 0 0.27110411734464762 0.2276843331004246 0 0.27691591880596222 0.25729022711116639 0 0.27685630599777589 0.2478154210616699 0 0.26048617882559622 0.24371083740660091 0 0.27685630599777589 0.2478154210616699 0 0.27901295757983852 0.24225897862297641 0 0.27299157826480569 0.23766007785357521 0 0.27685630599777589 0.2478154210616699 0 0.27901295757983852 0.24225897862297641 0 0.28234947844706793 0.24570967974740021 0 0.27901295757983852 0.24225897862297641 0 0.27719652076970691 0.235876877536806 0 0.2822644445936543 0.2387958425564555 0 0.27719652076970691 0.235876877536806 0 0.28215825558210461 0.2340236887935741 0 0.2822644445936543 0.2387958425564555 0 0.27901295757983852 0.24225897862297641 0 0.27719652076970691 0.235876877536806 0 0.27299157826480569 0.23766007785357521 0 0.24791323415382371 0.2458877298954085 0 0.25153222320099622 0.25722575917013901 0 0.26048617882559622 0.24371083740660091 0 0.2477315277427897 0.2356386040277525 0 0.24791323415382371 0.2458877298954085 0 0.26048617882559622 0.24371083740660091 0 0.24965972363503919 0.22122943443424911 0 0.26048617882559622 0.24371083740660091 0 0.27110411734464762 0.2276843331004246 0 0.2447696612887639 0.21650126134236319 0 0.24965972363503919 0.22122943443424911 0 0.27110411734464762 0.2276843331004246 0 0.24965972363503919 0.22122943443424911 0 0.26048617882559622 0.24371083740660091 0 0.2447696612887639 0.21650126134236319 0 0.27110411734464762 0.2276843331004246 0 0.2447696612887639 0.21650126134236319 0 0.27110411734464762 0.2276843331004246 0 0.2677963164460333 0.2150467959949465 0 0.24965972363503919 0.22122943443424911 0 0.2477315277427897 0.2356386040277525 0 0.26048617882559622 0.24371083740660091 0 0.27110411734464762 0.2276843331004246 0 0.28456489578522731 0.2073669030027222 0 0.2860351544522664 0.22291189892421159 0 0.27299157826480569 0.23766007785357521 0 0.27110411734464762 0.2276843331004246 0 0.27329338907126849 0.2286140193929726 0 0.27110411734464762 0.2276843331004246 0 0.27329338907126849 0.2286140193929726 0 0.27329338907126849 0.2286140193929726 0 0.27769713930278977 0.2310580429220736 0 0.28096010293809309 0.2280773344569369 0 0.27719652076970691 0.235876877536806 0 0.27299157826480569 0.23766007785357521 0 0.27329338907126849 0.2286140193929726 0 0.27110411734464762 0.2276843331004246 0 0.27329338907126849 0.2286140193929726 0 0.28096010293809309 0.2280773344569369 0 0.27719652076970691 0.235876877536806 0 0.27329338907126849 0.2286140193929726 0 0.27769713930278977 0.2310580429220736 0 0.27719652076970691 0.235876877536806 0 0.27769713930278977 0.2310580429220736 0 0.28215825558210461 0.2340236887935741 0 0.27769713930278977 0.2310580429220736 0 0.28096010293809309 0.2280773344569369 0 0.28215825558210461 0.2340236887935741 0 0.27110411734464762 0.2276843331004246 0 0.28096010293809309 0.2280773344569369 0 0.2860351544522664 0.22291189892421159 0 0.27110411734464762 0.2276843331004246 0 0.2677963164460333 0.2150467959949465 0 0.28456489578522731 0.2073669030027222 0 0.27110411734464762 0.2276843331004246 0 0.28456489578522731 0.2073669030027222 0 0.272670307474219 0.206747045740371 0 0.2677963164460333 0.2150467959949465 0 0.28456489578522731 0.2073669030027222 0 0.272670307474219 0.206747045740371 0 0.2677963164460333 0.2150467959949465 0 0.26045320274891359 0.2075872277184421 0 0.2447696612887639 0.21650126134236319 0 0.2677963164460333 0.2150467959949465 0 0.26045320274891359 0.2075872277184421 0 0.2445919001722652 0.2027793092260104 0 0.26045320274891359 0.2075872277184421 0 0.27130878719903789 0.19491439106551739 0 0.2445919001722652 0.2027793092260104 0 0.27130878719903789 0.19491439106551739 0 0.2445919001722652 0.2027793092260104 0 0.25672659357731442 0.18931439154619459 0 0.27130878719903789 0.19491439106551739 0 0.2666871346110174 0.18721551203983949 0 0.25672659357731442 0.18931439154619459 0 0.27130878719903789 0.19491439106551739 0 0.2666871346110174 0.18721551203983949 0 0.27130878719903789 0.19491439106551739 0 0.28262567674856709 0.19158292471432059 0 0.27130878719903789 0.19491439106551739 0 0.28262567674856709 0.19158292471432059 0 0.28456489578522731 0.2073669030027222 0 0.272670307474219 0.206747045740371 0 0.26045320274891359 0.2075872277184421 0 0.27130878719903789 0.19491439106551739 0 0.272670307474219 0.206747045740371 0 0.27130878719903789 0.19491439106551739 0 0.28456489578522731 0.2073669030027222 0 0.27130878719903789 0.19491439106551739 0 0.28262567674856709 0.19158292471432059 0 0.29802567422580972 0.18704947290502161 0 0.30459187314032082 0.20471057237354329 0 0.28456489578522731 0.2073669030027222 0 0.29802567422580972 0.18704947290502161 0 0.28456489578522731 0.2073669030027222 0 0.29802567422580972 0.18704947290502161 0 0.28262567674856709 0.19158292471432059 0 0.28456489578522731 0.2073669030027222 0 0.29802567422580972 0.18704947290502161 0 0.28262567674856709 0.19158292471432059 0 0.29802567422580972 0.18704947290502161 0 0.30459187314032082 0.20471057237354329 0 0.31598770299826118 0.19548598602398221 0 0.29802567422580972 0.18704947290502161 0 0.31598770299826118 0.19548598602398221 0 0.32181551132831843 0.18004621980614391 0 0.30459187314032082 0.20471057237354329 0 0.3112657248503683 0.22109255247881221 0 0.32160390274705047 0.2085142031879387 0 0.30459187314032082 0.20471057237354329 0 0.29694173849475131 0.21805006650638351 0 0.3112657248503683 0.22109255247881221 0 0.30459187314032082 0.20471057237354329 0 0.29694173849475131 0.21805006650638351 0 0.28456489578522731 0.2073669030027222 0 0.29694173849475131 0.21805006650638351 0 0.28456489578522731 0.2073669030027222 0 0.2860351544522664 0.22291189892421159 0 0.28096010293809309 0.2280773344569369 0 0.2860351544522664 0.22291189892421159 0 0.28751134043047888 0.23164143954930111 0 0.2860351544522664 0.22291189892421159 0 0.28751134043047888 0.23164143954930111 0 0.29310118177853489 0.2272447710257052 0 0.28096010293809309 0.2280773344569369 0 0.28215825558210461 0.2340236887935741 0 0.28751134043047888 0.23164143954930111 0 0.28215825558210461 0.2340236887935741 0 0.28751134043047888 0.23164143954930111 0 0.28579805486088677 0.2374330691078928 0 0.29310118177853489 0.2272447710257052 0 0.30108985200492661 0.22865112575325311 0 0.2939278235102516 0.23496932439537649 0 0.28751134043047888 0.23164143954930111 0 0.29310118177853489 0.2272447710257052 0 0.2939278235102516 0.23496932439537649 0 0.29694173849475131 0.21805006650638351 0 0.2860351544522664 0.22291189892421159 0 0.29310118177853489 0.2272447710257052 0 0.29694173849475131 0.21805006650638351 0 0.3112657248503683 0.22109255247881221 0 0.30108985200492661 0.22865112575325311 0 0.29694173849475131 0.21805006650638351 0 0.29310118177853489 0.2272447710257052 0 0.30108985200492661 0.22865112575325311 0 0.3112657248503683 0.22109255247881221 0 0.30108985200492661 0.22865112575325311 0 0.30814982578715833 0.23504095730125821 0 0.30108985200492661 0.22865112575325311 0 0.30079101833485439 0.23667575875814051 0 0.30814982578715833 0.23504095730125821 0 0.30108985200492661 0.22865112575325311 0 0.30079101833485439 0.23667575875814051 0 0.2939278235102516 0.23496932439537649 0 0.31246354634074469 0.25301562706991498 0 0.28965918427723281 0.24218391352450211 0 0.30079101833485439 0.23667575875814051 0 0.29637482176907359 0.2407438087058773 0 0.2939278235102516 0.23496932439537649 0 0.31246354634074469 0.25301562706991498 0 0.30301881801219099 0.2434786808704178 0 0.28965918427723281 0.24218391352450211 0 0.30079101833485439 0.23667575875814051 0 0.30814982578715833 0.23504095730125821 0 0.30301881801219099 0.2434786808704178 0 0.30079101833485439 0.23667575875814051 0 0.30301881801219099 0.2434786808704178 0 0.29637482176907359 0.2407438087058773 0 0.30814982578715833 0.23504095730125821 0 0.30301881801219099 0.2434786808704178 0 0.31261059057147461 0.2434248305083811 0 0.31246354634074469 0.25301562706991498 0 0.30301881801219099 0.2434786808704178 0 0.31261059057147461 0.2434248305083811 0 0.29345893722613059 0.25129825022350127 0 0.29035996411889098 0.24599513786664159 0 0.28965918427723281 0.24218391352450211 0 0.29345893722613059 0.25129825022350127 0 0.29035996411889098 0.24599513786664159 0 0.28892582916583598 0.2492018439528669 0 0.29035996411889098 0.24599513786664159 0 0.28965918427723281 0.24218391352450211 0 0.28783672664197268 0.24359463822150959 0 0.30301881801219099 0.2434786808704178 0 0.29637482176907359 0.2407438087058773 0 0.28965918427723281 0.24218391352450211 0 0.29637482176907359 0.2407438087058773 0 0.2939278235102516 0.23496932439537649 0 0.29248016532158921 0.23880015382188749 0 0.2939278235102516 0.23496932439537649 0 0.28995883172979869 0.23730356866179431 0 0.29248016532158921 0.23880015382188749 0 0.28751134043047888 0.23164143954930111 0 0.2939278235102516 0.23496932439537649 0 0.28995883172979869 0.23730356866179431 0 0.29637482176907359 0.2407438087058773 0 0.29248016532158921 0.23880015382188749 0 0.28965918427723281 0.24218391352450211 0 0.28995883172979869 0.23730356866179431 0 0.29248016532158921 0.23880015382188749 0 0.28965918427723281 0.24218391352450211 0 0.28995883172979869 0.23730356866179431 0 0.28965918427723281 0.24218391352450211 0 0.28579805486088677 0.2374330691078928 0 0.28965918427723281 0.24218391352450211 0 0.28777867495787518 0.24129070115530599 0 0.28579805486088677 0.2374330691078928 0 0.28965918427723281 0.24218391352450211 0 0.28777867495787518 0.24129070115530599 0 0.28965918427723281 0.24218391352450211 0 0.28579805486088677 0.2374330691078928 0 0.28777867495787518 0.24129070115530599 0 0.28579805486088677 0.2374330691078928 0 0.28505636658832489 0.24015885991938871 0 0.28777867495787518 0.24129070115530599 0 0.28505636658832489 0.24015885991938871 0 0.28397084752209928 0.24268433257024799 0 0.28751134043047888 0.23164143954930111 0 0.28995883172979869 0.23730356866179431 0 0.28579805486088677 0.2374330691078928 0 0.28215825558210461 0.2340236887935741 0 0.28579805486088677 0.2374330691078928 0 0.2822644445936543 0.2387958425564555 0 0.27901295757983852 0.24225897862297641 0 0.2822644445936543 0.2387958425564555 0 0.28397084752209928 0.24268433257024799 0 0.28505636658832489 0.24015885991938871 0 0.2822644445936543 0.2387958425564555 0 0.28397084752209928 0.24268433257024799 0 0.28579805486088677 0.2374330691078928 0 0.28505636658832489 0.24015885991938871 0 0.2822644445936543 0.2387958425564555 0 0.27901295757983852 0.24225897862297641 0 0.28234947844706793 0.24570967974740021 0 0.28397084752209928 0.24268433257024799 0 0.27685630599777589 0.2478154210616699 0 0.28234947844706793 0.24570967974740021 0 0.28494106210013392 0.2498489505319901 0 0.28234947844706793 0.24570967974740021 0 0.28397084752209928 0.24268433257024799 0 0.2869662190354918 0.2459407159501166 0 0.28234947844706793 0.24570967974740021 0 0.28494106210013392 0.2498489505319901 0 0.2869662190354918 0.2459407159501166 0 0.28494106210013392 0.2498489505319901 0 0.28892582916583598 0.2492018439528669 0 0.2869662190354918 0.2459407159501166 0 0.29035996411889098 0.24599513786664159 0 0.28892582916583598 0.2492018439528669 0 0.2869662190354918 0.2459407159501166 0 0.29035996411889098 0.24599513786664159 0 0.28783672664197268 0.24359463822150959 0 0.2869662190354918 0.2459407159501166 0 0.28965918427723281 0.24218391352450211 0 0.28777867495787518 0.24129070115530599 0 0.28783672664197268 0.24359463822150959 0 0.28397084752209928 0.24268433257024799 0 0.28783672664197268 0.24359463822150959 0 0.2869662190354918 0.2459407159501166 0 0.28777867495787518 0.24129070115530599 0 0.28397084752209928 0.24268433257024799 0 0.28783672664197268 0.24359463822150959 0 0.3379127634661398 0.24049180221066491 0 0.32643540241908581 0.2493154440826276 0 0.31942597565379999 0.2366753470562844 0 0.31246354634074469 0.25301562706991498 0 0.32643540241908581 0.2493154440826276 0 0.31261059057147461 0.2434248305083811 0 0.32643540241908581 0.2493154440826276 0 0.31261059057147461 0.2434248305083811 0 0.31942597565379999 0.2366753470562844 0 0.30814982578715833 0.23504095730125821 0 0.31261059057147461 0.2434248305083811 0 0.31942597565379999 0.2366753470562844 0 0.3379127634661398 0.24049180221066491 0 0.31942597565379999 0.2366753470562844 0 0.32600368008419539 0.22461502934577851 0 0.3112657248503683 0.22109255247881221 0 0.30814982578715833 0.23504095730125821 0 0.31942597565379999 0.2366753470562844 0 0.3112657248503683 0.22109255247881221 0 0.31942597565379999 0.2366753470562844 0 0.32600368008419539 0.22461502934577851 0 0.3379127634661398 0.24049180221066491 0 0.32600368008419539 0.22461502934577851 0 0.3398100337036184 0.2163012417951922 0 0.3398100337036184 0.2163012417951922 0 0.32160390274705047 0.2085142031879387 0 0.33063695298837592 0.19682719513420929 0 0.32600368008419539 0.22461502934577851 0 0.3398100337036184 0.2163012417951922 0 0.32160390274705047 0.2085142031879387 0 0.3112657248503683 0.22109255247881221 0 0.32600368008419539 0.22461502934577851 0 0.32160390274705047 0.2085142031879387 0 0.30459187314032082 0.20471057237354329 0 0.32160390274705047 0.2085142031879387 0 0.31598770299826118 0.19548598602398221 0 0.32160390274705047 0.2085142031879387 0 0.31598770299826118 0.19548598602398221 0 0.33063695298837592 0.19682719513420929 0 0.31598770299826118 0.19548598602398221 0 0.33063695298837592 0.19682719513420929 0 0.32181551132831843 0.18004621980614391 0 0.3398100337036184 0.2163012417951922 0 0.33063695298837592 0.19682719513420929 0 0.34652165966209031 0.1951830619424908 0 0.33063695298837592 0.19682719513420929 0 0.34652165966209031 0.1951830619424908 0 0.33808290749091702 0.1854324580495085 0 0.34652165966209031 0.1951830619424908 0 0.33808290749091702 0.1854324580495085 0 0.34805963641287802 0.18313381139210541 0 0.34652165966209031 0.1951830619424908 0 0.35834447101042982 0.1885307986193322 0 0.34805963641287802 0.18313381139210541 0 0.34652165966209031 0.1951830619424908 0 0.35697604229412883 0.20282503597125329 0 0.35834447101042982 0.1885307986193322 0 0.35834447101042982 0.1885307986193322 0 0.36867711819290189 0.19558193609178909 0 0.37211726383392318 0.18243968588977941 0 0.36867711819290189 0.19558193609178909 0 0.37211726383392318 0.18243968588977941 0 0.37959621891343998 0.18888004806970329 0 0.35697604229412883 0.20282503597125329 0 0.35834447101042982 0.1885307986193322 0 0.36867711819290189 0.19558193609178909 0 0.35697604229412883 0.20282503597125329 0 0.36867711819290189 0.19558193609178909 0 0.36464593244806109 0.2145418940701225 0 0.36867711819290189 0.19558193609178909 0 0.36464593244806109 0.2145418940701225 0 0.38262777372413942 0.20056577775977211 0 0.3398100337036184 0.2163012417951922 0 0.35697604229412883 0.20282503597125329 0 0.36464593244806109 0.2145418940701225 0 0.3398100337036184 0.2163012417951922 0 0.34652165966209031 0.1951830619424908 0 0.35697604229412883 0.20282503597125329 0 0.3379127634661398 0.24049180221066491 0 0.3398100337036184 0.2163012417951922 0 0.35784805351199239 0.2326945607342826 0 0.3398100337036184 0.2163012417951922 0 0.36464593244806109 0.2145418940701225 0 0.35784805351199239 0.2326945607342826 0 0.3398100337036184 0.2163012417951922 0 0.35784805351199239 0.2326945607342826 0 0.36464593244806109 0.2145418940701225 0 0.35784805351199239 0.2326945607342826 0 0.37504625414522869 0.2303727958758012 0 0.35784805351199239 0.2326945607342826 0 0.37588607332036628 0.2490878796733729 0 0.35784805351199239 0.2326945607342826 0 0.37588607332036628 0.2490878796733729 0 0.37504625414522869 0.2303727958758012 0 0.35634129443021012 0.25447852924978431 0 0.35784805351199239 0.2326945607342826 0 0.37588607332036628 0.2490878796733729 0 0.35634129443021012 0.25447852924978431 0 0.3379127634661398 0.24049180221066491 0 0.35784805351199239 0.2326945607342826 0 0.33844782525489081 0.14552375979656301 0 0.33442235067943221 0.13211305649348251 0 0.31842762243075678 0.15625517981560311 0 0.33844782525489081 0.14552375979656301 0 0.31842762243075678 0.15625517981560311 0 0.3463391887874393 0.1588133723418115 0 0.343988490580944 0.1176741160108202 0 0.33926610740018709 0.13500385884312699 0 0.33442235067943221 0.13211305649348251 0 0.33844782525489081 0.14552375979656301 0 0.33926610740018709 0.13500385884312699 0 0.33442235067943221 0.13211305649348251 0 0.33926610740018709 0.13500385884312699 0 0.33442235067943221 0.13211305649348251 0 0.31234835835761571 0.11893907758645331 0 0.33442235067943221 0.13211305649348251 0 0.31795714297393313 0.13124601312364301 0 0.33442235067943221 0.13211305649348251 0 0.31795714297393313 0.13124601312364301 0 0.31842762243075678 0.15625517981560311 0 0.31795714297393313 0.13124601312364301 0 0.31275865637682793 0.1340247663826373 0 0.31842762243075678 0.15625517981560311 0 0.31234835835761571 0.11893907758645331 0 0.33442235067943221 0.13211305649348251 0 0.31234835835761571 0.11893907758645331 0 0.31795714297393313 0.13124601312364301 0 0.31275865637682793 0.1340247663826373 0 0.31234835835761571 0.11893907758645331 0 0.31275865637682793 0.1340247663826373 0 0.31795714297393313 0.13124601312364301 0 0.31275865637682793 0.1340247663826373 0 0.31275865637682793 0.1340247663826373 0 0.31335061957957011 0.15578985477495891 0 0.31275865637682793 0.1340247663826373 0 0.31335061957957011 0.15578985477495891 0 0.31842762243075678 0.15625517981560311 0 0.33442235067943221 0.13211305649348251 0 0.31842762243075678 0.15625517981560311 0 0.31335061957957011 0.15578985477495891 0 0.31842762243075678 0.15625517981560311 0 0.31104746434799968 0.1673946430062502 0 0.31842762243075678 0.15625517981560311 0 0.33486110727476232 0.16933884429702981 0 0.31104746434799968 0.1673946430062502 0 0.31842762243075678 0.15625517981560311 0 0.31349927981525749 0.1612557404164488 0 0.31335061957957011 0.15578985477495891 0 0.31349927981525749 0.1612557404164488 0 0.31104746434799968 0.1673946430062502 0 0.33486110727476232 0.16933884429702981 0 0.31104746434799968 0.1673946430062502 0 0.31842762243075678 0.15625517981560311 0 0.31335061957957011 0.15578985477495891 0 0.31842762243075678 0.15625517981560311 0 0.31349927981525749 0.1612557404164488 0 0.31104746434799968 0.1673946430062502 0 0.32181551132831843 0.18004621980614391 0 0.33486110727476232 0.16933884429702981 0 0.32181551132831843 0.18004621980614391 0 0.33808290749091702 0.1854324580495085 0 0.34560534843082608 0.17304296670726349 0 0.33063695298837592 0.19682719513420929 0 0.32181551132831843 0.18004621980614391 0 0.33808290749091702 0.1854324580495085 0 0.32181551132831843 0.18004621980614391 0 0.33486110727476232 0.16933884429702981 0 0.34560534843082608 0.17304296670726349 0 0.32181551132831843 0.18004621980614391 0 0.34560534843082608 0.17304296670726349 0 0.31842762243075678 0.15625517981560311 0 0.33486110727476232 0.16933884429702981 0 0.3463391887874393 0.1588133723418115 0 0.31842762243075678 0.15625517981560311 0 0.3463391887874393 0.1588133723418115 0 0.33486110727476232 0.16933884429702981 0 0.35867475020152417 0.1712830455878149 0 0.33486110727476232 0.16933884429702981 0 0.3463391887874393 0.1588133723418115 0 0.35867475020152417 0.1712830455878149 0 0.33486110727476232 0.16933884429702981 0 0.35867475020152417 0.1712830455878149 0 0.34560534843082608 0.17304296670726349 0 0.35834447101042982 0.1885307986193322 0 0.35867475020152417 0.1712830455878149 0 0.34805963641287802 0.18313381139210541 0 0.33808290749091702 0.1854324580495085 0 0.34805963641287802 0.18313381139210541 0 0.34560534843082608 0.17304296670726349 0 0.35867475020152417 0.1712830455878149 0 0.34805963641287802 0.18313381139210541 0 0.34560534843082608 0.17304296670726349 0 0.35834447101042982 0.1885307986193322 0 0.35867475020152417 0.1712830455878149 0 0.37211726383392318 0.18243968588977941 0 0.35867475020152417 0.1712830455878149 0 0.37211726383392318 0.18243968588977941 0 0.38248839312828642 0.17322724687860011 0 0.35867475020152417 0.1712830455878149 0 0.38248839312828642 0.17322724687860011 0 0.3463391887874393 0.1588133723418115 0 0.35867475020152417 0.1712830455878149 0 0.37425075514412182 0.1613715648680196 0 0.35867475020152417 0.1712830455878149 0 0.37425075514412182 0.1613715648680196 0 0.38248839312828642 0.17322724687860011 0 0.3463391887874393 0.1588133723418115 0 0.37425075514412182 0.1613715648680196 0 0.37425075514412182 0.1613715648680196 0 0.36753442956304122 0.14046640889011411 0 0.37911076050976511 0.15167221068913639 0 0.37425075514412182 0.1613715648680196 0 0.35378385697663972 0.14543333148879159 0 0.36753442956304122 0.14046640889011411 0 0.37425075514412182 0.1613715648680196 0 0.36753442956304122 0.14046640889011411 0 0.36753442956304122 0.14046640889011411 0 0.37911076050976511 0.15167221068913639 0 0.3463391887874393 0.1588133723418115 0 0.37425075514412182 0.1613715648680196 0 0.35378385697663972 0.14543333148879159 0 0.33844782525489081 0.14552375979656301 0 0.33926610740018709 0.13500385884312699 0 0.35378385697663972 0.14543333148879159 0 0.33844782525489081 0.14552375979656301 0 0.3463391887874393 0.1588133723418115 0 0.35378385697663972 0.14543333148879159 0 0.343988490580944 0.1176741160108202 0 0.33926610740018709 0.13500385884312699 0 0.3557614600719885 0.1290702624504714 0 0.35378385697663972 0.14543333148879159 0 0.3557614600719885 0.1290702624504714 0 0.36753442956304122 0.14046640889011411 0 0.33926610740018709 0.13500385884312699 0 0.35378385697663972 0.14543333148879159 0 0.3557614600719885 0.1290702624504714 0 0.36234477620530581 0.12431315491142481 0 0.38206466283770479 0.146561596848436 0 0.36234477620530581 0.12431315491142481 0 0.36753442956304122 0.14046640889011411 0 0.38206466283770479 0.146561596848436 0 0.36234477620530581 0.12431315491142481 0 0.3557614600719885 0.1290702624504714 0 0.36753442956304122 0.14046640889011411 0 0.36234477620530581 0.12431315491142481 0 0.36753442956304122 0.14046640889011411 0 0.3557614600719885 0.1290702624504714 0 0.36753442956304122 0.14046640889011411 0 0.36234477620530581 0.12431315491142481 0 0.38206466283770479 0.146561596848436 0 0.38784786648637848 0.12498960030151041 0 0.39580058914059452 0.1490980931887998 0 0.38206466283770479 0.146561596848436 0 0.38784786648637848 0.12498960030151041 0 0.39580058914059452 0.1490980931887998 0 0.38784786648637848 0.12498960030151041 0 0.39497711538788383 0.13620291539220281 0 0.38784786648637848 0.12498960030151041 0 0.40536034682354632 0.12481683740862159 0 0.39497711538788383 0.13620291539220281 0 0.40981053908925419 0.14123984962813549 0 0.40536034682354632 0.12481683740862159 0 0.39497711538788383 0.13620291539220281 0 0.39580058914059452 0.1490980931887998 0 0.38784786648637848 0.12498960030151041 0 0.39497711538788383 0.13620291539220281 0 0.40981053908925419 0.14123984962813549 0 0.39580058914059452 0.1490980931887998 0 0.38206466283770479 0.146561596848436 0 0.39687031602956763 0.16326568453002829 0 0.39580058914059452 0.1490980931887998 0 0.40981053908925419 0.14123984962813549 0 0.41018078742555969 0.15504633733473569 0 0.39497711538788383 0.13620291539220281 0 0.39580058914059452 0.1490980931887998 0 0.40981053908925419 0.14123984962813549 0 0.38206466283770479 0.146561596848436 0 0.37911076050976511 0.15167221068913639 0 0.39068709145648911 0.16287801248815861 0 0.38206466283770479 0.146561596848436 0 0.39687031602956763 0.16326568453002829 0 0.36753442956304122 0.14046640889011411 0 0.38206466283770479 0.146561596848436 0 0.37911076050976511 0.15167221068913639 0 0.37425075514412182 0.1613715648680196 0 0.37911076050976511 0.15167221068913639 0 0.39068709145648911 0.16287801248815861 0 0.38206466283770479 0.146561596848436 0 0.39687031602956763 0.16326568453002829 0 0.39068709145648911 0.16287801248815861 0 0.37425075514412182 0.1613715648680196 0 0.39068709145648911 0.16287801248815861 0 0.37425075514412182 0.1613715648680196 0 0.38248839312828642 0.17322724687860011 0 0.39068709145648911 0.16287801248815861 0 0.38248839312828642 0.17322724687860011 0 0.39068709145648911 0.16287801248815861 0 0.39173266295372422 0.1703821586821625 0 0.37911076050976511 0.15167221068913639 0 0.39068709145648911 0.16287801248815861 0 0.37211726383392318 0.18243968588977941 0 0.38456142671463689 0.18119341109058101 0 0.37959621891343998 0.18888004806970329 0 0.37211726383392318 0.18243968588977941 0 0.38248839312828642 0.17322724687860011 0 0.38456142671463689 0.18119341109058101 0 0.38248839312828642 0.17322724687860011 0 0.39015071041641458 0.1752968202883449 0 0.38456142671463689 0.18119341109058101 0 0.39015071041641458 0.1752968202883449 0 0.38456142671463689 0.18119341109058101 0 0.3936647719149563 0.17997510126181099 0 0.38248839312828642 0.17322724687860011 0 0.39015071041641458 0.1752968202883449 0 0.39173266295372422 0.1703821586821625 0 0.38935120208080087 0.18734156415524739 0 0.38456142671463689 0.18119341109058101 0 0.37959621891343998 0.18888004806970329 0 0.38935120208080087 0.18734156415524739 0 0.38456142671463689 0.18119341109058101 0 0.3936647719149563 0.17997510126181099 0 0.40402992335265742 0.18295193175906091 0 0.40178454947010472 0.1688100387854462 0 0.4113280318459675 0.18796372784287679 0 0.38935120208080087 0.18734156415524739 0 0.39769522389517081 0.18613352877741379 0 0.3936647719149563 0.17997510126181099 0 0.39769522389517081 0.18613352877741379 0 0.3936647719149563 0.17997510126181099 0 0.39874070762402308 0.17719757549675871 0 0.3936647719149563 0.17997510126181099 0 0.39444527572727123 0.17454960687581639 0 0.39874070762402308 0.17719757549675871 0 0.39015071041641458 0.1752968202883449 0 0.3936647719149563 0.17997510126181099 0 0.39444527572727123 0.17454960687581639 0 0.39015071041641458 0.1752968202883449 0 0.39444527572727123 0.17454960687581639 0 0.39173266295372422 0.1703821586821625 0 0.39444527572727123 0.17454960687581639 0 0.39874070762402308 0.17719757549675871 0 0.39793752572723801 0.16989637865000479 0 0.39874070762402308 0.17719757549675871 0 0.40402992335265742 0.18295193175906091 0 0.40178454947010472 0.1688100387854462 0 0.39874070762402308 0.17719757549675871 0 0.39793752572723801 0.16989637865000479 0 0.40178454947010472 0.1688100387854462 0 0.39769522389517081 0.18613352877741379 0 0.39874070762402308 0.17719757549675871 0 0.40402992335265742 0.18295193175906091 0 0.39580058914059452 0.1490980931887998 0 0.39687031602956763 0.16326568453002829 0 0.40178454947010472 0.1688100387854462 0 0.39580058914059452 0.1490980931887998 0 0.40178454947010472 0.1688100387854462 0 0.41018078742555969 0.15504633733473569 0 0.39687031602956763 0.16326568453002829 0 0.39068709145648911 0.16287801248815861 0 0.39068709145648911 0.16287801248815861 0 0.39793752572723801 0.16989637865000479 0 0.39068709145648911 0.16287801248815861 0 0.39173266295372422 0.1703821586821625 0 0.39793752572723801 0.16989637865000479 0 0.39444527572727123 0.17454960687581639 0 0.39173266295372422 0.1703821586821625 0 0.39793752572723801 0.16989637865000479 0 0.39687031602956763 0.16326568453002829 0 0.39068709145648911 0.16287801248815861 0 0.39793752572723801 0.16989637865000479 0 0.39687031602956763 0.16326568453002829 0 0.40178454947010472 0.1688100387854462 0 0.39687031602956763 0.16326568453002829 0 0.39793752572723801 0.16989637865000479 0 0.40178454947010472 0.1688100387854462 0 0.42156831075211598 0.1680848541833582 0 0.42464396279062439 0.14627678386406909 0 0.41018078742555969 0.15504633733473569 0 0.40178454947010472 0.1688100387854462 0 0.42156831075211598 0.1680848541833582 0 0.41018078742555969 0.15504633733473569 0 0.40178454947010472 0.1688100387854462 0 0.4113280318459675 0.18796372784287679 0 0.42150443610250471 0.1910584807224564 0 0.40178454947010472 0.1688100387854462 0 0.42150443610250471 0.1910584807224564 0 0.40178454947010472 0.1688100387854462 0 0.42156831075211598 0.1680848541833582 0 0.42150443610250471 0.1910584807224564 0 0.42156831075211598 0.1680848541833582 0 0.43118451961009657 0.17908750652768421 0 0.42150443610250471 0.1910584807224564 0 0.43118451961009657 0.17908750652768421 0 0.42150443610250471 0.1910584807224564 0 0.44066350929549042 0.1899546779532231 0 0.42156831075211598 0.1680848541833582 0 0.43118451961009657 0.17908750652768421 0 0.44223327263954998 0.1675638295240294 0 0.42156831075211598 0.1680848541833582 0 0.42464396279062439 0.14627678386406909 0 0.44223327263954998 0.1675638295240294 0 0.42464396279062439 0.14627678386406909 0 0.44223327263954998 0.1675638295240294 0 0.42464396279062439 0.14627678386406909 0 0.44100510488797162 0.1518324801367677 0 0.42464396279062439 0.14627678386406909 0 0.43171131441089522 0.13754306829591861 0 0.44100510488797162 0.1518324801367677 0 0.43731578770263868 0.15311191614552969 0 0.42464396279062439 0.14627678386406909 0 0.44100510488797162 0.1518324801367677 0 0.43731578770263868 0.15311191614552969 0 0.42464396279062439 0.14627678386406909 0 0.44223327263954998 0.1675638295240294 0 0.43171131441089522 0.13754306829591861 0 0.41885098875887777 0.13391820237067861 0 0.42338535559027479 0.1205090768914225 0 0.43171131441089522 0.13754306829591861 0 0.44201491538503751 0.1221884416046867 0 0.42338535559027479 0.1205090768914225 0 0.42464396279062439 0.14627678386406909 0 0.43171131441089522 0.13754306829591861 0 0.41885098875887777 0.13391820237067861 0 0.41885098875887777 0.13391820237067861 0 0.40981053908925419 0.14123984962813549 0 0.40536034682354632 0.12481683740862159 0 0.41885098875887777 0.13391820237067861 0 0.42338535559027479 0.1205090768914225 0 0.40536034682354632 0.12481683740862159 0 0.42464396279062439 0.14627678386406909 0 0.41885098875887777 0.13391820237067861 0 0.40981053908925419 0.14123984962813549 0 0.42464396279062439 0.14627678386406909 0 0.40981053908925419 0.14123984962813549 0 0.42464396279062439 0.14627678386406909 0 0.40981053908925419 0.14123984962813549 0 0.41018078742555969 0.15504633733473569 0 0.39103074677198191 0.2378645478919707 0 0.40699913865084292 0.2200073724427305 0 0.40933178642478668 0.24530746794650141 0 0.39392409312874033 0.26548119861246328 0 0.39103074677198191 0.2378645478919707 0 0.40933178642478668 0.24530746794650141 0 0.39103074677198191 0.2378645478919707 0 0.37588607332036628 0.2490878796733729 0 0.37504625414522869 0.2303727958758012 0 0.39103074677198191 0.2378645478919707 0 0.37504625414522869 0.2303727958758012 0 0.38582046467374198 0.21767509700925741 0 0.36464593244806109 0.2145418940701225 0 0.37504625414522869 0.2303727958758012 0 0.38582046467374198 0.21767509700925741 0 0.39103074677198191 0.2378645478919707 0 0.38582046467374198 0.21767509700925741 0 0.40699913865084292 0.2200073724427305 0 0.39535308900850558 0.20493870697966851 0 0.38582046467374198 0.21767509700925741 0 0.40699913865084292 0.2200073724427305 0 0.39535308900850558 0.20493870697966851 0 0.40736650267529367 0.20534760411496161 0 0.40699913865084292 0.2200073724427305 0 0.36464593244806109 0.2145418940701225 0 0.38582046467374198 0.21767509700925741 0 0.38262777372413942 0.20056577775977211 0 0.39535308900850558 0.20493870697966851 0 0.38582046467374198 0.21767509700925741 0 0.38262777372413942 0.20056577775977211 0 0.36867711819290189 0.19558193609178909 0 0.38262777372413942 0.20056577775977211 0 0.37959621891343998 0.18888004806970329 0 0.38935120208080087 0.18734156415524739 0 0.38262777372413942 0.20056577775977211 0 0.37959621891343998 0.18888004806970329 0 0.38935120208080087 0.18734156415524739 0 0.38262777372413942 0.20056577775977211 0 0.39495039075152383 0.19500119794261639 0 0.38935120208080087 0.18734156415524739 0 0.39769522389517081 0.18613352877741379 0 0.39495039075152383 0.19500119794261639 0 0.39535308900850558 0.20493870697966851 0 0.38262777372413942 0.20056577775977211 0 0.39495039075152383 0.19500119794261639 0 0.39535308900850558 0.20493870697966851 0 0.40543434764706382 0.19433380204898831 0 0.40736650267529367 0.20534760411496161 0 0.39535308900850558 0.20493870697966851 0 0.39495039075152383 0.19500119794261639 0 0.40543434764706382 0.19433380204898831 0 0.39769522389517081 0.18613352877741379 0 0.39495039075152383 0.19500119794261639 0 0.40543434764706382 0.19433380204898831 0 0.39769522389517081 0.18613352877741379 0 0.40402992335265742 0.18295193175906091 0 0.40543434764706382 0.19433380204898831 0 0.41405593538476537 0.1978098369375659 0 0.42150443610250471 0.1910584807224564 0 0.41932031768340311 0.20743549227764799 0 0.40543434764706382 0.19433380204898831 0 0.4113280318459675 0.18796372784287679 0 0.41405593538476537 0.1978098369375659 0 0.40402992335265742 0.18295193175906091 0 0.40543434764706382 0.19433380204898831 0 0.4113280318459675 0.18796372784287679 0 0.40543434764706382 0.19433380204898831 0 0.41405593538476537 0.1978098369375659 0 0.40736650267529367 0.20534760411496161 0 0.4113280318459675 0.18796372784287679 0 0.41405593538476537 0.1978098369375659 0 0.41800374937960327 0.1912601641577685 0 0.4113280318459675 0.18796372784287679 0 0.41800374937960327 0.1912601641577685 0 0.42150443610250471 0.1910584807224564 0 0.41405593538476537 0.1978098369375659 0 0.41800374937960327 0.1912601641577685 0 0.42150443610250471 0.1910584807224564 0 0.41800374937960327 0.1912601641577685 0 0.42150443610250471 0.1910584807224564 0 0.42150443610250471 0.1910584807224564 0 0.43964605568812892 0.21152628449425559 0 0.44066350929549042 0.1899546779532231 0 0.42150443610250471 0.1910584807224564 0 0.44066350929549042 0.1899546779532231 0 0.42150443610250471 0.1910584807224564 0 0.43964605568812892 0.21152628449425559 0 0.42692227912344938 0.2185749218571387 0 0.41932031768340311 0.20743549227764799 0 0.43964605568812892 0.21152628449425559 0 0.42150443610250471 0.1910584807224564 0 0.41932031768340311 0.20743549227764799 0 0.43964605568812892 0.21152628449425559 0 0.42692227912344938 0.2185749218571387 0 0.41932031768340311 0.20743549227764799 0 0.40699913865084292 0.2200073724427305 0 0.41932031768340311 0.20743549227764799 0 0.40736650267529367 0.20534760411496161 0 0.40699913865084292 0.2200073724427305 0 0.41405593538476537 0.1978098369375659 0 0.41932031768340311 0.20743549227764799 0 0.40736650267529367 0.20534760411496161 0 0.40699913865084292 0.2200073724427305 0 0.42791060214005622 0.23524578657545639 0 0.40933178642478668 0.24530746794650141 0 0.42692227912344938 0.2185749218571387 0 0.40699913865084292 0.2200073724427305 0 0.42791060214005622 0.23524578657545639 0 0.42692227912344938 0.2185749218571387 0 0.42791060214005622 0.23524578657545639 0 0.44687549402799981 0.2240274878755969 0 0.42507863072368701 0.2531856777568211 0 0.42791060214005622 0.23524578657545639 0 0.43876594592942619 0.2491002947533556 0 0.42791060214005622 0.23524578657545639 0 0.43876594592942619 0.2491002947533556 0 0.44210509291822658 0.23713285843962781 0 0.42507863072368701 0.2531856777568211 0 0.42791060214005622 0.23524578657545639 0 0.40933178642478668 0.24530746794650141 0 0.4657425708042397 0.25282124097232528 0 0.45444189403291402 0.2411770147019261 0 0.46902648610557401 0.23978031661179641 0 0.45444189403291402 0.2411770147019261 0 0.46153812927118693 0.22769678494989409 0 0.46902648610557401 0.23978031661179641 0 0.44893917376128722 0.25670587451621701 0 0.45444189403291402 0.2411770147019261 0 0.43876594592942619 0.2491002947533556 0 0.45444189403291402 0.2411770147019261 0 0.43876594592942619 0.2491002947533556 0 0.44210509291822658 0.23713285843962781 0 0.42791060214005622 0.23524578657545639 0 0.44210509291822658 0.23713285843962781 0 0.44687549402799981 0.2240274878755969 0 0.45444189403291402 0.2411770147019261 0 0.44210509291822658 0.23713285843962781 0 0.44687549402799981 0.2240274878755969 0 0.45444189403291402 0.2411770147019261 0 0.44687549402799981 0.2240274878755969 0 0.46153812927118693 0.22769678494989409 0 0.44687549402799981 0.2240274878755969 0 0.46153812927118693 0.22769678494989409 0 0.45434831412809351 0.2169717754240589 0 0.46153812927118693 0.22769678494989409 0 0.46788422009904918 0.21602458295004651 0 0.45434831412809351 0.2169717754240589 0 0.46788422009904918 0.21602458295004651 0 0.45579767155410239 0.20558373685050119 0 0.47298928242684912 0.20478556194466599 0 0.46788422009904918 0.21602458295004651 0 0.45579767155410239 0.20558373685050119 0 0.45434831412809351 0.2169717754240589 0 0.45579767155410239 0.20558373685050119 0 0.45434831412809351 0.2169717754240589 0 0.43964605568812892 0.21152628449425559 0 0.45579767155410239 0.20558373685050119 0 0.43964605568812892 0.21152628449425559 0 0.44944268158891898 0.19797959918788341 0 0.42692227912344938 0.2185749218571387 0 0.44687549402799981 0.2240274878755969 0 0.43964605568812892 0.21152628449425559 0 0.44687549402799981 0.2240274878755969 0 0.45434831412809351 0.2169717754240589 0 0.43964605568812892 0.21152628449425559 0 0.43964605568812892 0.21152628449425559 0 0.44944268158891898 0.19797959918788341 0 0.44066350929549042 0.1899546779532231 0 0.44066350929549042 0.1899546779532231 0 0.45982258248847607 0.18885087518398949 0 0.44944268158891898 0.19797959918788341 0 0.44066350929549042 0.1899546779532231 0 0.45982258248847607 0.18885087518398949 0 0.45579767155410239 0.20558373685050119 0 0.44944268158891898 0.19797959918788341 0 0.45982258248847607 0.18885087518398949 0 0.45982258248847607 0.18885087518398949 0 0.47298928242684912 0.20478556194466599 0 0.45579767155410239 0.20558373685050119 0 0.45982258248847607 0.18885087518398949 0 0.47298928242684912 0.20478556194466599 0 0.45982258248847607 0.18885087518398949 0 0.46246267395613577 0.18869877282268771 0 0.47298928242684912 0.20478556194466599 0 0.45982258248847607 0.18885087518398949 0 0.46246267395613577 0.18869877282268771 0 0.48123133697806858 0.18761746257298201 0 0.49061566848903448 0.19913054633610969 0 0.48123133697806791 0.21172494034894249 0 0.46246267395613577 0.18869877282268771 0 0.48123133697806791 0.21172494034894249 0 0.47298928242684912 0.20478556194466599 0 0.46246267395613577 0.18869877282268771 0 0.48123133697806791 0.21172494034894249 0 0.46246267395613577 0.18869877282268771 0 0.48123133697806858 0.18761746257298201 0 0.48123133697806791 0.21172494034894249 0 0.46246267395613577 0.18869877282268771 0 0.48123133697806858 0.18761746257298201 0 0.49061566848903448 0.19913054633610969 0 0.5 0.21064363009923689 0 0.50000000000000144 0.18653615232327739 0 0.48123133697806858 0.18761746257298201 0 0.49061566848903448 0.19913054633610969 0 0.50000000000000144 0.18653615232327739 0 0.49061566848903448 0.19913054633610969 0 0.5 0.21064363009923689 0 0.48123133697806791 0.21172494034894249 0 0.46788422009904918 0.21602458295004651 0 0.48123133697806791 0.21172494034894249 0 0.47298928242684912 0.20478556194466599 0 0.46153812927118693 0.22769678494989409 0 0.47761079907368659 0.22975513346519441 0 0.46902648610557401 0.23978031661179641 0 0.46153812927118693 0.22769678494989409 0 0.46788422009904918 0.21602458295004651 0 0.47761079907368659 0.22975513346519441 0 0.46788422009904918 0.21602458295004651 0 0.48123133697806791 0.21172494034894249 0 0.47761079907368659 0.22975513346519441 0 0.48123133697806791 0.21172494034894249 0 0.50000000000000078 0.23475110787519651 0 0.48123133697806791 0.21172494034894249 0 0.47761079907368659 0.22975513346519441 0 0.50000000000000078 0.23475110787519651 0 0.5 0.21064363009923689 0 0.48123133697806791 0.21172494034894249 0 0.50000000000000078 0.23475110787519651 0 0.47761079907368659 0.22975513346519441 0 0.50000000000000078 0.23475110787519651 0 0.48319944748130261 0.24680576274814439 0 0.48930401013157893 0.26400543771054868 0 0.50000000000000078 0.23475110787519651 0 0.48319944748130261 0.24680576274814439 0 0.47761079907368659 0.22975513346519441 0 0.48319944748130261 0.24680576274814439 0 0.46902648610557401 0.23978031661179641 0 0.4657425708042397 0.25282124097232528 0 0.48319944748130261 0.24680576274814439 0 0.46902648610557401 0.23978031661179641 0 0.46067006992531578 0.14501277255513739 0 0.44100510488797162 0.1518324801367677 0 0.45842061247378069 0.15774620364127601 0 0.46067006992531578 0.14501277255513739 0 0.45842061247378069 0.15774620364127601 0 0.47181417780450058 0.15130991192119209 0 0.46067006992531578 0.14501277255513739 0 0.44779797982522251 0.13591138282507809 0 0.46358849451689271 0.12298015153287919 0 0.46067006992531578 0.14501277255513739 0 0.48033503496266028 0.13819306497350831 0 0.46358849451689271 0.12298015153287919 0 0.44779797982522251 0.13591138282507809 0 0.46358849451689271 0.12298015153287919 0 0.44201491538503751 0.1221884416046867 0 0.43171131441089522 0.13754306829591861 0 0.44779797982522251 0.13591138282507809 0 0.44201491538503751 0.1221884416046867 0 0.46067006992531578 0.14501277255513739 0 0.44100510488797162 0.1518324801367677 0 0.43171131441089522 0.13754306829591861 0 0.44779797982522251 0.13591138282507809 0 0.44100510488797162 0.1518324801367677 0 0.44100510488797162 0.1518324801367677 0 0.45842061247378069 0.15774620364127601 0 0.46067006992531578 0.14501277255513739 0 0.44779797982522251 0.13591138282507809 0 0.44100510488797162 0.1518324801367677 0 0.43731578770263868 0.15311191614552969 0 0.44100510488797162 0.1518324801367677 0 0.43731578770263868 0.15311191614552969 0 0.44100510488797162 0.1518324801367677 0 0.44223327263954998 0.1675638295240294 0 0.44100510488797162 0.1518324801367677 0 0.44223327263954998 0.1675638295240294 0 0.45064745071206469 0.16407050785850311 0 0.44100510488797162 0.1518324801367677 0 0.45064745071206469 0.16407050785850311 0 0.45842061247378069 0.15774620364127601 0 0.44223327263954998 0.1675638295240294 0 0.45064745071206469 0.16407050785850311 0 0.45252365300287162 0.17650517324400131 0 0.44066350929549042 0.1899546779532231 0 0.45982258248847607 0.18885087518398949 0 0.44223327263954998 0.1675638295240294 0 0.45982258248847607 0.18885087518398949 0 0.44223327263954998 0.1675638295240294 0 0.45982258248847607 0.18885087518398949 0 0.44223327263954998 0.1675638295240294 0 0.45252365300287162 0.17650517324400131 0 0.43118451961009657 0.17908750652768421 0 0.44066350929549042 0.1899546779532231 0 0.44223327263954998 0.1675638295240294 0 0.45252365300287162 0.17650517324400131 0 0.46852950543390098 0.17564223008125701 0 0.45888445054831062 0.16819836462120771 0 0.46246267395613577 0.18869877282268771 0 0.45252365300287162 0.17650517324400131 0 0.46852950543390098 0.17564223008125701 0 0.46246267395613577 0.18869877282268771 0 0.45252365300287162 0.17650517324400131 0 0.45982258248847607 0.18885087518398949 0 0.46246267395613577 0.18869877282268771 0 0.45252365300287162 0.17650517324400131 0 0.45842061247378069 0.15774620364127601 0 0.4758361200595902 0.1636599271457834 0 0.47181417780450058 0.15130991192119209 0 0.45842061247378069 0.15774620364127601 0 0.4758361200595902 0.1636599271457834 0 0.45842061247378069 0.15774620364127601 0 0.45888445054831062 0.16819836462120771 0 0.4758361200595902 0.1636599271457834 0 0.46852950543390098 0.17564223008125701 0 0.45888445054831062 0.16819836462120771 0 0.4758361200595902 0.1636599271457834 0 0.45064745071206469 0.16407050785850311 0 0.45842061247378069 0.15774620364127601 0 0.45888445054831062 0.16819836462120771 0 0.45064745071206469 0.16407050785850311 0 0.45252365300287162 0.17650517324400131 0 0.45888445054831062 0.16819836462120771 0 0.4758361200595902 0.1636599271457834 0 0.48630368258704137 0.17140311931871249 0 0.48517032610197292 0.15232670889348399 0 0.46852950543390098 0.17564223008125701 0 0.4758361200595902 0.1636599271457834 0 0.48630368258704137 0.17140311931871249 0 0.46246267395613577 0.18869877282268771 0 0.48123133697806858 0.18761746257298201 0 0.46852950543390098 0.17564223008125701 0 0.48123133697806858 0.18761746257298201 0 0.46852950543390098 0.17564223008125701 0 0.48630368258704137 0.17140311931871249 0 0.48123133697806858 0.18761746257298201 0 0.50000000000000144 0.18653615232327739 0 0.48123133697806858 0.18761746257298201 0 0.50000000000000144 0.18653615232327739 0 0.48630368258704137 0.17140311931871249 0 0.50000000000000144 0.18653615232327739 0 0.48630368258704137 0.17140311931871249 0 0.5 0.15895475485757751 0 0.48630368258704137 0.17140311931871249 0 0.5 0.15895475485757751 0 0.48517032610197292 0.15232670889348399 0 0.48517032610197292 0.15232670889348399 0 0.48033503496266028 0.13819306497350831 0 0.50000000000000444 0.13137335739187769 0 0.5 0.15895475485757751 0 0.48517032610197292 0.15232670889348399 0 0.50000000000000444 0.13137335739187769 0 0.46067006992531578 0.14501277255513739 0 0.47181417780450058 0.15130991192119209 0 0.48033503496266028 0.13819306497350831 0 0.46067006992531578 0.14501277255513739 0 0.48033503496266028 0.13819306497350831 0 0.4758361200595902 0.1636599271457834 0 0.48517032610197292 0.15232670889348399 0 0.47181417780450058 0.15130991192119209 0 0.48517032610197292 0.15232670889348399 0 0.47181417780450058 0.15130991192119209 0 0.48033503496266028 0.13819306497350831 0 0.48033503496266028 0.13819306497350831 0 0.48287207193790682 0.119833017198512 0 0.46358849451689271 0.12298015153287919 0 0.48033503496266028 0.13819306497350831 0 0.50000000000000444 0.13137335739187769 0 0.48287207193790682 0.119833017198512 0 0.48033503496266028 0.13819306497350831 0 0.50000000000000444 0.13137335739187769 0 0.50000000000000444 0.13137335739187769 0 0.5 0.112750504140729 0 0.48287207193790682 0.119833017198512 0 0.5 0.112750504140729 0 0.47708970494047592 0.096547162644013557 0 0.48287207193790682 0.119833017198512 0 0.5 0.112750504140729 0 0.49999999999999811 0.094127650889580305 0 0.47708970494047592 0.096547162644013557 0 0.49999999999999811 0.094127650889580305 0 0.47708970494047592 0.096547162644013557 0 0.47708970494047592 0.096547162644013557 0 0.48287207193790682 0.119833017198512 0 0.46358849451689271 0.12298015153287919 0 0.49999999999999811 0.094127650889580305 0 0.5 0.065085683867034727 0 0.49030416231355511 0.073256317384286063 0 0.49030416231355511 0.073256317384286063 0 0.47714578073418512 0.066537383845565096 0 0.49228297291204992 0.059454014438704107 0 0.5 0.065085683867034727 0 0.49030416231355511 0.073256317384286063 0 0.49228297291204992 0.059454014438704107 0 0.49999999999999811 0.094127650889580305 0 0.47708970494047592 0.096547162644013557 0 0.48209205792154058 0.081076853880546043 0 0.49999999999999811 0.094127650889580305 0 0.49030416231355511 0.073256317384286063 0 0.48209205792154058 0.081076853880546043 0 0.47708970494047592 0.096547162644013557 0 0.48209205792154058 0.081076853880546043 0 0.46573084566111861 0.080721753047445138 0 0.48209205792154058 0.081076853880546043 0 0.47714578073418512 0.066537383845565096 0 0.46573084566111861 0.080721753047445138 0 0.49030416231355511 0.073256317384286063 0 0.48209205792154058 0.081076853880546043 0 0.47714578073418512 0.066537383845565096 0 0.45650324214529259 0.065280330615496637 0 0.46573084566111861 0.080721753047445138 0 0.4463318017969411 0.077534016390637867 0 0.47714578073418512 0.066537383845565096 0 0.45650324214529259 0.065280330615496637 0 0.46573084566111861 0.080721753047445138 0 0.46573084566111861 0.080721753047445138 0 0.4463318017969411 0.077534016390637867 0 0.45417940988095362 0.098966674398447016 0 0.47708970494047592 0.096547162644013557 0 0.46573084566111861 0.080721753047445138 0 0.45417940988095362 0.098966674398447016 0 0.4463318017969411 0.077534016390637867 0 0.45417940988095362 0.098966674398447016 0 0.43319821241535611 0.085947639564665793 0 0.4463318017969411 0.077534016390637867 0 0.44127530461137909 0.064432497562673663 0 0.4323056194460711 0.072068218276874901 0 0.45650324214529259 0.065280330615496637 0 0.4463318017969411 0.077534016390637867 0 0.44127530461137909 0.064432497562673663 0 0.46358849451689271 0.12298015153287919 0 0.45417940988095362 0.098966674398447016 0 0.44201491538503751 0.1221884416046867 0 0.47708970494047592 0.096547162644013557 0 0.46358849451689271 0.12298015153287919 0 0.45417940988095362 0.098966674398447016 0 0.47708970494047592 0.096547162644013557 0 0.45417940988095362 0.098966674398447016 0 0.45417940988095362 0.098966674398447016 0 0.43126911482143138 0.1013861861528805 0 0.43319821241535611 0.085947639564665793 0 0.45417940988095362 0.098966674398447016 0 0.43126911482143138 0.1013861861528805 0 0.45417940988095362 0.098966674398447016 0 0.44201491538503751 0.1221884416046867 0 0.43126911482143138 0.1013861861528805 0 0.44201491538503751 0.1221884416046867 0 0.42338535559027479 0.1205090768914225 0 0.43126911482143138 0.1013861861528805 0 0.42338535559027479 0.1205090768914225 0 0.40835881976190908 0.10380569790731391 0 0.40536034682354632 0.12481683740862159 0 0.40835881976190908 0.10380569790731391 0 0.43126911482143138 0.1013861861528805 0 0.42338535559027479 0.1205090768914225 0 0.40835881976190908 0.10380569790731391 0 0.43126911482143138 0.1013861861528805 0 0.40835881976190908 0.10380569790731391 0 0.43126911482143138 0.1013861861528805 0 0.41935522763475591 0.089699073352522835 0 0.4463318017969411 0.077534016390637867 0 0.43319821241535611 0.085947639564665793 0 0.4323056194460711 0.072068218276874901 0 0.43319821241535611 0.085947639564665793 0 0.41924297708616731 0.074654461475880396 0 0.41935522763475591 0.089699073352522835 0 0.43126911482143138 0.1013861861528805 0 0.43319821241535611 0.085947639564665793 0 0.41935522763475591 0.089699073352522835 0 0.4323056194460711 0.072068218276874901 0 0.41924297708616731 0.074654461475880396 0 0.42690609811089331 0.059013607202760512 0 0.44127530461137909 0.064432497562673663 0 0.4323056194460711 0.072068218276874901 0 0.42690609811089331 0.059013607202760512 0 0.43319821241535611 0.085947639564665793 0 0.4323056194460711 0.072068218276874901 0 0.41924297708616731 0.074654461475880396 0 0.41924297708616731 0.074654461475880396 0 0.41572401702962131 0.06154942829698281 0 0.42690609811089331 0.059013607202760512 0 0.41924297708616731 0.074654461475880396 0 0.40863285456409321 0.067745049984629005 0 0.41572401702962131 0.06154942829698281 0 0.41924297708616731 0.074654461475880396 0 0.40863285456409321 0.067745049984629005 0 0.40581890464532883 0.082285452545517224 0 0.40835881976190908 0.10380569790731391 0 0.41935522763475591 0.089699073352522835 0 0.40581890464532883 0.082285452545517224 0 0.41924297708616731 0.074654461475880396 0 0.41935522763475591 0.089699073352522835 0 0.40581890464532883 0.082285452545517224 0 0.40581890464532883 0.082285452545517224 0 0.39175039171038772 0.087168104040655559 0 0.39624558431573131 0.06624045880030964 0 0.40835881976190908 0.10380569790731391 0 0.40581890464532883 0.082285452545517224 0 0.39175039171038772 0.087168104040655559 0 0.39175039171038772 0.087168104040655559 0 0.39624558431573131 0.06624045880030964 0 0.38418619936747078 0.072555057714184676 0 0.40863285456409321 0.067745049984629005 0 0.40581890464532883 0.082285452545517224 0 0.39624558431573131 0.06624045880030964 0 0.40863285456409321 0.067745049984629005 0 0.39624558431573131 0.06624045880030964 0 0.40829937009812589 0.05445646228617778 0 0.37194242117794668 0.076772614526931793 0 0.38418619936747078 0.072555057714184676 0 0.38237628961462611 0.059732338949836518 0 0.36864505415383159 0.080457991471440893 0 0.38237628961462611 0.059732338949836518 0 0.39624558431573131 0.06624045880030964 0 0.38418619936747078 0.072555057714184676 0 0.38237628961462611 0.059732338949836518 0 0.37194242117794668 0.076772614526931793 0 0.38418619936747078 0.072555057714184676 0 0.38194353902199202 0.084344220923998292 0 0.39175039171038772 0.087168104040655559 0 0.38194353902199202 0.084344220923998292 0 0.37989514383216261 0.1008811074142211 0 0.37194242117794668 0.076772614526931793 0 0.37989514383216261 0.1008811074142211 0 0.37194242117794668 0.076772614526931793 0 0.38194353902199202 0.084344220923998292 0 0.37989514383216261 0.1008811074142211 0 0.39175039171038772 0.087168104040655559 0 0.38418619936747078 0.072555057714184676 0 0.38194353902199202 0.084344220923998292 0 0.39175039171038772 0.087168104040655559 0 0.37989514383216261 0.1008811074142211 0 0.39428450139263399 0.1099935163928351 0 0.37989514383216261 0.1008811074142211 0 0.38784786648637848 0.12498960030151041 0 0.37989514383216261 0.1008811074142211 0 0.38784786648637848 0.12498960030151041 0 0.39428450139263399 0.1099935163928351 0 0.37989514383216261 0.1008811074142211 0 0.38784786648637848 0.12498960030151041 0 0.37533236417423199 0.11575217945856781 0 0.36234477620530581 0.12431315491142481 0 0.38784786648637848 0.12498960030151041 0 0.37533236417423199 0.11575217945856781 0 0.38784786648637848 0.12498960030151041 0 0.39428450139263399 0.1099935163928351 0 0.40536034682354632 0.12481683740862159 0 0.40835881976190908 0.10380569790731391 0 0.39428450139263399 0.1099935163928351 0 0.40536034682354632 0.12481683740862159 0 0.40835881976190908 0.10380569790731391 0 0.39175039171038772 0.087168104040655559 0 0.39428450139263399 0.1099935163928351 0 0.4022109480673669 0.029794301680725051 0 0.39903054770448521 0.019764345079569041 0 0.38956197386376129 0.02112761593547402 0 0.4022109480673669 0.029794301680725051 0 0.38956197386376129 0.02112761593547402 0 0.39250591407207142 0.036175579460824843 0 0.4022109480673669 0.029794301680725051 0 0.39903054770448521 0.019764345079569041 0 0.40715192280340562 0.01462234732060084 0 0.3939873043738738 0.005606014803845533 0 0.40715192280340562 0.01462234732060084 0 0.41629264407573002 -0.006850845090226044 0 0.39903054770448521 0.019764345079569041 0 0.3939873043738738 0.005606014803845533 0 0.40715192280340562 0.01462234732060084 0 0.39903054770448521 0.019764345079569041 0 0.3939873043738738 0.005606014803845533 0 0.38956197386376129 0.02112761593547402 0 0.3939873043738738 0.005606014803845533 0 0.38284321145746519 0.01274873380563272 0 0.38956197386376129 0.02112761593547402 0 0.37357914744350779 0.002440479778912224 0 0.37424442014871812 0.021820824704299101 0 0.38284321145746519 0.01274873380563272 0 0.37357914744350779 0.002440479778912224 0 0.3939873043738738 0.005606014803845533 0 0.38284321145746519 0.01274873380563272 0 0.37424442014871812 0.021820824704299101 0 0.39250591407207142 0.036175579460824843 0 0.36321924137845568 0.02934286747329215 0 0.37424442014871812 0.021820824704299101 0 0.39250591407207142 0.036175579460824843 0 0.37424442014871812 0.021820824704299101 0 0.38956197386376129 0.02112761593547402 0 0.39250591407207142 0.036175579460824843 0 0.37424442014871812 0.021820824704299101 0 0.38284321145746519 0.01274873380563272 0 0.38956197386376129 0.02112761593547402 0 0.36321924137845568 0.02934286747329215 0 0.37923500638336632 0.043068186250585699 0 0.39250591407207142 0.036175579460824843 0 0.36321924137845568 0.02934286747329215 0 0.39250591407207142 0.036175579460824843 0 0.37923500638336632 0.043068186250585699 0 0.39610752507542107 0.039006686428232497 0 0.39250591407207142 0.036175579460824843 0 0.37923500638336632 0.043068186250585699 0 0.38237628961462611 0.059732338949836518 0 0.39610752507542107 0.039006686428232497 0 0.38237628961462611 0.059732338949836518 0 0.39610752507542107 0.039006686428232497 0 0.38237628961462611 0.059732338949836518 0 0.39498436831919048 0.053995491217328308 0 0.39610752507542107 0.039006686428232497 0 0.39624558431573131 0.06624045880030964 0 0.38237628961462611 0.059732338949836518 0 0.39498436831919048 0.053995491217328308 0 0.39624558431573131 0.06624045880030964 0 0.39498436831919048 0.053995491217328308 0 0.40127216254757908 0.052142880950221668 0 0.39498436831919048 0.053995491217328308 0 0.40127216254757908 0.052142880950221668 0 0.39610752507542107 0.039006686428232497 0 0.40127216254757908 0.052142880950221668 0 0.40829937009812589 0.05445646228617778 0 0.40647643562697111 0.047157343142538291 0 0.39624558431573131 0.06624045880030964 0 0.40127216254757908 0.052142880950221668 0 0.40829937009812589 0.05445646228617778 0 0.39624558431573131 0.06624045880030964 0 0.40829937009812589 0.05445646228617778 0 0.4022109480673669 0.029794301680725051 0 0.39724992059935432 0.037282377443883637 0 0.39250591407207142 0.036175579460824843 0 0.39724992059935432 0.037282377443883637 0 0.39250591407207142 0.036175579460824843 0 0.39610752507542107 0.039006686428232497 0 0.39724992059935432 0.037282377443883637 0 0.39250591407207142 0.036175579460824843 0 0.39610752507542107 0.039006686428232497 0 0.39724992059935432 0.037282377443883637 0 0.39610752507542107 0.039006686428232497 0 0.39250591407207142 0.036175579460824843 0 0.39610752507542107 0.039006686428232497 0 0.40647643562697111 0.047157343142538291 0 0.40127216254757908 0.052142880950221668 0 0.39610752507542107 0.039006686428232497 0 0.40647643562697111 0.047157343142538291 0 0.39610752507542107 0.039006686428232497 0 0.39724992059935432 0.037282377443883637 0 0.40647643562697111 0.047157343142538291 0 0.4022109480673669 0.029794301680725051 0 0.39724992059935432 0.037282377443883637 0 0.41056521822753728 0.033900572446116307 0 0.4022109480673669 0.029794301680725051 0 0.39724992059935432 0.037282377443883637 0 0.39724992059935432 0.037282377443883637 0 0.42035315588052052 0.042672465772045823 0 0.39724992059935432 0.037282377443883637 0 0.41056521822753728 0.033900572446116307 0 0.42035315588052052 0.042672465772045823 0 0.39724992059935432 0.037282377443883637 0 0.42035315588052052 0.042672465772045823 0 0.40647643562697111 0.047157343142538291 0 0.41056521822753728 0.033900572446116307 0 0.42035315588052052 0.042672465772045823 0 0.41918056088687422 0.025106301550984179 0 0.42035315588052052 0.042672465772045823 0 0.41807260402200452 0.053616349792940499 0 0.42690609811089331 0.059013607202760512 0 0.40863285456409321 0.067745049984629005 0 0.40829937009812589 0.05445646228617778 0 0.41572401702962131 0.06154942829698281 0 0.40829937009812589 0.05445646228617778 0 0.41807260402200452 0.053616349792940499 0 0.41572401702962131 0.06154942829698281 0 0.42035315588052052 0.042672465772045823 0 0.40829937009812589 0.05445646228617778 0 0.40647643562697111 0.047157343142538291 0 0.42035315588052052 0.042672465772045823 0 0.40829937009812589 0.05445646228617778 0 0.42035315588052052 0.042672465772045823 0 0.40829937009812589 0.05445646228617778 0 0.41807260402200452 0.053616349792940499 0 0.41807260402200452 0.053616349792940499 0 0.41572401702962131 0.06154942829698281 0 0.42690609811089331 0.059013607202760512 0 0.42035315588052052 0.042672465772045823 0 0.42690609811089331 0.059013607202760512 0 0.44432976155769699 0.048266315327598383 0 0.42035315588052052 0.042672465772045823 0 0.43671568676264189 0.026676163003921921 0 0.42035315588052052 0.042672465772045823 0 0.43671568676264189 0.026676163003921921 0 0.44432976155769699 0.048266315327598383 0 0.42035315588052052 0.042672465772045823 0 0.44432976155769699 0.048266315327598383 0 0.42035315588052052 0.042672465772045823 0 0.43671568676264189 0.026676163003921921 0 0.41918056088687422 0.025106301550984179 0 0.43671568676264189 0.026676163003921921 0 0.41918056088687422 0.025106301550984179 0 0.43085411213296282 0.0071934808399317304 0 0.4022109480673669 0.029794301680725051 0 0.41918056088687422 0.025106301550984179 0 0.40715192280340562 0.01462234732060084 0 0.41918056088687422 0.025106301550984179 0 0.40715192280340562 0.01462234732060084 0 0.43085411213296282 0.0071934808399317304 0 0.4022109480673669 0.029794301680725051 0 0.41056521822753728 0.033900572446116307 0 0.41918056088687422 0.025106301550984179 0 0.40715192280340562 0.01462234732060084 0 0.43085411213296282 0.0071934808399317304 0 0.41629264407573002 -0.006850845090226044 0 0.43085411213296282 0.0071934808399317304 0 0.45307821764476319 0.010679860235798 0 0.45275060893296981 -0.0060266252809792519 0 0.43671568676264189 0.026676163003921921 0 0.43085411213296282 0.0071934808399317304 0 0.45307821764476319 0.010679860235798 0 0.43671568676264189 0.026676163003921921 0 0.45307821764476319 0.010679860235798 0 0.45536773125663488 0.033055304065500078 0 0.43671568676264189 0.026676163003921921 0 0.45307821764476319 0.010679860235798 0 0.45307821764476319 0.010679860235798 0 0.45536773125663488 0.033055304065500078 0 0.4743220131113518 0.027463297392627269 0 0.45307821764476319 0.010679860235798 0 0.47441986059974051 0.002164373494884166 0 0.4743220131113518 0.027463297392627269 0 0.45307821764476319 0.010679860235798 0 0.47441986059974051 0.002164373494884166 0 0.45275060893296981 -0.0060266252809792519 0 0.45650324214529259 0.065280330615496637 0 0.44127530461137909 0.064432497562673663 0 0.44432976155769699 0.048266315327598383 0 0.44127530461137909 0.064432497562673663 0 0.42690609811089331 0.059013607202760512 0 0.44432976155769699 0.048266315327598383 0 0.43671568676264189 0.026676163003921921 0 0.44432976155769699 0.048266315327598383 0 0.45536773125663488 0.033055304065500078 0 0.45536773125663488 0.033055304065500078 0 0.4683063672348734 0.053860164883151249 0 0.4743220131113518 0.027463297392627269 0 0.44432976155769699 0.048266315327598383 0 0.45536773125663488 0.033055304065500078 0 0.4683063672348734 0.053860164883151249 0 0.44432976155769699 0.048266315327598383 0 0.4683063672348734 0.053860164883151249 0 0.45650324214529259 0.065280330615496637 0 0.44432976155769699 0.048266315327598383 0 0.4683063672348734 0.053860164883151249 0 0.47714578073418512 0.066537383845565096 0 0.45650324214529259 0.065280330615496637 0 0.4683063672348734 0.053860164883151249 0 0.47714578073418512 0.066537383845565096 0 0.4683063672348734 0.053860164883151249 0 0.49228297291204992 0.059454014438704107 0 0.4683063672348734 0.053860164883151249 0 0.48335627184046892 0.043534316590418197 0 0.49228297291204992 0.059454014438704107 0 0.4683063672348734 0.053860164883151249 0 0.49228297291204992 0.059454014438704107 0 0.4683063672348734 0.053860164883151249 0 0.48335627184046892 0.043534316590418197 0 0.4743220131113518 0.027463297392627269 0 0.48335627184046892 0.043534316590418197 0 0.5 0.03604371684448926 0 0.4743220131113518 0.027463297392627269 0 0.48335627184046892 0.043534316590418197 0 0.5 0.03604371684448926 0 0.49228297291204992 0.059454014438704107 0 0.5 0.065085683867034727 0 0.5 0.03604371684448926 0 0.49228297291204992 0.059454014438704107 0 0.47441986059974051 0.002164373494884166 0 0.4743220131113518 0.027463297392627269 0 0.5 0.0070017498219436813 0 0.5 0.03604371684448926 0 0.4743220131113518 0.027463297392627269 0 0.5 0.0070017498219436813 0 0.47441986059974051 0.002164373494884166 0 0.5 0.0070017498219436813 0 0.48435038112254591 -0.01295811459108822 0 0.5 0.0070017498219436813 0 0.48435038112254591 -0.01295811459108822 0 0.5 -0.022040217200601949 0 0.47441986059974051 0.002164373494884166 0 0.48435038112254591 -0.01295811459108822 0 0.46567746476080879 -0.018036067265790781 0 0.48165458025218022 -0.033880411805876212 0 0.46055892944421639 -0.034826981934293802 0 0.46567746476080879 -0.018036067265790781 0 0.48435038112254591 -0.01295811459108822 0 0.48165458025218022 -0.033880411805876212 0 0.46567746476080879 -0.018036067265790781 0 0.48435038112254591 -0.01295811459108822 0 0.5 -0.022040217200601949 0 0.48165458025218022 -0.033880411805876212 0 0.5 -0.051082184223147482 0 0.48331950433178789 -0.05028970193443566 0 0.48165458025218022 -0.033880411805876212 0 0.5 -0.022040217200601949 0 0.5 -0.051082184223147482 0 0.48165458025218022 -0.033880411805876212 0 0.5 -0.051082184223147482 0 0.48331950433178789 -0.05028970193443566 0 0.48351099524096458 -0.065188187078006596 0 0.46811244183400691 -0.051008024630712363 0 0.48351099524096458 -0.065188187078006596 0 0.46325174163611299 -0.065085723760132191 0 0.48331950433178789 -0.05028970193443566 0 0.46811244183400691 -0.051008024630712363 0 0.48351099524096458 -0.065188187078006596 0 0.48331950433178789 -0.05028970193443566 0 0.48165458025218022 -0.033880411805876212 0 0.46811244183400691 -0.051008024630712363 0 0.48165458025218022 -0.033880411805876212 0 0.46055892944421639 -0.034826981934293802 0 0.46811244183400691 -0.051008024630712363 0 0.46055892944421639 -0.034826981934293802 0 0.46811244183400691 -0.051008024630712363 0 0.44580381826440463 -0.044156532015693237 0 0.46811244183400691 -0.051008024630712363 0 0.44580381826440463 -0.044156532015693237 0 0.46325174163611299 -0.065085723760132191 0 0.44580381826440463 -0.044156532015693237 0 0.46325174163611299 -0.065085723760132191 0 0.46811244183400691 -0.051008024630712363 0 0.46325174163611299 -0.065085723760132191 0 0.44420654965085082 -0.062216100931960373 0 0.44580381826440463 -0.044156532015693237 0 0.42712667170951002 -0.058909162300086547 0 0.44420654965085082 -0.062216100931960373 0 0.44580381826440463 -0.044156532015693237 0 0.46325174163611299 -0.065085723760132191 0 0.46055892944421639 -0.034826981934293802 0 0.44580381826440463 -0.044156532015693237 0 0.43960160651246799 -0.018737423931294579 0 0.43960160651246799 -0.018737423931294579 0 0.45275060893296981 -0.0060266252809792519 0 0.46567746476080879 -0.018036067265790781 0 0.43085411213296282 0.0071934808399317304 0 0.43960160651246799 -0.018737423931294579 0 0.45275060893296981 -0.0060266252809792519 0 0.47441986059974051 0.002164373494884166 0 0.45275060893296981 -0.0060266252809792519 0 0.46567746476080879 -0.018036067265790781 0 0.46055892944421639 -0.034826981934293802 0 0.43960160651246799 -0.018737423931294579 0 0.46567746476080879 -0.018036067265790781 0 0.47818452339587708 -0.1165119508780514 0 0.50000000000000278 -0.1091661182682386 0 0.5 -0.13347981615570359 0 0.50000000000000278 -0.1091661182682386 0 0.48162587081805858 -0.087125921014184843 0 0.47818452339587708 -0.1165119508780514 0 0.50000000000000278 -0.1091661182682386 0 0.47745756082527618 -0.1021495788090297 0 0.50000000000000278 -0.1091661182682386 0 0.47745756082527618 -0.1021495788090297 0 0.48162587081805858 -0.087125921014184843 0 0.47818452339587708 -0.1165119508780514 0 0.47745756082527618 -0.1021495788090297 0 0.45929027747438272 -0.10448110762161331 0 0.47745756082527618 -0.1021495788090297 0 0.48162587081805858 -0.087125921014184843 0 0.46818713243806243 -0.093462796263060144 0 0.48162587081805858 -0.087125921014184843 0 0.46325174163611299 -0.065085723760132191 0 0.46656747462136422 -0.083363997574371698 0 0.48162587081805858 -0.087125921014184843 0 0.46656747462136422 -0.083363997574371698 0 0.46818713243806243 -0.093462796263060144 0 0.50000000000000278 -0.1091661182682386 0 0.48162587081805858 -0.087125921014184843 0 0.5 -0.080124151245693054 0 0.48162587081805858 -0.087125921014184843 0 0.5 -0.080124151245693054 0 0.48351099524096458 -0.065188187078006596 0 0.5 -0.051082184223147482 0 0.5 -0.080124151245693054 0 0.48351099524096458 -0.065188187078006596 0 0.48162587081805858 -0.087125921014184843 0 0.48351099524096458 -0.065188187078006596 0 0.46325174163611299 -0.065085723760132191 0 0.48162587081805858 -0.087125921014184843 0 0.46325174163611299 -0.065085723760132191 0 0.46325174163611299 -0.065085723760132191 0 0.44779547222269012 -0.07571174360441861 0 0.4542230721705241 -0.091234814858292518 0 0.44420654965085082 -0.062216100931960373 0 0.46325174163611299 -0.065085723760132191 0 0.44779547222269012 -0.07571174360441861 0 0.44420654965085082 -0.062216100931960373 0 0.44779547222269012 -0.07571174360441861 0 0.43605259790445722 -0.074801038719200894 0 0.44779547222269012 -0.07571174360441861 0 0.441034556727114 -0.086800976364950752 0 0.4542230721705241 -0.091234814858292518 0 0.44779547222269012 -0.07571174360441861 0 0.441034556727114 -0.086800976364950752 0 0.43605259790445722 -0.074801038719200894 0 0.441034556727114 -0.086800976364950752 0 0.4542230721705241 -0.091234814858292518 0 0.44037425786955031 -0.1001430447449046 0 0.46325174163611299 -0.065085723760132191 0 0.4542230721705241 -0.091234814858292518 0 0.46325174163611299 -0.065085723760132191 0 0.4542230721705241 -0.091234814858292518 0 0.46656747462136422 -0.083363997574371698 0 0.4542230721705241 -0.091234814858292518 0 0.46656747462136422 -0.083363997574371698 0 0.46818713243806243 -0.093462796263060144 0 0.47745756082527618 -0.1021495788090297 0 0.46818713243806243 -0.093462796263060144 0 0.45929027747438272 -0.10448110762161331 0 0.4542230721705241 -0.091234814858292518 0 0.46818713243806243 -0.093462796263060144 0 0.45929027747438272 -0.10448110762161331 0 0.4542230721705241 -0.091234814858292518 0 0.45929027747438272 -0.10448110762161331 0 0.44519440270493238 -0.1173839059564518 0 0.4542230721705241 -0.091234814858292518 0 0.44519440270493238 -0.1173839059564518 0 0.4542230721705241 -0.091234814858292518 0 0.44037425786955031 -0.1001430447449046 0 0.44519440270493238 -0.1173839059564518 0 0.45929027747438272 -0.10448110762161331 0 0.44519440270493238 -0.1173839059564518 0 0.44037425786955031 -0.1001430447449046 0 0.44519440270493238 -0.1173839059564518 0 0.43733469804818831 -0.11156713863760261 0 0.44519440270493238 -0.1173839059564518 0 0.43583674875745881 -0.11887614197332121 0 0.43733469804818831 -0.11156713863760261 0 0.44519440270493238 -0.1173839059564518 0 0.44103349219651622 -0.1294348541443999 0 0.44519440270493238 -0.1173839059564518 0 0.43473286131254663 -0.1269599813022704 0 0.44519440270493238 -0.1173839059564518 0 0.43652399803370612 -0.1266503843383173 0 0.44103349219651622 -0.1294348541443999 0 0.44519440270493238 -0.1173839059564518 0 0.43473286131254663 -0.1269599813022704 0 0.43652399803370612 -0.1266503843383173 0 0.44519440270493238 -0.1173839059564518 0 0.43583674875745881 -0.11887614197332121 0 0.43473286131254663 -0.1269599813022704 0 0.44519440270493238 -0.1173839059564518 0 0.4507048422038758 -0.1254569291466279 0 0.44103349219651622 -0.1294348541443999 0 0.44519440270493238 -0.1173839059564518 0 0.45845740270007618 -0.1179768520576317 0 0.4507048422038758 -0.1254569291466279 0 0.47818452339587708 -0.1165119508780514 0 0.45929027747438272 -0.10448110762161331 0 0.45845740270007618 -0.1179768520576317 0 0.45845740270007618 -0.1179768520576317 0 0.46233294642030121 -0.13029577410444981 0 0.4507048422038758 -0.1254569291466279 0 0.47818452339587708 -0.1165119508780514 0 0.45845740270007618 -0.1179768520576317 0 0.46233294642030121 -0.13029577410444981 0 0.45929027747438272 -0.10448110762161331 0 0.44519440270493238 -0.1173839059564518 0 0.45845740270007618 -0.1179768520576317 0 0.40724277249555002 -0.1192463337858536 0 0.41884687315735308 -0.1196411488000769 0 0.41208161927757919 -0.13087523561031761 0 0.40724277249555002 -0.1192463337858536 0 0.41698364908723728 -0.1130169343472482 0 0.41068457829189181 -0.1070723437572161 0 0.41698364908723728 -0.1130169343472482 0 0.4250766521847687 -0.1135111272305598 0 0.42274743771597889 -0.1059915359454271 0 0.41698364908723728 -0.1130169343472482 0 0.41884687315735308 -0.1196411488000769 0 0.4250766521847687 -0.1135111272305598 0 0.40724277249555002 -0.1192463337858536 0 0.41698364908723728 -0.1130169343472482 0 0.41884687315735308 -0.1196411488000769 0 0.41884687315735308 -0.1196411488000769 0 0.42661387223904329 -0.12098454377727109 0 0.41208161927757919 -0.13087523561031761 0 0.41884687315735308 -0.1196411488000769 0 0.42661387223904329 -0.12098454377727109 0 0.4250766521847687 -0.1135111272305598 0 0.42661387223904329 -0.12098454377727109 0 0.43583674875745881 -0.11887614197332121 0 0.43473286131254663 -0.1269599813022704 0 0.42661387223904329 -0.12098454377727109 0 0.43583674875745881 -0.11887614197332121 0 0.43287065052056112 -0.1145040342651165 0 0.43733469804818831 -0.11156713863760261 0 0.43287065052056112 -0.1145040342651165 0 0.43239743038843881 -0.106928566248219 0 0.43583674875745881 -0.11887614197332121 0 0.43733469804818831 -0.11156713863760261 0 0.43287065052056112 -0.1145040342651165 0 0.43287065052056112 -0.1145040342651165 0 0.4250766521847687 -0.1135111272305598 0 0.43239743038843881 -0.106928566248219 0 0.42661387223904329 -0.12098454377727109 0 0.43287065052056112 -0.1145040342651165 0 0.4250766521847687 -0.1135111272305598 0 0.4250766521847687 -0.1135111272305598 0 0.42274743771597889 -0.1059915359454271 0 0.43239743038843881 -0.106928566248219 0 0.42274743771597889 -0.1059915359454271 0 0.43239743038843881 -0.106928566248219 0 0.42854124961890733 -0.099856724000988273 0 0.44037425786955031 -0.1001430447449046 0 0.43239743038843881 -0.106928566248219 0 0.42854124961890733 -0.099856724000988273 0 0.44037425786955031 -0.1001430447449046 0 0.43733469804818831 -0.11156713863760261 0 0.43239743038843881 -0.106928566248219 0 0.44037425786955031 -0.1001430447449046 0 0.42854124961890733 -0.099856724000988273 0 0.42870758522811919 -0.089164076341860632 0 0.42274743771597889 -0.1059915359454271 0 0.42854124961890733 -0.099856724000988273 0 0.41847953689244971 -0.097056396724529995 0 0.42854124961890733 -0.099856724000988273 0 0.41847953689244971 -0.097056396724529995 0 0.42870758522811919 -0.089164076341860632 0 0.42274743771597889 -0.1059915359454271 0 0.41847953689244971 -0.097056396724529995 0 0.41068457829189181 -0.1070723437572161 0 0.41698364908723728 -0.1130169343472482 0 0.42274743771597889 -0.1059915359454271 0 0.41068457829189181 -0.1070723437572161 0 0.41847953689244971 -0.097056396724529995 0 0.41068457829189181 -0.1070723437572161 0 0.40440998182912408 -0.094196755676502056 0 0.40751187940595462 -0.08478461483936342 0 0.41476450049512009 -0.087087396641621656 0 0.40440998182912408 -0.094196755676502056 0 0.41847953689244971 -0.097056396724529995 0 0.41476450049512009 -0.087087396641621656 0 0.40440998182912408 -0.094196755676502056 0 0.40751187940595462 -0.08478461483936342 0 0.41476450049512009 -0.087087396641621656 0 0.40927176781453312 -0.077086569868640542 0 0.40751187940595462 -0.08478461483936342 0 0.40927176781453312 -0.077086569868640542 0 0.40237588567979138 -0.081472047511817525 0 0.41476450049512009 -0.087087396641621656 0 0.42870758522811919 -0.089164076341860632 0 0.42122478008006597 -0.0757594802833121 0 0.41476450049512009 -0.087087396641621656 0 0.42122478008006597 -0.0757594802833121 0 0.40927176781453312 -0.077086569868640542 0 0.41847953689244971 -0.097056396724529995 0 0.41476450049512009 -0.087087396641621656 0 0.42870758522811919 -0.089164076341860632 0 0.441034556727114 -0.086800976364950752 0 0.44037425786955031 -0.1001430447449046 0 0.42870758522811919 -0.089164076341860632 0 0.441034556727114 -0.086800976364950752 0 0.42870758522811919 -0.089164076341860632 0 0.43605259790445722 -0.074801038719200894 0 0.42870758522811919 -0.089164076341860632 0 0.43605259790445722 -0.074801038719200894 0 0.42122478008006597 -0.0757594802833121 0 0.43605259790445722 -0.074801038719200894 0 0.42122478008006597 -0.0757594802833121 0 0.42712667170951002 -0.058909162300086547 0 0.44420654965085082 -0.062216100931960373 0 0.43605259790445722 -0.074801038719200894 0 0.42712667170951002 -0.058909162300086547 0 0.42122478008006597 -0.0757594802833121 0 0.4114316245373863 -0.068167670275121897 0 0.42712667170951002 -0.058909162300086547 0 0.40927176781453312 -0.077086569868640542 0 0.4114316245373863 -0.068167670275121897 0 0.39842538017083612 -0.076484449263173909 0 0.42122478008006597 -0.0757594802833121 0 0.40927176781453312 -0.077086569868640542 0 0.4114316245373863 -0.068167670275121897 0 0.4114316245373863 -0.068167670275121897 0 0.39842538017083612 -0.076484449263173909 0 0.40640664480004829 -0.052123305293471443 0 0.39842538017083612 -0.076484449263173909 0 0.38906844471504909 -0.048791226331097663 0 0.4114316245373863 -0.068167670275121897 0 0.39842538017083612 -0.076484449263173909 0 0.39842538017083612 -0.076484449263173909 0 0.38333741963197843 -0.065496938221855289 0 0.38906844471504909 -0.048791226331097663 0 0.39842538017083612 -0.076484449263173909 0 0.38333741963197843 -0.065496938221855289 0 0.37036238702559748 -0.076146834841134659 0 0.39842538017083612 -0.076484449263173909 0 0.373127492796404 -0.092661058915291472 0 0.39842538017083612 -0.076484449263173909 0 0.37036238702559748 -0.076146834841134659 0 0.373127492796404 -0.092661058915291472 0 0.39842538017083612 -0.076484449263173909 0 0.3905434538793735 -0.094168622203984975 0 0.373127492796404 -0.092661058915291472 0 0.39842538017083612 -0.076484449263173909 0 0.40142869859064212 -0.08537321064543299 0 0.3905434538793735 -0.094168622203984975 0 0.39842538017083612 -0.076484449263173909 0 0.40142869859064212 -0.08537321064543299 0 0.40237588567979138 -0.081472047511817525 0 0.40927176781453312 -0.077086569868640542 0 0.39842538017083612 -0.076484449263173909 0 0.40237588567979138 -0.081472047511817525 0 0.39842538017083612 -0.076484449263173909 0 0.40142869859064212 -0.08537321064543299 0 0.40142869859064212 -0.08537321064543299 0 0.40237588567979138 -0.081472047511817525 0 0.40751187940595462 -0.08478461483936342 0 0.40142869859064212 -0.08537321064543299 0 0.40237588567979138 -0.081472047511817525 0 0.40751187940595462 -0.08478461483936342 0 0.40142869859064212 -0.08537321064543299 0 0.40440998182912408 -0.094196755676502056 0 0.40142869859064212 -0.08537321064543299 0 0.40440998182912408 -0.094196755676502056 0 0.40142869859064212 -0.08537321064543299 0 0.39542953791662688 -0.1100818502818986 0 0.40142869859064212 -0.08537321064543299 0 0.3905434538793735 -0.094168622203984975 0 0.39542953791662688 -0.1100818502818986 0 0.40142869859064212 -0.08537321064543299 0 0.40440998182912408 -0.094196755676502056 0 0.39542953791662688 -0.1100818502818986 0 0.41068457829189181 -0.1070723437572161 0 0.40440998182912408 -0.094196755676502056 0 0.39542953791662688 -0.1100818502818986 0 0.3905434538793735 -0.094168622203984975 0 0.38430615992235861 -0.10624254191412789 0 0.373127492796404 -0.092661058915291472 0 0.3905434538793735 -0.094168622203984975 0 0.38430615992235861 -0.10624254191412789 0 0.39542953791662688 -0.1100818502818986 0 0.38430615992235861 -0.10624254191412789 0 0.373127492796404 -0.092661058915291472 0 0.37262698081820339 -0.10985920037046069 0 0.38430615992235861 -0.10624254191412789 0 0.37980885755413418 -0.11928611433555709 0 0.39542953791662688 -0.1100818502818986 0 0.37980885755413418 -0.11928611433555709 0 0.39542953791662688 -0.1100818502818986 0 0.38943037724261159 -0.1347904899183642 0 0.38430615992235861 -0.10624254191412789 0 0.37980885755413418 -0.11928611433555709 0 0.37262698081820339 -0.10985920037046069 0 0.40724277249555002 -0.1192463337858536 0 0.39542953791662688 -0.1100818502818986 0 0.38943037724261159 -0.1347904899183642 0 0.39542953791662688 -0.1100818502818986 0 0.38943037724261159 -0.1347904899183642 0 0.40724277249555002 -0.1192463337858536 0 0.41068457829189181 -0.1070723437572161 0 0.39542953791662688 -0.1100818502818986 0 0.41629264407573002 -0.006850845090226044 0 0.42276864855888052 -0.033584784942844392 0 0.40125875037878711 -0.026146768788422061 0 0.43085411213296282 0.0071934808399317304 0 0.43960160651246799 -0.018737423931294579 0 0.41629264407573002 -0.006850845090226044 0 0.43960160651246799 -0.018737423931294579 0 0.41629264407573002 -0.006850845090226044 0 0.42276864855888052 -0.033584784942844392 0 0.44580381826440463 -0.044156532015693237 0 0.42276864855888052 -0.033584784942844392 0 0.42712667170951002 -0.058909162300086547 0 0.44580381826440463 -0.044156532015693237 0 0.43960160651246799 -0.018737423931294579 0 0.42276864855888052 -0.033584784942844392 0 0.4114316245373863 -0.068167670275121897 0 0.42712667170951002 -0.058909162300086547 0 0.40640664480004829 -0.052123305293471443 0 0.42276864855888052 -0.033584784942844392 0 0.42712667170951002 -0.058909162300086547 0 0.40640664480004829 -0.052123305293471443 0 0.42276864855888052 -0.033584784942844392 0 0.40640664480004829 -0.052123305293471443 0 0.40125875037878711 -0.026146768788422061 0 0.40640664480004829 -0.052123305293471443 0 0.38906844471504909 -0.048791226331097663 0 0.40125875037878711 -0.026146768788422061 0 0.39842538017083612 -0.076484449263173909 0 0.40640664480004829 -0.052123305293471443 0 0.38906844471504909 -0.048791226331097663 0 0.38906844471504909 -0.048791226331097663 0 0.36552082236990341 -0.042261935088275922 0 0.37096486530484057 -0.058236420929508259 0 0.38333741963197843 -0.065496938221855289 0 0.38906844471504909 -0.048791226331097663 0 0.37096486530484057 -0.058236420929508259 0 0.38906844471504909 -0.048791226331097663 0 0.37971150925926189 -0.0210980033990215 0 0.40125875037878711 -0.026146768788422061 0 0.38906844471504909 -0.048791226331097663 0 0.37971150925926189 -0.0210980033990215 0 0.36552082236990341 -0.042261935088275922 0 0.38906844471504909 -0.048791226331097663 0 0.37971150925926189 -0.0210980033990215 0 0.3939873043738738 0.005606014803845533 0 0.37971150925926189 -0.0210980033990215 0 0.40125875037878711 -0.026146768788422061 0 0.3939873043738738 0.005606014803845533 0 0.41629264407573002 -0.006850845090226044 0 0.40125875037878711 -0.026146768788422061 0 0.37357914744350779 0.002440479778912224 0 0.3939873043738738 0.005606014803845533 0 0.37971150925926189 -0.0210980033990215 0 0.37357914744350779 0.002440479778912224 0 0.35598292622536432 0.0074660699477739154 0 0.35747226134953669 -0.011539359516293059 0 0.37357914744350779 0.002440479778912224 0 0.37971150925926189 -0.0210980033990215 0 0.35747226134953669 -0.011539359516293059 0 0.37971150925926189 -0.0210980033990215 0 0.3567572465296398 -0.028300240308235611 0 0.35747226134953669 -0.011539359516293059 0 0.37971150925926189 -0.0210980033990215 0 0.3567572465296398 -0.028300240308235611 0 0.36552082236990341 -0.042261935088275922 0 0.3567572465296398 -0.028300240308235611 0 0.34108130633743572 -0.022855778308436141 0 0.34876980709143918 -0.036804132634757111 0 0.3567572465296398 -0.028300240308235611 0 0.35747226134953669 -0.011539359516293059 0 0.34108130633743572 -0.022855778308436141 0 0.35598292622536432 0.0074660699477739154 0 0.35747226134953669 -0.011539359516293059 0 0.33772143230201052 -0.0068886848087512803 0 0.35747226134953669 -0.011539359516293059 0 0.33772143230201052 -0.0068886848087512803 0 0.34108130633743572 -0.022855778308436141 0 0.33772143230201052 -0.0068886848087512803 0 0.34108130633743572 -0.022855778308436141 0 0.317215061455216 -0.016157064213598971 0 0.34108130633743572 -0.022855778308436141 0 0.317215061455216 -0.016157064213598971 0 0.33020564447161199 -0.035019528032180489 0 0.317215061455216 -0.016157064213598971 0 0.33020564447161199 -0.035019528032180489 0 0.317215061455216 -0.016157064213598971 0 0.31587151978819911 -0.020338956197947448 0 0.33020564447161199 -0.035019528032180489 0 0.31587151978819911 -0.020338956197947448 0 0.33020564447161199 -0.035019528032180489 0 0.317215061455216 -0.016157064213598971 0 0.31587151978819911 -0.020338956197947448 0 0.32325249182581611 0.0026349705202008129 0 0.317215061455216 -0.016157064213598971 0 0.32325249182581611 0.0026349705202008129 0 0.33772143230201052 -0.0068886848087512803 0 0.317215061455216 -0.016157064213598971 0 0.32325249182581611 0.0026349705202008129 0 0.317215061455216 -0.016157064213598971 0 0.30690038754225768 -0.0011800486910433781 0 0.32587161445787949 -0.051186402763021513 0 0.31829608624605688 -0.065472752473192938 0 0.30886460616181383 -0.042148593106558697 0 0.32587161445787949 -0.051186402763021513 0 0.33198766712898281 -0.064044197254424853 0 0.31829608624605688 -0.065472752473192938 0 0.31587151978819911 -0.020338956197947448 0 0.33020564447161199 -0.035019528032180489 0 0.30886460616181383 -0.042148593106558697 0 0.32587161445787949 -0.051186402763021513 0 0.33020564447161199 -0.035019528032180489 0 0.30886460616181383 -0.042148593106558697 0 0.34108130633743572 -0.022855778308436141 0 0.33020564447161199 -0.035019528032180489 0 0.34876980709143918 -0.036804132634757111 0 0.32587161445787949 -0.051186402763021513 0 0.33020564447161199 -0.035019528032180489 0 0.34000406828093183 -0.049246942948750677 0 0.33020564447161199 -0.035019528032180489 0 0.3502840157486049 -0.055583181436657553 0 0.33020564447161199 -0.035019528032180489 0 0.34000406828093183 -0.049246942948750677 0 0.33020564447161199 -0.035019528032180489 0 0.34000406828093183 -0.049246942948750677 0 0.3502840157486049 -0.055583181436657553 0 0.33020564447161199 -0.035019528032180489 0 0.3502840157486049 -0.055583181436657553 0 0.34876980709143918 -0.036804132634757111 0 0.34000406828093183 -0.049246942948750677 0 0.33198766712898281 -0.064044197254424853 0 0.34180884154053498 -0.065879049105621951 0 0.32587161445787949 -0.051186402763021513 0 0.34000406828093183 -0.049246942948750677 0 0.33198766712898281 -0.064044197254424853 0 0.34000406828093183 -0.049246942948750677 0 0.34980249209025183 -0.063474357865320699 0 0.34000406828093183 -0.049246942948750677 0 0.34980249209025183 -0.063474357865320699 0 0.34180884154053498 -0.065879049105621951 0 0.34000406828093183 -0.049246942948750677 0 0.3502840157486049 -0.055583181436657553 0 0.34980249209025183 -0.063474357865320699 0 0.3502840157486049 -0.055583181436657553 0 0.34980249209025183 -0.063474357865320699 0 0.35472253155892502 -0.068395270968063401 0 0.3502840157486049 -0.055583181436657553 0 0.34876980709143918 -0.036804132634757111 0 0.36552082236990341 -0.042261935088275922 0 0.3567572465296398 -0.028300240308235611 0 0.34876980709143918 -0.036804132634757111 0 0.36552082236990341 -0.042261935088275922 0 0.3502840157486049 -0.055583181436657553 0 0.36552082236990341 -0.042261935088275922 0 0.37096486530484057 -0.058236420929508259 0 0.3502840157486049 -0.055583181436657553 0 0.37096486530484057 -0.058236420929508259 0 0.37036238702559748 -0.076146834841134659 0 0.38333741963197843 -0.065496938221855289 0 0.37096486530484057 -0.058236420929508259 0 0.37036238702559748 -0.076146834841134659 0 0.3502840157486049 -0.055583181436657553 0 0.37036238702559748 -0.076146834841134659 0 0.37036238702559748 -0.076146834841134659 0 0.35472253155892502 -0.068395270968063401 0 0.35439705838588692 -0.077054866778644621 0 0.37036238702559748 -0.076146834841134659 0 0.36026598055858428 -0.086219317086442732 0 0.35439705838588692 -0.077054866778644621 0 0.37036238702559748 -0.076146834841134659 0 0.373127492796404 -0.092661058915291472 0 0.36026598055858428 -0.086219317086442732 0 0.373127492796404 -0.092661058915291472 0 0.36026598055858428 -0.086219317086442732 0 0.35442896873054819 -0.093899165736773108 0 0.36026598055858428 -0.086219317086442732 0 0.34819406691839527 -0.085912356067407769 0 0.35439705838588692 -0.077054866778644621 0 0.36026598055858428 -0.086219317086442732 0 0.34819406691839527 -0.085912356067407769 0 0.35442896873054819 -0.093899165736773108 0 0.34819406691839527 -0.085912356067407769 0 0.35442896873054819 -0.093899165736773108 0 0.34250823495700278 -0.096843945418323016 0 0.34819406691839527 -0.085912356067407769 0 0.35439705838588692 -0.077054866778644621 0 0.34213718893203959 -0.07422010281979162 0 0.3502840157486049 -0.055583181436657553 0 0.37036238702559748 -0.076146834841134659 0 0.35472253155892502 -0.068395270968063401 0 0.34876670454428399 -0.06971711391855949 0 0.35439705838588692 -0.077054866778644621 0 0.34213718893203959 -0.07422010281979162 0 0.34980249209025183 -0.063474357865320699 0 0.34876670454428399 -0.06971711391855949 0 0.34180884154053498 -0.065879049105621951 0 0.34876670454428399 -0.06971711391855949 0 0.34180884154053498 -0.065879049105621951 0 0.34213718893203959 -0.07422010281979162 0 0.34980249209025183 -0.063474357865320699 0 0.34876670454428399 -0.06971711391855949 0 0.35472253155892502 -0.068395270968063401 0 0.34876670454428399 -0.06971711391855949 0 0.35472253155892502 -0.068395270968063401 0 0.35439705838588692 -0.077054866778644621 0 0.36703358201424818 -0.1205643964158449 0 0.35968204517414459 -0.1107584800748472 0 0.35606369033391522 -0.1259709067163762 0 0.37980885755413418 -0.11928611433555709 0 0.36703358201424818 -0.1205643964158449 0 0.37262698081820339 -0.10985920037046069 0 0.36703358201424818 -0.1205643964158449 0 0.37262698081820339 -0.10985920037046069 0 0.35968204517414459 -0.1107584800748472 0 0.373127492796404 -0.092661058915291472 0 0.3478296054219725 -0.1088376685674099 0 0.373127492796404 -0.092661058915291472 0 0.37262698081820339 -0.10985920037046069 0 0.35968204517414459 -0.1107584800748472 0 0.373127492796404 -0.092661058915291472 0 0.35968204517414459 -0.1107584800748472 0 0.3478296054219725 -0.1088376685674099 0 0.373127492796404 -0.092661058915291472 0 0.35442896873054819 -0.093899165736773108 0 0.3478296054219725 -0.1088376685674099 0 0.35442896873054819 -0.093899165736773108 0 0.3478296054219725 -0.1088376685674099 0 0.34250823495700278 -0.096843945418323016 0 0.3478296054219725 -0.1088376685674099 0 0.34004518790650529 -0.12527848050574 0 0.35606369033391522 -0.1259709067163762 0 0.35968204517414459 -0.1107584800748472 0 0.3478296054219725 -0.1088376685674099 0 0.35606369033391522 -0.1259709067163762 0 0.35968204517414459 -0.1107584800748472 0 0.35606369033391522 -0.1259709067163762 0 0.3478296054219725 -0.1088376685674099 0 0.3336003219875231 -0.1076211020920432 0 0.32253171804754088 -0.12501427821952829 0 0.3478296054219725 -0.1088376685674099 0 0.32253171804754088 -0.12501427821952829 0 0.34004518790650529 -0.12527848050574 0 0.3478296054219725 -0.1088376685674099 0 0.32253171804754088 -0.12501427821952829 0 0.3336003219875231 -0.1076211020920432 0 0.3322859580981179 -0.098725703467523684 0 0.32284609341298121 -0.10868391478743129 0 0.3478296054219725 -0.1088376685674099 0 0.3336003219875231 -0.1076211020920432 0 0.34250823495700278 -0.096843945418323016 0 0.3336003219875231 -0.1076211020920432 0 0.34250823495700278 -0.096843945418323016 0 0.3322859580981179 -0.098725703467523684 0 0.34250823495700278 -0.096843945418323016 0 0.3322859580981179 -0.098725703467523684 0 0.33540967344911948 -0.088036983583798772 0 0.32220919005921328 -0.094454801116449272 0 0.31258915767766499 -0.1029799685902579 0 0.31246538712165289 -0.087003597160487944 0 0.3322859580981179 -0.098725703467523684 0 0.32220919005921328 -0.094454801116449272 0 0.32284609341298121 -0.10868391478743129 0 0.32220919005921328 -0.094454801116449272 0 0.31258915767766499 -0.1029799685902579 0 0.32284609341298121 -0.10868391478743129 0 0.31258915767766499 -0.1029799685902579 0 0.32284609341298121 -0.10868391478743129 0 0.30701266551867318 -0.11795202584412939 0 0.3336003219875231 -0.1076211020920432 0 0.32284609341298121 -0.10868391478743129 0 0.32253171804754088 -0.12501427821952829 0 0.32284609341298121 -0.10868391478743129 0 0.30701266551867318 -0.11795202584412939 0 0.32253171804754088 -0.12501427821952829 0 0.33198766712898281 -0.064044197254424853 0 0.34213718893203959 -0.07422010281979162 0 0.32642601186692399 -0.078569743361430744 0 0.33198766712898281 -0.064044197254424853 0 0.34180884154053498 -0.065879049105621951 0 0.34213718893203959 -0.07422010281979162 0 0.34213718893203959 -0.07422010281979162 0 0.33540967344911948 -0.088036983583798772 0 0.32642601186692399 -0.078569743361430744 0 0.34819406691839527 -0.085912356067407769 0 0.34213718893203959 -0.07422010281979162 0 0.33540967344911948 -0.088036983583798772 0 0.34819406691839527 -0.085912356067407769 0 0.34250823495700278 -0.096843945418323016 0 0.33540967344911948 -0.088036983583798772 0 0.3322859580981179 -0.098725703467523684 0 0.32220919005921328 -0.094454801116449272 0 0.33540967344911948 -0.088036983583798772 0 0.32220919005921328 -0.094454801116449272 0 0.33540967344911948 -0.088036983583798772 0 0.32642601186692399 -0.078569743361430744 0 0.32220919005921328 -0.094454801116449272 0 0.32642601186692399 -0.078569743361430744 0 0.31246538712165289 -0.087003597160487944 0 0.32642601186692399 -0.078569743361430744 0 0.31246538712165289 -0.087003597160487944 0 0.32642601186692399 -0.078569743361430744 0 0.31829608624605688 -0.065472752473192938 0 0.31246538712165289 -0.087003597160487944 0 0.33198766712898281 -0.064044197254424853 0 0.32642601186692399 -0.078569743361430744 0 0.31829608624605688 -0.065472752473192938 0 0.31829608624605688 -0.065472752473192938 0 0.30185769253542699 -0.063958230015169509 0 0.31246538712165289 -0.087003597160487944 0 0.30185769253542699 -0.063958230015169509 0 0.29485077890903838 -0.08576786692377969 0 0.31246538712165289 -0.087003597160487944 0 0.29485077890903838 -0.08576786692377969 0 0.29850476237638052 -0.095437450959542897 0 0.30185769253542699 -0.063958230015169509 0 0.31246538712165289 -0.087003597160487944 0 0.29485077890903838 -0.08576786692377969 0 0.31246538712165289 -0.087003597160487944 0 0.29850476237638052 -0.095437450959542897 0 0.29485077890903838 -0.08576786692377969 0 0.29011601486440819 -0.10050523777883651 0 0.27233191485367331 -0.086662364145387083 0 0.29485077890903838 -0.08576786692377969 0 0.29850476237638052 -0.095437450959542897 0 0.29485077890903838 -0.08576786692377969 0 0.29011601486440819 -0.10050523777883651 0 0.30185769253542699 -0.063958230015169509 0 0.29485077890903838 -0.08576786692377969 0 0.28549509337792828 -0.061009794462930381 0 0.29485077890903838 -0.08576786692377969 0 0.27233191485367331 -0.086662364145387083 0 0.28549509337792828 -0.061009794462930381 0 0.29485077890903838 -0.08576786692377969 0 0.28549509337792828 -0.061009794462930381 0 0.30701266551867318 -0.11795202584412939 0 0.29478762612759141 -0.11288625738249181 0 0.29867666688697703 -0.1272849549211697 0 0.30701266551867318 -0.11795202584412939 0 0.29850476237638052 -0.095437450959542897 0 0.29478762612759141 -0.11288625738249181 0 0.31258915767766499 -0.1029799685902579 0 0.30701266551867318 -0.11795202584412939 0 0.29850476237638052 -0.095437450959542897 0 0.30701266551867318 -0.11795202584412939 0 0.29850476237638052 -0.095437450959542897 0 0.31258915767766499 -0.1029799685902579 0 0.31246538712165289 -0.087003597160487944 0 0.29850476237638052 -0.095437450959542897 0 0.29850476237638052 -0.095437450959542897 0 0.29011601486440819 -0.10050523777883651 0 0.29478762612759141 -0.11288625738249181 0 0.29850476237638052 -0.095437450959542897 0 0.29011601486440819 -0.10050523777883651 0 0.29485077890903838 -0.08576786692377969 0 0.29850476237638052 -0.095437450959542897 0 0.29011601486440819 -0.10050523777883651 0 0.29011601486440819 -0.10050523777883651 0 0.27631136395687561 -0.10884486509677729 0 0.29011601486440819 -0.10050523777883651 0 0.28377904751550082 -0.12022960778689511 0 0.29011601486440819 -0.10050523777883651 0 0.28377904751550082 -0.12022960778689511 0 0.27631136395687561 -0.10884486509677729 0 0.29011601486440819 -0.10050523777883651 0 0.29478762612759141 -0.11288625738249181 0 0.28377904751550082 -0.12022960778689511 0 0.29478762612759141 -0.11288625738249181 0 0.28377904751550082 -0.12022960778689511 0 0.29867666688697703 -0.1272849549211697 0 0.28377904751550082 -0.12022960778689511 0 0.27500980117207829 -0.12155323577333579 0 0.27631136395687561 -0.10884486509677729 0 0.27631136395687561 -0.10884486509677729 0 0.26250671304934198 -0.1171844924147165 0 0.27500980117207829 -0.12155323577333579 0 0.27631136395687561 -0.10884486509677729 0 0.26250671304934198 -0.1171844924147165 0 0.29011601486440819 -0.10050523777883651 0 0.27631136395687561 -0.10884486509677729 0 0.27233191485367331 -0.086662364145387083 0 0.27631136395687561 -0.10884486509677729 0 0.26480060580106352 -0.1019600400236301 0 0.27233191485367331 -0.086662364145387083 0 0.27631136395687561 -0.10884486509677729 0 0.26480060580106352 -0.1019600400236301 0 0.26250671304934198 -0.1171844924147165 0 0.26480060580106352 -0.1019600400236301 0 0.27233191485367331 -0.086662364145387083 0 0.248052431344363 -0.095148438437639593 0 0.26480060580106352 -0.1019600400236301 0 0.26250671304934198 -0.1171844924147165 0 0.248052431344363 -0.095148438437639593 0 0.26250671304934198 -0.1171844924147165 0 0.248052431344363 -0.095148438437639593 0 0.26250671304934198 -0.1171844924147165 0 0.248052431344363 -0.095148438437639593 0 0.24260121657943401 -0.11258968035378961 0 0.26250671304934198 -0.1171844924147165 0 0.2441250445765018 -0.1282891748563233 0 0.27233191485367331 -0.086662364145387083 0 0.25578894406637898 -0.071814983055159112 0 0.28549509337792828 -0.061009794462930381 0 0.27233191485367331 -0.086662364145387083 0 0.25578894406637898 -0.071814983055159112 0 0.248052431344363 -0.095148438437639593 0 0.25578894406637898 -0.071814983055159112 0 0.26356106344924501 -0.050736506704392427 0 0.24466000719816181 -0.052572806154117767 0 0.27613940784681967 -0.036251722002080641 0 0.28549509337792828 -0.061009794462930381 0 0.26356106344924501 -0.050736506704392427 0 0.27613940784681967 -0.036251722002080641 0 0.28549509337792828 -0.061009794462930381 0 0.25578894406637898 -0.071814983055159112 0 0.26356106344924501 -0.050736506704392427 0 0.28549509337792828 -0.061009794462930381 0 0.26356106344924501 -0.050736506704392427 0 0.25572186475693609 -0.032033227847674262 0 0.24466000719816181 -0.052572806154117767 0 0.26356106344924501 -0.050736506704392427 0 0.27613940784681967 -0.036251722002080641 0 0.25572186475693609 -0.032033227847674262 0 0.25572186475693609 -0.032033227847674262 0 0.24466000719816181 -0.052572806154117767 0 0.25572186475693609 -0.032033227847674262 0 0.25159771702699008 -0.014371615300676641 0 0.26678372231571063 -0.011493649541230871 0 0.25572186475693609 -0.032033227847674262 0 0.26678372231571063 -0.011493649541230871 0 0.26489192350979318 -0.0064873577240775106 0 0.2403210271001277 -0.0038011986657945939 0 0.25900523844679291 0.0090906536209348996 0 0.26489192350979318 -0.0064873577240775106 0 0.2403210271001277 -0.0038011986657945939 0 0.25159771702699008 -0.014371615300676641 0 0.26489192350979318 -0.0064873577240775106 0 0.2403210271001277 -0.0038011986657945939 0 0.25159771702699008 -0.014371615300676641 0 0.26489192350979318 -0.0064873577240775106 0 0.26678372231571063 -0.011493649541230871 0 0.2692248172919926 -0.0069610417805164738 0 0.27741899960964289 -0.015799745368864509 0 0.28512431700806451 -0.0086992195202469716 0 0.2692248172919926 -0.0069610417805164738 0 0.27791710391185381 -0.0010379811687957271 0 0.28512431700806451 -0.0086992195202469716 0 0.2692248172919926 -0.0069610417805164738 0 0.28512431700806451 -0.0086992195202469716 0 0.26701986470523431 0.0028523954276382379 0 0.26489192350979318 -0.0064873577240775106 0 0.2692248172919926 -0.0069610417805164738 0 0.26489192350979318 -0.0064873577240775106 0 0.2692248172919926 -0.0069610417805164738 0 0.2692248172919926 -0.0069610417805164738 0 0.26678372231571063 -0.011493649541230871 0 0.27741899960964289 -0.015799745368864509 0 0.26489192350979318 -0.0064873577240775106 0 0.26678372231571063 -0.011493649541230871 0 0.26489192350979318 -0.0064873577240775106 0 0.2692248172919926 -0.0069610417805164738 0 0.26678372231571063 -0.011493649541230871 0 0.2692248172919926 -0.0069610417805164738 0 0.26678372231571063 -0.011493649541230871 0 0.27613940784681967 -0.036251722002080641 0 0.26678372231571063 -0.011493649541230871 0 0.27613940784681967 -0.036251722002080641 0 0.26678372231571063 -0.011493649541230871 0 0.27741899960964289 -0.015799745368864509 0 0.27613940784681967 -0.036251722002080641 0 0.25572186475693609 -0.032033227847674262 0 0.26678372231571063 -0.011493649541230871 0 0.27613940784681967 -0.036251722002080641 0 0.27741899960964289 -0.015799745368864509 0 0.29413594975842328 -0.02512550933568073 0 0.27741899960964289 -0.015799745368864509 0 0.29413594975842328 -0.02512550933568073 0 0.28512431700806451 -0.0086992195202469716 0 0.28514691493175248 0.01112824383243886 0 0.28512431700806451 -0.0086992195202469716 0 0.30050921735997521 -0.004605356182754896 0 0.29413594975842328 -0.02512550933568073 0 0.28512431700806451 -0.0086992195202469716 0 0.30050921735997521 -0.004605356182754896 0 0.317215061455216 -0.016157064213598971 0 0.31587151978819911 -0.020338956197947448 0 0.30050921735997521 -0.004605356182754896 0 0.31587151978819911 -0.020338956197947448 0 0.30050921735997521 -0.004605356182754896 0 0.317215061455216 -0.016157064213598971 0 0.30050921735997521 -0.004605356182754896 0 0.30690038754225768 -0.0011800486910433781 0 0.317215061455216 -0.016157064213598971 0 0.30690038754225768 -0.0011800486910433781 0 0.31587151978819911 -0.020338956197947448 0 0.29413594975842328 -0.02512550933568073 0 0.30886460616181383 -0.042148593106558697 0 0.31587151978819911 -0.020338956197947448 0 0.29413594975842328 -0.02512550933568073 0 0.30050921735997521 -0.004605356182754896 0 0.31587151978819911 -0.020338956197947448 0 0.30886460616181383 -0.042148593106558697 0 0.29413594975842328 -0.02512550933568073 0 0.30886460616181383 -0.042148593106558697 0 0.29329854993608251 -0.045698769784483992 0 0.31829608624605688 -0.065472752473192938 0 0.30185769253542699 -0.063958230015169509 0 0.30886460616181383 -0.042148593106558697 0 0.30185769253542699 -0.063958230015169509 0 0.30886460616181383 -0.042148593106558697 0 0.30185769253542699 -0.063958230015169509 0 0.30886460616181383 -0.042148593106558697 0 0.29329854993608251 -0.045698769784483992 0 0.27613940784681967 -0.036251722002080641 0 0.28549509337792828 -0.061009794462930381 0 0.29329854993608251 -0.045698769784483992 0 0.30185769253542699 -0.063958230015169509 0 0.28549509337792828 -0.061009794462930381 0 0.29329854993608251 -0.045698769784483992 0 0.27613940784681967 -0.036251722002080641 0 0.29413594975842328 -0.02512550933568073 0 0.29329854993608251 -0.045698769784483992 0 0.28257577117233168 -0.20518994938083851 0 0.30379191605182437 -0.20471284840499179 0 0.29252942038038049 -0.2260032745248223 0 0.28257577117233168 -0.20518994938083851 0 0.29252942038038049 -0.2260032745248223 0 0.27440370665207992 -0.22158759206732809 0 0.28257577117233168 -0.20518994938083851 0 0.29805932829815662 -0.18954203104115269 0 0.30379191605182437 -0.20471284840499179 0 0.28257577117233168 -0.20518994938083851 0 0.29805932829815662 -0.18954203104115269 0 0.28309810934824442 -0.18139531770741171 0 0.29805932829815662 -0.18954203104115269 0 0.30379191605182437 -0.20471284840499179 0 0.31670590871501719 -0.18767809548444081 0 0.30379191605182437 -0.20471284840499179 0 0.31109634377457301 -0.22154997806035029 0 0.29252942038038049 -0.2260032745248223 0 0.31109634377457301 -0.22154997806035029 0 0.30987088180634448 -0.24125362874219619 0 0.29252942038038049 -0.2260032745248223 0 0.30987088180634448 -0.24125362874219619 0 0.29250997527574701 -0.24677647679701359 0 0.29252942038038049 -0.2260032745248223 0 0.29250997527574701 -0.24677647679701359 0 0.29252942038038049 -0.2260032745248223 0 0.27462122614518292 -0.24127539045551061 0 0.29252942038038049 -0.2260032745248223 0 0.27440370665207992 -0.22158759206732809 0 0.27462122614518292 -0.24127539045551061 0 0.27440370665207992 -0.22158759206732809 0 0.27462122614518292 -0.24127539045551061 0 0.25406429941061343 -0.23112732810889039 0 0.29250997527574701 -0.24677647679701359 0 0.27462122614518292 -0.24127539045551061 0 0.27534065318434953 -0.25880162201512719 0 0.25406429941061343 -0.23112732810889039 0 0.25726365536858148 -0.25362034743760148 0 0.24146341680214309 -0.24448521489457861 0 0.27462122614518292 -0.24127539045551061 0 0.25406429941061343 -0.23112732810889039 0 0.25726365536858148 -0.25362034743760148 0 0.27440370665207992 -0.22158759206732809 0 0.25406429941061343 -0.23112732810889039 0 0.25948399805722178 -0.21095426616987389 0 0.25406429941061343 -0.23112732810889039 0 0.25948399805722178 -0.21095426616987389 0 0.23924146656863479 -0.21600942233651971 0 0.25948399805722178 -0.21095426616987389 0 0.25294493867930001 -0.1971512634910503 0 0.23924146656863479 -0.21600942233651971 0 0.28257577117233168 -0.20518994938083851 0 0.27440370665207992 -0.22158759206732809 0 0.25948399805722178 -0.21095426616987389 0 0.28257577117233168 -0.20518994938083851 0 0.26980921912182793 -0.19283345323968809 0 0.28309810934824442 -0.18139531770741171 0 0.28257577117233168 -0.20518994938083851 0 0.25948399805722178 -0.21095426616987389 0 0.26980921912182793 -0.19283345323968809 0 0.26980921912182793 -0.19283345323968809 0 0.25294493867930001 -0.1971512634910503 0 0.26076150014885863 -0.1842019471946538 0 0.25948399805722178 -0.21095426616987389 0 0.26980921912182793 -0.19283345323968809 0 0.25294493867930001 -0.1971512634910503 0 0.25294493867930001 -0.1971512634910503 0 0.25115080808597218 -0.18349252771031549 0 0.26076150014885863 -0.1842019471946538 0 0.25115080808597218 -0.18349252771031549 0 0.26076150014885863 -0.1842019471946538 0 0.25889962869698091 -0.1746028342129915 0 0.26076150014885863 -0.1842019471946538 0 0.25889962869698091 -0.1746028342129915 0 0.27017957837672091 -0.17747692395416009 0 0.25115080808597218 -0.18349252771031549 0 0.25889962869698091 -0.1746028342129915 0 0.24727016264961249 -0.1692414738038848 0 0.25889962869698091 -0.1746028342129915 0 0.26616743516329899 -0.16248611748055669 0 0.24727016264961249 -0.1692414738038848 0 0.26140577643439422 -0.14332992145424359 0 0.24727016264961249 -0.1692414738038848 0 0.26616743516329899 -0.16248611748055669 0 0.26140577643439422 -0.14332992145424359 0 0.24727016264961249 -0.1692414738038848 0 0.25889962869698091 -0.1746028342129915 0 0.26616743516329899 -0.16248611748055669 0 0.27017957837672091 -0.17747692395416009 0 0.26616743516329899 -0.16248611748055669 0 0.27825348655266058 -0.16907893574793359 0 0.27017957837672091 -0.17747692395416009 0 0.26616743516329899 -0.16248611748055669 0 0.27746834422487981 -0.157383776805052 0 0.26883056353995632 -0.15253713768717189 0 0.26616743516329899 -0.16248611748055669 0 0.27746834422487981 -0.157383776805052 0 0.27825348655266058 -0.16907893574793359 0 0.27825348655266058 -0.16907893574793359 0 0.27017957837672091 -0.17747692395416009 0 0.28309810934824442 -0.18139531770741171 0 0.26980921912182793 -0.19283345323968809 0 0.27017957837672091 -0.17747692395416009 0 0.28309810934824442 -0.18139531770741171 0 0.26980921912182793 -0.19283345323968809 0 0.26076150014885863 -0.1842019471946538 0 0.27017957837672091 -0.17747692395416009 0 0.25959792799319448 -0.13115630782849941 0 0.26140577643439422 -0.14332992145424359 0 0.2441250445765018 -0.1282891748563233 0 0.26250671304934198 -0.1171844924147165 0 0.25959792799319448 -0.13115630782849941 0 0.2441250445765018 -0.1282891748563233 0 0.26616743516329899 -0.16248611748055669 0 0.26140577643439422 -0.14332992145424359 0 0.26883056353995632 -0.15253713768717189 0 0.26140577643439422 -0.14332992145424359 0 0.2760714190023883 -0.1442202816071636 0 0.27744208016659549 -0.13995397779495439 0 0.27746834422487981 -0.157383776805052 0 0.26883056353995632 -0.15253713768717189 0 0.27327340453904758 -0.14909472247049649 0 0.27746834422487981 -0.157383776805052 0 0.27327340453904758 -0.14909472247049649 0 0.27944720334199591 -0.1510298305388795 0 0.27746834422487981 -0.157383776805052 0 0.27944720334199591 -0.1510298305388795 0 0.28543485155381138 -0.1532631785773593 0 0.27944720334199591 -0.1510298305388795 0 0.27867318395593788 -0.14678707333018209 0 0.28267306369304718 -0.14834113794059131 0 0.27327340453904758 -0.14909472247049649 0 0.27944720334199591 -0.1510298305388795 0 0.27867318395593788 -0.14678707333018209 0 0.27327340453904758 -0.14909472247049649 0 0.27867318395593788 -0.14678707333018209 0 0.2760714190023883 -0.1442202816071636 0 0.27867318395593788 -0.14678707333018209 0 0.28203705400801471 -0.14409361128278431 0 0.28267306369304718 -0.14834113794059131 0 0.27867318395593788 -0.14678707333018209 0 0.27862243637812423 -0.14384960257769991 0 0.2760714190023883 -0.1442202816071636 0 0.27867318395593788 -0.14678707333018209 0 0.27862243637812423 -0.14384960257769991 0 0.28203705400801471 -0.14409361128278431 0 0.27862243637812423 -0.14384960257769991 0 0.27744208016659549 -0.13995397779495439 0 0.28203705400801471 -0.14409361128278431 0 0.27862243637812423 -0.14384960257769991 0 0.2760714190023883 -0.1442202816071636 0 0.27744208016659549 -0.13995397779495439 0 0.2760714190023883 -0.1442202816071636 0 0.27744208016659549 -0.13995397779495439 0 0.26140577643439422 -0.14332992145424359 0 0.27327340453904758 -0.14909472247049649 0 0.2760714190023883 -0.1442202816071636 0 0.26140577643439422 -0.14332992145424359 0 0.26883056353995632 -0.15253713768717189 0 0.27327340453904758 -0.14909472247049649 0 0.26250671304934198 -0.1171844924147165 0 0.25959792799319448 -0.13115630782849941 0 0.27744208016659549 -0.13995397779495439 0 0.27500980117207829 -0.12155323577333579 0 0.26250671304934198 -0.1171844924147165 0 0.27744208016659549 -0.13995397779495439 0 0.28377904751550082 -0.12022960778689511 0 0.27500980117207829 -0.12155323577333579 0 0.27744208016659549 -0.13995397779495439 0 0.26250671304934198 -0.1171844924147165 0 0.27744208016659549 -0.13995397779495439 0 0.28377904751550082 -0.12022960778689511 0 0.27744208016659549 -0.13995397779495439 0 0.25959792799319448 -0.13115630782849941 0 0.26140577643439422 -0.14332992145424359 0 0.27744208016659549 -0.13995397779495439 0 0.28377904751550082 -0.12022960778689511 0 0.27744208016659549 -0.13995397779495439 0 0.28932323864627207 -0.13288207724771259 0 0.28377904751550082 -0.12022960778689511 0 0.28932323864627207 -0.13288207724771259 0 0.29867666688697703 -0.1272849549211697 0 0.28932323864627207 -0.13288207724771259 0 0.29298701750044082 -0.14249666764126889 0 0.28471550868115297 -0.14112277714418339 0 0.27744208016659549 -0.13995397779495439 0 0.28932323864627207 -0.13288207724771259 0 0.28471550868115297 -0.14112277714418339 0 0.28932323864627207 -0.13288207724771259 0 0.29298701750044082 -0.14249666764126889 0 0.30163685485285813 -0.1392931605370735 0 0.28932323864627207 -0.13288207724771259 0 0.30163685485285813 -0.1392931605370735 0 0.29867666688697703 -0.1272849549211697 0 0.29298701750044082 -0.14249666764126889 0 0.28777302560547591 -0.14653199597375141 0 0.29658698791447552 -0.15065635986343121 0 0.29298701750044082 -0.14249666764126889 0 0.28471550868115297 -0.14112277714418339 0 0.28777302560547591 -0.14653199597375141 0 0.28471550868115297 -0.14112277714418339 0 0.28203705400801471 -0.14409361128278431 0 0.28777302560547591 -0.14653199597375141 0 0.27744208016659549 -0.13995397779495439 0 0.28471550868115297 -0.14112277714418339 0 0.28203705400801471 -0.14409361128278431 0 0.28203705400801471 -0.14409361128278431 0 0.28267306369304718 -0.14834113794059131 0 0.28777302560547591 -0.14653199597375141 0 0.28267306369304718 -0.14834113794059131 0 0.28777302560547591 -0.14653199597375141 0 0.28543485155381138 -0.1532631785773593 0 0.27944720334199591 -0.1510298305388795 0 0.28267306369304718 -0.14834113794059131 0 0.28543485155381138 -0.1532631785773593 0 0.28543485155381138 -0.1532631785773593 0 0.29658698791447552 -0.15065635986343121 0 0.29083384063311041 -0.16291767632429169 0 0.28777302560547591 -0.14653199597375141 0 0.28543485155381138 -0.1532631785773593 0 0.29658698791447552 -0.15065635986343121 0 0.29658698791447552 -0.15065635986343121 0 0.30903803874224028 -0.154944676915485 0 0.29083384063311041 -0.16291767632429169 0 0.30903803874224028 -0.154944676915485 0 0.30163685485285813 -0.1392931605370735 0 0.31552056866096628 -0.14046660072871581 0 0.29658698791447552 -0.15065635986343121 0 0.30903803874224028 -0.154944676915485 0 0.30163685485285813 -0.1392931605370735 0 0.29298701750044082 -0.14249666764126889 0 0.29658698791447552 -0.15065635986343121 0 0.30163685485285813 -0.1392931605370735 0 0.30163685485285813 -0.1392931605370735 0 0.29867666688697703 -0.1272849549211697 0 0.31552056866096628 -0.14046660072871581 0 0.30701266551867318 -0.11795202584412939 0 0.31552056866096628 -0.14046660072871581 0 0.30701266551867318 -0.11795202584412939 0 0.29867666688697703 -0.1272849549211697 0 0.31552056866096628 -0.14046660072871581 0 0.29805932829815662 -0.18954203104115269 0 0.28309810934824442 -0.18139531770741171 0 0.30374566956112747 -0.172867968401477 0 0.28309810934824442 -0.18139531770741171 0 0.29083384063311041 -0.16291767632429169 0 0.30374566956112747 -0.172867968401477 0 0.27825348655266058 -0.16907893574793359 0 0.28309810934824442 -0.18139531770741171 0 0.29083384063311041 -0.16291767632429169 0 0.27746834422487981 -0.157383776805052 0 0.27825348655266058 -0.16907893574793359 0 0.29083384063311041 -0.16291767632429169 0 0.27746834422487981 -0.157383776805052 0 0.28543485155381138 -0.1532631785773593 0 0.29083384063311041 -0.16291767632429169 0 0.30903803874224028 -0.154944676915485 0 0.30374566956112747 -0.172867968401477 0 0.3240284718032595 -0.16298117561330211 0 0.30903803874224028 -0.154944676915485 0 0.29083384063311041 -0.16291767632429169 0 0.30374566956112747 -0.172867968401477 0 0.29805932829815662 -0.18954203104115269 0 0.30374566956112747 -0.172867968401477 0 0.31670590871501719 -0.18767809548444081 0 0.30374566956112747 -0.172867968401477 0 0.3240284718032595 -0.16298117561330211 0 0.31670590871501719 -0.18767809548444081 0 0.3240284718032595 -0.16298117561330211 0 0.33253637494555272 -0.18549575049788841 0 0.31670590871501719 -0.18767809548444081 0 0.3240284718032595 -0.16298117561330211 0 0.33799671017450289 -0.15427059616939481 0 0.34627497421775172 -0.16712500364912669 0 0.3240284718032595 -0.16298117561330211 0 0.33253637494555272 -0.18549575049788841 0 0.34627497421775172 -0.16712500364912669 0 0.34627497421775172 -0.16712500364912669 0 0.34011486294275067 -0.1930235804920396 0 0.33253637494555272 -0.18549575049788841 0 0.34627497421775172 -0.16712500364912669 0 0.34011486294275067 -0.1930235804920396 0 0.3240284718032595 -0.16298117561330211 0 0.33253637494555272 -0.18549575049788841 0 0.31552056866096628 -0.14046660072871581 0 0.32253171804754088 -0.12501427821952829 0 0.33350864076215958 -0.14068733778211151 0 0.30701266551867318 -0.11795202584412939 0 0.31552056866096628 -0.14046660072871581 0 0.32253171804754088 -0.12501427821952829 0 0.3240284718032595 -0.16298117561330211 0 0.31552056866096628 -0.14046660072871581 0 0.33350864076215958 -0.14068733778211151 0 0.3240284718032595 -0.16298117561330211 0 0.31552056866096628 -0.14046660072871581 0 0.30903803874224028 -0.154944676915485 0 0.3240284718032595 -0.16298117561330211 0 0.31552056866096628 -0.14046660072871581 0 0.3240284718032595 -0.16298117561330211 0 0.33799671017450289 -0.15427059616939481 0 0.33350864076215958 -0.14068733778211151 0 0.33799671017450289 -0.15427059616939481 0 0.33350864076215958 -0.14068733778211151 0 0.35233452294063261 -0.141202487244703 0 0.33350864076215958 -0.14068733778211151 0 0.34402529308911528 -0.13391297654823131 0 0.35233452294063261 -0.141202487244703 0 0.32253171804754088 -0.12501427821952829 0 0.33350864076215958 -0.14068733778211151 0 0.34004518790650529 -0.12527848050574 0 0.33350864076215958 -0.14068733778211151 0 0.34004518790650529 -0.12527848050574 0 0.34402529308911528 -0.13391297654823131 0 0.34004518790650529 -0.12527848050574 0 0.35606369033391522 -0.1259709067163762 0 0.34402529308911528 -0.13391297654823131 0 0.35606369033391522 -0.1259709067163762 0 0.34402529308911528 -0.13391297654823131 0 0.35233452294063261 -0.141202487244703 0 0.35606369033391522 -0.1259709067163762 0 0.35233452294063261 -0.141202487244703 0 0.33799671017450289 -0.15427059616939481 0 0.35233452294063261 -0.141202487244703 0 0.34627497421775172 -0.16712500364912669 0 0.35233452294063261 -0.141202487244703 0 0.34627497421775172 -0.16712500364912669 0 0.35233452294063261 -0.141202487244703 0 0.34627497421775172 -0.16712500364912669 0 0.36205375531824391 -0.1583193433668508 0 0.35233452294063261 -0.141202487244703 0 0.37378191529930621 -0.14944718128022591 0 0.37093785636814908 -0.13798691163813531 0 0.35233452294063261 -0.141202487244703 0 0.37378191529930621 -0.14944718128022591 0 0.36205375531824391 -0.1583193433668508 0 0.37378191529930621 -0.14944718128022591 0 0.36205375531824391 -0.1583193433668508 0 0.37308854109455708 -0.16093157526259191 0 0.35606369033391522 -0.1259709067163762 0 0.35233452294063261 -0.141202487244703 0 0.37093785636814908 -0.13798691163813531 0 0.35233452294063261 -0.141202487244703 0 0.37093785636814908 -0.13798691163813531 0 0.37980885755413418 -0.11928611433555709 0 0.36703358201424818 -0.1205643964158449 0 0.37093785636814908 -0.13798691163813531 0 0.36703358201424818 -0.1205643964158449 0 0.35606369033391522 -0.1259709067163762 0 0.37093785636814908 -0.13798691163813531 0 0.35440938842994413 -0.18403818521213361 0 0.34627497421775172 -0.16712500364912669 0 0.34011486294275067 -0.1930235804920396 0 0.35440938842994413 -0.18403818521213361 0 0.34627497421775172 -0.16712500364912669 0 0.36427806099096738 -0.1715772602872144 0 0.34627497421775172 -0.16712500364912669 0 0.36427806099096738 -0.1715772602872144 0 0.36205375531824391 -0.1583193433668508 0 0.36427806099096738 -0.1715772602872144 0 0.37308854109455708 -0.16093157526259191 0 0.38040919016197472 -0.17194589761299089 0 0.36427806099096738 -0.1715772602872144 0 0.36205375531824391 -0.1583193433668508 0 0.37308854109455708 -0.16093157526259191 0 0.36427806099096738 -0.1715772602872144 0 0.37230187155944527 -0.18410680502223259 0 0.38040919016197472 -0.17194589761299089 0 0.35440938842994413 -0.18403818521213361 0 0.36427806099096738 -0.1715772602872144 0 0.37230187155944527 -0.18410680502223259 0 0.37230187155944527 -0.18410680502223259 0 0.36943541324010287 -0.20186706000128449 0 0.35149154164174501 -0.20315574626222041 0 0.37230187155944527 -0.18410680502223259 0 0.36943541324010287 -0.20186706000128449 0 0.38044042972011022 -0.19453179374419641 0 0.37230187155944527 -0.18410680502223259 0 0.35149154164174501 -0.20315574626222041 0 0.35440938842994413 -0.18403818521213361 0 0.37230187155944527 -0.18410680502223259 0 0.35149154164174501 -0.20315574626222041 0 0.36366819524513028 -0.21031437113148671 0 0.35862104841248232 -0.2228308520016947 0 0.37925693361890289 -0.2120285714887051 0 0.36943541324010287 -0.20186706000128449 0 0.36366819524513028 -0.21031437113148671 0 0.35149154164174501 -0.20315574626222041 0 0.36943541324010287 -0.20186706000128449 0 0.36366819524513028 -0.21031437113148671 0 0.37925693361890289 -0.2120285714887051 0 0.35149154164174501 -0.20315574626222041 0 0.33068121172404469 -0.22220468750220829 0 0.35862104841248232 -0.2228308520016947 0 0.36366819524513028 -0.21031437113148671 0 0.35149154164174501 -0.20315574626222041 0 0.35862104841248232 -0.2228308520016947 0 0.35440938842994413 -0.18403818521213361 0 0.35149154164174501 -0.20315574626222041 0 0.34011486294275067 -0.1930235804920396 0 0.35149154164174501 -0.20315574626222041 0 0.34011486294275067 -0.1930235804920396 0 0.3308500388182079 -0.19477209315265531 0 0.35149154164174501 -0.20315574626222041 0 0.3308500388182079 -0.19477209315265531 0 0.32373992820587338 -0.20544181336631709 0 0.33253637494555272 -0.18549575049788841 0 0.34011486294275067 -0.1930235804920396 0 0.3308500388182079 -0.19477209315265531 0 0.35149154164174501 -0.20315574626222041 0 0.32373992820587338 -0.20544181336631709 0 0.33068121172404469 -0.22220468750220829 0 0.35149154164174501 -0.20315574626222041 0 0.33068121172404469 -0.22220468750220829 0 0.30379191605182437 -0.20471284840499179 0 0.31109634377457301 -0.22154997806035029 0 0.32373992820587338 -0.20544181336631709 0 0.31109634377457301 -0.22154997806035029 0 0.32373992820587338 -0.20544181336631709 0 0.33068121172404469 -0.22220468750220829 0 0.3308500388182079 -0.19477209315265531 0 0.32373992820587338 -0.20544181336631709 0 0.31670590871501719 -0.18767809548444081 0 0.33253637494555272 -0.18549575049788841 0 0.3308500388182079 -0.19477209315265531 0 0.31670590871501719 -0.18767809548444081 0 0.30379191605182437 -0.20471284840499179 0 0.32373992820587338 -0.20544181336631709 0 0.31670590871501719 -0.18767809548444081 0 0.30987088180634448 -0.24125362874219619 0 0.33627474799740559 -0.24529035195854479 0 0.32740146312166057 -0.2615598439342075 0 0.30987088180634448 -0.24125362874219619 0 0.33068121172404469 -0.22220468750220829 0 0.33627474799740559 -0.24529035195854479 0 0.31109634377457301 -0.22154997806035029 0 0.30987088180634448 -0.24125362874219619 0 0.33068121172404469 -0.22220468750220829 0 0.30987088180634448 -0.24125362874219619 0 0.33068121172404469 -0.22220468750220829 0 0.33068121172404469 -0.22220468750220829 0 0.33627474799740559 -0.24529035195854479 0 0.34620802689974478 -0.2341148902952345 0 0.33627474799740559 -0.24529035195854479 0 0.3592550994650468 -0.24613366971849041 0 0.34620802689974478 -0.2341148902952345 0 0.33068121172404469 -0.22220468750220829 0 0.34620802689974478 -0.2341148902952345 0 0.35862104841248232 -0.2228308520016947 0 0.3592550994650468 -0.24613366971849041 0 0.34620802689974478 -0.2341148902952345 0 0.35862104841248232 -0.2228308520016947 0 0.35862104841248232 -0.2228308520016947 0 0.37496953662933208 -0.22868277770556319 0 0.37925693361890289 -0.2120285714887051 0 0.3592550994650468 -0.24613366971849041 0 0.35862104841248232 -0.2228308520016947 0 0.37496953662933208 -0.22868277770556319 0 0.3592550994650468 -0.24613366971849041 0 0.37496953662933208 -0.22868277770556319 0 0.37997975350283419 -0.24239130628825581 0 0.3592550994650468 -0.24613366971849041 0 0.37997975350283419 -0.24239130628825581 0 0.37962897743813367 -0.25651992395937562 0 0.37997975350283419 -0.24239130628825581 0 0.39078422201957003 -0.24969070593678949 0 0.39374115574330237 -0.23275594279604889 0 0.37496953662933208 -0.22868277770556319 0 0.37997975350283419 -0.24239130628825581 0 0.39374115574330237 -0.23275594279604889 0 0.37997975350283419 -0.24239130628825581 0 0.39078422201957003 -0.24969070593678949 0 0.37962897743813367 -0.25651992395937562 0 0.39078422201957003 -0.24969070593678949 0 0.40271577749504128 -0.24808950568319249 0 0.39374115574330237 -0.23275594279604889 0 0.40271577749504128 -0.24808950568319249 0 0.39374115574330237 -0.23275594279604889 0 0.41071323046394659 -0.2405815597806012 0 0.39374115574330237 -0.23275594279604889 0 0.40098237452119001 -0.21274615241137729 0 0.41052741769560203 -0.22783696307390669 0 0.39374115574330237 -0.23275594279604889 0 0.41071323046394659 -0.2405815597806012 0 0.41052741769560203 -0.22783696307390669 0 0.39374115574330237 -0.23275594279604889 0 0.37925693361890289 -0.2120285714887051 0 0.40098237452119001 -0.21274615241137729 0 0.37496953662933208 -0.22868277770556319 0 0.39374115574330237 -0.23275594279604889 0 0.37925693361890289 -0.2120285714887051 0 0.36943541324010287 -0.20186706000128449 0 0.37925693361890289 -0.2120285714887051 0 0.38044042972011022 -0.19453179374419641 0 0.37925693361890289 -0.2120285714887051 0 0.38044042972011022 -0.19453179374419641 0 0.39584695818252569 -0.1933624959239181 0 0.38044042972011022 -0.19453179374419641 0 0.39584695818252569 -0.1933624959239181 0 0.3883302688968957 -0.18261969374673129 0 0.39584695818252569 -0.1933624959239181 0 0.40098237452119001 -0.21274615241137729 0 0.4098684358706004 -0.20142281071300391 0 0.39584695818252569 -0.1933624959239181 0 0.4098684358706004 -0.20142281071300391 0 0.41232050953237392 -0.17982343258281169 0 0.37925693361890289 -0.2120285714887051 0 0.39584695818252569 -0.1933624959239181 0 0.40098237452119001 -0.21274615241137729 0 0.41622029565463942 -0.21609362125780859 0 0.4098684358706004 -0.20142281071300391 0 0.4264315356173396 -0.20432849808395781 0 0.40098237452119001 -0.21274615241137729 0 0.41622029565463942 -0.21609362125780859 0 0.4098684358706004 -0.20142281071300391 0 0.4098684358706004 -0.20142281071300391 0 0.4264315356173396 -0.20432849808395781 0 0.41232050953237392 -0.17982343258281169 0 0.4264315356173396 -0.20432849808395781 0 0.41232050953237392 -0.17982343258281169 0 0.4264315356173396 -0.20432849808395781 0 0.43189275347364769 -0.18601108132065861 0 0.4422427041991972 -0.19293897445371649 0 0.4264315356173396 -0.20432849808395781 0 0.41232050953237392 -0.17982343258281169 0 0.43189275347364769 -0.18601108132065861 0 0.4264315356173396 -0.20432849808395781 0 0.44054256170230521 -0.22883356358510401 0 0.4264315356173396 -0.20432849808395781 0 0.42740075470870198 -0.2217522577010006 0 0.44054256170230521 -0.22883356358510401 0 0.41622029565463942 -0.21609362125780859 0 0.4264315356173396 -0.20432849808395781 0 0.42740075470870198 -0.2217522577010006 0 0.41622029565463942 -0.21609362125780859 0 0.42740075470870198 -0.2217522577010006 0 0.42211125551440248 -0.22847504556360529 0 0.42740075470870198 -0.2217522577010006 0 0.42211125551440248 -0.22847504556360529 0 0.43135414754850671 -0.23039238084196881 0 0.42211125551440248 -0.22847504556360529 0 0.42953670257014748 -0.23642300718324211 0 0.42008770906388448 -0.23759219001855961 0 0.42211125551440248 -0.22847504556360529 0 0.43135414754850671 -0.23039238084196881 0 0.42953670257014748 -0.23642300718324211 0 0.43135414754850671 -0.23039238084196881 0 0.43570292594701721 -0.2354153486954452 0 0.44054256170230521 -0.22883356358510401 0 0.42740075470870198 -0.2217522577010006 0 0.43135414754850671 -0.23039238084196881 0 0.44054256170230521 -0.22883356358510401 0 0.43135414754850671 -0.23039238084196881 0 0.43570292594701721 -0.2354153486954452 0 0.42953670257014748 -0.23642300718324211 0 0.43570292594701721 -0.2354153486954452 0 0.43468079386219632 -0.24191883787933049 0 0.44107348969050558 -0.240693309601615 0 0.43468079386219632 -0.24191883787933049 0 0.4271596561998503 -0.244205651647634 0 0.42953670257014748 -0.23642300718324211 0 0.43570292594701721 -0.2354153486954452 0 0.43468079386219632 -0.24191883787933049 0 0.42953670257014748 -0.23642300718324211 0 0.43292967301130941 -0.2488540036824014 0 0.43917511256413022 -0.2466480151322302 0 0.43871762778532231 -0.25212208882244802 0 0.43468079386219632 -0.24191883787933049 0 0.43292967301130941 -0.2488540036824014 0 0.43917511256413022 -0.2466480151322302 0 0.43468079386219632 -0.24191883787933049 0 0.43292967301130941 -0.2488540036824014 0 0.4271596561998503 -0.244205651647634 0 0.4271596561998503 -0.244205651647634 0 0.4190014546393992 -0.24696823138092139 0 0.42541254610488072 -0.25270056741268049 0 0.43292967301130941 -0.2488540036824014 0 0.4271596561998503 -0.244205651647634 0 0.42541254610488072 -0.25270056741268049 0 0.4271596561998503 -0.244205651647634 0 0.42008770906388448 -0.23759219001855961 0 0.4190014546393992 -0.24696823138092139 0 0.4271596561998503 -0.244205651647634 0 0.42953670257014748 -0.23642300718324211 0 0.42008770906388448 -0.23759219001855961 0 0.42008770906388448 -0.23759219001855961 0 0.4190014546393992 -0.24696823138092139 0 0.41071323046394659 -0.2405815597806012 0 0.4190014546393992 -0.24696823138092139 0 0.41071323046394659 -0.2405815597806012 0 0.41170531542548788 -0.25126417515390992 0 0.40271577749504128 -0.24808950568319249 0 0.41071323046394659 -0.2405815597806012 0 0.41170531542548788 -0.25126417515390992 0 0.42008770906388448 -0.23759219001855961 0 0.41071323046394659 -0.2405815597806012 0 0.41052741769560203 -0.22783696307390669 0 0.40098237452119001 -0.21274615241137729 0 0.41622029565463942 -0.21609362125780859 0 0.41052741769560203 -0.22783696307390669 0 0.41622029565463942 -0.21609362125780859 0 0.42211125551440248 -0.22847504556360529 0 0.41052741769560203 -0.22783696307390669 0 0.42211125551440248 -0.22847504556360529 0 0.42008770906388448 -0.23759219001855961 0 0.41052741769560203 -0.22783696307390669 0 0.38943037724261159 -0.1347904899183642 0 0.39869330261889507 -0.14602014112377221 0 0.41208161927757919 -0.13087523561031761 0 0.40724277249555002 -0.1192463337858536 0 0.38943037724261159 -0.1347904899183642 0 0.41208161927757919 -0.13087523561031761 0 0.38943037724261159 -0.1347904899183642 0 0.41208161927757919 -0.13087523561031761 0 0.37980885755413418 -0.11928611433555709 0 0.37093785636814908 -0.13798691163813531 0 0.38943037724261159 -0.1347904899183642 0 0.37093785636814908 -0.13798691163813531 0 0.38943037724261159 -0.1347904899183642 0 0.37378191529930621 -0.14944718128022591 0 0.38943037724261159 -0.1347904899183642 0 0.38491978370229318 -0.15336819376567751 0 0.38943037724261159 -0.1347904899183642 0 0.38491978370229318 -0.15336819376567751 0 0.37378191529930621 -0.14944718128022591 0 0.37093785636814908 -0.13798691163813531 0 0.38943037724261159 -0.1347904899183642 0 0.37378191529930621 -0.14944718128022591 0 0.37308854109455708 -0.16093157526259191 0 0.38491978370229318 -0.15336819376567751 0 0.39869330261889507 -0.14602014112377221 0 0.39311220147714548 -0.16505786378224471 0 0.41392253139484558 -0.14600892254225711 0 0.38491978370229318 -0.15336819376567751 0 0.39869330261889507 -0.14602014112377221 0 0.39311220147714548 -0.16505786378224471 0 0.38943037724261159 -0.1347904899183642 0 0.38491978370229318 -0.15336819376567751 0 0.39869330261889507 -0.14602014112377221 0 0.39311220147714548 -0.16505786378224471 0 0.41392253139484558 -0.14600892254225711 0 0.39311220147714548 -0.16505786378224471 0 0.41068030945659773 -0.16570921719709561 0 0.41392253139484558 -0.14600892254225711 0 0.39311220147714548 -0.16505786378224471 0 0.39994988354525202 -0.1760395102610646 0 0.41068030945659773 -0.16570921719709561 0 0.38491978370229318 -0.15336819376567751 0 0.39311220147714548 -0.16505786378224471 0 0.38040919016197472 -0.17194589761299089 0 0.37308854109455708 -0.16093157526259191 0 0.38491978370229318 -0.15336819376567751 0 0.38040919016197472 -0.17194589761299089 0 0.38491978370229318 -0.15336819376567751 0 0.38040919016197472 -0.17194589761299089 0 0.37230187155944527 -0.18410680502223259 0 0.39311220147714548 -0.16505786378224471 0 0.3883302688968957 -0.18261969374673129 0 0.37230187155944527 -0.18410680502223259 0 0.39311220147714548 -0.16505786378224471 0 0.38040919016197472 -0.17194589761299089 0 0.37230187155944527 -0.18410680502223259 0 0.38044042972011022 -0.19453179374419641 0 0.3883302688968957 -0.18261969374673129 0 0.37230187155944527 -0.18410680502223259 0 0.39311220147714548 -0.16505786378224471 0 0.39584695818252569 -0.1933624959239181 0 0.39994988354525202 -0.1760395102610646 0 0.41232050953237392 -0.17982343258281169 0 0.39584695818252569 -0.1933624959239181 0 0.3883302688968957 -0.18261969374673129 0 0.39994988354525202 -0.1760395102610646 0 0.39311220147714548 -0.16505786378224471 0 0.3883302688968957 -0.18261969374673129 0 0.39994988354525202 -0.1760395102610646 0 0.39994988354525202 -0.1760395102610646 0 0.41232050953237392 -0.17982343258281169 0 0.41068030945659773 -0.16570921719709561 0 0.41232050953237392 -0.17982343258281169 0 0.42257653670861861 -0.1716129151356913 0 0.41068030945659773 -0.16570921719709561 0 0.43189275347364769 -0.18601108132065861 0 0.42257653670861861 -0.1716129151356913 0 0.43412364138782639 -0.16920851808495629 0 0.43189275347364769 -0.18601108132065861 0 0.43412364138782639 -0.16920851808495629 0 0.44001273516831668 -0.1783764172762527 0 0.41232050953237392 -0.17982343258281169 0 0.43189275347364769 -0.18601108132065861 0 0.42257653670861861 -0.1716129151356913 0 0.43412364138782639 -0.16920851808495629 0 0.42386546969264721 -0.157312326492934 0 0.43988674428557012 -0.15629540566381109 0 0.42257653670861861 -0.1716129151356913 0 0.43412364138782639 -0.16920851808495629 0 0.42386546969264721 -0.157312326492934 0 0.42386546969264721 -0.157312326492934 0 0.41068030945659773 -0.16570921719709561 0 0.41392253139484558 -0.14600892254225711 0 0.42257653670861861 -0.1716129151356913 0 0.42386546969264721 -0.157312326492934 0 0.41068030945659773 -0.16570921719709561 0 0.39869330261889507 -0.14602014112377221 0 0.41392253139484558 -0.14600892254225711 0 0.41208161927757919 -0.13087523561031761 0 0.42386546969264721 -0.157312326492934 0 0.41392253139484558 -0.14600892254225711 0 0.43230421280140441 -0.1433416226119455 0 0.42386546969264721 -0.157312326492934 0 0.43230421280140441 -0.1433416226119455 0 0.43988674428557012 -0.15629540566381109 0 0.42661387223904329 -0.12098454377727109 0 0.43473286131254663 -0.1269599813022704 0 0.41208161927757919 -0.13087523561031761 0 0.41392253139484558 -0.14600892254225711 0 0.43230421280140441 -0.1433416226119455 0 0.43473286131254663 -0.1269599813022704 0 0.43230421280140441 -0.1433416226119455 0 0.43473286131254663 -0.1269599813022704 0 0.43648454183824659 -0.13175811878196239 0 0.41392253139484558 -0.14600892254225711 0 0.43473286131254663 -0.1269599813022704 0 0.43473286131254663 -0.1269599813022704 0 0.41208161927757919 -0.13087523561031761 0 0.43473286131254663 -0.1269599813022704 0 0.43652399803370612 -0.1266503843383173 0 0.43473286131254663 -0.1269599813022704 0 0.43652399803370612 -0.1266503843383173 0 0.43686479974981568 -0.1288436488615915 0 0.43473286131254663 -0.1269599813022704 0 0.43686479974981568 -0.1288436488615915 0 0.43648454183824659 -0.13175811878196239 0 0.41392253139484558 -0.14600892254225711 0 0.43473286131254663 -0.1269599813022704 0 0.41208161927757919 -0.13087523561031761 0 0.46233294642030121 -0.13029577410444981 0 0.4507048422038758 -0.1254569291466279 0 0.44969735458306581 -0.1318629992909984 0 0.46233294642030121 -0.13029577410444981 0 0.44969735458306581 -0.1318629992909984 0 0.44471813751157008 -0.14226443976851619 0 0.4507048422038758 -0.1254569291466279 0 0.44969735458306581 -0.1318629992909984 0 0.44103349219651622 -0.1294348541443999 0 0.43686479974981568 -0.1288436488615915 0 0.43648454183824659 -0.13175811878196239 0 0.44103349219651622 -0.1294348541443999 0 0.43652399803370612 -0.1266503843383173 0 0.43686479974981568 -0.1288436488615915 0 0.44103349219651622 -0.1294348541443999 0 0.44969735458306581 -0.1318629992909984 0 0.44103349219651622 -0.1294348541443999 0 0.44471813751157008 -0.14226443976851619 0 0.43648454183824659 -0.13175811878196239 0 0.44103349219651622 -0.1294348541443999 0 0.44471813751157008 -0.14226443976851619 0 0.43230421280140441 -0.1433416226119455 0 0.43648454183824659 -0.13175811878196239 0 0.44471813751157008 -0.14226443976851619 0 0.44471813751157008 -0.14226443976851619 0 0.45766723532789633 -0.15879666333412101 0 0.43988674428557012 -0.15629540566381109 0 0.43230421280140441 -0.1433416226119455 0 0.44471813751157008 -0.14226443976851619 0 0.43988674428557012 -0.15629540566381109 0 0.46233294642030121 -0.13029577410444981 0 0.45766723532789633 -0.15879666333412101 0 0.46233294642030121 -0.13029577410444981 0 0.45766723532789633 -0.15879666333412101 0 0.47903454186700689 -0.14491860817462909 0 0.46233294642030121 -0.13029577410444981 0 0.44471813751157008 -0.14226443976851619 0 0.45766723532789633 -0.15879666333412101 0 0.45766723532789633 -0.15879666333412101 0 0.43988674428557012 -0.15629540566381109 0 0.4458378175146181 -0.17411517349359901 0 0.43412364138782639 -0.16920851808495629 0 0.43988674428557012 -0.15629540566381109 0 0.4458378175146181 -0.17411517349359901 0 0.45766723532789633 -0.15879666333412101 0 0.4458378175146181 -0.17411517349359901 0 0.45300152423549178 -0.1872975525637923 0 0.43412364138782639 -0.16920851808495629 0 0.4458378175146181 -0.17411517349359901 0 0.44001273516831668 -0.1783764172762527 0 0.4458378175146181 -0.17411517349359901 0 0.44001273516831668 -0.1783764172762527 0 0.44489139372352893 -0.18154716366216431 0 0.43189275347364769 -0.18601108132065861 0 0.44001273516831668 -0.1783764172762527 0 0.4419738252115778 -0.1858134044909181 0 0.44001273516831668 -0.1783764172762527 0 0.44489139372352893 -0.18154716366216431 0 0.4419738252115778 -0.1858134044909181 0 0.4458378175146181 -0.17411517349359901 0 0.45051520093052061 -0.18628588467377419 0 0.45300152423549178 -0.1872975525637923 0 0.4458378175146181 -0.17411517349359901 0 0.44489139372352893 -0.18154716366216431 0 0.45051520093052061 -0.18628588467377419 0 0.44489139372352893 -0.18154716366216431 0 0.4419738252115778 -0.1858134044909181 0 0.45051520093052061 -0.18628588467377419 0 0.45051520093052061 -0.18628588467377419 0 0.45300152423549178 -0.1872975525637923 0 0.45766723532789633 -0.15879666333412101 0 0.45300152423549178 -0.1872975525637923 0 0.47602254605796679 -0.17263393053228049 0 0.45300152423549178 -0.1872975525637923 0 0.47602254605796679 -0.17263393053228049 0 0.47650076211774711 -0.19685923119094451 0 0.45766723532789633 -0.15879666333412101 0 0.45300152423549178 -0.1872975525637923 0 0.47602254605796679 -0.17263393053228049 0 0.5 -0.18210721193063359 0 0.47650076211774711 -0.19685923119094451 0 0.47602254605796679 -0.17263393053228049 0 0.5 -0.18210721193063359 0 0.5 -0.15779351404316869 0 0.47602254605796679 -0.17263393053228049 0 0.5 -0.15779351404316869 0 0.47903454186700689 -0.14491860817462909 0 0.45766723532789633 -0.15879666333412101 0 0.47602254605796679 -0.17263393053228049 0 0.47903454186700689 -0.14491860817462909 0 0.5 -0.15779351404316869 0 0.47903454186700689 -0.14491860817462909 0 0.5 -0.13347981615570359 0 0.47818452339587708 -0.1165119508780514 0 0.47903454186700689 -0.14491860817462909 0 0.5 -0.13347981615570359 0 0.47818452339587708 -0.1165119508780514 0 0.46233294642030121 -0.13029577410444981 0 0.47903454186700689 -0.14491860817462909 0 0.46031275976808328 -0.23316788994673901 0 0.45494703228505612 -0.22365309056703511 0 0.45215825402727128 -0.23076677405108431 0 0.46031275976808328 -0.23316788994673901 0 0.45530172715096351 -0.23784707953664069 0 0.45215825402727128 -0.23076677405108431 0 0.46031275976808328 -0.23316788994673901 0 0.45494703228505612 -0.22365309056703511 0 0.46412837801973811 -0.21929252942849389 0 0.46031275976808328 -0.23316788994673901 0 0.46412837801973811 -0.21929252942849389 0 0.47030631581894022 -0.23354799250188951 0 0.46031275976808328 -0.23316788994673901 0 0.46848515047489081 -0.24338241864882551 0 0.46066141885548939 -0.24148158248895141 0 0.46031275976808328 -0.23316788994673901 0 0.46848515047489081 -0.24338241864882551 0 0.47030631581894022 -0.23354799250188951 0 0.46848515047489081 -0.24338241864882551 0 0.47379426967759908 -0.2551161382871 0 0.45921282319897938 -0.25088534477896152 0 0.46848515047489081 -0.24338241864882551 0 0.46066141885548939 -0.24148158248895141 0 0.45921282319897938 -0.25088534477896152 0 0.46066141885548939 -0.24148158248895141 0 0.45530172715096351 -0.23784707953664069 0 0.45921282319897938 -0.25088534477896152 0 0.46031275976808328 -0.23316788994673901 0 0.46066141885548939 -0.24148158248895141 0 0.45530172715096351 -0.23784707953664069 0 0.44552755473851618 -0.24512414212957201 0 0.44054256170230521 -0.22883356358510401 0 0.45465358778727077 -0.25333862908624999 0 0.44416337990499422 -0.23293380641746719 0 0.45921282319897938 -0.25088534477896152 0 0.45465358778727077 -0.25333862908624999 0 0.45530172715096351 -0.23784707953664069 0 0.44416337990499422 -0.23293380641746719 0 0.45921282319897938 -0.25088534477896152 0 0.44054256170230521 -0.22883356358510401 0 0.44416337990499422 -0.23293380641746719 0 0.45465358778727077 -0.25333862908624999 0 0.44054256170230521 -0.22883356358510401 0 0.45465358778727077 -0.25333862908624999 0 0.44416337990499422 -0.23293380641746719 0 0.45921282319897938 -0.25088534477896152 0 0.44552755473851618 -0.24512414212957201 0 0.44107348969050558 -0.240693309601615 0 0.44054256170230521 -0.22883356358510401 0 0.44552755473851618 -0.24512414212957201 0 0.44412948591815982 -0.25166394159908168 0 0.44816248816364901 -0.25238097519102243 0 0.44247641072782801 -0.24603235211562469 0 0.43917511256413022 -0.2466480151322302 0 0.44412948591815982 -0.25166394159908168 0 0.44552755473851618 -0.24512414212957201 0 0.44247641072782801 -0.24603235211562469 0 0.44412948591815982 -0.25166394159908168 0 0.44552755473851618 -0.24512414212957201 0 0.44247641072782801 -0.24603235211562469 0 0.44107348969050558 -0.240693309601615 0 0.43468079386219632 -0.24191883787933049 0 0.43917511256413022 -0.2466480151322302 0 0.44107348969050558 -0.240693309601615 0 0.44247641072782801 -0.24603235211562469 0 0.43917511256413022 -0.2466480151322302 0 0.44107348969050558 -0.240693309601615 0 0.43570292594701721 -0.2354153486954452 0 0.44107348969050558 -0.240693309601615 0 0.44054256170230521 -0.22883356358510401 0 0.4264315356173396 -0.20432849808395781 0 0.44054256170230521 -0.22883356358510401 0 0.44673315619821857 -0.2255884067429007 0 0.44054256170230521 -0.22883356358510401 0 0.44416337990499422 -0.23293380641746719 0 0.44673315619821857 -0.2255884067429007 0 0.44416337990499422 -0.23293380641746719 0 0.45215825402727128 -0.23076677405108431 0 0.44673315619821857 -0.2255884067429007 0 0.45530172715096351 -0.23784707953664069 0 0.44416337990499422 -0.23293380641746719 0 0.45215825402727128 -0.23076677405108431 0 0.45494703228505612 -0.22365309056703511 0 0.45215825402727128 -0.23076677405108431 0 0.44673315619821857 -0.2255884067429007 0 0.4264315356173396 -0.20432849808395781 0 0.44673315619821857 -0.2255884067429007 0 0.44986734021685498 -0.20644297965334649 0 0.44673315619821857 -0.2255884067429007 0 0.44986734021685498 -0.20644297965334649 0 0.45494703228505612 -0.22365309056703511 0 0.44673315619821857 -0.2255884067429007 0 0.44986734021685498 -0.20644297965334649 0 0.45300152423549178 -0.1872975525637923 0 0.44986734021685498 -0.20644297965334649 0 0.4422427041991972 -0.19293897445371649 0 0.45300152423549178 -0.1872975525637923 0 0.44986734021685498 -0.20644297965334649 0 0.4264315356173396 -0.20432849808395781 0 0.44986734021685498 -0.20644297965334649 0 0.4422427041991972 -0.19293897445371649 0 0.43189275347364769 -0.18601108132065861 0 0.4419738252115778 -0.1858134044909181 0 0.4422427041991972 -0.19293897445371649 0 0.4419738252115778 -0.1858134044909181 0 0.45051520093052061 -0.18628588467377419 0 0.4422427041991972 -0.19293897445371649 0 0.45051520093052061 -0.18628588467377419 0 0.45300152423549178 -0.1872975525637923 0 0.4422427041991972 -0.19293897445371649 0 0.45300152423549178 -0.1872975525637923 0 0.47650076211774711 -0.19685923119094451 0 0.45300152423549178 -0.1872975525637923 0 0.44986734021685498 -0.20644297965334649 0 0.46374770476768601 -0.204378797979305 0 0.45300152423549178 -0.1872975525637923 0 0.46374770476768601 -0.204378797979305 0 0.47650076211774711 -0.19685923119094451 0 0.45494703228505612 -0.22365309056703511 0 0.46412837801973811 -0.21929252942849389 0 0.44986734021685498 -0.20644297965334649 0 0.46412837801973811 -0.21929252942849389 0 0.44986734021685498 -0.20644297965334649 0 0.46374770476768601 -0.204378797979305 0 0.46412837801973811 -0.21929252942849389 0 0.46374770476768601 -0.204378797979305 0 0.47707366821483449 -0.2120031562722216 0 0.46374770476768601 -0.204378797979305 0 0.47707366821483449 -0.2120031562722216 0 0.47650076211774711 -0.19685923119094451 0 0.47650076211774711 -0.19685923119094451 0 0.50000000000000155 -0.2064209098180986 0 0.5 -0.18210721193063359 0 0.47650076211774711 -0.19685923119094451 0 0.50000000000000155 -0.2064209098180986 0 0.50000000000000155 -0.2064209098180986 0 0.48970053883092229 -0.21844058073303951 0 0.5 -0.23051517486053599 0 0.47707366821483449 -0.2120031562722216 0 0.47650076211774711 -0.19685923119094451 0 0.50000000000000155 -0.2064209098180986 0 0.47707366821483449 -0.2120031562722216 0 0.50000000000000155 -0.2064209098180986 0 0.48970053883092229 -0.21844058073303951 0 0.48970053883092229 -0.21844058073303951 0 0.5 -0.23051517486053599 0 0.47892356359843868 -0.22663529354614381 0 0.5 -0.23051517486053599 0 0.47892356359843868 -0.22663529354614381 0 0.48037632353124621 -0.24431513348718631 0 0.47707366821483449 -0.2120031562722216 0 0.48970053883092229 -0.21844058073303951 0 0.47892356359843868 -0.22663529354614381 0 0.46412837801973811 -0.21929252942849389 0 0.47707366821483449 -0.2120031562722216 0 0.47892356359843868 -0.22663529354614381 0 0.46412837801973811 -0.21929252942849389 0 0.47892356359843868 -0.22663529354614381 0 0.47030631581894022 -0.23354799250188951 0 0.47892356359843868 -0.22663529354614381 0 0.47030631581894022 -0.23354799250188951 0 0.48037632353124621 -0.24431513348718631 0 0.46848515047489081 -0.24338241864882551 0 0.48037632353124621 -0.24431513348718631 0 0.47379426967759908 -0.2551161382871 0 0.46848515047489081 -0.24338241864882551 0 0.47030631581894022 -0.23354799250188951 0 0.48037632353124621 -0.24431513348718631 0 0.5 -0.23051517486053599 0 0.48037632353124621 -0.24431513348718631 0 0.5 -0.25460943990297341 0 0.48037632353124621 -0.24431513348718631 0 0.5 -0.25460943990297341 0 0.48801367558502928 -0.26571606475136661 0 0.50000000000000022 -0.27870370494541058 0 0.48801367558502928 -0.26571606475136661 0 0.48931170978694949 -0.28678842150195 0 0.5 -0.25460943990297341 0 0.50000000000000022 -0.27870370494541058 0 0.48801367558502928 -0.26571606475136661 0 0.47426226649296438 -0.26883688314045567 0 0.47311276962135179 -0.28508457281551508 0 0.48931170978694949 -0.28678842150195 0 0.48801367558502928 -0.26571606475136661 0 0.47426226649296438 -0.26883688314045567 0 0.48931170978694949 -0.28678842150195 0 0.47426226649296438 -0.26883688314045567 0 0.48931170978694949 -0.28678842150195 0 0.47426226649296438 -0.26883688314045567 0 0.47379426967759908 -0.2551161382871 0 0.45921282319897938 -0.25088534477896152 0 0.48037632353124621 -0.24431513348718631 0 0.48801367558502928 -0.26571606475136661 0 0.47379426967759908 -0.2551161382871 0 0.48801367558502928 -0.26571606475136661 0 0.47426226649296438 -0.26883688314045567 0 0.47379426967759908 -0.2551161382871 0 0.47426226649296438 -0.26883688314045567 0 0.45921282319897938 -0.25088534477896152 0 0.45867357026917482 -0.26750260605831883 0 0.45921282319897938 -0.25088534477896152 0 0.45465358778727077 -0.25333862908624999 0 0.45867357026917482 -0.26750260605831883 0 0.47426226649296438 -0.26883688314045567 0 0.45921282319897938 -0.25088534477896152 0 0.45465358778727077 -0.25333862908624999 0 0.45867357026917482 -0.26750260605831883 0 0.44833932421064931 -0.25939718794918609 0 0.47426226649296438 -0.26883688314045567 0 0.45867357026917482 -0.26750260605831883 0 0.47311276962135179 -0.28508457281551508 0 0.45867357026917482 -0.26750260605831883 0 0.45341190072698129 -0.28456089864454431 0 0.47311276962135179 -0.28508457281551508 0 0.45867357026917482 -0.26750260605831883 0 0.44699314029513348 -0.27052543302498011 0 0.44833932421064931 -0.25939718794918609 0 0.45867357026917482 -0.26750260605831883 0 0.44699314029513348 -0.27052543302498011 0 0.45341190072698129 -0.28456089864454431 0 0.44699314029513348 -0.27052543302498011 0 0.43919222284155002 -0.27830080619971909 0 0.45341190072698129 -0.28456089864454431 0 0.44699314029513348 -0.27052543302498011 0 0.4385944452063526 -0.26988256164274432 0 0.44171549930134968 -0.26335377754900008 0 0.44699314029513348 -0.27052543302498011 0 0.43919222284155002 -0.27830080619971909 0 0.4385944452063526 -0.26988256164274432 0 0.4385944452063526 -0.26988256164274432 0 0.44171549930134968 -0.26335377754900008 0 0.43505770238402619 -0.26461992241763038 0 0.44171549930134968 -0.26335377754900008 0 0.43505770238402619 -0.26461992241763038 0 0.43648606404966428 -0.25753784968455939 0 0.44171549930134968 -0.26335377754900008 0 0.4419947323052219 -0.25760620957214742 0 0.44833932421064931 -0.25939718794918609 0 0.44171549930134968 -0.26335377754900008 0 0.4419947323052219 -0.25760620957214742 0 0.43648606404966428 -0.25753784968455939 0 0.43871762778532231 -0.25212208882244802 0 0.4419947323052219 -0.25760620957214742 0 0.43648606404966428 -0.25753784968455939 0 0.43917511256413022 -0.2466480151322302 0 0.43871762778532231 -0.25212208882244802 0 0.44412948591815982 -0.25166394159908168 0 0.43871762778532231 -0.25212208882244802 0 0.44412948591815982 -0.25166394159908168 0 0.4419947323052219 -0.25760620957214742 0 0.44412948591815982 -0.25166394159908168 0 0.4419947323052219 -0.25760620957214742 0 0.44833932421064931 -0.25939718794918609 0 0.44552755473851618 -0.24512414212957201 0 0.45465358778727077 -0.25333862908624999 0 0.44816248816364901 -0.25238097519102243 0 0.44412948591815982 -0.25166394159908168 0 0.44816248816364901 -0.25238097519102243 0 0.44833932421064931 -0.25939718794918609 0 0.45465358778727077 -0.25333862908624999 0 0.44816248816364901 -0.25238097519102243 0 0.44833932421064931 -0.25939718794918609 0 0.44699314029513348 -0.27052543302498011 0 0.44171549930134968 -0.26335377754900008 0 0.44833932421064931 -0.25939718794918609 0 0.44647667656812801 -0.29965112561783208 0 0.45137615954030103 -0.31548320476916308 0 0.43444005925229529 -0.31032905382020182 0 0.44647667656812801 -0.29965112561783208 0 0.43234265414258233 -0.29853995875229639 0 0.43444005925229529 -0.31032905382020182 0 0.44647667656812801 -0.29965112561783208 0 0.43824437449043008 -0.28966145028223478 0 0.43234265414258233 -0.29853995875229639 0 0.43919222284155002 -0.27830080619971909 0 0.43824437449043008 -0.28966145028223478 0 0.45341190072698129 -0.28456089864454431 0 0.44647667656812801 -0.29965112561783208 0 0.43824437449043008 -0.28966145028223478 0 0.45341190072698129 -0.28456089864454431 0 0.45341190072698129 -0.28456089864454431 0 0.47034393466362562 -0.30113581313555698 0 0.47311276962135179 -0.28508457281551508 0 0.44647667656812801 -0.29965112561783208 0 0.45341190072698129 -0.28456089864454431 0 0.47034393466362562 -0.30113581313555698 0 0.44647667656812801 -0.29965112561783208 0 0.47034393466362562 -0.30113581313555698 0 0.45137615954030103 -0.31548320476916308 0 0.47034393466362562 -0.30113581313555698 0 0.45137615954030103 -0.31548320476916308 0 0.47034393466362562 -0.30113581313555698 0 0.48609801829406513 -0.30033747069297151 0 0.48569838996659448 -0.31355153071673758 0 0.47034393466362562 -0.30113581313555698 0 0.48931170978694949 -0.28678842150195 0 0.47034393466362562 -0.30113581313555698 0 0.48931170978694949 -0.28678842150195 0 0.48609801829406513 -0.30033747069297151 0 0.47034393466362562 -0.30113581313555698 0 0.47311276962135179 -0.28508457281551508 0 0.48931170978694949 -0.28678842150195 0 0.50000000000000022 -0.27870370494541058 0 0.48931170978694949 -0.28678842150195 0 0.50000000000000078 -0.29953781349142472 0 0.48931170978694949 -0.28678842150195 0 0.48609801829406513 -0.30033747069297151 0 0.50000000000000078 -0.29953781349142472 0 0.48931170978694949 -0.28678842150195 0 0.50000000000000078 -0.29953781349142472 0 0.50000000000000022 -0.27870370494541058 0 0.48931170978694949 -0.28678842150195 0 0.48609801829406513 -0.30033747069297151 0 0.50000000000000078 -0.29953781349142472 0 0.48569838996659448 -0.31355153071673758 0 0.50000000000000078 -0.29953781349142472 0 0.48569838996659448 -0.31355153071673758 0 0.5 -0.32898483254094879 0 0.48569838996659448 -0.31355153071673758 0 0.5 -0.32898483254094879 0 0.4688689480981888 -0.32767699473222389 0 0.5 -0.32898483254094879 0 0.4688689480981888 -0.32767699473222389 0 0.47786930722932619 -0.34789692042963721 0 0.47034393466362562 -0.30113581313555698 0 0.48569838996659448 -0.31355153071673758 0 0.4688689480981888 -0.32767699473222389 0 0.5 -0.35843185159047292 0 0.47350757658922271 -0.36952329647287657 0 0.48620898030354948 -0.37918006028240092 0 0.5 -0.32898483254094879 0 0.5 -0.35843185159047292 0 0.47786930722932619 -0.34789692042963721 0 0.47786930722932619 -0.34789692042963721 0 0.47350757658922271 -0.36952329647287657 0 0.4655023448943818 -0.35719392053603988 0 0.5 -0.35843185159047292 0 0.47786930722932619 -0.34789692042963721 0 0.47350757658922271 -0.36952329647287657 0 0.45861777817450511 -0.36868509019449441 0 0.46271268513135372 -0.37747780338012438 0 0.45189505467726382 -0.37680202485208381 0 0.45861777817450511 -0.36868509019449441 0 0.44976491938063418 -0.36654981963533051 0 0.45189505467726382 -0.37680202485208381 0 0.47350757658922271 -0.36952329647287657 0 0.45861777817450511 -0.36868509019449441 0 0.46271268513135372 -0.37747780338012438 0 0.47350757658922271 -0.36952329647287657 0 0.45861777817450511 -0.36868509019449441 0 0.4655023448943818 -0.35719392053603988 0 0.45861777817450511 -0.36868509019449441 0 0.45601593140111862 -0.35990106862703092 0 0.44976491938063418 -0.36654981963533051 0 0.45861777817450511 -0.36868509019449441 0 0.45601593140111862 -0.35990106862703092 0 0.4655023448943818 -0.35719392053603988 0 0.47786930722932619 -0.34789692042963721 0 0.4655023448943818 -0.35719392053603988 0 0.45483150576365328 -0.34688844598146529 0 0.45601593140111862 -0.35990106862703092 0 0.4655023448943818 -0.35719392053603988 0 0.45483150576365328 -0.34688844598146529 0 0.45483150576365328 -0.34688844598146529 0 0.44020278747438729 -0.34510251360014332 0 0.44674619010751909 -0.35809924702175239 0 0.44020278747438729 -0.34510251360014332 0 0.43833245073232718 -0.35667994920926999 0 0.44674619010751909 -0.35809924702175239 0 0.45601593140111862 -0.35990106862703092 0 0.45483150576365328 -0.34688844598146529 0 0.44674619010751909 -0.35809924702175239 0 0.44674619010751909 -0.35809924702175239 0 0.44976491938063418 -0.36654981963533051 0 0.4432564460600979 -0.36443112509465042 0 0.45601593140111862 -0.35990106862703092 0 0.44674619010751909 -0.35809924702175239 0 0.44976491938063418 -0.36654981963533051 0 0.43833245073232718 -0.35667994920926999 0 0.44674619010751909 -0.35809924702175239 0 0.4432564460600979 -0.36443112509465042 0 0.43833245073232718 -0.35667994920926999 0 0.4432564460600979 -0.36443112509465042 0 0.43792231759094602 -0.36891862507496959 0 0.44976491938063418 -0.36654981963533051 0 0.4432564460600979 -0.36443112509465042 0 0.44173316381622191 -0.37123334486501253 0 0.4432564460600979 -0.36443112509465042 0 0.43792231759094602 -0.36891862507496959 0 0.44173316381622191 -0.37123334486501253 0 0.44976491938063418 -0.36654981963533051 0 0.44173316381622191 -0.37123334486501253 0 0.45189505467726382 -0.37680202485208381 0 0.4688689480981888 -0.32767699473222389 0 0.44744827938524201 -0.33285238680196422 0 0.45137615954030103 -0.31548320476916308 0 0.47034393466362562 -0.30113581313555698 0 0.4688689480981888 -0.32767699473222389 0 0.45137615954030103 -0.31548320476916308 0 0.4688689480981888 -0.32767699473222389 0 0.45483150576365328 -0.34688844598146529 0 0.44744827938524201 -0.33285238680196422 0 0.4688689480981888 -0.32767699473222389 0 0.47786930722932619 -0.34789692042963721 0 0.45483150576365328 -0.34688844598146529 0 0.45483150576365328 -0.34688844598146529 0 0.44020278747438729 -0.34510251360014332 0 0.44744827938524201 -0.33285238680196422 0 0.44020278747438729 -0.34510251360014332 0 0.44744827938524201 -0.33285238680196422 0 0.43240838441697632 -0.3298305964027694 0 0.45137615954030103 -0.31548320476916308 0 0.43240838441697632 -0.3298305964027694 0 0.43444005925229529 -0.31032905382020182 0 0.44744827938524201 -0.33285238680196422 0 0.45137615954030103 -0.31548320476916308 0 0.43240838441697632 -0.3298305964027694 0 0.45137615954030103 -0.31548320476916308 0 0.43240838441697632 -0.3298305964027694 0 0.42213808355103849 -0.31598854483820238 0 0.43240838441697632 -0.3298305964027694 0 0.43444005925229529 -0.31032905382020182 0 0.42213808355103849 -0.31598854483820238 0 0.43240838441697632 -0.3298305964027694 0 0.42063894984562838 -0.32794228428963068 0 0.43240838441697632 -0.3298305964027694 0 0.42063894984562838 -0.32794228428963068 0 0.42353451242868528 -0.3468482352548341 0 0.44020278747438729 -0.34510251360014332 0 0.43240838441697632 -0.3298305964027694 0 0.42353451242868528 -0.3468482352548341 0 0.4091467072664246 -0.32477784543469868 0 0.42353451242868528 -0.3468482352548341 0 0.4091467072664246 -0.32477784543469868 0 0.42063894984562838 -0.32794228428963068 0 0.42353451242868528 -0.3468482352548341 0 0.41089111725139721 -0.34269856142925859 0 0.4091467072664246 -0.32477784543469868 0 0.42353451242868528 -0.3468482352548341 0 0.41089111725139721 -0.34269856142925859 0 0.4091467072664246 -0.32477784543469868 0 0.40425152475925441 -0.33267251048098129 0 0.4091467072664246 -0.32477784543469868 0 0.41500843607520332 -0.31765864762852652 0 0.40782856937156858 -0.30992265774813338 0 0.42213808355103849 -0.31598854483820238 0 0.41500843607520332 -0.31765864762852652 0 0.41528987034135628 -0.30966190583196729 0 0.4091467072664246 -0.32477784543469868 0 0.41500843607520332 -0.31765864762852652 0 0.42063894984562838 -0.32794228428963068 0 0.42213808355103849 -0.31598854483820238 0 0.41500843607520332 -0.31765864762852652 0 0.42063894984562838 -0.32794228428963068 0 0.43792231759094602 -0.36891862507496959 0 0.42718561209050382 -0.36319872422350041 0 0.42353451242868528 -0.3468482352548341 0 0.43792231759094602 -0.36891862507496959 0 0.44173316381622191 -0.37123334486501253 0 0.43018656974337233 -0.3834847830435818 0 0.43792231759094602 -0.36891862507496959 0 0.42661372489006832 -0.37330916830292271 0 0.42718561209050382 -0.36319872422350041 0 0.42661372489006832 -0.37330916830292271 0 0.42718561209050382 -0.36319872422350041 0 0.42067189345231581 -0.36371886826127509 0 0.43792231759094602 -0.36891862507496959 0 0.42353451242868528 -0.3468482352548341 0 0.42718561209050382 -0.36319872422350041 0 0.42353451242868528 -0.3468482352548341 0 0.42067189345231581 -0.36371886826127509 0 0.43833245073232718 -0.35667994920926999 0 0.43792231759094602 -0.36891862507496959 0 0.42353451242868528 -0.3468482352548341 0 0.44020278747438729 -0.34510251360014332 0 0.43833245073232718 -0.35667994920926999 0 0.42353451242868528 -0.3468482352548341 0 0.42353451242868528 -0.3468482352548341 0 0.41118608239640281 -0.35773278074769221 0 0.42067189345231581 -0.36371886826127509 0 0.41089111725139721 -0.34269856142925859 0 0.42353451242868528 -0.3468482352548341 0 0.41118608239640281 -0.35773278074769221 0 0.41089111725139721 -0.34269856142925859 0 0.41118608239640281 -0.35773278074769221 0 0.40345194384414051 -0.35159281539693271 0 0.42661372489006832 -0.37330916830292271 0 0.42067189345231581 -0.36371886826127509 0 0.40978735765452701 -0.3715350174533486 0 0.41118608239640281 -0.35773278074769221 0 0.42067189345231581 -0.36371886826127509 0 0.40978735765452701 -0.3715350174533486 0 0.39634156242657448 -0.36307978873527152 0 0.40109715774397792 -0.38275058451944882 0 0.38240798480570892 -0.37852010314408679 0 0.40978735765452701 -0.3715350174533486 0 0.39634156242657448 -0.36307978873527152 0 0.40109715774397792 -0.38275058451944882 0 0.41118608239640281 -0.35773278074769221 0 0.40978735765452701 -0.3715350174533486 0 0.39634156242657448 -0.36307978873527152 0 0.39634156242657448 -0.36307978873527152 0 0.40345194384414051 -0.35159281539693271 0 0.39209624447111568 -0.34275609473116092 0 0.41118608239640281 -0.35773278074769221 0 0.39634156242657448 -0.36307978873527152 0 0.40345194384414051 -0.35159281539693271 0 0.40345194384414051 -0.35159281539693271 0 0.40267270758147689 -0.34242999550958342 0 0.39209624447111568 -0.34275609473116092 0 0.41089111725139721 -0.34269856142925859 0 0.40345194384414051 -0.35159281539693271 0 0.40267270758147689 -0.34242999550958342 0 0.39634156242657448 -0.36307978873527152 0 0.37618485313497191 -0.35303141813195599 0 0.39209624447111568 -0.34275609473116092 0 0.39634156242657448 -0.36307978873527152 0 0.37618485313497191 -0.35303141813195599 0 0.38240798480570892 -0.37852010314408679 0 0.37618485313497191 -0.35303141813195599 0 0.38240798480570892 -0.37852010314408679 0 0.40425152475925441 -0.33267251048098129 0 0.39300241843570249 -0.3110378002903586 0 0.4091467072664246 -0.32477784543469868 0 0.39300241843570249 -0.3110378002903586 0 0.39475890210416392 -0.30270745561456308 0 0.4091467072664246 -0.32477784543469868 0 0.39475890210416392 -0.30270745561456308 0 0.4091467072664246 -0.32477784543469868 0 0.40425152475925441 -0.33267251048098129 0 0.39300241843570249 -0.3110378002903586 0 0.40425152475925441 -0.33267251048098129 0 0.38822804294015112 -0.3261114208869455 0 0.39300241843570249 -0.3110378002903586 0 0.40425152475925441 -0.33267251048098129 0 0.39209624447111568 -0.34275609473116092 0 0.38822804294015112 -0.3261114208869455 0 0.40425152475925441 -0.33267251048098129 0 0.40267270758147689 -0.34242999550958342 0 0.39209624447111568 -0.34275609473116092 0 0.41089111725139721 -0.34269856142925859 0 0.40425152475925441 -0.33267251048098129 0 0.40267270758147689 -0.34242999550958342 0 0.37618485313497191 -0.35303141813195599 0 0.39209624447111568 -0.34275609473116092 0 0.36996172146423478 -0.32754273311982529 0 0.39209624447111568 -0.34275609473116092 0 0.38822804294015112 -0.3261114208869455 0 0.36996172146423478 -0.32754273311982529 0 0.38822804294015112 -0.3261114208869455 0 0.38164260336710232 -0.31615744579396521 0 0.36996172146423478 -0.32754273311982529 0 0.38822804294015112 -0.3261114208869455 0 0.38164260336710232 -0.31615744579396521 0 0.39300241843570249 -0.3110378002903586 0 0.38177106400017391 -0.30862132669022929 0 0.38029466251644028 -0.29986647237510811 0 0.37214457168145071 -0.30742358830148531 0 0.39300241843570249 -0.3110378002903586 0 0.38175331211215058 -0.28940309009973592 0 0.38164260336710232 -0.31615744579396521 0 0.38177106400017391 -0.30862132669022929 0 0.37214457168145071 -0.30742358830148531 0 0.39300241843570249 -0.3110378002903586 0 0.39475890210416392 -0.30270745561456308 0 0.38175331211215058 -0.28940309009973592 0 0.38029466251644028 -0.29986647237510811 0 0.39300241843570249 -0.3110378002903586 0 0.38175331211215058 -0.28940309009973592 0 0.38164260336710232 -0.31615744579396521 0 0.38177106400017391 -0.30862132669022929 0 0.39300241843570249 -0.3110378002903586 0 0.38177106400017391 -0.30862132669022929 0 0.38029466251644028 -0.29986647237510811 0 0.39300241843570249 -0.3110378002903586 0 0.4091467072664246 -0.32477784543469868 0 0.39475890210416392 -0.30270745561456308 0 0.40782856937156858 -0.30992265774813338 0 0.39475890210416392 -0.30270745561456308 0 0.40429755200803852 -0.3015310211561289 0 0.40149673409666831 -0.29605944040816118 0 0.40429755200803852 -0.3015310211561289 0 0.40149673409666831 -0.29605944040816118 0 0.40808526015628949 -0.29523915444325732 0 0.39475890210416392 -0.30270745561456308 0 0.40429755200803852 -0.3015310211561289 0 0.40782856937156858 -0.30992265774813338 0 0.39475890210416392 -0.30270745561456308 0 0.39730188346755718 -0.29161135963752222 0 0.39142402894447709 -0.286435042888317 0 0.40304007274729231 -0.28920821118933449 0 0.39763996789025002 -0.28367275964584732 0 0.40506285170047662 -0.28083922749534462 0 0.40304007274729231 -0.28920821118933449 0 0.39730188346755718 -0.29161135963752222 0 0.39763996789025002 -0.28367275964584732 0 0.40304007274729231 -0.28920821118933449 0 0.40149673409666831 -0.29605944040816118 0 0.40808526015628949 -0.29523915444325732 0 0.40304007274729231 -0.28920821118933449 0 0.40149673409666831 -0.29605944040816118 0 0.39730188346755718 -0.29161135963752222 0 0.39475890210416392 -0.30270745561456308 0 0.40149673409666831 -0.29605944040816118 0 0.39730188346755718 -0.29161135963752222 0 0.39763996789025002 -0.28367275964584732 0 0.39142402894447709 -0.286435042888317 0 0.39195529533629442 -0.27806131115557092 0 0.39730188346755718 -0.29161135963752222 0 0.39763996789025002 -0.28367275964584732 0 0.39142402894447709 -0.286435042888317 0 0.39475890210416392 -0.30270745561456308 0 0.38037109694190308 -0.28063706579442749 0 0.39475890210416392 -0.30270745561456308 0 0.38175331211215058 -0.28940309009973592 0 0.38037109694190308 -0.28063706579442749 0 0.39142402894447709 -0.286435042888317 0 0.38037109694190308 -0.28063706579442749 0 0.38713910380081668 -0.27916368249890622 0 0.39475890210416392 -0.30270745561456308 0 0.39142402894447709 -0.286435042888317 0 0.38037109694190308 -0.28063706579442749 0 0.38029466251644028 -0.29986647237510811 0 0.38175331211215058 -0.28940309009973592 0 0.37093408616543422 -0.29499190654120538 0 0.38175331211215058 -0.28940309009973592 0 0.37050420578859872 -0.26776837990911312 0 0.38175331211215058 -0.28940309009973592 0 0.38037109694190308 -0.28063706579442749 0 0.37050420578859872 -0.26776837990911312 0 0.38037109694190308 -0.28063706579442749 0 0.38480599398059251 -0.27152131015730951 0 0.37050420578859872 -0.26776837990911312 0 0.38480599398059251 -0.27152131015730951 0 0.39244458987216091 -0.26161417174629581 0 0.39261010037049587 -0.27136451795379868 0 0.38037109694190308 -0.28063706579442749 0 0.38480599398059251 -0.27152131015730951 0 0.38713910380081668 -0.27916368249890622 0 0.38480599398059251 -0.27152131015730951 0 0.38713910380081668 -0.27916368249890622 0 0.39195529533629442 -0.27806131115557092 0 0.39142402894447709 -0.286435042888317 0 0.38713910380081668 -0.27916368249890622 0 0.39195529533629442 -0.27806131115557092 0 0.38480599398059251 -0.27152131015730951 0 0.39195529533629442 -0.27806131115557092 0 0.39261010037049587 -0.27136451795379868 0 0.38480599398059251 -0.27152131015730951 0 0.37962897743813367 -0.25651992395937562 0 0.37050420578859872 -0.26776837990911312 0 0.38480599398059251 -0.27152131015730951 0 0.37962897743813367 -0.25651992395937562 0 0.39244458987216091 -0.26161417174629581 0 0.39078422201957003 -0.24969070593678949 0 0.37962897743813367 -0.25651992395937562 0 0.39244458987216091 -0.26161417174629581 0 0.39078422201957003 -0.24969070593678949 0 0.39244458987216091 -0.26161417174629581 0 0.40410575785193181 -0.25828851936103481 0 0.39244458987216091 -0.26161417174629581 0 0.40410575785193181 -0.25828851936103481 0 0.39822211595326279 -0.26692182407365989 0 0.40410575785193181 -0.25828851936103481 0 0.39822211595326279 -0.26692182407365989 0 0.40492140044583741 -0.26790783212078467 0 0.40410575785193181 -0.25828851936103481 0 0.40492140044583741 -0.26790783212078467 0 0.40945290732670331 -0.26396052327947239 0 0.39078422201957003 -0.24969070593678949 0 0.40271577749504128 -0.24808950568319249 0 0.40410575785193181 -0.25828851936103481 0 0.40271577749504128 -0.24808950568319249 0 0.40410575785193181 -0.25828851936103481 0 0.41170531542548788 -0.25126417515390992 0 0.39763996789025002 -0.28367275964584732 0 0.39195529533629442 -0.27806131115557092 0 0.39894115351181969 -0.27424944313259708 0 0.39195529533629442 -0.27806131115557092 0 0.39261010037049587 -0.27136451795379868 0 0.39894115351181969 -0.27424944313259708 0 0.39244458987216091 -0.26161417174629581 0 0.39261010037049587 -0.27136451795379868 0 0.39822211595326279 -0.26692182407365989 0 0.39261010037049587 -0.27136451795379868 0 0.39822211595326279 -0.26692182407365989 0 0.39894115351181969 -0.27424944313259708 0 0.39822211595326279 -0.26692182407365989 0 0.40492140044583741 -0.26790783212078467 0 0.39894115351181969 -0.27424944313259708 0 0.40492140044583741 -0.26790783212078467 0 0.39894115351181969 -0.27424944313259708 0 0.40712920685057652 -0.27420612675110112 0 0.39763996789025002 -0.28367275964584732 0 0.39894115351181969 -0.27424944313259708 0 0.40506285170047662 -0.28083922749534462 0 0.39894115351181969 -0.27424944313259708 0 0.40506285170047662 -0.28083922749534462 0 0.40712920685057652 -0.27420612675110112 0 0.40506285170047662 -0.28083922749534462 0 0.41284697370079432 -0.2782971556212297 0 0.40712920685057652 -0.27420612675110112 0 0.41284697370079432 -0.2782971556212297 0 0.40712920685057652 -0.27420612675110112 0 0.41387365489395472 -0.26973697538554919 0 0.40492140044583741 -0.26790783212078467 0 0.41387365489395472 -0.26973697538554919 0 0.40945290732670331 -0.26396052327947239 0 0.40492140044583741 -0.26790783212078467 0 0.40712920685057652 -0.27420612675110112 0 0.41387365489395472 -0.26973697538554919 0 0.41387365489395472 -0.26973697538554919 0 0.42135307316749521 -0.27487684751024949 0 0.42100146315739412 -0.26552033609670711 0 0.41284697370079432 -0.2782971556212297 0 0.41387365489395472 -0.26973697538554919 0 0.42135307316749521 -0.27487684751024949 0 0.41284697370079432 -0.2782971556212297 0 0.42135307316749521 -0.27487684751024949 0 0.41975251852593748 -0.28445801958006911 0 0.40410575785193181 -0.25828851936103481 0 0.41170531542548788 -0.25126417515390992 0 0.41491081611508918 -0.25990876625052101 0 0.40410575785193181 -0.25828851936103481 0 0.40945290732670331 -0.26396052327947239 0 0.41491081611508918 -0.25990876625052101 0 0.41387365489395472 -0.26973697538554919 0 0.40945290732670331 -0.26396052327947239 0 0.41491081611508918 -0.25990876625052101 0 0.41387365489395472 -0.26973697538554919 0 0.42100146315739412 -0.26552033609670711 0 0.41491081611508918 -0.25990876625052101 0 0.42100146315739412 -0.26552033609670711 0 0.42163465399116667 -0.25872199059074641 0 0.41491081611508918 -0.25990876625052101 0 0.41170531542548788 -0.25126417515390992 0 0.41491081611508918 -0.25990876625052101 0 0.41853295725520467 -0.25391274615775578 0 0.42163465399116667 -0.25872199059074641 0 0.41491081611508918 -0.25990876625052101 0 0.41853295725520467 -0.25391274615775578 0 0.42163465399116667 -0.25872199059074641 0 0.41853295725520467 -0.25391274615775578 0 0.42541254610488072 -0.25270056741268049 0 0.4190014546393992 -0.24696823138092139 0 0.41853295725520467 -0.25391274615775578 0 0.42541254610488072 -0.25270056741268049 0 0.4190014546393992 -0.24696823138092139 0 0.41170531542548788 -0.25126417515390992 0 0.41853295725520467 -0.25391274615775578 0 0.42163465399116667 -0.25872199059074641 0 0.42541254610488072 -0.25270056741268049 0 0.42845093672784768 -0.26136295507116752 0 0.42541254610488072 -0.25270056741268049 0 0.42845093672784768 -0.26136295507116752 0 0.43126889086453951 -0.25455984543500237 0 0.42100146315739412 -0.26552033609670711 0 0.42163465399116667 -0.25872199059074641 0 0.42845093672784768 -0.26136295507116752 0 0.42845093672784768 -0.26136295507116752 0 0.43505770238402619 -0.26461992241763038 0 0.43648606404966428 -0.25753784968455939 0 0.42845093672784768 -0.26136295507116752 0 0.43505770238402619 -0.26461992241763038 0 0.43027170394141367 -0.27054512142908671 0 0.42845093672784768 -0.26136295507116752 0 0.43126889086453951 -0.25455984543500237 0 0.43648606404966428 -0.25753784968455939 0 0.43871762778532231 -0.25212208882244802 0 0.43126889086453951 -0.25455984543500237 0 0.43648606404966428 -0.25753784968455939 0 0.43292967301130941 -0.2488540036824014 0 0.43871762778532231 -0.25212208882244802 0 0.43126889086453951 -0.25455984543500237 0 0.43292967301130941 -0.2488540036824014 0 0.42541254610488072 -0.25270056741268049 0 0.43126889086453951 -0.25455984543500237 0 0.42135307316749521 -0.27487684751024949 0 0.42956799811030638 -0.28148515248710693 0 0.41975251852593748 -0.28445801958006911 0 0.42135307316749521 -0.27487684751024949 0 0.43027170394141367 -0.27054512142908671 0 0.42956799811030638 -0.28148515248710693 0 0.42135307316749521 -0.27487684751024949 0 0.42100146315739412 -0.26552033609670711 0 0.43027170394141367 -0.27054512142908671 0 0.42100146315739412 -0.26552033609670711 0 0.42845093672784768 -0.26136295507116752 0 0.43027170394141367 -0.27054512142908671 0 0.43919222284155002 -0.27830080619971909 0 0.4385944452063526 -0.26988256164274432 0 0.43027170394141367 -0.27054512142908671 0 0.4385944452063526 -0.26988256164274432 0 0.43505770238402619 -0.26461992241763038 0 0.43027170394141367 -0.27054512142908671 0 0.43919222284155002 -0.27830080619971909 0 0.43027170394141367 -0.27054512142908671 0 0.42956799811030638 -0.28148515248710693 0 0.43824437449043008 -0.28966145028223478 0 0.42956799811030638 -0.28148515248710693 0 0.42651213435721103 -0.29151489344350012 0 0.43919222284155002 -0.27830080619971909 0 0.43824437449043008 -0.28966145028223478 0 0.42956799811030638 -0.28148515248710693 0 0.42956799811030638 -0.28148515248710693 0 0.42651213435721103 -0.29151489344350012 0 0.41975251852593748 -0.28445801958006911 0 0.42651213435721103 -0.29151489344350012 0 0.42265725367426682 -0.30260234616053761 0 0.41710028749217543 -0.29373719746223742 0 0.43824437449043008 -0.28966145028223478 0 0.42651213435721103 -0.29151489344350012 0 0.43234265414258233 -0.29853995875229639 0 0.43234265414258233 -0.29853995875229639 0 0.43444005925229529 -0.31032905382020182 0 0.42265725367426682 -0.30260234616053761 0 0.42213808355103849 -0.31598854483820238 0 0.43444005925229529 -0.31032905382020182 0 0.42265725367426682 -0.30260234616053761 0 0.42651213435721103 -0.29151489344350012 0 0.43234265414258233 -0.29853995875229639 0 0.42265725367426682 -0.30260234616053761 0 0.42265725367426682 -0.30260234616053761 0 0.41237795257390419 -0.3022181237121867 0 0.41710028749217543 -0.29373719746223742 0 0.42213808355103849 -0.31598854483820238 0 0.42265725367426682 -0.30260234616053761 0 0.41528987034135628 -0.30966190583196729 0 0.42265725367426682 -0.30260234616053761 0 0.41528987034135628 -0.30966190583196729 0 0.41237795257390419 -0.3022181237121867 0 0.41500843607520332 -0.31765864762852652 0 0.41528987034135628 -0.30966190583196729 0 0.40782856937156858 -0.30992265774813338 0 0.41528987034135628 -0.30966190583196729 0 0.40782856937156858 -0.30992265774813338 0 0.41237795257390419 -0.3022181237121867 0 0.40429755200803852 -0.3015310211561289 0 0.41237795257390419 -0.3022181237121867 0 0.40808526015628949 -0.29523915444325732 0 0.41237795257390419 -0.3022181237121867 0 0.40808526015628949 -0.29523915444325732 0 0.41710028749217543 -0.29373719746223742 0 0.40429755200803852 -0.3015310211561289 0 0.40782856937156858 -0.30992265774813338 0 0.41237795257390419 -0.3022181237121867 0 0.40808526015628949 -0.29523915444325732 0 0.41113464432764291 -0.28683687095609128 0 0.41710028749217543 -0.29373719746223742 0 0.40304007274729231 -0.28920821118933449 0 0.40808526015628949 -0.29523915444325732 0 0.41113464432764291 -0.28683687095609128 0 0.40304007274729231 -0.28920821118933449 0 0.40506285170047662 -0.28083922749534462 0 0.41113464432764291 -0.28683687095609128 0 0.40506285170047662 -0.28083922749534462 0 0.41284697370079432 -0.2782971556212297 0 0.41113464432764291 -0.28683687095609128 0 0.41284697370079432 -0.2782971556212297 0 0.41113464432764291 -0.28683687095609128 0 0.41975251852593748 -0.28445801958006911 0 0.41113464432764291 -0.28683687095609128 0 0.41975251852593748 -0.28445801958006911 0 0.41710028749217543 -0.29373719746223742 0 0.42651213435721103 -0.29151489344350012 0 0.41975251852593748 -0.28445801958006911 0 0.41710028749217543 -0.29373719746223742 0 0.44904225237101492 -0.50000000000000033 0 0.45004401508161579 -0.4787570704506926 0 0.43421240961939139 -0.49999999999999972 0 0.44904225237101492 -0.50000000000000033 0 0.45004401508161579 -0.4787570704506926 0 0.45004401508161579 -0.4787570704506926 0 0.43065669488015018 -0.48070599894378141 0 0.43421240961939139 -0.49999999999999972 0 0.45004401508161579 -0.4787570704506926 0 0.43566071353235342 -0.46355264343579089 0 0.43065669488015018 -0.48070599894378141 0 0.45004401508161579 -0.4787570704506926 0 0.47115653038696198 -0.47458122981084161 0 0.46628057992027361 -0.46016057875321997 0 0.44904225237101492 -0.50000000000000033 0 0.45004401508161579 -0.4787570704506926 0 0.47115653038696198 -0.47458122981084161 0 0.5 -0.5 0 0.47115653038696198 -0.47458122981084161 0 0.5 -0.45186915055015731 0 0.44904225237101492 -0.50000000000000033 0 0.5 -0.5 0 0.47115653038696198 -0.47458122981084161 0 0.47115653038696198 -0.47458122981084161 0 0.48077102025797452 -0.45549611643706822 0 0.46628057992027361 -0.46016057875321997 0 0.47115653038696198 -0.47458122981084161 0 0.48077102025797452 -0.45549611643706822 0 0.47115653038696198 -0.47458122981084161 0 0.48077102025797452 -0.45549611643706822 0 0.5 -0.45186915055015731 0 0.48077102025797452 -0.45549611643706822 0 0.47047881694724669 -0.44903457528364688 0 0.46628057992027361 -0.46016057875321997 0 0.48077102025797452 -0.45549611643706822 0 0.49038551012898701 -0.43641100306329461 0 0.48077102025797452 -0.45549611643706822 0 0.5 -0.45186915055015731 0 0.49038551012898701 -0.43641100306329461 0 0.48077102025797452 -0.45549611643706822 0 0.47754833864438551 -0.44218946840133899 0 0.49038551012898701 -0.43641100306329461 0 0.48077102025797452 -0.45549611643706822 0 0.47754833864438551 -0.44218946840133899 0 0.47047881694724669 -0.44903457528364688 0 0.47754833864438551 -0.44218946840133899 0 0.47047881694724669 -0.44903457528364688 0 0.46852552080992549 -0.44048839695443598 0 0.45926862510367472 -0.44683831587217138 0 0.45104577779221661 -0.45751414090138481 0 0.45204754050281742 -0.43627121135207708 0 0.46852552080992549 -0.44048839695443598 0 0.45926862510367472 -0.44683831587217138 0 0.46246741514551631 -0.43660855176593799 0 0.45926862510367472 -0.44683831587217138 0 0.45204754050281742 -0.43627121135207708 0 0.46246741514551631 -0.43660855176593799 0 0.47047881694724669 -0.44903457528364688 0 0.46852552080992549 -0.44048839695443598 0 0.45926862510367472 -0.44683831587217138 0 0.47047881694724669 -0.44903457528364688 0 0.45926862510367472 -0.44683831587217138 0 0.46628057992027361 -0.46016057875321997 0 0.45004401508161579 -0.4787570704506926 0 0.46628057992027361 -0.46016057875321997 0 0.45104577779221661 -0.45751414090138481 0 0.45926862510367472 -0.44683831587217138 0 0.46628057992027361 -0.46016057875321997 0 0.45104577779221661 -0.45751414090138481 0 0.45004401508161579 -0.4787570704506926 0 0.45104577779221661 -0.45751414090138481 0 0.43566071353235342 -0.46355264343579089 0 0.45004401508161579 -0.4787570704506926 0 0.45104577779221661 -0.45751414090138481 0 0.45104577779221661 -0.45751414090138481 0 0.43823690162582152 -0.442656551615 0 0.43566071353235342 -0.46355264343579089 0 0.45104577779221661 -0.45751414090138481 0 0.45204754050281742 -0.43627121135207708 0 0.45104577779221661 -0.45751414090138481 0 0.43823690162582152 -0.442656551615 0 0.45204754050281742 -0.43627121135207708 0 0.45430136434918972 -0.42968477721519488 0 0.43040870373640522 -0.42960949699457918 0 0.4445886017928069 -0.41946726592624312 0 0.45430136434918972 -0.42968477721519488 0 0.43040870373640522 -0.42960949699457918 0 0.43823690162582152 -0.442656551615 0 0.45204754050281742 -0.43627121135207708 0 0.43040870373640522 -0.42960949699457918 0 0.45204754050281742 -0.43627121135207708 0 0.45430136434918972 -0.42968477721519488 0 0.43040870373640522 -0.42960949699457918 0 0.4445886017928069 -0.41946726592624312 0 0.45626400488001012 -0.41852232274223139 0 0.45430136434918972 -0.42968477721519488 0 0.4445886017928069 -0.41946726592624312 0 0.45030067759957459 -0.40920304056939583 0 0.43607093377631329 -0.40042142092979582 0 0.4445886017928069 -0.41946726592624312 0 0.45030067759957459 -0.40920304056939583 0 0.45626400488001012 -0.41852232274223139 0 0.45030067759957459 -0.40920304056939583 0 0.45626400488001012 -0.41852232274223139 0 0.46461227738567717 -0.40399461877989912 0 0.45626400488001012 -0.41852232274223139 0 0.46727733630446061 -0.4192115361233813 0 0.46461227738567717 -0.40399461877989912 0 0.45430136434918972 -0.42968477721519488 0 0.47819402496197411 -0.42976005743581058 0 0.46727733630446061 -0.4192115361233813 0 0.45430136434918972 -0.42968477721519488 0 0.47819402496197411 -0.42976005743581058 0 0.45430136434918972 -0.42968477721519488 0 0.46246741514551631 -0.43660855176593799 0 0.47819402496197411 -0.42976005743581058 0 0.45626400488001012 -0.41852232274223139 0 0.46727733630446061 -0.4192115361233813 0 0.45430136434918972 -0.42968477721519488 0 0.45204754050281742 -0.43627121135207708 0 0.45430136434918972 -0.42968477721519488 0 0.46246741514551631 -0.43660855176593799 0 0.5 -0.45186915055015731 0 0.49038551012898701 -0.43641100306329461 0 0.49999999999999978 -0.41732588968952122 0 0.47754833864438551 -0.44218946840133899 0 0.46852552080992549 -0.44048839695443598 0 0.47819402496197411 -0.42976005743581058 0 0.46852552080992549 -0.44048839695443598 0 0.46246741514551631 -0.43660855176593799 0 0.47819402496197411 -0.42976005743581058 0 0.47754833864438551 -0.44218946840133899 0 0.47819402496197411 -0.42976005743581058 0 0.49038551012898701 -0.43641100306329461 0 0.47819402496197411 -0.42976005743581058 0 0.49038551012898701 -0.43641100306329461 0 0.49999999999999978 -0.41732588968952122 0 0.49038551012898701 -0.43641100306329461 0 0.49999999999999978 -0.41732588968952122 0 0.49999999999999978 -0.41732588968952122 0 0.47803026485536992 -0.41388491951904732 0 0.48349128744616809 -0.3981477611786608 0 0.47819402496197411 -0.42976005743581058 0 0.49999999999999978 -0.41732588968952122 0 0.47803026485536992 -0.41388491951904732 0 0.46727733630446061 -0.4192115361233813 0 0.47819402496197411 -0.42976005743581058 0 0.47803026485536992 -0.41388491951904732 0 0.46727733630446061 -0.4192115361233813 0 0.47803026485536992 -0.41388491951904732 0 0.46461227738567717 -0.40399461877989912 0 0.47803026485536992 -0.41388491951904732 0 0.48349128744616809 -0.3981477611786608 0 0.46461227738567717 -0.40399461877989912 0 0.48349128744616809 -0.3981477611786608 0 0.47209620213241288 -0.38662220816109938 0 0.46461227738567717 -0.40399461877989912 0 0.49999999999999978 -0.41732588968952122 0 0.48349128744616809 -0.3981477611786608 0 0.5 -0.38787887063999699 0 0.48349128744616809 -0.3981477611786608 0 0.48620898030354948 -0.37918006028240092 0 0.5 -0.38787887063999699 0 0.5 -0.35843185159047292 0 0.48620898030354948 -0.37918006028240092 0 0.5 -0.38787887063999699 0 0.47350757658922271 -0.36952329647287657 0 0.47209620213241288 -0.38662220816109938 0 0.46271268513135372 -0.37747780338012438 0 0.48349128744616809 -0.3981477611786608 0 0.48620898030354948 -0.37918006028240092 0 0.47209620213241288 -0.38662220816109938 0 0.47350757658922271 -0.36952329647287657 0 0.48620898030354948 -0.37918006028240092 0 0.47209620213241288 -0.38662220816109938 0 0.46271268513135372 -0.37747780338012438 0 0.45744681408336407 -0.38575639722006821 0 0.45189505467726382 -0.37680202485208381 0 0.47209620213241288 -0.38662220816109938 0 0.46271268513135372 -0.37747780338012438 0 0.45744681408336407 -0.38575639722006821 0 0.47209620213241288 -0.38662220816109938 0 0.45744681408336407 -0.38575639722006821 0 0.46461227738567717 -0.40399461877989912 0 0.45744681408336407 -0.38575639722006821 0 0.46461227738567717 -0.40399461877989912 0 0.45184219469928433 -0.39789486874989249 0 0.45030067759957459 -0.40920304056939583 0 0.46461227738567717 -0.40399461877989912 0 0.45184219469928433 -0.39789486874989249 0 0.45030067759957459 -0.40920304056939583 0 0.45184219469928433 -0.39789486874989249 0 0.43607093377631329 -0.40042142092979582 0 0.45184219469928433 -0.39789486874989249 0 0.44708058619903079 -0.38729405048447457 0 0.43607093377631329 -0.40042142092979582 0 0.44173316381622191 -0.37123334486501253 0 0.45189505467726382 -0.37680202485208381 0 0.44708058619903079 -0.38729405048447457 0 0.44173316381622191 -0.37123334486501253 0 0.44708058619903079 -0.38729405048447457 0 0.43607093377631329 -0.40042142092979582 0 0.44173316381622191 -0.37123334486501253 0 0.43607093377631329 -0.40042142092979582 0 0.45744681408336407 -0.38575639722006821 0 0.45189505467726382 -0.37680202485208381 0 0.44708058619903079 -0.38729405048447457 0 0.45744681408336407 -0.38575639722006821 0 0.45184219469928433 -0.39789486874989249 0 0.44708058619903079 -0.38729405048447457 0 0.44173316381622191 -0.37123334486501253 0 0.43018656974337233 -0.3834847830435818 0 0.43607093377631329 -0.40042142092979582 0 0.42661372489006832 -0.37330916830292271 0 0.43018656974337233 -0.3834847830435818 0 0.41571052833623512 -0.38186572013688852 0 0.43792231759094602 -0.36891862507496959 0 0.42661372489006832 -0.37330916830292271 0 0.43018656974337233 -0.3834847830435818 0 0.43607093377631329 -0.40042142092979582 0 0.41370439676437609 -0.3974940894908795 0 0.41981869584763148 -0.41440516100429259 0 0.43018656974337233 -0.3834847830435818 0 0.43607093377631329 -0.40042142092979582 0 0.41370439676437609 -0.3974940894908795 0 0.43018656974337233 -0.3834847830435818 0 0.41370439676437609 -0.3974940894908795 0 0.41571052833623512 -0.38186572013688852 0 0.41370439676437609 -0.3974940894908795 0 0.41571052833623512 -0.38186572013688852 0 0.40109715774397792 -0.38275058451944882 0 0.42661372489006832 -0.37330916830292271 0 0.40978735765452701 -0.3715350174533486 0 0.41571052833623512 -0.38186572013688852 0 0.40978735765452701 -0.3715350174533486 0 0.41571052833623512 -0.38186572013688852 0 0.40109715774397792 -0.38275058451944882 0 0.40109715774397792 -0.38275058451944882 0 0.38240798480570892 -0.37852010314408679 0 0.38863111647644599 -0.40400878815621749 0 0.38240798480570892 -0.37852010314408679 0 0.38863111647644599 -0.40400878815621749 0 0.38863111647644599 -0.40400878815621749 0 0.37176003243497441 -0.40998872043702711 0 0.36795612070160122 -0.3943037227883871 0 0.38240798480570892 -0.37852010314408679 0 0.38863111647644599 -0.40400878815621749 0 0.36795612070160122 -0.3943037227883871 0 0.41370439676437609 -0.3974940894908795 0 0.38863111647644599 -0.40400878815621749 0 0.4062779690192711 -0.41494731252474337 0 0.41370439676437609 -0.3974940894908795 0 0.40109715774397792 -0.38275058451944882 0 0.38863111647644599 -0.40400878815621749 0 0.38863111647644599 -0.40400878815621749 0 0.39485424814717818 -0.42949747316834941 0 0.4062779690192711 -0.41494731252474337 0 0.38863111647644599 -0.40400878815621749 0 0.39485424814717818 -0.42949747316834941 0 0.38863111647644599 -0.40400878815621749 0 0.38208767645140901 -0.41911042656524472 0 0.37176003243497441 -0.40998872043702711 0 0.38863111647644599 -0.40400878815621749 0 0.38208767645140901 -0.41911042656524472 0 0.39485424814717818 -0.42949747316834941 0 0.39485424814717818 -0.42949747316834941 0 0.36925590453949608 -0.42941681873704168 0 0.37665443888321409 -0.43729346785436302 0 0.3856757983069049 -0.43577025519560952 0 0.36925590453949608 -0.42941681873704168 0 0.3856757983069049 -0.43577025519560952 0 0.39485424814717818 -0.42949747316834941 0 0.36925590453949608 -0.42941681873704168 0 0.38208767645140901 -0.41911042656524472 0 0.39485424814717818 -0.42949747316834941 0 0.36925590453949608 -0.42941681873704168 0 0.39485424814717818 -0.42949747316834941 0 0.41263147594179173 -0.42955348508146501 0 0.3970599418841867 -0.43853154730823468 0 0.39485424814717818 -0.42949747316834941 0 0.41263147594179173 -0.42955348508146501 0 0.39485424814717818 -0.42949747316834941 0 0.3970599418841867 -0.43853154730823468 0 0.3856757983069049 -0.43577025519560952 0 0.39485424814717818 -0.42949747316834941 0 0.3970599418841867 -0.43853154730823468 0 0.39485424814717818 -0.42949747316834941 0 0.41263147594179173 -0.42955348508146501 0 0.4062779690192711 -0.41494731252474337 0 0.41263147594179173 -0.42955348508146501 0 0.43040870373640522 -0.42960949699457918 0 0.41263147594179173 -0.42955348508146501 0 0.43040870373640522 -0.42960949699457918 0 0.4105733347589578 -0.4439764995731092 0 0.41263147594179173 -0.42955348508146501 0 0.4105733347589578 -0.4439764995731092 0 0.3970599418841867 -0.43853154730823468 0 0.41263147594179173 -0.42955348508146501 0 0.41981869584763148 -0.41440516100429259 0 0.43040870373640522 -0.42960949699457918 0 0.41370439676437609 -0.3974940894908795 0 0.4062779690192711 -0.41494731252474337 0 0.41981869584763148 -0.41440516100429259 0 0.41263147594179173 -0.42955348508146501 0 0.4062779690192711 -0.41494731252474337 0 0.41981869584763148 -0.41440516100429259 0 0.43607093377631329 -0.40042142092979582 0 0.41981869584763148 -0.41440516100429259 0 0.43040870373640522 -0.42960949699457918 0 0.4445886017928069 -0.41946726592624312 0 0.43607093377631329 -0.40042142092979582 0 0.43040870373640522 -0.42960949699457918 0 0.43607093377631329 -0.40042142092979582 0 0.43040870373640522 -0.42960949699457918 0 0.43040870373640522 -0.42960949699457918 0 0.42609808641601882 -0.45183018130920338 0 0.43823690162582152 -0.442656551615 0 0.43040870373640522 -0.42960949699457918 0 0.42609808641601882 -0.45183018130920338 0 0.43040870373640522 -0.42960949699457918 0 0.42609808641601882 -0.45183018130920338 0 0.4105733347589578 -0.4439764995731092 0 0.43823690162582152 -0.442656551615 0 0.42609808641601882 -0.45183018130920338 0 0.43566071353235342 -0.46355264343579089 0 0.42609808641601882 -0.45183018130920338 0 0.43566071353235342 -0.46355264343579089 0 0.41788280539829797 -0.46985191739468413 0 0.42609808641601882 -0.45183018130920338 0 0.40695414576950523 -0.45771744581404522 0 0.41788280539829797 -0.46985191739468413 0 0.42609808641601882 -0.45183018130920338 0 0.40695414576950523 -0.45771744581404522 0 0.4105733347589578 -0.4439764995731092 0 0.4105733347589578 -0.4439764995731092 0 0.39721761528731692 -0.45119552741579683 0 0.3970599418841867 -0.43853154730823468 0 0.40695414576950523 -0.45771744581404522 0 0.4105733347589578 -0.4439764995731092 0 0.39721761528731692 -0.45119552741579683 0 0.39721761528731692 -0.45119552741579683 0 0.3970599418841867 -0.43853154730823468 0 0.3848034700195111 -0.44451211479328562 0 0.3856757983069049 -0.43577025519560952 0 0.3970599418841867 -0.43853154730823468 0 0.3848034700195111 -0.44451211479328562 0 0.37665443888321409 -0.43729346785436302 0 0.3856757983069049 -0.43577025519560952 0 0.3848034700195111 -0.44451211479328562 0 0.3848034700195111 -0.44451211479328562 0 0.39015981315766812 -0.47191920641734841 0 0.36813351492680652 -0.4578788096260229 0 0.39015981315766812 -0.47191920641734841 0 0.36813351492680652 -0.4578788096260229 0 0.39721761528731692 -0.45119552741579683 0 0.3848034700195111 -0.44451211479328562 0 0.39015981315766812 -0.47191920641734841 0 0.40695414576950523 -0.45771744581404522 0 0.39721761528731692 -0.45119552741579683 0 0.39015981315766812 -0.47191920641734841 0 0.40695414576950523 -0.45771744581404522 0 0.39015981315766812 -0.47191920641734841 0 0.41788280539829797 -0.46985191739468413 0 0.39015981315766812 -0.47191920641734841 0 0.39617150827203812 -0.48844435240108153 0 0.41218611138852979 -0.48595960320867387 0 0.39015981315766812 -0.47191920641734841 0 0.41218611138852979 -0.48595960320867387 0 0.39015981315766812 -0.47191920641734841 0 0.37999710445162738 -0.5 0 0.36111942344273912 -0.48004186837267743 0 0.39015981315766812 -0.47191920641734841 0 0.37999710445162738 -0.5 0 0.39617150827203812 -0.48844435240108153 0 0.37999710445162738 -0.5 0 0.39617150827203812 -0.48844435240108153 0 0.40710475703550941 -0.5 0 0.39617150827203812 -0.48844435240108153 0 0.40710475703550941 -0.5 0 0.41218611138852979 -0.48595960320867387 0 0.40710475703550941 -0.5 0 0.41218611138852979 -0.48595960320867387 0 0.43421240961939139 -0.49999999999999972 0 0.41218611138852979 -0.48595960320867387 0 0.41788280539829797 -0.46985191739468413 0 0.43065669488015018 -0.48070599894378141 0 0.39015981315766812 -0.47191920641734841 0 0.41218611138852979 -0.48595960320867387 0 0.41788280539829797 -0.46985191739468413 0 0.43566071353235342 -0.46355264343579089 0 0.41788280539829797 -0.46985191739468413 0 0.43065669488015018 -0.48070599894378141 0 0.41218611138852979 -0.48595960320867387 0 0.43421240961939139 -0.49999999999999972 0 0.41218611138852979 -0.48595960320867387 0 0.43065669488015018 -0.48070599894378141 0 0.43421240961939139 -0.49999999999999972 0 0.32562102085959999 -0.49962517918909338 0 0.3188650930646052 -0.49384015059516778 0 0.30906313459206908 -0.49999999999999822 0 0.3188650930646052 -0.49384015059516778 0 0.31537357137569311 -0.47573542319158041 0 0.30906313459206908 -0.49999999999999822 0 0.32562102085959999 -0.49962517918909338 0 0.3188650930646052 -0.49384015059516778 0 0.31537357137569311 -0.47573542319158041 0 0.32562102085959999 -0.49962517918909338 0 0.31537357137569311 -0.47573542319158041 0 0.32562102085959999 -0.49962517918909338 0 0.32705189356582531 -0.47758756671950892 0 0.31537357137569311 -0.47573542319158041 0 0.32705189356582531 -0.47758756671950892 0 0.31537357137569311 -0.47573542319158041 0 0.32731070687432662 -0.45987691031431599 0 0.32705189356582531 -0.47758756671950892 0 0.33990227515368221 -0.47511275418304622 0 0.32731070687432662 -0.45987691031431599 0 0.32562102085959999 -0.49962517918909338 0 0.32705189356582531 -0.47758756671950892 0 0.33990227515368221 -0.47511275418304622 0 0.32562102085959999 -0.49962517918909338 0 0.33990227515368221 -0.47511275418304622 0 0.32562102085959999 -0.49962517918909338 0 0.33990227515368221 -0.47511275418304622 0 0.33937333261091801 -0.49122101923177458 0 0.32562102085959999 -0.49962517918909338 0 0.33937333261091801 -0.49122101923177458 0 0.35288945186774517 -0.5 0 0.33937333261091801 -0.49122101923177458 0 0.35288945186774517 -0.5 0 0.36111942344273912 -0.48004186837267743 0 0.37999710445162738 -0.5 0 0.35288945186774517 -0.5 0 0.36111942344273912 -0.48004186837267743 0 0.39015981315766812 -0.47191920641734841 0 0.36111942344273912 -0.48004186837267743 0 0.36813351492680652 -0.4578788096260229 0 0.33990227515368221 -0.47511275418304622 0 0.33937333261091801 -0.49122101923177458 0 0.36111942344273912 -0.48004186837267743 0 0.33990227515368221 -0.47511275418304622 0 0.36111942344273912 -0.48004186837267743 0 0.35583468574274812 -0.46590844033968648 0 0.33990227515368221 -0.47511275418304622 0 0.35418352944776488 -0.45060032917699938 0 0.33990227515368221 -0.47511275418304622 0 0.35418352944776488 -0.45060032917699938 0 0.340093026771697 -0.45737760876331679 0 0.33990227515368221 -0.47511275418304622 0 0.35583468574274812 -0.46590844033968648 0 0.35418352944776488 -0.45060032917699938 0 0.36111942344273912 -0.48004186837267743 0 0.35583468574274812 -0.46590844033968648 0 0.36813351492680652 -0.4578788096260229 0 0.35583468574274812 -0.46590844033968648 0 0.36813351492680652 -0.4578788096260229 0 0.35418352944776488 -0.45060032917699938 0 0.3848034700195111 -0.44451211479328562 0 0.36813351492680652 -0.4578788096260229 0 0.36188953281526259 -0.44421627808609571 0 0.3848034700195111 -0.44451211479328562 0 0.36188953281526259 -0.44421627808609571 0 0.37665443888321409 -0.43729346785436302 0 0.3848034700195111 -0.44451211479328562 0 0.36188953281526259 -0.44421627808609571 0 0.36813351492680652 -0.4578788096260229 0 0.36188953281526259 -0.44421627808609571 0 0.35418352944776488 -0.45060032917699938 0 0.36188953281526259 -0.44421627808609571 0 0.33897559561101431 -0.44392044137890579 0 0.34365756093181399 -0.42933616430573279 0 0.36188953281526259 -0.44421627808609571 0 0.33897559561101431 -0.44392044137890579 0 0.36188953281526259 -0.44421627808609571 0 0.35418352944776488 -0.45060032917699938 0 0.33897559561101431 -0.44392044137890579 0 0.35418352944776488 -0.45060032917699938 0 0.33897559561101431 -0.44392044137890579 0 0.340093026771697 -0.45737760876331679 0 0.33990227515368221 -0.47511275418304622 0 0.340093026771697 -0.45737760876331679 0 0.32731070687432662 -0.45987691031431599 0 0.33897559561101431 -0.44392044137890579 0 0.340093026771697 -0.45737760876331679 0 0.32731070687432662 -0.45987691031431599 0 0.31537357137569311 -0.47573542319158041 0 0.32731070687432662 -0.45987691031431599 0 0.31637589709399738 -0.45542627657340667 0 0.33897559561101431 -0.44392044137890579 0 0.31606165840676581 -0.44362460467171588 0 0.31637589709399738 -0.45542627657340667 0 0.31606165840676581 -0.44362460467171588 0 0.30512612189178517 -0.45184566719406782 0 0.33897559561101431 -0.44392044137890579 0 0.32731070687432662 -0.45987691031431599 0 0.31606165840676581 -0.44362460467171588 0 0.33897559561101431 -0.44392044137890579 0 0.31606165840676581 -0.44362460467171588 0 0.32817533568345891 -0.437405088827024 0 0.32731070687432662 -0.45987691031431599 0 0.31637589709399738 -0.45542627657340667 0 0.31606165840676581 -0.44362460467171588 0 0.31606165840676581 -0.44362460467171588 0 0.31805921732413212 -0.42925550987442379 0 0.32817533568345891 -0.437405088827024 0 0.31606165840676581 -0.44362460467171588 0 0.31805921732413212 -0.42925550987442379 0 0.30493236766246812 -0.436345934488445 0 0.31985940292529941 -0.41295447671329732 0 0.31075796009052831 -0.39572085063997808 0 0.30888278388740348 -0.41521004381282178 0 0.31805921732413212 -0.42925550987442379 0 0.31985940292529941 -0.41295447671329732 0 0.33113555781690102 -0.41904522338276579 0 0.31805921732413212 -0.42925550987442379 0 0.31985940292529941 -0.41295447671329732 0 0.30888278388740348 -0.41521004381282178 0 0.31985940292529941 -0.41295447671329732 0 0.33113555781690102 -0.41904522338276579 0 0.33046149550753229 -0.40554075585649679 0 0.33113555781690102 -0.41904522338276579 0 0.34241547994114269 -0.41362446478144221 0 0.34365756093181399 -0.42933616430573279 0 0.33113555781690102 -0.41904522338276579 0 0.34241547994114269 -0.41362446478144221 0 0.33046149550753229 -0.40554075585649679 0 0.31805921732413212 -0.42925550987442379 0 0.34365756093181399 -0.42933616430573279 0 0.32817533568345891 -0.437405088827024 0 0.31805921732413212 -0.42925550987442379 0 0.33113555781690102 -0.41904522338276579 0 0.34365756093181399 -0.42933616430573279 0 0.31805921732413212 -0.42925550987442379 0 0.34365756093181399 -0.42933616430573279 0 0.33897559561101431 -0.44392044137890579 0 0.34365756093181399 -0.42933616430573279 0 0.32817533568345891 -0.437405088827024 0 0.34365756093181399 -0.42933616430573279 0 0.36925590453949608 -0.42941681873704168 0 0.35674230937501078 -0.41217086121041902 0 0.34365756093181399 -0.42933616430573279 0 0.36925590453949608 -0.42941681873704168 0 0.36188953281526259 -0.44421627808609571 0 0.34365756093181399 -0.42933616430573279 0 0.36925590453949608 -0.42941681873704168 0 0.37665443888321409 -0.43729346785436302 0 0.36188953281526259 -0.44421627808609571 0 0.36925590453949608 -0.42941681873704168 0 0.38208767645140901 -0.41911042656524472 0 0.36925590453949608 -0.42941681873704168 0 0.37176003243497441 -0.40998872043702711 0 0.36925590453949608 -0.42941681873704168 0 0.37176003243497441 -0.40998872043702711 0 0.35674230937501078 -0.41217086121041902 0 0.34241547994114269 -0.41362446478144221 0 0.35674230937501078 -0.41217086121041902 0 0.34647936393220441 -0.39402114553103817 0 0.34241547994114269 -0.41362446478144221 0 0.34365756093181399 -0.42933616430573279 0 0.35674230937501078 -0.41217086121041902 0 0.35674230937501078 -0.41217086121041902 0 0.34647936393220441 -0.39402114553103817 0 0.36795612070160122 -0.3943037227883871 0 0.37176003243497441 -0.40998872043702711 0 0.35674230937501078 -0.41217086121041902 0 0.36795612070160122 -0.3943037227883871 0 0.38240798480570892 -0.37852010314408679 0 0.36795612070160122 -0.3943037227883871 0 0.3567457423339877 -0.37092962175819427 0 0.34647936393220441 -0.39402114553103817 0 0.33846966771265258 -0.37695460337982112 0 0.3567457423339877 -0.37092962175819427 0 0.34647936393220441 -0.39402114553103817 0 0.36795612070160122 -0.3943037227883871 0 0.3567457423339877 -0.37092962175819427 0 0.34647936393220441 -0.39402114553103817 0 0.33846966771265258 -0.37695460337982112 0 0.3263508617172054 -0.38750488125084709 0 0.34241547994114269 -0.41362446478144221 0 0.34647936393220441 -0.39402114553103817 0 0.33046149550753229 -0.40554075585649679 0 0.34647936393220441 -0.39402114553103817 0 0.33046149550753229 -0.40554075585649679 0 0.3263508617172054 -0.38750488125084709 0 0.33046149550753229 -0.40554075585649679 0 0.3263508617172054 -0.38750488125084709 0 0.31075796009052831 -0.39572085063997808 0 0.31985940292529941 -0.41295447671329732 0 0.33046149550753229 -0.40554075585649679 0 0.31075796009052831 -0.39572085063997808 0 0.3263508617172054 -0.38750488125084709 0 0.3096773386499212 -0.3813243078888065 0 0.31075796009052831 -0.39572085063997808 0 0.33846966771265258 -0.37695460337982112 0 0.3263508617172054 -0.38750488125084709 0 0.31915821050206972 -0.37043664262910392 0 0.3263508617172054 -0.38750488125084709 0 0.3096773386499212 -0.3813243078888065 0 0.31915821050206972 -0.37043664262910392 0 0.3096773386499212 -0.3813243078888065 0 0.29526372343335222 -0.38214642848390951 0 0.29938815419514908 -0.36235191135060729 0 0.3096773386499212 -0.3813243078888065 0 0.31075796009052831 -0.39572085063997808 0 0.29526372343335222 -0.38214642848390951 0 0.31075796009052831 -0.39572085063997808 0 0.29178274806564442 -0.41520067436951369 0 0.31075796009052831 -0.39572085063997808 0 0.29113929267155558 -0.40194094561721161 0 0.29526372343335222 -0.38214642848390951 0 0.31075796009052831 -0.39572085063997808 0 0.29113929267155558 -0.40194094561721161 0 0.29178274806564442 -0.41520067436951369 0 0.29113929267155558 -0.40194094561721161 0 0.29526372343335222 -0.38214642848390951 0 0.29096903481361719 -0.39843243044280019 0 0.28318981538834798 -0.39262896962206201 0 0.29526372343335222 -0.38214642848390951 0 0.29096903481361719 -0.39843243044280019 0 0.29113929267155558 -0.40194094561721161 0 0.29526372343335222 -0.38214642848390951 0 0.29096903481361719 -0.39843243044280019 0 0.29113929267155558 -0.40194094561721161 0 0.28502919674291388 -0.40062006331372729 0 0.27798512017272892 -0.40082089003652099 0 0.28264635626051132 -0.40952105626625152 0 0.29113929267155558 -0.40194094561721161 0 0.28502919674291388 -0.40062006331372729 0 0.28264635626051132 -0.40952105626625152 0 0.29096903481361719 -0.39843243044280019 0 0.29113929267155558 -0.40194094561721161 0 0.28502919674291388 -0.40062006331372729 0 0.28502919674291388 -0.40062006331372729 0 0.28318981538834798 -0.39262896962206201 0 0.27798512017272892 -0.40082089003652099 0 0.29096903481361719 -0.39843243044280019 0 0.28502919674291388 -0.40062006331372729 0 0.28318981538834798 -0.39262896962206201 0 0.28318981538834798 -0.39262896962206201 0 0.29526372343335222 -0.38214642848390951 0 0.27569670368188232 -0.38326726020642471 0 0.29526372343335222 -0.38214642848390951 0 0.27569670368188232 -0.38326726020642471 0 0.2822483272805178 -0.36575990941074382 0 0.28318981538834798 -0.39262896962206201 0 0.27569670368188232 -0.38326726020642471 0 0.27140133813572248 -0.39438652514112071 0 0.27569670368188232 -0.38326726020642471 0 0.26161541147981399 -0.38825456187999341 0 0.27140133813572248 -0.39438652514112071 0 0.27569670368188232 -0.38326726020642471 0 0.26161541147981399 -0.38825456187999341 0 0.26273855981799532 -0.37402085189451678 0 0.26161541147981399 -0.38825456187999341 0 0.26273855981799532 -0.37402085189451678 0 0.2462658744323834 -0.38197959250061342 0 0.26161541147981399 -0.38825456187999341 0 0.25113336278303172 -0.39639034007073559 0 0.2462658744323834 -0.38197959250061342 0 0.25113336278303172 -0.39639034007073559 0 0.25834465052961392 -0.41196496969487773 0 0.2415255849161019 -0.40609463635975013 0 0.25113336278303172 -0.39639034007073559 0 0.26281084462470111 -0.3998352336856334 0 0.25834465052961392 -0.41196496969487773 0 0.26161541147981399 -0.38825456187999341 0 0.25113336278303172 -0.39639034007073559 0 0.26281084462470111 -0.3998352336856334 0 0.26161541147981399 -0.38825456187999341 0 0.26281084462470111 -0.3998352336856334 0 0.27140133813572248 -0.39438652514112071 0 0.26281084462470111 -0.3998352336856334 0 0.27081663500811198 -0.40520008615658132 0 0.25834465052961392 -0.41196496969487773 0 0.27081663500811198 -0.40520008615658132 0 0.27140133813572248 -0.39438652514112071 0 0.27798512017272892 -0.40082089003652099 0 0.26281084462470111 -0.3998352336856334 0 0.27081663500811198 -0.40520008615658132 0 0.27140133813572248 -0.39438652514112071 0 0.28318981538834798 -0.39262896962206201 0 0.27140133813572248 -0.39438652514112071 0 0.27798512017272892 -0.40082089003652099 0 0.27081663500811198 -0.40520008615658132 0 0.27798512017272892 -0.40082089003652099 0 0.28264635626051132 -0.40952105626625152 0 0.27081663500811198 -0.40520008615658132 0 0.27206571492222681 -0.41502427433416672 0 0.28264635626051132 -0.40952105626625152 0 0.27844475086434628 -0.42008249968918893 0 0.27206571492222681 -0.41502427433416672 0 0.28264635626051132 -0.40952105626625152 0 0.26660164492473198 -0.42150218520744809 0 0.27206571492222681 -0.41502427433416672 0 0.25834465052961392 -0.41196496969487773 0 0.27844475086434628 -0.42008249968918893 0 0.26660164492473198 -0.42150218520744809 0 0.27206571492222681 -0.41502427433416672 0 0.27081663500811198 -0.40520008615658132 0 0.27206571492222681 -0.41502427433416672 0 0.25834465052961392 -0.41196496969487773 0 0.25834465052961392 -0.41196496969487773 0 0.25675938249820729 -0.42906236834179229 0 0.24471655788437549 -0.41836465708289111 0 0.26660164492473198 -0.42150218520744809 0 0.25834465052961392 -0.41196496969487773 0 0.25675938249820729 -0.42906236834179229 0 0.25675938249820729 -0.42906236834179229 0 0.26225826081895931 -0.43553163761717179 0 0.24937758952868769 -0.43582476186075059 0 0.25675938249820729 -0.42906236834179229 0 0.26225826081895931 -0.43553163761717179 0 0.26930167735914629 -0.4333880303452663 0 0.25675938249820729 -0.42906236834179229 0 0.27821428364315981 -0.42912996774889278 0 0.26930167735914629 -0.4333880303452663 0 0.27111210296809168 -0.43642101817110968 0 0.27821428364315981 -0.42912996774889278 0 0.25675938249820729 -0.42906236834179229 0 0.26930167735914629 -0.4333880303452663 0 0.27821428364315981 -0.42912996774889278 0 0.26660164492473198 -0.42150218520744809 0 0.25675938249820729 -0.42906236834179229 0 0.27821428364315981 -0.42912996774889278 0 0.26225826081895931 -0.43553163761717179 0 0.26930167735914629 -0.4333880303452663 0 0.27111210296809168 -0.43642101817110968 0 0.26930167735914629 -0.4333880303452663 0 0.27111210296809168 -0.43642101817110968 0 0.27844475086434628 -0.42008249968918893 0 0.26660164492473198 -0.42150218520744809 0 0.27821428364315981 -0.42912996774889278 0 0.27111210296809168 -0.43642101817110968 0 0.27821428364315981 -0.42912996774889278 0 0.27851784514164207 -0.43605140350369348 0 0.27111210296809168 -0.43642101817110968 0 0.27821428364315981 -0.42912996774889278 0 0.27821428364315981 -0.42912996774889278 0 0.27851784514164207 -0.43605140350369348 0 0.28546936300596981 -0.42915282681778749 0 0.28546936300596981 -0.42915282681778749 0 0.28269717206150108 -0.44245749461713091 0 0.27851784514164207 -0.43605140350369348 0 0.28546936300596981 -0.42915282681778749 0 0.28269717206150108 -0.44245749461713091 0 0.28844378249660962 -0.43602848621063972 0 0.28546936300596981 -0.42915282681778749 0 0.28269717206150108 -0.44245749461713091 0 0.28844378249660962 -0.43602848621063972 0 0.29246087371645019 -0.42917485544311462 0 0.28546936300596981 -0.42915282681778749 0 0.28844378249660962 -0.43602848621063972 0 0.29246087371645019 -0.42917485544311462 0 0.29314772120251731 -0.44332876796452603 0 0.29246087371645019 -0.42917485544311462 0 0.29314772120251731 -0.44332876796452603 0 0.29246087371645019 -0.42917485544311462 0 0.30493236766246812 -0.436345934488445 0 0.29314772120251731 -0.44332876796452603 0 0.29246087371645019 -0.42917485544311462 0 0.29178274806564442 -0.41520067436951369 0 0.29246087371645019 -0.42917485544311462 0 0.29178274806564442 -0.41520067436951369 0 0.30279640574840933 -0.42221027087496837 0 0.27821428364315981 -0.42912996774889278 0 0.28546936300596981 -0.42915282681778749 0 0.28744958810085658 -0.4196490669458563 0 0.28546936300596981 -0.42915282681778749 0 0.28744958810085658 -0.4196490669458563 0 0.29246087371645019 -0.42917485544311462 0 0.28546936300596981 -0.42915282681778749 0 0.28744958810085658 -0.4196490669458563 0 0.27821428364315981 -0.42912996774889278 0 0.28744958810085658 -0.4196490669458563 0 0.27844475086434628 -0.42008249968918893 0 0.27821428364315981 -0.42912996774889278 0 0.28744958810085658 -0.4196490669458563 0 0.29246087371645019 -0.42917485544311462 0 0.28546936300596981 -0.42915282681778749 0 0.27821428364315981 -0.42912996774889278 0 0.28546936300596981 -0.42915282681778749 0 0.29113929267155558 -0.40194094561721161 0 0.28744958810085658 -0.4196490669458563 0 0.28264635626051132 -0.40952105626625152 0 0.27844475086434628 -0.42008249968918893 0 0.28744958810085658 -0.4196490669458563 0 0.28264635626051132 -0.40952105626625152 0 0.29113929267155558 -0.40194094561721161 0 0.28744958810085658 -0.4196490669458563 0 0.29113929267155558 -0.40194094561721161 0 0.28744958810085658 -0.4196490669458563 0 0.29178274806564442 -0.41520067436951369 0 0.29113929267155558 -0.40194094561721161 0 0.29178274806564442 -0.41520067436951369 0 0.29246087371645019 -0.42917485544311462 0 0.28744958810085658 -0.4196490669458563 0 0.29178274806564442 -0.41520067436951369 0 0.28744958810085658 -0.4196490669458563 0 0.29178274806564442 -0.41520067436951369 0 0.29178274806564442 -0.41520067436951369 0 0.30888278388740348 -0.41521004381282178 0 0.30279640574840933 -0.42221027087496837 0 0.31075796009052831 -0.39572085063997808 0 0.29178274806564442 -0.41520067436951369 0 0.30888278388740348 -0.41521004381282178 0 0.31805921732413212 -0.42925550987442379 0 0.29246087371645019 -0.42917485544311462 0 0.31805921732413212 -0.42925550987442379 0 0.29246087371645019 -0.42917485544311462 0 0.30279640574840933 -0.42221027087496837 0 0.31805921732413212 -0.42925550987442379 0 0.29246087371645019 -0.42917485544311462 0 0.30493236766246812 -0.436345934488445 0 0.31805921732413212 -0.42925550987442379 0 0.30888278388740348 -0.41521004381282178 0 0.30279640574840933 -0.42221027087496837 0 0.31606165840676581 -0.44362460467171588 0 0.30512612189178517 -0.45184566719406782 0 0.29314772120251731 -0.44332876796452603 0 0.31606165840676581 -0.44362460467171588 0 0.30493236766246812 -0.436345934488445 0 0.29314772120251731 -0.44332876796452603 0 0.30512612189178517 -0.45184566719406782 0 0.29394025903575932 -0.45966064860657702 0 0.29314772120251731 -0.44332876796452603 0 0.31606165840676581 -0.44362460467171588 0 0.29314772120251731 -0.44332876796452603 0 0.31537357137569311 -0.47573542319158041 0 0.31637589709399738 -0.45542627657340667 0 0.30512612189178517 -0.45184566719406782 0 0.31537357137569311 -0.47573542319158041 0 0.30512612189178517 -0.45184566719406782 0 0.31537357137569311 -0.47573542319158041 0 0.30512612189178517 -0.45184566719406782 0 0.29394025903575932 -0.45966064860657702 0 0.29394025903575932 -0.45966064860657702 0 0.28491455044924457 -0.45954411970608688 0 0.29473279686900039 -0.47599252924862812 0 0.29394025903575932 -0.45966064860657702 0 0.29473279686900039 -0.47599252924862812 0 0.28491455044924457 -0.45954411970608688 0 0.29473279686900039 -0.47599252924862812 0 0.29394025903575932 -0.45966064860657702 0 0.28491455044924457 -0.45954411970608688 0 0.29314772120251731 -0.44332876796452603 0 0.29314772120251731 -0.44332876796452603 0 0.28269717206150108 -0.44245749461713091 0 0.27509630402948781 -0.44309571016354632 0 0.29314772120251731 -0.44332876796452603 0 0.27509630402948781 -0.44309571016354632 0 0.28491455044924457 -0.45954411970608688 0 0.29314772120251731 -0.44332876796452603 0 0.27509630402948781 -0.44309571016354632 0 0.29394025903575932 -0.45966064860657702 0 0.29314772120251731 -0.44332876796452603 0 0.28844378249660962 -0.43602848621063972 0 0.29314772120251731 -0.44332876796452603 0 0.28269717206150108 -0.44245749461713091 0 0.27851784514164207 -0.43605140350369348 0 0.28269717206150108 -0.44245749461713091 0 0.27509630402948781 -0.44309571016354632 0 0.28491455044924457 -0.45954411970608688 0 0.27509630402948781 -0.44309571016354632 0 0.27111210296809168 -0.43642101817110968 0 0.27851784514164207 -0.43605140350369348 0 0.27509630402948781 -0.44309571016354632 0 0.27509630402948781 -0.44309571016354632 0 0.2647405517406643 -0.44296200936694391 0 0.26894138168338477 -0.45835658674643581 0 0.27509630402948781 -0.44309571016354632 0 0.2647405517406643 -0.44296200936694391 0 0.27111210296809168 -0.43642101817110968 0 0.27509630402948781 -0.44309571016354632 0 0.2647405517406643 -0.44296200936694391 0 0.26225826081895931 -0.43553163761717179 0 0.27111210296809168 -0.43642101817110968 0 0.2647405517406643 -0.44296200936694391 0 0.27111210296809168 -0.43642101817110968 0 0.27509630402948781 -0.44309571016354632 0 0.27111210296809168 -0.43642101817110968 0 0.2647405517406643 -0.44296200936694391 0 0.2647405517406643 -0.44296200936694391 0 0.23528251899697711 -0.44258168330907049 0 0.26225826081895931 -0.43553163761717179 0 0.2647405517406643 -0.44296200936694391 0 0.24937758952868769 -0.43582476186075059 0 0.2647405517406643 -0.44296200936694391 0 0.24642569303344669 -0.46176391886762419 0 0.2647405517406643 -0.44296200936694391 0 0.26894138168338477 -0.45835658674643581 0 0.24642569303344669 -0.46176391886762419 0 0.26894138168338477 -0.45835658674643581 0 0.25460761733926612 -0.48077428153223201 0 0.24642569303344669 -0.46176391886762419 0 0.28491455044924457 -0.45954411970608688 0 0.26894138168338477 -0.45835658674643581 0 0.27481125637505999 -0.47672941046381351 0 0.28491455044924457 -0.45954411970608688 0 0.27509630402948781 -0.44309571016354632 0 0.26894138168338477 -0.45835658674643581 0 0.26894138168338477 -0.45835658674643581 0 0.27481125637505999 -0.47672941046381351 0 0.25460761733926612 -0.48077428153223201 0 0.25460761733926612 -0.48077428153223201 0 0.26992155257213829 -0.5 0 0.24394529676999099 -0.5 0 0.27481125637505999 -0.47672941046381351 0 0.25460761733926612 -0.48077428153223201 0 0.26992155257213829 -0.5 0 0.27481125637505999 -0.47672941046381351 0 0.26992155257213829 -0.5 0 0.28423504578222791 -0.48826781330302371 0 0.2958978083742857 -0.500000000000002 0 0.29473279686900039 -0.47599252924862812 0 0.28423504578222791 -0.48826781330302371 0 0.2958978083742857 -0.500000000000002 0 0.29473279686900039 -0.47599252924862812 0 0.26992155257213829 -0.5 0 0.28423504578222791 -0.48826781330302371 0 0.2958978083742857 -0.500000000000002 0 0.27481125637505999 -0.47672941046381351 0 0.28423504578222791 -0.48826781330302371 0 0.29473279686900039 -0.47599252924862812 0 0.28491455044924457 -0.45954411970608688 0 0.27481125637505999 -0.47672941046381351 0 0.29473279686900039 -0.47599252924862812 0 0.31537357137569311 -0.47573542319158041 0 0.29473279686900039 -0.47599252924862812 0 0.30906313459206908 -0.49999999999999822 0 0.31537357137569311 -0.47573542319158041 0 0.29394025903575932 -0.45966064860657702 0 0.29473279686900039 -0.47599252924862812 0 0.2958978083742857 -0.500000000000002 0 0.29473279686900039 -0.47599252924862812 0 0.30906313459206908 -0.49999999999999822 0 0.29473279686900039 -0.47599252924862812 0 0.30906313459206908 -0.49999999999999822 0 0.32957540708980337 -0.28233484169300721 0 0.33350720058453531 -0.3067582988720306 0 0.34777854009225467 -0.29092059718385621 0 0.33350720058453531 -0.3067582988720306 0 0.31940688812320073 -0.32114172553523779 0 0.31236919290445669 -0.30090688950199113 0 0.32957540708980337 -0.28233484169300721 0 0.33350720058453531 -0.3067582988720306 0 0.31236919290445669 -0.30090688950199113 0 0.32957540708980337 -0.28233484169300721 0 0.31236919290445669 -0.30090688950199113 0 0.31219288969015102 -0.27103532748113379 0 0.32957540708980337 -0.28233484169300721 0 0.32740146312166057 -0.2615598439342075 0 0.31219288969015102 -0.27103532748113379 0 0.30987088180634448 -0.24125362874219619 0 0.32740146312166057 -0.2615598439342075 0 0.31219288969015102 -0.27103532748113379 0 0.33627474799740559 -0.24529035195854479 0 0.32740146312166057 -0.2615598439342075 0 0.34280143854843398 -0.26651154424247869 0 0.32957540708980337 -0.28233484169300721 0 0.32740146312166057 -0.2615598439342075 0 0.34280143854843398 -0.26651154424247869 0 0.32957540708980337 -0.28233484169300721 0 0.34280143854843398 -0.26651154424247869 0 0.34777854009225467 -0.29092059718385621 0 0.34280143854843398 -0.26651154424247869 0 0.35666834061529479 -0.27123260863895199 0 0.34777854009225467 -0.29092059718385621 0 0.3592550994650468 -0.24613366971849041 0 0.34280143854843398 -0.26651154424247869 0 0.35666834061529479 -0.27123260863895199 0 0.33627474799740559 -0.24529035195854479 0 0.3592550994650468 -0.24613366971849041 0 0.34280143854843398 -0.26651154424247869 0 0.3592550994650468 -0.24613366971849041 0 0.37962897743813367 -0.25651992395937562 0 0.37050420578859872 -0.26776837990911312 0 0.3592550994650468 -0.24613366971849041 0 0.35666834061529479 -0.27123260863895199 0 0.37050420578859872 -0.26776837990911312 0 0.3592550994650468 -0.24613366971849041 0 0.37050420578859872 -0.26776837990911312 0 0.35666834061529479 -0.27123260863895199 0 0.37050420578859872 -0.26776837990911312 0 0.36300241918213971 -0.28482885214082171 0 0.37050420578859872 -0.26776837990911312 0 0.37154850581208082 -0.284248057172719 0 0.36300241918213971 -0.28482885214082171 0 0.38175331211215058 -0.28940309009973592 0 0.37050420578859872 -0.26776837990911312 0 0.37154850581208082 -0.284248057172719 0 0.37154850581208082 -0.284248057172719 0 0.37093408616543422 -0.29499190654120538 0 0.36300241918213971 -0.28482885214082171 0 0.38175331211215058 -0.28940309009973592 0 0.37154850581208082 -0.284248057172719 0 0.37093408616543422 -0.29499190654120538 0 0.37093408616543422 -0.29499190654120538 0 0.36300241918213971 -0.28482885214082171 0 0.36107539554114298 -0.29693991331551067 0 0.35666834061529479 -0.27123260863895199 0 0.36300241918213971 -0.28482885214082171 0 0.34777854009225467 -0.29092059718385621 0 0.36300241918213971 -0.28482885214082171 0 0.34777854009225467 -0.29092059718385621 0 0.36107539554114298 -0.29693991331551067 0 0.33350720058453531 -0.3067582988720306 0 0.35617419542099171 -0.30797258542327188 0 0.3434221482530771 -0.31898036386437462 0 0.33350720058453531 -0.3067582988720306 0 0.34777854009225467 -0.29092059718385621 0 0.35617419542099171 -0.30797258542327188 0 0.34777854009225467 -0.29092059718385621 0 0.35617419542099171 -0.30797258542327188 0 0.36107539554114298 -0.29693991331551067 0 0.35617419542099171 -0.30797258542327188 0 0.36107539554114298 -0.29693991331551067 0 0.37214457168145071 -0.30742358830148531 0 0.38029466251644028 -0.29986647237510811 0 0.37093408616543422 -0.29499190654120538 0 0.37214457168145071 -0.30742358830148531 0 0.37093408616543422 -0.29499190654120538 0 0.36107539554114298 -0.29693991331551067 0 0.37214457168145071 -0.30742358830148531 0 0.35617419542099171 -0.30797258542327188 0 0.37214457168145071 -0.30742358830148531 0 0.36996172146423478 -0.32754273311982529 0 0.35617419542099171 -0.30797258542327188 0 0.36996172146423478 -0.32754273311982529 0 0.35306648032504262 -0.33228776260873261 0 0.38164260336710232 -0.31615744579396521 0 0.37214457168145071 -0.30742358830148531 0 0.36996172146423478 -0.32754273311982529 0 0.36996172146423478 -0.32754273311982529 0 0.35306648032504262 -0.33228776260873261 0 0.35731430246447682 -0.34983201697113597 0 0.37618485313497191 -0.35303141813195599 0 0.36996172146423478 -0.32754273311982529 0 0.35731430246447682 -0.34983201697113597 0 0.37618485313497191 -0.35303141813195599 0 0.36996172146423478 -0.32754273311982529 0 0.35306648032504262 -0.33228776260873261 0 0.35731430246447682 -0.34983201697113597 0 0.34168414680625769 -0.34452156241349458 0 0.35617419542099171 -0.30797258542327188 0 0.35306648032504262 -0.33228776260873261 0 0.3434221482530771 -0.31898036386437462 0 0.37618485313497191 -0.35303141813195599 0 0.38240798480570892 -0.37852010314408679 0 0.3567457423339877 -0.37092962175819427 0 0.37618485313497191 -0.35303141813195599 0 0.35731430246447682 -0.34983201697113597 0 0.3567457423339877 -0.37092962175819427 0 0.35731430246447682 -0.34983201697113597 0 0.33741189226114721 -0.35981876257024509 0 0.34168414680625769 -0.34452156241349458 0 0.35731430246447682 -0.34983201697113597 0 0.3567457423339877 -0.37092962175819427 0 0.33741189226114721 -0.35981876257024509 0 0.33846966771265258 -0.37695460337982112 0 0.3567457423339877 -0.37092962175819427 0 0.33741189226114721 -0.35981876257024509 0 0.33846966771265258 -0.37695460337982112 0 0.33741189226114721 -0.35981876257024509 0 0.31915821050206972 -0.37043664262910392 0 0.33741189226114721 -0.35981876257024509 0 0.34168414680625769 -0.34452156241349458 0 0.32813074893442251 -0.34418371868588848 0 0.33741189226114721 -0.35981876257024509 0 0.32813074893442251 -0.34418371868588848 0 0.32201112636252999 -0.3528096981888329 0 0.32201112636252999 -0.3528096981888329 0 0.31915821050206972 -0.37043664262910392 0 0.30987318817222509 -0.34571298684785262 0 0.32813074893442251 -0.34418371868588848 0 0.32201112636252999 -0.3528096981888329 0 0.31771908807833588 -0.34170101098267841 0 0.32201112636252999 -0.3528096981888329 0 0.31771908807833588 -0.34170101098267841 0 0.30987318817222509 -0.34571298684785262 0 0.33741189226114721 -0.35981876257024509 0 0.32201112636252999 -0.3528096981888329 0 0.31915821050206972 -0.37043664262910392 0 0.35306648032504262 -0.33228776260873261 0 0.3434221482530771 -0.31898036386437462 0 0.33232496317177118 -0.32984298873849771 0 0.33350720058453531 -0.3067582988720306 0 0.3434221482530771 -0.31898036386437462 0 0.33232496317177118 -0.32984298873849771 0 0.33350720058453531 -0.3067582988720306 0 0.33232496317177118 -0.32984298873849771 0 0.31940688812320073 -0.32114172553523779 0 0.35306648032504262 -0.33228776260873261 0 0.34168414680625769 -0.34452156241349458 0 0.33232496317177118 -0.32984298873849771 0 0.34168414680625769 -0.34452156241349458 0 0.32813074893442251 -0.34418371868588848 0 0.33232496317177118 -0.32984298873849771 0 0.32813074893442251 -0.34418371868588848 0 0.33232496317177118 -0.32984298873849771 0 0.32267668596175481 -0.33341785867055518 0 0.33232496317177118 -0.32984298873849771 0 0.32267668596175481 -0.33341785867055518 0 0.31940688812320073 -0.32114172553523779 0 0.32813074893442251 -0.34418371868588848 0 0.32267668596175481 -0.33341785867055518 0 0.31771908807833588 -0.34170101098267841 0 0.32267668596175481 -0.33341785867055518 0 0.31771908807833588 -0.34170101098267841 0 0.31294298630122958 -0.33429540854302747 0 0.31771908807833588 -0.34170101098267841 0 0.31168118685013108 -0.34100175600761939 0 0.30987318817222509 -0.34571298684785262 0 0.31771908807833588 -0.34170101098267841 0 0.31294298630122958 -0.33429540854302747 0 0.31168118685013108 -0.34100175600761939 0 0.32267668596175481 -0.33341785867055518 0 0.31294298630122958 -0.33429540854302747 0 0.31940688812320073 -0.32114172553523779 0 0.31294298630122958 -0.33429540854302747 0 0.31940688812320073 -0.32114172553523779 0 0.30601167809918312 -0.32095610648709572 0 0.31940688812320073 -0.32114172553523779 0 0.30601167809918312 -0.32095610648709572 0 0.31236919290445669 -0.30090688950199113 0 0.30601167809918312 -0.32095610648709572 0 0.29267099061500118 -0.31767693215293968 0 0.29602111265001879 -0.30165816726207401 0 0.30601167809918312 -0.32095610648709572 0 0.30423517195087751 -0.34071154513897461 0 0.29267099061500118 -0.31767693215293968 0 0.31294298630122958 -0.33429540854302747 0 0.30601167809918312 -0.32095610648709572 0 0.30570887717953288 -0.34364700841230278 0 0.30423517195087751 -0.34071154513897461 0 0.29267099061500118 -0.31767693215293968 0 0.30601167809918312 -0.32095610648709572 0 0.30570887717953288 -0.34364700841230278 0 0.30423517195087751 -0.34071154513897461 0 0.31294298630122958 -0.33429540854302747 0 0.31168118685013108 -0.34100175600761939 0 0.30570887717953288 -0.34364700841230278 0 0.31168118685013108 -0.34100175600761939 0 0.30570887717953288 -0.34364700841230278 0 0.30987318817222509 -0.34571298684785262 0 0.30570887717953288 -0.34364700841230278 0 0.30423517195087751 -0.34071154513897461 0 0.30570887717953288 -0.34364700841230278 0 0.30351258495694688 -0.34255739421730541 0 0.30423517195087751 -0.34071154513897461 0 0.30570887717953288 -0.34364700841230278 0 0.30351258495694688 -0.34255739421730541 0 0.30351258495694688 -0.34255739421730541 0 0.30423517195087751 -0.34071154513897461 0 0.30423517195087751 -0.34071154513897461 0 0.29267099061500118 -0.31767693215293968 0 0.27697346549350221 -0.32939093076003212 0 0.30351258495694688 -0.34255739421730541 0 0.27697346549350221 -0.32939093076003212 0 0.30351258495694688 -0.34255739421730541 0 0.30423517195087751 -0.34071154513897461 0 0.27697346549350221 -0.32939093076003212 0 0.30351258495694688 -0.34255739421730541 0 0.28388279232808111 -0.34879423229863538 0 0.27697346549350221 -0.32939093076003212 0 0.3096773386499212 -0.3813243078888065 0 0.31915821050206972 -0.37043664262910392 0 0.29938815419514908 -0.36235191135060729 0 0.29526372343335222 -0.38214642848390951 0 0.29938815419514908 -0.36235191135060729 0 0.30570887717953288 -0.34364700841230278 0 0.30351258495694688 -0.34255739421730541 0 0.29938815419514908 -0.36235191135060729 0 0.31915821050206972 -0.37043664262910392 0 0.30570887717953288 -0.34364700841230278 0 0.30987318817222509 -0.34571298684785262 0 0.30351258495694688 -0.34255739421730541 0 0.29938815419514908 -0.36235191135060729 0 0.29225796469017368 -0.35486586181932289 0 0.31915821050206972 -0.37043664262910392 0 0.30570887717953288 -0.34364700841230278 0 0.29938815419514908 -0.36235191135060729 0 0.31915821050206972 -0.37043664262910392 0 0.30570887717953288 -0.34364700841230278 0 0.30351258495694688 -0.34255739421730541 0 0.29938815419514908 -0.36235191135060729 0 0.30570887717953288 -0.34364700841230278 0 0.30987318817222509 -0.34571298684785262 0 0.29225796469017368 -0.35486586181932289 0 0.28388279232808111 -0.34879423229863538 0 0.2822483272805178 -0.36575990941074382 0 0.30351258495694688 -0.34255739421730541 0 0.29225796469017368 -0.35486586181932289 0 0.28388279232808111 -0.34879423229863538 0 0.29526372343335222 -0.38214642848390951 0 0.29938815419514908 -0.36235191135060729 0 0.2822483272805178 -0.36575990941074382 0 0.29938815419514908 -0.36235191135060729 0 0.29225796469017368 -0.35486586181932289 0 0.2822483272805178 -0.36575990941074382 0 0.27569670368188232 -0.38326726020642471 0 0.2822483272805178 -0.36575990941074382 0 0.26273855981799532 -0.37402085189451678 0 0.2822483272805178 -0.36575990941074382 0 0.26391134377156378 -0.35745418407105078 0 0.26273855981799532 -0.37402085189451678 0 0.28388279232808111 -0.34879423229863538 0 0.2690396956517056 -0.34420120372419399 0 0.26391134377156378 -0.35745418407105078 0 0.28388279232808111 -0.34879423229863538 0 0.2822483272805178 -0.36575990941074382 0 0.26391134377156378 -0.35745418407105078 0 0.26391134377156378 -0.35745418407105078 0 0.25139118101367519 -0.34116546776705792 0 0.24725496166677341 -0.36469484034826838 0 0.2690396956517056 -0.34420120372419399 0 0.26391134377156378 -0.35745418407105078 0 0.25139118101367519 -0.34116546776705792 0 0.26391134377156378 -0.35745418407105078 0 0.26273855981799532 -0.37402085189451678 0 0.24725496166677341 -0.36469484034826838 0 0.26273855981799532 -0.37402085189451678 0 0.24725496166677341 -0.36469484034826838 0 0.2462658744323834 -0.38197959250061342 0 0.27697346549350221 -0.32939093076003212 0 0.2504343460300561 -0.31622446730276171 0 0.27399568940133018 -0.31084845435951231 0 0.29267099061500118 -0.31767693215293968 0 0.27697346549350221 -0.32939093076003212 0 0.27399568940133018 -0.31084845435951231 0 0.2690396956517056 -0.34420120372419399 0 0.27697346549350221 -0.32939093076003212 0 0.25139118101367519 -0.34116546776705792 0 0.28388279232808111 -0.34879423229863538 0 0.2690396956517056 -0.34420120372419399 0 0.27697346549350221 -0.32939093076003212 0 0.27697346549350221 -0.32939093076003212 0 0.25139118101367519 -0.34116546776705792 0 0.2504343460300561 -0.31622446730276171 0 0.27697346549350221 -0.32939093076003212 0 0.2504343460300561 -0.31622446730276171 0 0.2504343460300561 -0.31622446730276171 0 0.25790403393649142 -0.29221016043342007 0 0.26868825863076801 -0.29933442507853231 0 0.2504343460300561 -0.31622446730276171 0 0.27399568940133018 -0.31084845435951231 0 0.26868825863076801 -0.29933442507853231 0 0.25790403393649142 -0.29221016043342007 0 0.26247779924518422 -0.27455948017448001 0 0.23862998452346509 -0.28454510211497241 0 0.25790403393649142 -0.29221016043342007 0 0.27122533838754692 -0.28910882128364879 0 0.26247779924518422 -0.27455948017448001 0 0.27122533838754692 -0.28910882128364879 0 0.28742349607482037 -0.28773318483823551 0 0.26247779924518422 -0.27455948017448001 0 0.27122533838754692 -0.28910882128364879 0 0.27963310405047059 -0.29170685589357598 0 0.28742349607482037 -0.28773318483823551 0 0.25790403393649142 -0.29221016043342007 0 0.27122533838754692 -0.28910882128364879 0 0.26868825863076801 -0.29933442507853231 0 0.27122533838754692 -0.28910882128364879 0 0.27963310405047059 -0.29170685589357598 0 0.26868825863076801 -0.29933442507853231 0 0.27963310405047059 -0.29170685589357598 0 0.27399568940133018 -0.31084845435951231 0 0.26868825863076801 -0.29933442507853231 0 0.29267099061500118 -0.31767693215293968 0 0.27963310405047059 -0.29170685589357598 0 0.29267099061500118 -0.31767693215293968 0 0.27963310405047059 -0.29170685589357598 0 0.27399568940133018 -0.31084845435951231 0 0.29267099061500118 -0.31767693215293968 0 0.27963310405047059 -0.29170685589357598 0 0.29602111265001879 -0.30165816726207401 0 0.27963310405047059 -0.29170685589357598 0 0.29602111265001879 -0.30165816726207401 0 0.28742349607482037 -0.28773318483823551 0 0.28742349607482037 -0.28773318483823551 0 0.31236919290445669 -0.30090688950199113 0 0.29602111265001879 -0.30165816726207401 0 0.28742349607482037 -0.28773318483823551 0 0.31236919290445669 -0.30090688950199113 0 0.28742349607482037 -0.28773318483823551 0 0.31236919290445669 -0.30090688950199113 0 0.2973859747586714 -0.27579116796592118 0 0.31236919290445669 -0.30090688950199113 0 0.31219288969015102 -0.27103532748113379 0 0.2973859747586714 -0.27579116796592118 0 0.30601167809918312 -0.32095610648709572 0 0.29602111265001879 -0.30165816726207401 0 0.31236919290445669 -0.30090688950199113 0 0.30987088180634448 -0.24125362874219619 0 0.29250997527574701 -0.24677647679701359 0 0.31219288969015102 -0.27103532748113379 0 0.29250997527574701 -0.24677647679701359 0 0.31219288969015102 -0.27103532748113379 0 0.2896735531526361 -0.26412531454105981 0 0.31219288969015102 -0.27103532748113379 0 0.2973859747586714 -0.27579116796592118 0 0.2896735531526361 -0.26412531454105981 0 0.2973859747586714 -0.27579116796592118 0 0.28192096152604101 -0.27231994505035018 0 0.2896735531526361 -0.26412531454105981 0 0.28742349607482037 -0.28773318483823551 0 0.2973859747586714 -0.27579116796592118 0 0.28192096152604101 -0.27231994505035018 0 0.29250997527574701 -0.24677647679701359 0 0.2896735531526361 -0.26412531454105981 0 0.27534065318434953 -0.25880162201512719 0 0.28192096152604101 -0.27231994505035018 0 0.2896735531526361 -0.26412531454105981 0 0.27534065318434953 -0.25880162201512719 0 0.27462122614518292 -0.24127539045551061 0 0.27534065318434953 -0.25880162201512719 0 0.25726365536858148 -0.25362034743760148 0 0.28742349607482037 -0.28773318483823551 0 0.26247779924518422 -0.27455948017448001 0 0.28192096152604101 -0.27231994505035018 0 0.27534065318434953 -0.25880162201512719 0 0.26247779924518422 -0.27455948017448001 0 0.28742349607482037 -0.28773318483823551 0 0.28192096152604101 -0.27231994505035018 0 0.26247779924518422 -0.27455948017448001 0 0.26247779924518422 -0.27455948017448001 0 0.23753210241554801 -0.26138577551072451 0 0.26247779924518422 -0.27455948017448001 0 0.25726365536858148 -0.25362034743760148 0 0.23753210241554801 -0.26138577551072451 0 0.27534065318434953 -0.25880162201512719 0 0.26247779924518422 -0.27455948017448001 0 0.25726365536858148 -0.25362034743760148 0 0.23753210241554801 -0.26138577551072451 0 0.24146341680214309 -0.24448521489457861 0 0.2264227451730553 -0.24971222362376699 0 0.25726365536858148 -0.25362034743760148 0 0.23753210241554801 -0.26138577551072451 0 0.24146341680214309 -0.24448521489457861 0 0.26247779924518422 -0.27455948017448001 0 0.23753210241554801 -0.26138577551072451 0 0.23862998452346509 -0.28454510211497241 0 0.23753210241554801 -0.26138577551072451 0 0.2162589501465873 -0.27468266641732147 0 0.23862998452346509 -0.28454510211497241 0 0.23753210241554801 -0.26138577551072451 0 0.2162589501465873 -0.27468266641732147 0 0.2264227451730553 -0.24971222362376699 0 0.21040399342164171 -0.25176681621351038 0 0.2162589501465873 -0.27468266641732147 0 0.2264227451730553 -0.24971222362376699 0 0.21040399342164171 -0.25176681621351038 0 0.2162589501465873 -0.27468266641732147 0 0.1934777637386868 -0.26196852324515157 0 0.2162589501465873 -0.27468266641732147 0 0.1966688692062398 -0.27921476679881868 0 0.1934777637386868 -0.26196852324515157 0 0.1966688692062398 -0.27921476679881868 0 0.1934777637386868 -0.26196852324515157 0 0.177394147168592 -0.28445233252858981 0 0.21040399342164171 -0.25176681621351038 0 0.1934777637386868 -0.26196852324515157 0 0.19936230214102421 -0.2479946931896729 0 0.1934777637386868 -0.26196852324515157 0 0.18957958600208469 -0.24548130840959781 0 0.18140855909891221 -0.24875385404173869 0 0.1934777637386868 -0.26196852324515157 0 0.18957958600208469 -0.24548130840959781 0 0.19936230214102421 -0.2479946931896729 0 0.19954461577109309 -0.29575554500421197 0 0.1961972522999722 -0.32216937387389732 0 0.17947015261898311 -0.31043279954087621 0 0.1966688692062398 -0.27921476679881868 0 0.19954461577109309 -0.29575554500421197 0 0.177394147168592 -0.28445233252858981 0 0.2162589501465873 -0.27468266641732147 0 0.19954461577109309 -0.29575554500421197 0 0.22389522656661021 -0.30305800384549131 0 0.2162589501465873 -0.27468266641732147 0 0.1966688692062398 -0.27921476679881868 0 0.19954461577109309 -0.29575554500421197 0 0.19954461577109309 -0.29575554500421197 0 0.22389522656661021 -0.30305800384549131 0 0.1961972522999722 -0.32216937387389732 0 0.2504343460300561 -0.31622446730276171 0 0.25790403393649142 -0.29221016043342007 0 0.23862998452346509 -0.28454510211497241 0 0.2504343460300561 -0.31622446730276171 0 0.22389522656661021 -0.30305800384549131 0 0.23862998452346509 -0.28454510211497241 0 0.2162589501465873 -0.27468266641732147 0 0.22389522656661021 -0.30305800384549131 0 0.23862998452346509 -0.28454510211497241 0 0.2504343460300561 -0.31622446730276171 0 0.22389522656661021 -0.30305800384549131 0 0.22389522656661021 -0.30305800384549131 0 0.23204811719291779 -0.33532479601063409 0 0.2125404456115573 -0.3333426100015644 0 0.2504343460300561 -0.31622446730276171 0 0.22389522656661021 -0.30305800384549131 0 0.23204811719291779 -0.33532479601063409 0 0.25139118101367519 -0.34116546776705792 0 0.2504343460300561 -0.31622446730276171 0 0.23204811719291779 -0.33532479601063409 0 0.25139118101367519 -0.34116546776705792 0 0.23204811719291779 -0.33532479601063409 0 0.23339586826354061 -0.3539524211851004 0 0.23204811719291779 -0.33532479601063409 0 0.2148142246021956 -0.35440494078226209 0 0.2125404456115573 -0.3333426100015644 0 0.24725496166677341 -0.36469484034826838 0 0.23339586826354061 -0.3539524211851004 0 0.22607167799098421 -0.37270743793131111 0 0.24725496166677341 -0.36469484034826838 0 0.22607167799098421 -0.37270743793131111 0 0.2462658744323834 -0.38197959250061342 0 0.25139118101367519 -0.34116546776705792 0 0.24725496166677341 -0.36469484034826838 0 0.23339586826354061 -0.3539524211851004 0 0.23204811719291779 -0.33532479601063409 0 0.23339586826354061 -0.3539524211851004 0 0.2148142246021956 -0.35440494078226209 0 0.23339586826354061 -0.3539524211851004 0 0.22607167799098421 -0.37270743793131111 0 0.2148142246021956 -0.35440494078226209 0 0.22607167799098421 -0.37270743793131111 0 0.2148142246021956 -0.35440494078226209 0 0.20089624558916569 -0.37097766955135358 0 0.2148142246021956 -0.35440494078226209 0 0.196995760569282 -0.35087166092684791 0 0.2125404456115573 -0.3333426100015644 0 0.2148142246021956 -0.35440494078226209 0 0.196995760569282 -0.35087166092684791 0 0.20089624558916569 -0.37097766955135358 0 0.196995760569282 -0.35087166092684791 0 0.20089624558916569 -0.37097766955135358 0 0.1768321188753432 -0.36690628541415632 0 0.22389522656661021 -0.30305800384549131 0 0.2125404456115573 -0.3333426100015644 0 0.1961972522999722 -0.32216937387389732 0 0.196995760569282 -0.35087166092684791 0 0.2125404456115573 -0.3333426100015644 0 0.1961972522999722 -0.32216937387389732 0 0.196995760569282 -0.35087166092684791 0 0.1961972522999722 -0.32216937387389732 0 0.1815461580693743 -0.3364132665531625 0 0.1815461580693743 -0.3364132665531625 0 0.1643579081553766 -0.3243843153562348 0 0.17947015261898311 -0.31043279954087621 0 0.1815461580693743 -0.3364132665531625 0 0.17947015261898311 -0.31043279954087621 0 0.1961972522999722 -0.32216937387389732 0 0.1815461580693743 -0.3364132665531625 0 0.17947015261898311 -0.31043279954087621 0 0.1815461580693743 -0.3364132665531625 0 0.16209568629271459 -0.34050931120228572 0 0.17381591925058279 -0.35045305017024581 0 0.16209568629271459 -0.34050931120228572 0 0.1643579081553766 -0.3243843153562348 0 0.1490492594086629 -0.33054926329457512 0 0.1815461580693743 -0.3364132665531625 0 0.16209568629271459 -0.34050931120228572 0 0.1643579081553766 -0.3243843153562348 0 0.1643579081553766 -0.3243843153562348 0 0.14785798951182749 -0.31747381703923983 0 0.15879613053988581 -0.31078255386998788 0 0.1643579081553766 -0.3243843153562348 0 0.17947015261898311 -0.31043279954087621 0 0.15879613053988581 -0.31078255386998788 0 0.196995760569282 -0.35087166092684791 0 0.1815461580693743 -0.3364132665531625 0 0.17381591925058279 -0.35045305017024581 0 0.196995760569282 -0.35087166092684791 0 0.1768321188753432 -0.36690628541415632 0 0.196995760569282 -0.35087166092684791 0 0.1768321188753432 -0.36690628541415632 0 0.17381591925058279 -0.35045305017024581 0 0.16209568629271459 -0.34050931120228572 0 0.17381591925058279 -0.35045305017024581 0 0.15160987244619981 -0.35756472675477641 0 0.1768321188753432 -0.36690628541415632 0 0.17381591925058279 -0.35045305017024581 0 0.15160987244619981 -0.35756472675477641 0 0.1768321188753432 -0.36690628541415632 0 0.15160987244619981 -0.35756472675477641 0 0.15666847718140431 -0.38294090990146468 0 0.1768321188753432 -0.36690628541415632 0 0.15666847718140431 -0.38294090990146468 0 0.15160987244619981 -0.35756472675477641 0 0.13564640110034021 -0.35912784543918008 0 0.13554014667972011 -0.37371994475541209 0 0.15160987244619981 -0.35756472675477641 0 0.13554014667972011 -0.37371994475541209 0 0.15666847718140431 -0.38294090990146468 0 0.16209568629271459 -0.34050931120228572 0 0.15160987244619981 -0.35756472675477641 0 0.1475882597035684 -0.34306743954738478 0 0.15160987244619981 -0.35756472675477641 0 0.1343114121946197 -0.3455365503022883 0 0.1475882597035684 -0.34306743954738478 0 0.15160987244619981 -0.35756472675477641 0 0.1343114121946197 -0.3455365503022883 0 0.13564640110034021 -0.35912784543918008 0 0.1343114121946197 -0.3455365503022883 0 0.1218367566819203 -0.34066885685305681 0 0.1211241730808211 -0.35969015994424403 0 0.1343114121946197 -0.3455365503022883 0 0.13564640110034021 -0.35912784543918008 0 0.1211241730808211 -0.35969015994424403 0 0.13564640110034021 -0.35912784543918008 0 0.13554014667972011 -0.37371994475541209 0 0.1211241730808211 -0.35969015994424403 0 0.1643579081553766 -0.3243843153562348 0 0.14785798951182749 -0.31747381703923983 0 0.1490492594086629 -0.33054926329457512 0 0.14785798951182749 -0.31747381703923983 0 0.1490492594086629 -0.33054926329457512 0 0.13601489266483169 -0.3229904494785929 0 0.16209568629271459 -0.34050931120228572 0 0.1490492594086629 -0.33054926329457512 0 0.1475882597035684 -0.34306743954738478 0 0.1490492594086629 -0.33054926329457512 0 0.1475882597035684 -0.34306743954738478 0 0.1353950678134421 -0.33468762657073647 0 0.1490492594086629 -0.33054926329457512 0 0.1353950678134421 -0.33468762657073647 0 0.13601489266483169 -0.3229904494785929 0 0.1343114121946197 -0.3455365503022883 0 0.1475882597035684 -0.34306743954738478 0 0.1353950678134421 -0.33468762657073647 0 0.1343114121946197 -0.3455365503022883 0 0.1353950678134421 -0.33468762657073647 0 0.1218367566819203 -0.34066885685305681 0 0.1353950678134421 -0.33468762657073647 0 0.12646864396445259 -0.32771949481933838 0 0.13601489266483169 -0.3229904494785929 0 0.1353950678134421 -0.33468762657073647 0 0.12646864396445259 -0.32771949481933838 0 0.1218367566819203 -0.34066885685305681 0 0.12646864396445259 -0.32771949481933838 0 0.13601489266483169 -0.3229904494785929 0 0.1236403595102975 -0.31726182602291142 0 0.14785798951182749 -0.31747381703923983 0 0.13601489266483169 -0.3229904494785929 0 0.13602289492267541 -0.31130305695836602 0 0.13601489266483169 -0.3229904494785929 0 0.13602289492267541 -0.31130305695836602 0 0.1236403595102975 -0.31726182602291142 0 0.127428615210958 -0.30550107704066293 0 0.13602289492267541 -0.31130305695836602 0 0.1236403595102975 -0.31726182602291142 0 0.127428615210958 -0.30550107704066293 0 0.13551093200295419 -0.30168473438614679 0 0.1256525224322369 -0.29448257816376899 0 0.127428615210958 -0.30550107704066293 0 0.13551093200295419 -0.30168473438614679 0 0.13602289492267541 -0.31130305695836602 0 0.13551093200295419 -0.30168473438614679 0 0.13602289492267541 -0.31130305695836602 0 0.14563569558381231 -0.30495269920752849 0 0.14563569558381231 -0.30495269920752849 0 0.1436119925904093 -0.29293491915627751 0 0.1604468518829657 -0.29816604611383052 0 0.14785798951182749 -0.31747381703923983 0 0.13602289492267541 -0.31130305695836602 0 0.14563569558381231 -0.30495269920752849 0 0.13551093200295419 -0.30168473438614679 0 0.14563569558381231 -0.30495269920752849 0 0.1436119925904093 -0.29293491915627751 0 0.14563569558381231 -0.30495269920752849 0 0.15879613053988581 -0.31078255386998788 0 0.1604468518829657 -0.29816604611383052 0 0.14785798951182749 -0.31747381703923983 0 0.14563569558381231 -0.30495269920752849 0 0.15879613053988581 -0.31078255386998788 0 0.1436119925904093 -0.29293491915627751 0 0.1604468518829657 -0.29816604611383052 0 0.15777299279611159 -0.28544097237972332 0 0.1436119925904093 -0.29293491915627751 0 0.15114809845108379 -0.28013278059363872 0 0.15777299279611159 -0.28544097237972332 0 0.1436119925904093 -0.29293491915627751 0 0.1436168584679525 -0.2836209543501686 0 0.1357133019824012 -0.28986653681351437 0 0.1436119925904093 -0.29293491915627751 0 0.1436168584679525 -0.2836209543501686 0 0.15114809845108379 -0.28013278059363872 0 0.1436168584679525 -0.2836209543501686 0 0.12997183443900701 -0.2884276955838429 0 0.14612074404546729 -0.27464986070998659 0 0.1436168584679525 -0.2836209543501686 0 0.1357133019824012 -0.28986653681351437 0 0.12997183443900701 -0.2884276955838429 0 0.1436119925904093 -0.29293491915627751 0 0.1256525224322369 -0.29448257816376899 0 0.12997183443900701 -0.2884276955838429 0 0.14612074404546729 -0.27464986070998659 0 0.1436119925904093 -0.29293491915627751 0 0.1357133019824012 -0.28986653681351437 0 0.1256525224322369 -0.29448257816376899 0 0.13551093200295419 -0.30168473438614679 0 0.1436119925904093 -0.29293491915627751 0 0.1256525224322369 -0.29448257816376899 0 0.1357133019824012 -0.28986653681351437 0 0.1256525224322369 -0.29448257816376899 0 0.12997183443900701 -0.2884276955838429 0 0.1256525224322369 -0.29448257816376899 0 0.12997183443900701 -0.2884276955838429 0 0.1225628758501054 -0.2947488287446996 0 0.1256525224322369 -0.29448257816376899 0 0.12997183443900701 -0.2884276955838429 0 0.12997183443900701 -0.2884276955838429 0 0.1233634239504731 -0.2874855776093414 0 0.1225628758501054 -0.2947488287446996 0 0.12997183443900701 -0.2884276955838429 0 0.1225628758501054 -0.2947488287446996 0 0.12997183443900701 -0.2884276955838429 0 0.1275993617664036 -0.28112518425861122 0 0.1233634239504731 -0.2874855776093414 0 0.12997183443900701 -0.2884276955838429 0 0.1275993617664036 -0.28112518425861122 0 0.13485463758425459 -0.27391652201106309 0 0.1275993617664036 -0.28112518425861122 0 0.1280966355330338 -0.27434446718476552 0 0.12144198577599689 -0.28043819023602667 0 0.12997183443900701 -0.2884276955838429 0 0.14612074404546729 -0.27464986070998659 0 0.1420233446603141 -0.27153369043062148 0 0.12997183443900701 -0.2884276955838429 0 0.13485463758425459 -0.27391652201106309 0 0.1420233446603141 -0.27153369043062148 0 0.12997183443900701 -0.2884276955838429 0 0.1420233446603141 -0.27153369043062148 0 0.1275993617664036 -0.28112518425861122 0 0.1280966355330338 -0.27434446718476552 0 0.13485463758425459 -0.27391652201106309 0 0.1280966355330338 -0.27434446718476552 0 0.13485463758425459 -0.27391652201106309 0 0.13350735252106491 -0.26509119559065258 0 0.1280966355330338 -0.27434446718476552 0 0.13350735252106491 -0.26509119559065258 0 0.123327112510175 -0.26381005316279871 0 0.13811143923488059 -0.26777882680588339 0 0.13485463758425459 -0.27391652201106309 0 0.13350735252106491 -0.26509119559065258 0 0.13811143923488059 -0.26777882680588339 0 0.13485463758425459 -0.27391652201106309 0 0.1420233446603141 -0.27153369043062148 0 0.13350735252106491 -0.26509119559065258 0 0.1338120645475761 -0.25178135897747889 0 0.123327112510175 -0.26381005316279871 0 0.13350735252106491 -0.26509119559065258 0 0.1338120645475761 -0.25178135897747889 0 0.1420604221738889 -0.26057389919119672 0 0.13811143923488059 -0.26777882680588339 0 0.13350735252106491 -0.26509119559065258 0 0.1420604221738889 -0.26057389919119672 0 0.15407485488162029 -0.25463968527739939 0 0.1420233446603141 -0.27153369043062148 0 0.1338120645475761 -0.25178135897747889 0 0.15081333679343489 -0.24957271686280691 0 0.1504037114514421 -0.26476637401943331 0 0.15407485488162029 -0.25463968527739939 0 0.1420233446603141 -0.27153369043062148 0 0.1420604221738889 -0.26057389919119672 0 0.15407485488162029 -0.25463968527739939 0 0.1420233446603141 -0.27153369043062148 0 0.1338120645475761 -0.25178135897747889 0 0.14898820642875321 -0.25263106074458241 0 0.15081333679343489 -0.24957271686280691 0 0.1420604221738889 -0.26057389919119672 0 0.14898820642875321 -0.25263106074458241 0 0.15407485488162029 -0.25463968527739939 0 0.1338120645475761 -0.25178135897747889 0 0.14898820642875321 -0.25263106074458241 0 0.1338120645475761 -0.25178135897747889 0 0.1420604221738889 -0.26057389919119672 0 0.14898820642875321 -0.25263106074458241 0 0.1504037114514421 -0.26476637401943331 0 0.15407485488162029 -0.25463968527739939 0 0.15854298516514259 -0.2623064548534918 0 0.1504037114514421 -0.26476637401943331 0 0.15545765769127859 -0.26765705275147811 0 0.15854298516514259 -0.2623064548534918 0 0.14898820642875321 -0.25263106074458241 0 0.15407485488162029 -0.25463968527739939 0 0.16416434830993021 -0.25348076251168611 0 0.14898820642875321 -0.25263106074458241 0 0.16416434830993021 -0.25348076251168611 0 0.15081333679343489 -0.24957271686280691 0 0.1436168584679525 -0.2836209543501686 0 0.14612074404546729 -0.27464986070998659 0 0.15114809845108379 -0.28013278059363872 0 0.13811143923488059 -0.26777882680588339 0 0.1420604221738889 -0.26057389919119672 0 0.1420233446603141 -0.27153369043062148 0 0.1504037114514421 -0.26476637401943331 0 0.1420233446603141 -0.27153369043062148 0 0.14774651714261711 -0.27061417123897102 0 0.14612074404546729 -0.27464986070998659 0 0.1420233446603141 -0.27153369043062148 0 0.14774651714261711 -0.27061417123897102 0 0.15545765769127859 -0.26765705275147811 0 0.1524382684132447 -0.27150675979584271 0 0.16044566573528521 -0.27204862233714472 0 0.14612074404546729 -0.27464986070998659 0 0.14774651714261711 -0.27061417123897102 0 0.1524382684132447 -0.27150675979584271 0 0.1504037114514421 -0.26476637401943331 0 0.14774651714261711 -0.27061417123897102 0 0.1524382684132447 -0.27150675979584271 0 0.1504037114514421 -0.26476637401943331 0 0.15545765769127859 -0.26765705275147811 0 0.1524382684132447 -0.27150675979584271 0 0.1524382684132447 -0.27150675979584271 0 0.15114809845108379 -0.28013278059363872 0 0.16044566573528521 -0.27204862233714472 0 0.14612074404546729 -0.27464986070998659 0 0.1524382684132447 -0.27150675979584271 0 0.15114809845108379 -0.28013278059363872 0 0.16044566573528521 -0.27204862233714472 0 0.16717305761943019 -0.26615200754944318 0 0.177394147168592 -0.28445233252858981 0 0.16044566573528521 -0.27204862233714472 0 0.177394147168592 -0.28445233252858981 0 0.15777299279611159 -0.28544097237972332 0 0.15114809845108379 -0.28013278059363872 0 0.16044566573528521 -0.27204862233714472 0 0.15777299279611159 -0.28544097237972332 0 0.15545765769127859 -0.26765705275147811 0 0.16044566573528521 -0.27204862233714472 0 0.15854298516514259 -0.2623064548534918 0 0.16044566573528521 -0.27204862233714472 0 0.16717305761943019 -0.26615200754944318 0 0.15854298516514259 -0.2623064548534918 0 0.15407485488162029 -0.25463968527739939 0 0.15854298516514259 -0.2623064548534918 0 0.16416434830993021 -0.25348076251168611 0 0.14898820642875321 -0.25263106074458241 0 0.16416434830993021 -0.25348076251168611 0 0.16416434830993021 -0.25348076251168611 0 0.15746623258843939 -0.24717962177743169 0 0.15081333679343489 -0.24957271686280691 0 0.16717305761943019 -0.26615200754944318 0 0.15854298516514259 -0.2623064548534918 0 0.16416434830993021 -0.25348076251168611 0 0.16717305761943019 -0.26615200754944318 0 0.16416434830993021 -0.25348076251168611 0 0.17531814171820079 -0.25847186551630352 0 0.1934777637386868 -0.26196852324515157 0 0.17531814171820079 -0.25847186551630352 0 0.18140855909891221 -0.24875385404173869 0 0.16717305761943019 -0.26615200754944318 0 0.17531814171820079 -0.25847186551630352 0 0.177394147168592 -0.28445233252858981 0 0.1934777637386868 -0.26196852324515157 0 0.17531814171820079 -0.25847186551630352 0 0.177394147168592 -0.28445233252858981 0 0.17531814171820079 -0.25847186551630352 0 0.177394147168592 -0.28445233252858981 0 0.177394147168592 -0.28445233252858981 0 0.17947015261898311 -0.31043279954087621 0 0.1604468518829657 -0.29816604611383052 0 0.19954461577109309 -0.29575554500421197 0 0.177394147168592 -0.28445233252858981 0 0.17947015261898311 -0.31043279954087621 0 0.177394147168592 -0.28445233252858981 0 0.17947015261898311 -0.31043279954087621 0 0.17947015261898311 -0.31043279954087621 0 0.15879613053988581 -0.31078255386998788 0 0.1604468518829657 -0.29816604611383052 0 0.177394147168592 -0.28445233252858981 0 0.1604468518829657 -0.29816604611383052 0 0.15777299279611159 -0.28544097237972332 0 0.19199278516569629 -0.5 0 0.1900164382224285 -0.48271496941050879 0 0.20545646434069309 -0.4787017342280358 0 0.1900164382224285 -0.48271496941050879 0 0.20545646434069309 -0.4787017342280358 0 0.18613842771148381 -0.46787851807202258 0 0.20545646434069309 -0.4787017342280358 0 0.2281108343262262 -0.48056582836830158 0 0.21973600360042431 -0.45949417383294189 0 0.20545646434069309 -0.4787017342280358 0 0.21796904096784361 -0.5 0 0.2281108343262262 -0.48056582836830158 0 0.19199278516569629 -0.5 0 0.20545646434069309 -0.4787017342280358 0 0.21796904096784361 -0.5 0 0.21796904096784361 -0.5 0 0.24394529676999099 -0.5 0 0.2281108343262262 -0.48056582836830158 0 0.25460761733926612 -0.48077428153223201 0 0.24394529676999099 -0.5 0 0.2281108343262262 -0.48056582836830158 0 0.2281108343262262 -0.48056582836830158 0 0.24642569303344669 -0.46176391886762419 0 0.25460761733926612 -0.48077428153223201 0 0.2281108343262262 -0.48056582836830158 0 0.24642569303344669 -0.46176391886762419 0 0.2281108343262262 -0.48056582836830158 0 0.21973600360042431 -0.45949417383294189 0 0.2323887624892686 -0.4611014010944845 0 0.21973600360042431 -0.45949417383294189 0 0.2323887624892686 -0.4611014010944845 0 0.23528251899697711 -0.44258168330907049 0 0.2281108343262262 -0.48056582836830158 0 0.2323887624892686 -0.4611014010944845 0 0.24642569303344669 -0.46176391886762419 0 0.2323887624892686 -0.4611014010944845 0 0.24642569303344669 -0.46176391886762419 0 0.23528251899697711 -0.44258168330907049 0 0.2647405517406643 -0.44296200936694391 0 0.23528251899697711 -0.44258168330907049 0 0.24937758952868769 -0.43582476186075059 0 0.2647405517406643 -0.44296200936694391 0 0.24642569303344669 -0.46176391886762419 0 0.23528251899697711 -0.44258168330907049 0 0.21973600360042431 -0.45949417383294189 0 0.23528251899697711 -0.44258168330907049 0 0.20582448625328989 -0.44220135725120002 0 0.23528251899697711 -0.44258168330907049 0 0.20582448625328989 -0.44220135725120002 0 0.23528251899697711 -0.44258168330907049 0 0.20582448625328989 -0.44220135725120002 0 0.22256526670295609 -0.43567624475563838 0 0.20545646434069309 -0.4787017342280358 0 0.21973600360042431 -0.45949417383294189 0 0.202602484605724 -0.45942999972385479 0 0.21973600360042431 -0.45949417383294189 0 0.20582448625328989 -0.44220135725120002 0 0.202602484605724 -0.45942999972385479 0 0.202602484605724 -0.45942999972385479 0 0.19228485390892139 -0.44832807257495588 0 0.18613842771148381 -0.46787851807202258 0 0.20545646434069309 -0.4787017342280358 0 0.202602484605724 -0.45942999972385479 0 0.18613842771148381 -0.46787851807202258 0 0.20582448625328989 -0.44220135725120002 0 0.202602484605724 -0.45942999972385479 0 0.19228485390892139 -0.44832807257495588 0 0.20582448625328989 -0.44220135725120002 0 0.19228485390892139 -0.44832807257495588 0 0.1986877949313606 -0.42882383702638299 0 0.19228485390892139 -0.44832807257495588 0 0.1986877949313606 -0.42882383702638299 0 0.183200271073473 -0.43641073338783498 0 0.1986877949313606 -0.42882383702638299 0 0.1816281482625339 -0.41415137017959991 0 0.183200271073473 -0.43641073338783498 0 0.20582455939560251 -0.41258395769508027 0 0.1950935246886642 -0.40110820421824778 0 0.1816281482625339 -0.41415137017959991 0 0.1986877949313606 -0.42882383702638299 0 0.20582455939560251 -0.41258395769508027 0 0.1816281482625339 -0.41415137017959991 0 0.20582455939560251 -0.41258395769508027 0 0.21384958020830239 -0.42892716952759119 0 0.2218345854540221 -0.41854111548045619 0 0.20582455939560251 -0.41258395769508027 0 0.2218345854540221 -0.41854111548045619 0 0.2220903860499629 -0.40641314768071007 0 0.1986877949313606 -0.42882383702638299 0 0.20582455939560251 -0.41258395769508027 0 0.21384958020830239 -0.42892716952759119 0 0.20582448625328989 -0.44220135725120002 0 0.21384958020830239 -0.42892716952759119 0 0.22256526670295609 -0.43567624475563838 0 0.20582448625328989 -0.44220135725120002 0 0.1986877949313606 -0.42882383702638299 0 0.21384958020830239 -0.42892716952759119 0 0.21384958020830239 -0.42892716952759119 0 0.22256526670295609 -0.43567624475563838 0 0.23530448135325491 -0.42899476893469179 0 0.21384958020830239 -0.42892716952759119 0 0.23530448135325491 -0.42899476893469179 0 0.21384958020830239 -0.42892716952759119 0 0.23530448135325491 -0.42899476893469179 0 0.2218345854540221 -0.41854111548045619 0 0.23528251899697711 -0.44258168330907049 0 0.22256526670295609 -0.43567624475563838 0 0.23530448135325491 -0.42899476893469179 0 0.25675938249820729 -0.42906236834179229 0 0.23530448135325491 -0.42899476893469179 0 0.23528251899697711 -0.44258168330907049 0 0.23530448135325491 -0.42899476893469179 0 0.24937758952868769 -0.43582476186075059 0 0.25675938249820729 -0.42906236834179229 0 0.23530448135325491 -0.42899476893469179 0 0.24471655788437549 -0.41836465708289111 0 0.25675938249820729 -0.42906236834179229 0 0.23530448135325491 -0.42899476893469179 0 0.24937758952868769 -0.43582476186075059 0 0.25834465052961392 -0.41196496969487773 0 0.24471655788437549 -0.41836465708289111 0 0.2415255849161019 -0.40609463635975013 0 0.23530448135325491 -0.42899476893469179 0 0.24471655788437549 -0.41836465708289111 0 0.23210392026298771 -0.41578653356420769 0 0.24471655788437549 -0.41836465708289111 0 0.23210392026298771 -0.41578653356420769 0 0.2415255849161019 -0.40609463635975013 0 0.23210392026298771 -0.41578653356420769 0 0.2220903860499629 -0.40641314768071007 0 0.2415255849161019 -0.40609463635975013 0 0.23530448135325491 -0.42899476893469179 0 0.23210392026298771 -0.41578653356420769 0 0.2218345854540221 -0.41854111548045619 0 0.23210392026298771 -0.41578653356420769 0 0.2218345854540221 -0.41854111548045619 0 0.2220903860499629 -0.40641314768071007 0 0.2220903860499629 -0.40641314768071007 0 0.2325848323457651 -0.39226733923237422 0 0.2415255849161019 -0.40609463635975013 0 0.2220903860499629 -0.40641314768071007 0 0.2325848323457651 -0.39226733923237422 0 0.20793944219493879 -0.39039719718598698 0 0.25113336278303172 -0.39639034007073559 0 0.2325848323457651 -0.39226733923237422 0 0.2415255849161019 -0.40609463635975013 0 0.25113336278303172 -0.39639034007073559 0 0.2325848323457651 -0.39226733923237422 0 0.2462658744323834 -0.38197959250061342 0 0.22607167799098421 -0.37270743793131111 0 0.2325848323457651 -0.39226733923237422 0 0.2462658744323834 -0.38197959250061342 0 0.22607167799098421 -0.37270743793131111 0 0.2325848323457651 -0.39226733923237422 0 0.20793944219493879 -0.39039719718598698 0 0.22607167799098421 -0.37270743793131111 0 0.20089624558916569 -0.37097766955135358 0 0.20793944219493879 -0.39039719718598698 0 0.20582455939560251 -0.41258395769508027 0 0.2220903860499629 -0.40641314768071007 0 0.20793944219493879 -0.39039719718598698 0 0.20793944219493879 -0.39039719718598698 0 0.1950935246886642 -0.40110820421824778 0 0.18397260247544159 -0.38969422049886882 0 0.20582455939560251 -0.41258395769508027 0 0.20793944219493879 -0.39039719718598698 0 0.1950935246886642 -0.40110820421824778 0 0.20089624558916569 -0.37097766955135358 0 0.20793944219493879 -0.39039719718598698 0 0.18397260247544159 -0.38969422049886882 0 0.20089624558916569 -0.37097766955135358 0 0.1768321188753432 -0.36690628541415632 0 0.18397260247544159 -0.38969422049886882 0 0.1768321188753432 -0.36690628541415632 0 0.18397260247544159 -0.38969422049886882 0 0.15666847718140431 -0.38294090990146468 0 0.1950935246886642 -0.40110820421824778 0 0.18397260247544159 -0.38969422049886882 0 0.1816281482625339 -0.41415137017959991 0 0.18397260247544159 -0.38969422049886882 0 0.16282522567504601 -0.40076461101477862 0 0.1816281482625339 -0.41415137017959991 0 0.18397260247544159 -0.38969422049886882 0 0.16282522567504601 -0.40076461101477862 0 0.15666847718140431 -0.38294090990146468 0 0.13554014667972011 -0.37371994475541209 0 0.15666847718140431 -0.38294090990146468 0 0.13650483548746539 -0.39897553438877298 0 0.13554014667972011 -0.37371994475541209 0 0.13650483548746539 -0.39897553438877298 0 0.11257503074115451 -0.38498649823446041 0 0.16282522567504601 -0.40076461101477862 0 0.13650483548746539 -0.39897553438877298 0 0.15535206496838491 -0.41806102010518609 0 0.16282522567504601 -0.40076461101477862 0 0.15666847718140431 -0.38294090990146468 0 0.13650483548746539 -0.39897553438877298 0 0.15666847718140431 -0.38294090990146468 0 0.13650483548746539 -0.39897553438877298 0 0.13650483548746539 -0.39897553438877298 0 0.15535206496838491 -0.41806102010518609 0 0.13513029091253781 -0.42041342615249999 0 0.13650483548746539 -0.39897553438877298 0 0.1163411937935266 -0.41501015887608139 0 0.13650483548746539 -0.39897553438877298 0 0.13513029091253781 -0.42041342615249999 0 0.1163411937935266 -0.41501015887608139 0 0.13513029091253781 -0.42041342615249999 0 0.15032059054535499 -0.43467939270726969 0 0.13254635452133279 -0.44085243440563188 0 0.13513029091253781 -0.42041342615249999 0 0.13254635452133279 -0.44085243440563188 0 0.1143868512917591 -0.43285467588419202 0 0.15535206496838491 -0.41806102010518609 0 0.13513029091253781 -0.42041342615249999 0 0.15032059054535499 -0.43467939270726969 0 0.15535206496838491 -0.41806102010518609 0 0.15032059054535499 -0.43467939270726969 0 0.16908223299646141 -0.42841704329178959 0 0.15032059054535499 -0.43467939270726969 0 0.16908223299646141 -0.42841704329178959 0 0.16335318746445779 -0.4445252196366028 0 0.16282522567504601 -0.40076461101477862 0 0.15535206496838491 -0.41806102010518609 0 0.1816281482625339 -0.41415137017959991 0 0.15535206496838491 -0.41806102010518609 0 0.16908223299646141 -0.42841704329178959 0 0.1816281482625339 -0.41415137017959991 0 0.16908223299646141 -0.42841704329178959 0 0.183200271073473 -0.43641073338783498 0 0.16335318746445779 -0.4445252196366028 0 0.16908223299646141 -0.42841704329178959 0 0.1816281482625339 -0.41415137017959991 0 0.183200271073473 -0.43641073338783498 0 0.183200271073473 -0.43641073338783498 0 0.1772803827575771 -0.45352317498248768 0 0.16335318746445779 -0.4445252196366028 0 0.19228485390892139 -0.44832807257495588 0 0.183200271073473 -0.43641073338783498 0 0.1772803827575771 -0.45352317498248768 0 0.19228485390892139 -0.44832807257495588 0 0.1772803827575771 -0.45352317498248768 0 0.18613842771148381 -0.46787851807202258 0 0.1772803827575771 -0.45352317498248768 0 0.18613842771148381 -0.46787851807202258 0 0.16548752239589951 -0.46480458862744461 0 0.16548752239589951 -0.46480458862744461 0 0.16335318746445779 -0.4445252196366028 0 0.1464594124089553 -0.4558072126519076 0 0.1772803827575771 -0.45352317498248768 0 0.16548752239589951 -0.46480458862744461 0 0.16335318746445779 -0.4445252196366028 0 0.15032059054535499 -0.43467939270726969 0 0.16335318746445779 -0.4445252196366028 0 0.1464594124089553 -0.4558072126519076 0 0.15032059054535499 -0.43467939270726969 0 0.13254635452133279 -0.44085243440563188 0 0.1464594124089553 -0.4558072126519076 0 0.13254635452133279 -0.44085243440563188 0 0.1274715551183096 -0.46736641087901343 0 0.1464594124089553 -0.4558072126519076 0 0.16548752239589951 -0.46480458862744461 0 0.1464594124089553 -0.4558072126519076 0 0.1467440422409298 -0.48368320543950499 0 0.1274715551183096 -0.46736641087901343 0 0.1467440422409298 -0.48368320543950499 0 0.12445287299781339 -0.48580957524003149 0 0.1274715551183096 -0.46736641087901343 0 0.1464594124089553 -0.4558072126519076 0 0.1467440422409298 -0.48368320543950499 0 0.1274715551183096 -0.46736641087901343 0 0.1467440422409298 -0.48368320543950499 0 0.1467440422409298 -0.48368320543950499 0 0.13861342094189541 -0.5 0 0.12445287299781339 -0.48580957524003149 0 0.1467440422409298 -0.48368320543950499 0 0.13861342094189541 -0.5 0 0.16601652936354891 -0.49999999999999789 0 0.1467440422409298 -0.48368320543950499 0 0.16601652936354891 -0.49999999999999789 0 0.1742528725293658 -0.48296598532830509 0 0.1467440422409298 -0.48368320543950499 0 0.16601652936354891 -0.49999999999999789 0 0.16548752239589951 -0.46480458862744461 0 0.1467440422409298 -0.48368320543950499 0 0.1742528725293658 -0.48296598532830509 0 0.18613842771148381 -0.46787851807202258 0 0.16548752239589951 -0.46480458862744461 0 0.1742528725293658 -0.48296598532830509 0 0.1900164382224285 -0.48271496941050879 0 0.18613842771148381 -0.46787851807202258 0 0.1742528725293658 -0.48296598532830509 0 0.19199278516569629 -0.5 0 0.16601652936354891 -0.49999999999999789 0 0.1742528725293658 -0.48296598532830509 0 0.19199278516569629 -0.5 0 0.1900164382224285 -0.48271496941050879 0 0.1742528725293658 -0.48296598532830509 0 0.067672963152933252 -0.5 0 0.070479040632291823 -0.48264211959480191 0 0.053020152767299072 -0.48801933676575959 0 0.067672963152933252 -0.5 0 0.070479040632291823 -0.48264211959480191 0 0.080327064833409109 -0.49320164294834518 0 0.064630060102032719 -0.47456076603106118 0 0.075246676549625066 -0.47305272083988897 0 0.070479040632291823 -0.48264211959480191 0 0.064630060102032719 -0.47456076603106118 0 0.075246676549625066 -0.47305272083988897 0 0.061795930812101732 -0.46820781613902701 0 0.075246676549625066 -0.47305272083988897 0 0.092517011764567517 -0.47378197497117353 0 0.089959488850471461 -0.49094383163907668 0 0.075246676549625066 -0.47305272083988897 0 0.070479040632291823 -0.48264211959480191 0 0.089959488850471461 -0.49094383163907668 0 0.075246676549625066 -0.47305272083988897 0 0.092517011764567517 -0.47378197497117353 0 0.083633368414380696 -0.46621164320728742 0 0.075246676549625066 -0.47305272083988897 0 0.089959488850471461 -0.49094383163907668 0 0.067672963152933252 -0.5 0 0.080327064833409109 -0.49320164294834518 0 0.097406857924120502 -0.499999999999999 0 0.080327064833409109 -0.49320164294834518 0 0.089959488850471461 -0.49094383163907668 0 0.097406857924120502 -0.499999999999999 0 0.070479040632291823 -0.48264211959480191 0 0.080327064833409109 -0.49320164294834518 0 0.089959488850471461 -0.49094383163907668 0 0.070479040632291823 -0.48264211959480191 0 0.089959488850471461 -0.49094383163907668 0 0.089959488850471461 -0.49094383163907668 0 0.097406857924120502 -0.499999999999999 0 0.089959488850471461 -0.49094383163907668 0 0.097406857924120502 -0.499999999999999 0 0.1112103125202419 -0.50000000000000022 0 0.089959488850471461 -0.49094383163907668 0 0.1052052932537345 -0.48462989700511527 0 0.1112103125202419 -0.50000000000000022 0 0.089959488850471461 -0.49094383163907668 0 0.1112103125202419 -0.50000000000000022 0 0.1052052932537345 -0.48462989700511527 0 0.1112103125202419 -0.50000000000000022 0 0.12445287299781339 -0.48580957524003149 0 0.13861342094189541 -0.5 0 0.1112103125202419 -0.50000000000000022 0 0.12445287299781339 -0.48580957524003149 0 0.1052052932537345 -0.48462989700511527 0 0.12445287299781339 -0.48580957524003149 0 0.10908141417361709 -0.46883823252096812 0 0.1274715551183096 -0.46736641087901343 0 0.12445287299781339 -0.48580957524003149 0 0.10908141417361709 -0.46883823252096812 0 0.092517011764567517 -0.47378197497117353 0 0.089959488850471461 -0.49094383163907668 0 0.1052052932537345 -0.48462989700511527 0 0.092517011764567517 -0.47378197497117353 0 0.1052052932537345 -0.48462989700511527 0 0.10908141417361709 -0.46883823252096812 0 0.092517011764567517 -0.47378197497117353 0 0.10908141417361709 -0.46883823252096812 0 0.090724871429903375 -0.45809280890615561 0 0.10908141417361709 -0.46883823252096812 0 0.1081990679956894 -0.4510496163185217 0 0.090724871429903375 -0.45809280890615561 0 0.1274715551183096 -0.46736641087901343 0 0.10908141417361709 -0.46883823252096812 0 0.1081990679956894 -0.4510496163185217 0 0.1274715551183096 -0.46736641087901343 0 0.1081990679956894 -0.4510496163185217 0 0.13254635452133279 -0.44085243440563188 0 0.1274715551183096 -0.46736641087901343 0 0.1081990679956894 -0.4510496163185217 0 0.13254635452133279 -0.44085243440563188 0 0.1081990679956894 -0.4510496163185217 0 0.1143868512917591 -0.43285467588419202 0 0.1081990679956894 -0.4510496163185217 0 0.09424645164530171 -0.44210268425789312 0 0.090724871429903375 -0.45809280890615561 0 0.1081990679956894 -0.4510496163185217 0 0.09424645164530171 -0.44210268425789312 0 0.1143868512917591 -0.43285467588419202 0 0.09424645164530171 -0.44210268425789312 0 0.078924008128618786 -0.44927425917818692 0 0.090724871429903375 -0.45809280890615561 0 0.09424645164530171 -0.44210268425789312 0 0.078924008128618786 -0.44927425917818692 0 0.079815715379254276 -0.43713965414436617 0 0.092517011764567517 -0.47378197497117353 0 0.090724871429903375 -0.45809280890615561 0 0.083633368414380696 -0.46621164320728742 0 0.075246676549625066 -0.47305272083988897 0 0.083633368414380696 -0.46621164320728742 0 0.07604491391342684 -0.45991906811193117 0 0.090724871429903375 -0.45809280890615561 0 0.083633368414380696 -0.46621164320728742 0 0.07604491391342684 -0.45991906811193117 0 0.078924008128618786 -0.44927425917818692 0 0.090724871429903375 -0.45809280890615561 0 0.07604491391342684 -0.45991906811193117 0 0.075246676549625066 -0.47305272083988897 0 0.07604491391342684 -0.45991906811193117 0 0.060533864248779268 -0.45516161004070088 0 0.075246676549625066 -0.47305272083988897 0 0.060533864248779268 -0.45516161004070088 0 0.061795930812101732 -0.46820781613902701 0 0.078924008128618786 -0.44927425917818692 0 0.07604491391342684 -0.45991906811193117 0 0.066742638013750744 -0.45361708446569943 0 0.075246676549625066 -0.47305272083988897 0 0.060533864248779268 -0.45516161004070088 0 0.07604491391342684 -0.45991906811193117 0 0.066742638013750744 -0.45361708446569943 0 0.060533864248779268 -0.45516161004070088 0 0.066742638013750744 -0.45361708446569943 0 0.060533864248779268 -0.45516161004070088 0 0.066742638013750744 -0.45361708446569943 0 0.070851891070507364 -0.4429924727175758 0 0.060604784186928162 -0.44219524034701829 0 0.066742638013750744 -0.45361708446569943 0 0.060604784186928162 -0.44219524034701829 0 0.060533864248779268 -0.45516161004070088 0 0.070851891070507364 -0.4429924727175758 0 0.068700271916894928 -0.43290455926873739 0 0.060604784186928162 -0.44219524034701829 0 0.078924008128618786 -0.44927425917818692 0 0.070851891070507364 -0.4429924727175758 0 0.079815715379254276 -0.43713965414436617 0 0.070851891070507364 -0.4429924727175758 0 0.068700271916894928 -0.43290455926873739 0 0.079815715379254276 -0.43713965414436617 0 0.078924008128618786 -0.44927425917818692 0 0.066742638013750744 -0.45361708446569943 0 0.070851891070507364 -0.4429924727175758 0 0.068700271916894928 -0.43290455926873739 0 0.078113452497016317 -0.41994308157894578 0 0.079815715379254276 -0.43713965414436617 0 0.068700271916894928 -0.43290455926873739 0 0.078113452497016317 -0.41994308157894578 0 0.058719347470543831 -0.42372109043242612 0 0.068700271916894928 -0.43290455926873739 0 0.058719347470543831 -0.42372109043242612 0 0.060604784186928162 -0.44219524034701829 0 0.078113452497016317 -0.41994308157894578 0 0.070468827029821934 -0.40290810194725279 0 0.058719347470543831 -0.42372109043242612 0 0.078113452497016317 -0.41994308157894578 0 0.093810327587010828 -0.40408349715757252 0 0.070468827029821934 -0.40290810194725279 0 0.078113452497016317 -0.41994308157894578 0 0.096321857990668808 -0.42533267408736197 0 0.093810327587010828 -0.40408349715757252 0 0.078113452497016317 -0.41994308157894578 0 0.079815715379254276 -0.43713965414436617 0 0.096321857990668808 -0.42533267408736197 0 0.09424645164530171 -0.44210268425789312 0 0.079815715379254276 -0.43713965414436617 0 0.096321857990668808 -0.42533267408736197 0 0.09424645164530171 -0.44210268425789312 0 0.096321857990668808 -0.42533267408736197 0 0.1143868512917591 -0.43285467588419202 0 0.096321857990668808 -0.42533267408736197 0 0.1143868512917591 -0.43285467588419202 0 0.1163411937935266 -0.41501015887608139 0 0.13513029091253781 -0.42041342615249999 0 0.1143868512917591 -0.43285467588419202 0 0.1163411937935266 -0.41501015887608139 0 0.096321857990668808 -0.42533267408736197 0 0.1163411937935266 -0.41501015887608139 0 0.093810327587010828 -0.40408349715757252 0 0.1163411937935266 -0.41501015887608139 0 0.093810327587010828 -0.40408349715757252 0 0.11257503074115451 -0.38498649823446041 0 0.13650483548746539 -0.39897553438877298 0 0.1163411937935266 -0.41501015887608139 0 0.11257503074115451 -0.38498649823446041 0 0.11257503074115451 -0.38498649823446041 0 0.085185771917526548 -0.37977283474271561 0 0.10079201747098269 -0.36412242239479142 0 0.093810327587010828 -0.40408349715757252 0 0.11257503074115451 -0.38498649823446041 0 0.085185771917526548 -0.37977283474271561 0 0.093810327587010828 -0.40408349715757252 0 0.085185771917526548 -0.37977283474271561 0 0.070468827029821934 -0.40290810194725279 0 0.085185771917526548 -0.37977283474271561 0 0.070468827029821934 -0.40290810194725279 0 0.057841008155207027 -0.38245658693310142 0 0.070468827029821934 -0.40290810194725279 0 0.057841008155207027 -0.38245658693310142 0 0.049143054551627013 -0.40747152083875582 0 0.057841008155207027 -0.38245658693310142 0 0.043656632087297011 -0.39232656597616861 0 0.049143054551627013 -0.40747152083875582 0 0.043656632087297011 -0.39232656597616861 0 0.028999000949789959 -0.40147898970888801 0 0.049143054551627013 -0.40747152083875582 0 0.043656632087297011 -0.39232656597616861 0 0.028999000949789959 -0.40147898970888801 0 0.032111139506758431 -0.37191992684122582 0 0.057841008155207027 -0.38245658693310142 0 0.043656632087297011 -0.39232656597616861 0 0.032111139506758431 -0.37191992684122582 0 0.011472045166716269 -0.38952867199447438 0 0.032111139506758431 -0.37191992684122582 0 0.011472045166716269 -0.38952867199447438 0 0.028999000949789959 -0.40147898970888801 0 0.032111139506758431 -0.37191992684122582 0 0.011472045166716269 -0.38952867199447438 0 0.032111139506758431 -0.37191992684122582 0 0.0095024714850780283 -0.37458082262515818 0 -0.0042332821090469977 -0.36931681778231101 0 -0.0014384839491562609 -0.38294108750953337 0 0.0095024714850780283 -0.37458082262515818 0 -0.0014384839491562609 -0.38294108750953337 0 0.011472045166716269 -0.38952867199447438 0 0.0095024714850780283 -0.37458082262515818 0 -0.0091670491733258502 -0.407137417147723 0 0.011472045166716269 -0.38952867199447438 0 0.005108664055598287 -0.40528738143041459 0 0.011472045166716269 -0.38952867199447438 0 0.005108664055598287 -0.40528738143041459 0 0.01434864661312045 -0.40656634948070969 0 -0.0091670491733258502 -0.407137417147723 0 0.011472045166716269 -0.38952867199447438 0 0.011472045166716269 -0.38952867199447438 0 0.028999000949789959 -0.40147898970888801 0 0.01434864661312045 -0.40656634948070969 0 0.028999000949789959 -0.40147898970888801 0 0.01434864661312045 -0.40656634948070969 0 0.016816745003192791 -0.42357542462247538 0 0.028999000949789959 -0.40147898970888801 0 0.016816745003192791 -0.42357542462247538 0 0.038035624732997701 -0.42318917072202022 0 0.01434864661312045 -0.40656634948070969 0 0.0037810136158822729 -0.41791708709875131 0 0.016816745003192791 -0.42357542462247538 0 0.005108664055598287 -0.40528738143041459 0 0.01434864661312045 -0.40656634948070969 0 0.0037810136158822729 -0.41791708709875131 0 0.00079488181500260609 -0.42987501851034571 0 0.016816745003192791 -0.42357542462247538 0 0.0068165806591294316 -0.44348526320397952 0 0.0037810136158822729 -0.41791708709875131 0 0.00079488181500260609 -0.42987501851034571 0 0.016816745003192791 -0.42357542462247538 0 0.016816745003192791 -0.42357542462247538 0 0.038035624732997701 -0.42318917072202022 0 0.02666676983233552 -0.44312735458325581 0 0.016816745003192791 -0.42357542462247538 0 0.02666676983233552 -0.44312735458325581 0 0.0068165806591294316 -0.44348526320397952 0 0.038035624732997701 -0.42318917072202022 0 0.047868830590497097 -0.43976064414632088 0 0.02666676983233552 -0.44312735458325581 0 0.028999000949789959 -0.40147898970888801 0 0.038035624732997701 -0.42318917072202022 0 0.049143054551627013 -0.40747152083875582 0 0.070468827029821934 -0.40290810194725279 0 0.049143054551627013 -0.40747152083875582 0 0.058719347470543831 -0.42372109043242612 0 0.038035624732997701 -0.42318917072202022 0 0.049143054551627013 -0.40747152083875582 0 0.058719347470543831 -0.42372109043242612 0 0.058719347470543831 -0.42372109043242612 0 0.047868830590497097 -0.43976064414632088 0 0.060604784186928162 -0.44219524034701829 0 0.038035624732997701 -0.42318917072202022 0 0.058719347470543831 -0.42372109043242612 0 0.047868830590497097 -0.43976064414632088 0 0.047868830590497097 -0.43976064414632088 0 0.060533864248779268 -0.45516161004070088 0 0.03684497090434212 -0.46105457747661138 0 0.047868830590497097 -0.43976064414632088 0 0.060533864248779268 -0.45516161004070088 0 0.047868830590497097 -0.43976064414632088 0 0.060604784186928162 -0.44219524034701829 0 0.060533864248779268 -0.45516161004070088 0 0.060533864248779268 -0.45516161004070088 0 0.03684497090434212 -0.46105457747661138 0 0.060533864248779268 -0.45516161004070088 0 0.052543339594833843 -0.46469110280171649 0 0.03684497090434212 -0.46105457747661138 0 0.060533864248779268 -0.45516161004070088 0 0.061795930812101732 -0.46820781613902701 0 0.052543339594833843 -0.46469110280171649 0 0.052543339594833843 -0.46469110280171649 0 0.03684497090434212 -0.46105457747661138 0 0.050998592414112261 -0.47434040755052698 0 0.047868830590497097 -0.43976064414632088 0 0.03684497090434212 -0.46105457747661138 0 0.02666676983233552 -0.44312735458325581 0 0.02666676983233552 -0.44312735458325581 0 0.0068165806591294316 -0.44348526320397952 0 0.013156077559905371 -0.46694754491252372 0 -0.0057475739345891896 -0.4549207533069245 0 0.0068165806591294316 -0.44348526320397952 0 0.013156077559905371 -0.46694754491252372 0 0.03684497090434212 -0.46105457747661138 0 0.02666676983233552 -0.44312735458325581 0 0.013156077559905371 -0.46694754491252372 0 0.03684497090434212 -0.46105457747661138 0 0.013156077559905371 -0.46694754491252372 0 0.03684497090434212 -0.46105457747661138 0 0.013156077559905371 -0.46694754491252372 0 0.032323810821201983 -0.4810656019103603 0 0.013156077559905371 -0.46694754491252372 0 0.0082051736105589468 -0.5 0 0.032323810821201983 -0.4810656019103603 0 -0.01053281578453142 -0.47284051234843588 0 0.013156077559905371 -0.46694754491252372 0 0.0082051736105589468 -0.5 0 -0.01053281578453142 -0.47284051234843588 0 0.013156077559905371 -0.46694754491252372 0 0.0082051736105589468 -0.5 0 0.037939068381746099 -0.5 0 0.032323810821201983 -0.4810656019103603 0 0.037939068381746099 -0.5 0 0.032323810821201983 -0.4810656019103603 0 0.053020152767299072 -0.48801933676575959 0 0.032323810821201983 -0.4810656019103603 0 0.050998592414112261 -0.47434040755052698 0 0.053020152767299072 -0.48801933676575959 0 0.03684497090434212 -0.46105457747661138 0 0.032323810821201983 -0.4810656019103603 0 0.050998592414112261 -0.47434040755052698 0 0.070479040632291823 -0.48264211959480191 0 0.050998592414112261 -0.47434040755052698 0 0.064630060102032719 -0.47456076603106118 0 0.070479040632291823 -0.48264211959480191 0 0.050998592414112261 -0.47434040755052698 0 0.070479040632291823 -0.48264211959480191 0 0.050998592414112261 -0.47434040755052698 0 0.053020152767299072 -0.48801933676575959 0 0.064630060102032719 -0.47456076603106118 0 0.061795930812101732 -0.46820781613902701 0 0.050998592414112261 -0.47434040755052698 0 0.061795930812101732 -0.46820781613902701 0 0.052543339594833843 -0.46469110280171649 0 0.050998592414112261 -0.47434040755052698 0 0.067672963152933252 -0.5 0 0.037939068381746099 -0.5 0 0.053020152767299072 -0.48801933676575959 0 0.087473163936891085 -0.29777268792509082 0 0.081564451789839787 -0.2785545792295161 0 0.1018918429625556 -0.28221661660282987 0 0.087473163936891085 -0.29777268792509082 0 0.081564451789839787 -0.2785545792295161 0 0.087473163936891085 -0.29777268792509082 0 0.067853695646582016 -0.28620356249784679 0 0.081564451789839787 -0.2785545792295161 0 0.087473163936891085 -0.29777268792509082 0 0.071339674350402019 -0.30608447369461589 0 0.075597518235181557 -0.31257595346091949 0 0.087473163936891085 -0.29777268792509082 0 0.098187962191818287 -0.30489187491565878 0 0.094028422526884897 -0.31909369138147992 0 0.087473163936891085 -0.29777268792509082 0 0.094028422526884897 -0.31909369138147992 0 0.075597518235181557 -0.31257595346091949 0 0.087473163936891085 -0.29777268792509082 0 0.094028422526884897 -0.31909369138147992 0 0.087473163936891085 -0.29777268792509082 0 0.071339674350402019 -0.30608447369461589 0 0.060560524715249003 -0.30009188710746898 0 0.087473163936891085 -0.29777268792509082 0 0.060560524715249003 -0.30009188710746898 0 0.071339674350402019 -0.30608447369461589 0 0.075597518235181557 -0.31257595346091949 0 0.061727490514286158 -0.31389736628498438 0 0.071339674350402019 -0.30608447369461589 0 0.061727490514286158 -0.31389736628498438 0 0.060560524715249003 -0.30009188710746898 0 0.067853695646582016 -0.28620356249784679 0 0.059116804960237683 -0.29062940211096661 0 0.060560524715249003 -0.30009188710746898 0 0.087473163936891085 -0.29777268792509082 0 0.067853695646582016 -0.28620356249784679 0 0.060560524715249003 -0.30009188710746898 0 0.066214989649419603 -0.27316028682740479 0 0.075655739642787975 -0.2593364705339416 0 0.081564451789839787 -0.2785545792295161 0 0.067853695646582016 -0.28620356249784679 0 0.066214989649419603 -0.27316028682740479 0 0.081564451789839787 -0.2785545792295161 0 0.066214989649419603 -0.27316028682740479 0 0.075655739642787975 -0.2593364705339416 0 0.05341834128670471 -0.26222533989734959 0 0.075655739642787975 -0.2593364705339416 0 0.05341834128670471 -0.26222533989734959 0 0.071841433176306951 -0.24693042426755701 0 0.075655739642787975 -0.2593364705339416 0 0.05341834128670471 -0.26222533989734959 0 0.075655739642787975 -0.2593364705339416 0 0.071841433176306951 -0.24693042426755701 0 0.075655739642787975 -0.2593364705339416 0 0.097033033634931737 -0.25655933767435479 0 0.087503871482331325 -0.24918859503345439 0 0.075655739642787975 -0.2593364705339416 0 0.087704679779763817 -0.26614109232216421 0 0.097033033634931737 -0.25655933767435479 0 0.075655739642787975 -0.2593364705339416 0 0.071841433176306951 -0.24693042426755701 0 0.087503871482331325 -0.24918859503345439 0 0.075655739642787975 -0.2593364705339416 0 0.097033033634931737 -0.25655933767435479 0 0.075655739642787975 -0.2593364705339416 0 0.081564451789839787 -0.2785545792295161 0 0.081564451789839787 -0.2785545792295161 0 0.096565494051495782 -0.27011398185084429 0 0.1018918429625556 -0.28221661660282987 0 0.075655739642787975 -0.2593364705339416 0 0.081564451789839787 -0.2785545792295161 0 0.087704679779763817 -0.26614109232216421 0 0.081564451789839787 -0.2785545792295161 0 0.087704679779763817 -0.26614109232216421 0 0.096565494051495782 -0.27011398185084429 0 0.11343381581407461 -0.27807896693227868 0 0.1097056353048949 -0.26812745810770261 0 0.1018918429625556 -0.28221661660282987 0 0.096565494051495782 -0.27011398185084429 0 0.1097056353048949 -0.26812745810770261 0 0.1018918429625556 -0.28221661660282987 0 0.097033033634931737 -0.25655933767435479 0 0.11542254909125391 -0.25417034832591701 0 0.09726841460880753 -0.24973530510077291 0 0.097033033634931737 -0.25655933767435479 0 0.11542254909125391 -0.25417034832591701 0 0.1097056353048949 -0.26812745810770261 0 0.097033033634931737 -0.25655933767435479 0 0.11542254909125391 -0.25417034832591701 0 0.1155402395781918 -0.2507583320391269 0 0.09726841460880753 -0.24973530510077291 0 0.097033033634931737 -0.25655933767435479 0 0.087503871482331325 -0.24918859503345439 0 0.09726841460880753 -0.24973530510077291 0 0.097033033634931737 -0.25655933767435479 0 0.09726841460880753 -0.24973530510077291 0 0.096565494051495782 -0.27011398185084429 0 0.097033033634931737 -0.25655933767435479 0 0.087704679779763817 -0.26614109232216421 0 0.096565494051495782 -0.27011398185084429 0 0.097033033634931737 -0.25655933767435479 0 0.096565494051495782 -0.27011398185084429 0 0.097033033634931737 -0.25655933767435479 0 0.1097056353048949 -0.26812745810770261 0 0.1338120645475761 -0.25178135897747889 0 0.1155402395781918 -0.2507583320391269 0 0.11542254909125391 -0.25417034832591701 0 0.1155402395781918 -0.2507583320391269 0 0.11542254909125391 -0.25417034832591701 0 0.09726841460880753 -0.24973530510077291 0 0.1338120645475761 -0.25178135897747889 0 0.1155402395781918 -0.2507583320391269 0 0.1338120645475761 -0.25178135897747889 0 0.11542254909125391 -0.25417034832591701 0 0.123327112510175 -0.26381005316279871 0 0.1338120645475761 -0.25178135897747889 0 0.11542254909125391 -0.25417034832591701 0 0.11542254909125391 -0.25417034832591701 0 0.123327112510175 -0.26381005316279871 0 0.1097056353048949 -0.26812745810770261 0 0.11343381581407461 -0.27807896693227868 0 0.1097056353048949 -0.26812745810770261 0 0.119201036987635 -0.27295982712471439 0 0.1280966355330338 -0.27434446718476552 0 0.123327112510175 -0.26381005316279871 0 0.119201036987635 -0.27295982712471439 0 0.123327112510175 -0.26381005316279871 0 0.1097056353048949 -0.26812745810770261 0 0.119201036987635 -0.27295982712471439 0 0.11343381581407461 -0.27807896693227868 0 0.119201036987635 -0.27295982712471439 0 0.12144198577599689 -0.28043819023602667 0 0.1280966355330338 -0.27434446718476552 0 0.119201036987635 -0.27295982712471439 0 0.12144198577599689 -0.28043819023602667 0 0.1225628758501054 -0.2947488287446996 0 0.10501801989349829 -0.29626075833489562 0 0.12144198577599689 -0.28043819023602667 0 0.1233634239504731 -0.2874855776093414 0 0.1139532624844367 -0.28782333961704598 0 0.1275993617664036 -0.28112518425861122 0 0.12144198577599689 -0.28043819023602667 0 0.1233634239504731 -0.2874855776093414 0 0.1225628758501054 -0.2947488287446996 0 0.1139532624844367 -0.28782333961704598 0 0.10501801989349829 -0.29626075833489562 0 0.1233634239504731 -0.2874855776093414 0 0.1225628758501054 -0.2947488287446996 0 0.1139532624844367 -0.28782333961704598 0 0.1256525224322369 -0.29448257816376899 0 0.1225628758501054 -0.2947488287446996 0 0.11343381581407461 -0.27807896693227868 0 0.12144198577599689 -0.28043819023602667 0 0.1139532624844367 -0.28782333961704598 0 0.11343381581407461 -0.27807896693227868 0 0.1139532624844367 -0.28782333961704598 0 0.1018918429625556 -0.28221661660282987 0 0.1139532624844367 -0.28782333961704598 0 0.1018918429625556 -0.28221661660282987 0 0.10501801989349829 -0.29626075833489562 0 0.087473163936891085 -0.29777268792509082 0 0.1018918429625556 -0.28221661660282987 0 0.10501801989349829 -0.29626075833489562 0 0.087473163936891085 -0.29777268792509082 0 0.10501801989349829 -0.29626075833489562 0 0.087473163936891085 -0.29777268792509082 0 0.10501801989349829 -0.29626075833489562 0 0.098187962191818287 -0.30489187491565878 0 0.098187962191818287 -0.30489187491565878 0 0.10829564918849539 -0.30692126006309001 0 0.094028422526884897 -0.31909369138147992 0 0.10501801989349829 -0.29626075833489562 0 0.098187962191818287 -0.30489187491565878 0 0.10829564918849539 -0.30692126006309001 0 0.10829564918849539 -0.30692126006309001 0 0.11665503897845669 -0.30709539838653632 0 0.10765755552467721 -0.31970821860930398 0 0.1225628758501054 -0.2947488287446996 0 0.10501801989349829 -0.29626075833489562 0 0.10829564918849539 -0.30692126006309001 0 0.1225628758501054 -0.2947488287446996 0 0.10829564918849539 -0.30692126006309001 0 0.1225628758501054 -0.2947488287446996 0 0.10829564918849539 -0.30692126006309001 0 0.11665503897845669 -0.30709539838653632 0 0.127428615210958 -0.30550107704066293 0 0.1256525224322369 -0.29448257816376899 0 0.11665503897845669 -0.30709539838653632 0 0.1256525224322369 -0.29448257816376899 0 0.11665503897845669 -0.30709539838653632 0 0.1256525224322369 -0.29448257816376899 0 0.1225628758501054 -0.2947488287446996 0 0.11665503897845669 -0.30709539838653632 0 0.127428615210958 -0.30550107704066293 0 0.11665503897845669 -0.30709539838653632 0 0.1236403595102975 -0.31726182602291142 0 0.1236403595102975 -0.31726182602291142 0 0.1156667707943719 -0.32879233033577338 0 0.10765755552467721 -0.31970821860930398 0 0.11665503897845669 -0.30709539838653632 0 0.1236403595102975 -0.31726182602291142 0 0.10765755552467721 -0.31970821860930398 0 0.11665503897845669 -0.30709539838653632 0 0.10765755552467721 -0.31970821860930398 0 0.1156667707943719 -0.32879233033577338 0 0.1048460875680276 -0.32950050860128433 0 0.10765755552467721 -0.31970821860930398 0 0.12646864396445259 -0.32771949481933838 0 0.1236403595102975 -0.31726182602291142 0 0.1156667707943719 -0.32879233033577338 0 0.12646864396445259 -0.32771949481933838 0 0.1218367566819203 -0.34066885685305681 0 0.1156667707943719 -0.32879233033577338 0 0.1218367566819203 -0.34066885685305681 0 0.1156667707943719 -0.32879233033577338 0 0.1082494064665878 -0.33928340961487857 0 0.1156667707943719 -0.32879233033577338 0 0.1048460875680276 -0.32950050860128433 0 0.1082494064665878 -0.33928340961487857 0 0.1048460875680276 -0.32950050860128433 0 0.1082494064665878 -0.33928340961487857 0 0.097004582427965266 -0.33631516769786107 0 0.1082494064665878 -0.33928340961487857 0 0.097004582427965266 -0.33631516769786107 0 0.093814972832634291 -0.34820918954221819 0 0.1048460875680276 -0.32950050860128433 0 0.097004582427965266 -0.33631516769786107 0 0.096073069581201237 -0.32574391368982941 0 0.096073069581201237 -0.32574391368982941 0 0.094028422526884897 -0.31909369138147992 0 0.10765755552467721 -0.31970821860930398 0 0.096073069581201237 -0.32574391368982941 0 0.094028422526884897 -0.31909369138147992 0 0.10829564918849539 -0.30692126006309001 0 0.094028422526884897 -0.31909369138147992 0 0.10829564918849539 -0.30692126006309001 0 0.094028422526884897 -0.31909369138147992 0 0.10765755552467721 -0.31970821860930398 0 0.1048460875680276 -0.32950050860128433 0 0.096073069581201237 -0.32574391368982941 0 0.10765755552467721 -0.31970821860930398 0 0.13554014667972011 -0.37371994475541209 0 0.11257503074115451 -0.38498649823446041 0 0.1211241730808211 -0.35969015994424403 0 0.11257503074115451 -0.38498649823446041 0 0.1211241730808211 -0.35969015994424403 0 0.10079201747098269 -0.36412242239479142 0 0.1211241730808211 -0.35969015994424403 0 0.1091752126596531 -0.3513855426967849 0 0.10079201747098269 -0.36412242239479142 0 0.1218367566819203 -0.34066885685305681 0 0.1211241730808211 -0.35969015994424403 0 0.1091752126596531 -0.3513855426967849 0 0.1218367566819203 -0.34066885685305681 0 0.1082494064665878 -0.33928340961487857 0 0.1091752126596531 -0.3513855426967849 0 0.1091752126596531 -0.3513855426967849 0 0.093814972832634291 -0.34820918954221819 0 0.10079201747098269 -0.36412242239479142 0 0.1082494064665878 -0.33928340961487857 0 0.1091752126596531 -0.3513855426967849 0 0.093814972832634291 -0.34820918954221819 0 0.085185771917526548 -0.37977283474271561 0 0.10079201747098269 -0.36412242239479142 0 0.076425374258651049 -0.36036916924143869 0 0.093814972832634291 -0.34820918954221819 0 0.076425374258651049 -0.36036916924143869 0 0.073389328186842753 -0.33670243653472848 0 0.093814972832634291 -0.34820918954221819 0 0.10079201747098269 -0.36412242239479142 0 0.076425374258651049 -0.36036916924143869 0 0.076425374258651049 -0.36036916924143869 0 0.073389328186842753 -0.33670243653472848 0 0.052750233846800589 -0.35431118168797721 0 0.073389328186842753 -0.33670243653472848 0 0.052750233846800589 -0.35431118168797721 0 0.085185771917526548 -0.37977283474271561 0 0.057841008155207027 -0.38245658693310142 0 0.076425374258651049 -0.36036916924143869 0 0.094028422526884897 -0.31909369138147992 0 0.073389328186842753 -0.33670243653472848 0 0.096073069581201237 -0.32574391368982941 0 0.094028422526884897 -0.31909369138147992 0 0.073389328186842753 -0.33670243653472848 0 0.094028422526884897 -0.31909369138147992 0 0.073389328186842753 -0.33670243653472848 0 0.072651274237206992 -0.32234881883649769 0 0.094028422526884897 -0.31909369138147992 0 0.072651274237206992 -0.32234881883649769 0 0.075597518235181557 -0.31257595346091949 0 0.097004582427965266 -0.33631516769786107 0 0.096073069581201237 -0.32574391368982941 0 0.073389328186842753 -0.33670243653472848 0 0.097004582427965266 -0.33631516769786107 0 0.093814972832634291 -0.34820918954221819 0 0.073389328186842753 -0.33670243653472848 0 0.073389328186842753 -0.33670243653472848 0 0.072651274237206992 -0.32234881883649769 0 0.058513611722839573 -0.32947464652037622 0 0.072651274237206992 -0.32234881883649769 0 0.061727490514286158 -0.31389736628498438 0 0.058513611722839573 -0.32947464652037622 0 0.072651274237206992 -0.32234881883649769 0 0.075597518235181557 -0.31257595346091949 0 0.061727490514286158 -0.31389736628498438 0 0.061727490514286158 -0.31389736628498438 0 0.048871722081095123 -0.31851038162196682 0 0.053524671366835877 -0.30640407556079952 0 0.048871722081095123 -0.31851038162196682 0 0.058513611722839573 -0.32947464652037622 0 0.042608717461976538 -0.3312298768594002 0 0.061727490514286158 -0.31389736628498438 0 0.048871722081095123 -0.31851038162196682 0 0.058513611722839573 -0.32947464652037622 0 0.073389328186842753 -0.33670243653472848 0 0.058513611722839573 -0.32947464652037622 0 0.052750233846800589 -0.35431118168797721 0 0.058513611722839573 -0.32947464652037622 0 0.042608717461976538 -0.3312298768594002 0 0.052750233846800589 -0.35431118168797721 0 0.042608717461976538 -0.3312298768594002 0 0.032201100374313327 -0.3403185580786573 0 0.052750233846800589 -0.35431118168797721 0 0.042608717461976538 -0.3312298768594002 0 0.032201100374313327 -0.3403185580786573 0 0.02803274898307424 -0.32856413603580631 0 0.042608717461976538 -0.3312298768594002 0 0.035004108339948901 -0.31633090919971779 0 0.02803274898307424 -0.32856413603580631 0 0.048871722081095123 -0.31851038162196682 0 0.035004108339948901 -0.31633090919971779 0 0.042659306472636778 -0.3047174731171407 0 0.048871722081095123 -0.31851038162196682 0 0.042608717461976538 -0.3312298768594002 0 0.035004108339948901 -0.31633090919971779 0 0.057841008155207027 -0.38245658693310142 0 0.052750233846800589 -0.35431118168797721 0 0.032111139506758431 -0.37191992684122582 0 0.057841008155207027 -0.38245658693310142 0 0.076425374258651049 -0.36036916924143869 0 0.052750233846800589 -0.35431118168797721 0 0.032201100374313327 -0.3403185580786573 0 0.052750233846800589 -0.35431118168797721 0 0.023184557849655049 -0.35200766470484768 0 0.052750233846800589 -0.35431118168797721 0 0.032111139506758431 -0.37191992684122582 0 0.052750233846800589 -0.35431118168797721 0 0.032111139506758431 -0.37191992684122582 0 0.023184557849655049 -0.35200766470484768 0 0.032111139506758431 -0.37191992684122582 0 0.023184557849655049 -0.35200766470484768 0 0.010345294108568969 -0.36081801354288939 0 0.032111139506758431 -0.37191992684122582 0 0.010345294108568969 -0.36081801354288939 0 0.0095024714850780283 -0.37458082262515818 0 -0.0019921573348008 -0.35014241775074068 0 0.023184557849655049 -0.35200766470484768 0 0.014429243730060239 -0.33547993110525531 0 -0.0019921573348008 -0.35014241775074068 0 0.023184557849655049 -0.35200766470484768 0 0.010345294108568969 -0.36081801354288939 0 -0.0019921573348008 -0.35014241775074068 0 -0.0042332821090469977 -0.36931681778231101 0 0.010345294108568969 -0.36081801354288939 0 -0.0042332821090469977 -0.36931681778231101 0 0.010345294108568969 -0.36081801354288939 0 0.0095024714850780283 -0.37458082262515818 0 0.035004108339948901 -0.31633090919971779 0 0.02803274898307424 -0.32856413603580631 0 0.015526697491276621 -0.31392901685578528 0 0.02803274898307424 -0.32856413603580631 0 0.014429243730060239 -0.33547993110525531 0 0.015526697491276621 -0.31392901685578528 0 0.032201100374313327 -0.3403185580786573 0 0.023184557849655049 -0.35200766470484768 0 0.014429243730060239 -0.33547993110525531 0 0.032201100374313327 -0.3403185580786573 0 0.02803274898307424 -0.32856413603580631 0 0.014429243730060239 -0.33547993110525531 0 -0.008605873932596356 -0.33624452634938418 0 -0.0019921573348008 -0.35014241775074068 0 0.014429243730060239 -0.33547993110525531 0 -0.008605873932596356 -0.33624452634938418 0 0.014429243730060239 -0.33547993110525531 0 0.0035141492887302548 -0.32519051246028208 0 0.014429243730060239 -0.33547993110525531 0 0.0035141492887302548 -0.32519051246028208 0 0.015526697491276621 -0.31392901685578528 0 -0.0093546214437348063 -0.3154421594820554 0 0.0035141492887302548 -0.32519051246028208 0 0.015526697491276621 -0.31392901685578528 0 -0.0093546214437348063 -0.3154421594820554 0 0.015526697491276621 -0.31392901685578528 0 0.0025702240157044749 -0.30194718224499639 0 0.015526697491276621 -0.31392901685578528 0 0.0025702240157044749 -0.30194718224499639 0 0.018894421690538499 -0.29417828297256371 0 0.0025702240157044749 -0.30194718224499639 0 0.001953977901653102 -0.28749824366549498 0 0.018894421690538499 -0.29417828297256371 0 0.001953977901653102 -0.28749824366549498 0 0.018894421690538499 -0.29417828297256371 0 0.015670532879786751 -0.2762907948651831 0 0.018894421690538499 -0.29417828297256371 0 0.030268242974381541 -0.30296892509516138 0 0.036539995597899583 -0.28735292316580879 0 0.018894421690538499 -0.29417828297256371 0 0.036539995597899583 -0.28735292316580879 0 0.015670532879786751 -0.2762907948651831 0 0.015526697491276621 -0.31392901685578528 0 0.018894421690538499 -0.29417828297256371 0 0.030268242974381541 -0.30296892509516138 0 0.035004108339948901 -0.31633090919971779 0 0.015526697491276621 -0.31392901685578528 0 0.030268242974381541 -0.30296892509516138 0 0.030268242974381541 -0.30296892509516138 0 0.042659306472636778 -0.3047174731171407 0 0.036539995597899583 -0.28735292316580879 0 0.035004108339948901 -0.31633090919971779 0 0.030268242974381541 -0.30296892509516138 0 0.042659306472636778 -0.3047174731171407 0 0.042659306472636778 -0.3047174731171407 0 0.036539995597899583 -0.28735292316580879 0 0.051747098475659753 -0.29673762405939008 0 0.051747098475659753 -0.29673762405939008 0 0.052582719881183543 -0.27948148197836992 0 0.051747098475659753 -0.29673762405939008 0 0.059116804960237683 -0.29062940211096661 0 0.052582719881183543 -0.27948148197836992 0 0.036539995597899583 -0.28735292316580879 0 0.051747098475659753 -0.29673762405939008 0 0.052582719881183543 -0.27948148197836992 0 0.067853695646582016 -0.28620356249784679 0 0.059116804960237683 -0.29062940211096661 0 0.052582719881183543 -0.27948148197836992 0 0.051747098475659753 -0.29673762405939008 0 0.059116804960237683 -0.29062940211096661 0 0.060560524715249003 -0.30009188710746898 0 0.051747098475659753 -0.29673762405939008 0 0.060560524715249003 -0.30009188710746898 0 0.053524671366835877 -0.30640407556079952 0 0.061727490514286158 -0.31389736628498438 0 0.060560524715249003 -0.30009188710746898 0 0.053524671366835877 -0.30640407556079952 0 0.048871722081095123 -0.31851038162196682 0 0.042659306472636778 -0.3047174731171407 0 0.053524671366835877 -0.30640407556079952 0 0.042659306472636778 -0.3047174731171407 0 0.051747098475659753 -0.29673762405939008 0 0.053524671366835877 -0.30640407556079952 0 0.05341834128670471 -0.26222533989734959 0 0.054455146400998369 -0.2408146193913096 0 0.05341834128670471 -0.26222533989734959 0 0.041504830166615332 -0.24909079072316551 0 0.054455146400998369 -0.2408146193913096 0 0.05341834128670471 -0.26222533989734959 0 0.052582719881183543 -0.27948148197836992 0 0.066214989649419603 -0.27316028682740479 0 0.05341834128670471 -0.26222533989734959 0 0.052582719881183543 -0.27948148197836992 0 0.067853695646582016 -0.28620356249784679 0 0.066214989649419603 -0.27316028682740479 0 0.052582719881183543 -0.27948148197836992 0 0.05341834128670471 -0.26222533989734959 0 0.052582719881183543 -0.27948148197836992 0 0.028317708997288939 -0.2654861731325095 0 0.036539995597899583 -0.28735292316580879 0 0.052582719881183543 -0.27948148197836992 0 0.028317708997288939 -0.2654861731325095 0 0.028317708997288939 -0.2654861731325095 0 0.026822654761378281 -0.24010580347910071 0 0.041504830166615332 -0.24909079072316551 0 0.05341834128670471 -0.26222533989734959 0 0.028317708997288939 -0.2654861731325095 0 0.041504830166615332 -0.24909079072316551 0 0.05341834128670471 -0.26222533989734959 0 0.028317708997288939 -0.2654861731325095 0 0.028317708997288939 -0.2654861731325095 0 0.01150473642008854 -0.25100487296640661 0 0.026822654761378281 -0.24010580347910071 0 0.028317708997288939 -0.2654861731325095 0 0.015670532879786751 -0.2762907948651831 0 0.0049597396345670026 -0.26452376434945218 0 0.036539995597899583 -0.28735292316580879 0 0.028317708997288939 -0.2654861731325095 0 0.015670532879786751 -0.2762907948651831 0 -0.002131649244152236 -0.27375645946249172 0 0.015670532879786751 -0.2762907948651831 0 0.0049597396345670026 -0.26452376434945218 0 -0.002131649244152236 -0.27375645946249172 0 0.001953977901653102 -0.28749824366549498 0 0.015670532879786751 -0.2762907948651831 0 -0.0050603712554523096 -0.25502580822232418 0 0.01150473642008854 -0.25100487296640661 0 0.0049597396345670026 -0.26452376434945218 0 0.028317708997288939 -0.2654861731325095 0 0.01150473642008854 -0.25100487296640661 0 0.0049597396345670026 -0.26452376434945218 0 -0.0050603712554523096 -0.25502580822232418 0 -0.0012779613340340411 -0.24176494305706761 0 0.01150473642008854 -0.25100487296640661 0 -0.0012779613340340411 -0.24176494305706761 0 0.01150473642008854 -0.25100487296640661 0 0.01227448810303049 -0.23689425083746071 0 -0.0012779613340340411 -0.24176494305706761 0 -0.0016127085748020571 -0.22712480654777251 0 0.01227448810303049 -0.23689425083746071 0 -0.0016127085748020571 -0.22712480654777251 0 0.01227448810303049 -0.23689425083746071 0 0.01698840492239578 -0.2228903554452914 0 -0.0016127085748020571 -0.22712480654777251 0 0.01698840492239578 -0.2228903554452914 0 0.0064561243882930407 -0.21561537692257879 0 0.01227448810303049 -0.23689425083746071 0 0.01698840492239578 -0.2228903554452914 0 0.026822654761378281 -0.24010580347910071 0 0.01698840492239578 -0.2228903554452914 0 0.026822654761378281 -0.24010580347910071 0 0.034262553780134708 -0.21981152268886431 0 0.01150473642008854 -0.25100487296640661 0 0.01227448810303049 -0.23689425083746071 0 0.026822654761378281 -0.24010580347910071 0 -0.0048422933519348798 -0.20657909219758999 0 0.01498437965793468 -0.2009023489100171 0 0.0039750345954989988 -0.18651425943902311 0 0.01498437965793468 -0.2009023489100171 0 0.019555974831457788 -0.18489329081675979 0 0.0039750345954989988 -0.18651425943902311 0 -0.0048422933519348798 -0.20657909219758999 0 0.01498437965793468 -0.2009023489100171 0 0.0064561243882930407 -0.21561537692257879 0 0.01498437965793468 -0.2009023489100171 0 0.0064561243882930407 -0.21561537692257879 0 0.022166629418003729 -0.2118345471400416 0 0.01698840492239578 -0.2228903554452914 0 0.0064561243882930407 -0.21561537692257879 0 0.022166629418003729 -0.2118345471400416 0 -0.0016127085748020571 -0.22712480654777251 0 -0.0048422933519348798 -0.20657909219758999 0 0.0064561243882930407 -0.21561537692257879 0 0.01698840492239578 -0.2228903554452914 0 0.022166629418003729 -0.2118345471400416 0 0.034262553780134708 -0.21981152268886431 0 0.01498437965793468 -0.2009023489100171 0 0.022166629418003729 -0.2118345471400416 0 0.031897636722889637 -0.2043381853445167 0 0.022166629418003729 -0.2118345471400416 0 0.031897636722889637 -0.2043381853445167 0 0.034262553780134708 -0.21981152268886431 0 0.01498437965793468 -0.2009023489100171 0 0.027972004457906641 -0.19290593557317351 0 0.019555974831457788 -0.18489329081675979 0 0.01498437965793468 -0.2009023489100171 0 0.027972004457906641 -0.19290593557317351 0 0.031897636722889637 -0.2043381853445167 0 0.056528756629579638 -0.1979931783792292 0 0.033889281643562412 -0.17857272488157999 0 0.027972004457906641 -0.19290593557317351 0 0.03953274943368866 -0.19582312791299369 0 0.033889281643562412 -0.17857272488157999 0 0.03953274943368866 -0.19582312791299369 0 0.044202360045936313 -0.20737869318372881 0 0.056528756629579638 -0.1979931783792292 0 0.03953274943368866 -0.19582312791299369 0 0.056528756629579638 -0.1979931783792292 0 0.033889281643562412 -0.17857272488157999 0 0.027972004457906641 -0.19290593557317351 0 0.03953274943368866 -0.19582312791299369 0 0.031897636722889637 -0.2043381853445167 0 0.03953274943368866 -0.19582312791299369 0 0.044202360045936313 -0.20737869318372881 0 0.031897636722889637 -0.2043381853445167 0 0.044202360045936313 -0.20737869318372881 0 0.034262553780134708 -0.21981152268886431 0 0.055491951515289413 -0.2194038988852694 0 0.044202360045936313 -0.20737869318372881 0 0.031897636722889637 -0.2043381853445167 0 0.034262553780134708 -0.21981152268886431 0 0.058246448850680657 -0.19946663842738771 0 0.055491951515289413 -0.2194038988852694 0 0.066041136181110544 -0.21386160323267189 0 0.056528756629579638 -0.1979931783792292 0 0.055491951515289413 -0.2194038988852694 0 0.058246448850680657 -0.19946663842738771 0 0.056528756629579638 -0.1979931783792292 0 0.055491951515289413 -0.2194038988852694 0 0.044202360045936313 -0.20737869318372881 0 0.056528756629579638 -0.1979931783792292 0 0.055491951515289413 -0.2194038988852694 0 0.056528756629579638 -0.1979931783792292 0 0.057329549479635908 -0.18145626931170691 0 0.056528756629579638 -0.1979931783792292 0 0.065123946871468164 -0.19127238357693871 0 0.057329549479635908 -0.18145626931170691 0 0.058246448850680657 -0.19946663842738771 0 0.056528756629579638 -0.1979931783792292 0 0.065123946871468164 -0.19127238357693871 0 0.058246448850680657 -0.19946663842738771 0 0.056528756629579638 -0.1979931783792292 0 0.041504830166615332 -0.24909079072316551 0 0.041828765002810943 -0.233037808058844 0 0.054455146400998369 -0.2408146193913096 0 0.026822654761378281 -0.24010580347910071 0 0.041504830166615332 -0.24909079072316551 0 0.041828765002810943 -0.233037808058844 0 0.041828765002810943 -0.233037808058844 0 0.034262553780134708 -0.21981152268886431 0 0.055491951515289413 -0.2194038988852694 0 0.026822654761378281 -0.24010580347910071 0 0.041828765002810943 -0.233037808058844 0 0.034262553780134708 -0.21981152268886431 0 0.055491951515289413 -0.2194038988852694 0 0.054455146400998369 -0.2408146193913096 0 0.070056056729074334 -0.23044917593339351 0 0.055491951515289413 -0.2194038988852694 0 0.054455146400998369 -0.2408146193913096 0 0.041828765002810943 -0.233037808058844 0 0.055491951515289413 -0.2194038988852694 0 0.054455146400998369 -0.2408146193913096 0 0.05341834128670471 -0.26222533989734959 0 0.054455146400998369 -0.2408146193913096 0 0.071841433176306951 -0.24693042426755701 0 0.071841433176306951 -0.24693042426755701 0 0.078351655706027534 -0.24017870186704479 0 0.070056056729074334 -0.23044917593339351 0 0.054455146400998369 -0.2408146193913096 0 0.071841433176306951 -0.24693042426755701 0 0.070056056729074334 -0.23044917593339351 0 0.078351655706027534 -0.24017870186704479 0 0.084005261436397555 -0.23414661223377431 0 0.070056056729074334 -0.23044917593339351 0 0.071841433176306951 -0.24693042426755701 0 0.078351655706027534 -0.24017870186704479 0 0.087503871482331325 -0.24918859503345439 0 0.084005261436397555 -0.23414661223377431 0 0.09726841460880753 -0.24973530510077291 0 0.098224276789357245 -0.22202348732504129 0 0.078351655706027534 -0.24017870186704479 0 0.087503871482331325 -0.24918859503345439 0 0.084005261436397555 -0.23414661223377431 0 0.087503871482331325 -0.24918859503345439 0 0.084005261436397555 -0.23414661223377431 0 0.09726841460880753 -0.24973530510077291 0 0.087503871482331325 -0.24918859503345439 0 0.09726841460880753 -0.24973530510077291 0 0.084005261436397555 -0.23414661223377431 0 0.077944909524616218 -0.21644665818138251 0 0.098224276789357245 -0.22202348732504129 0 0.084005261436397555 -0.23414661223377431 0 0.070056056729074334 -0.23044917593339351 0 0.077944909524616218 -0.21644665818138251 0 0.070056056729074334 -0.23044917593339351 0 0.066041136181110544 -0.21386160323267189 0 0.077944909524616218 -0.21644665818138251 0 0.055491951515289413 -0.2194038988852694 0 0.070056056729074334 -0.23044917593339351 0 0.066041136181110544 -0.21386160323267189 0 0.058246448850680657 -0.19946663842738771 0 0.066041136181110544 -0.21386160323267189 0 0.071428190199665467 -0.20133585635874521 0 0.066041136181110544 -0.21386160323267189 0 0.077944909524616218 -0.21644665818138251 0 0.071428190199665467 -0.20133585635874521 0 0.058246448850680657 -0.19946663842738771 0 0.065123946871468164 -0.19127238357693871 0 0.071428190199665467 -0.20133585635874521 0 0.065123946871468164 -0.19127238357693871 0 0.071428190199665467 -0.20133585635874521 0 0.077775677467109644 -0.1894438906232867 0 0.077775677467109644 -0.1894438906232867 0 0.085264727641627694 -0.2009309552866074 0 0.087035172899110766 -0.18202416968187909 0 0.085264727641627694 -0.2009309552866074 0 0.099180138969906934 -0.19431166954930951 0 0.087035172899110766 -0.18202416968187909 0 0.071428190199665467 -0.20133585635874521 0 0.077775677467109644 -0.1894438906232867 0 0.085264727641627694 -0.2009309552866074 0 0.077944909524616218 -0.21644665818138251 0 0.085264727641627694 -0.2009309552866074 0 0.098224276789357245 -0.22202348732504129 0 0.077944909524616218 -0.21644665818138251 0 0.071428190199665467 -0.20133585635874521 0 0.085264727641627694 -0.2009309552866074 0 0.085264727641627694 -0.2009309552866074 0 0.099180138969906934 -0.19431166954930951 0 0.098224276789357245 -0.22202348732504129 0 0.099180138969906934 -0.19431166954930951 0 0.11354412200005309 -0.20878294345574169 0 0.098224276789357245 -0.22202348732504129 0 0.099180138969906934 -0.19431166954930951 0 0.098224276789357245 -0.22202348732504129 0 0.099180138969906934 -0.19431166954930951 0 0.1232396379011078 -0.1927549034493776 0 0.1116878195257827 -0.17967737761147759 0 0.099180138969906934 -0.19431166954930951 0 0.1232396379011078 -0.1927549034493776 0 0.11354412200005309 -0.20878294345574169 0 0.1232396379011078 -0.1927549034493776 0 0.11354412200005309 -0.20878294345574169 0 0.1296813367821156 -0.2112782106774091 0 0.11354412200005309 -0.20878294345574169 0 0.11925867152865099 -0.22395178641925401 0 0.1296813367821156 -0.2112782106774091 0 0.11354412200005309 -0.20878294345574169 0 0.11925867152865099 -0.22395178641925401 0 0.098224276789357245 -0.22202348732504129 0 0.11925867152865099 -0.22395178641925401 0 0.1115141746540584 -0.23685798868452451 0 0.098224276789357245 -0.22202348732504129 0 0.11925867152865099 -0.22395178641925401 0 0.1115141746540584 -0.23685798868452451 0 0.12727927076528461 -0.2378210325384271 0 0.1155402395781918 -0.2507583320391269 0 0.1115141746540584 -0.23685798868452451 0 0.12727927076528461 -0.2378210325384271 0 0.09726841460880753 -0.24973530510077291 0 0.098224276789357245 -0.22202348732504129 0 0.1115141746540584 -0.23685798868452451 0 0.09726841460880753 -0.24973530510077291 0 0.098224276789357245 -0.22202348732504129 0 0.1155402395781918 -0.2507583320391269 0 0.1115141746540584 -0.23685798868452451 0 0.09726841460880753 -0.24973530510077291 0 0.1006234008225292 -0.15246943509712671 0 0.1001360011504572 -0.16659985177357781 0 0.083956960864695562 -0.1482839632705675 0 0.093837558922739497 -0.14264619108299431 0 0.1006234008225292 -0.15246943509712671 0 0.1028307954559992 -0.13579239345953559 0 0.1006234008225292 -0.15246943509712671 0 0.1028307954559992 -0.13579239345953559 0 0.1133439292462652 -0.14669813101470161 0 0.1006234008225292 -0.15246943509712671 0 0.1133439292462652 -0.14669813101470161 0 0.1122920085546638 -0.16227381202107721 0 0.093837558922739497 -0.14264619108299431 0 0.1028307954559992 -0.13579239345953559 0 0.086025777066828416 -0.13071312073542821 0 0.1028307954559992 -0.13579239345953559 0 0.086025777066828416 -0.13071312073542821 0 0.1003755091591467 -0.120365047089626 0 0.1028307954559992 -0.13579239345953559 0 0.1110772144577262 -0.12607447494648069 0 0.1003755091591467 -0.120365047089626 0 0.1028307954559992 -0.13579239345953559 0 0.1110772144577262 -0.12607447494648069 0 0.1195920268695274 -0.13435801890873961 0 0.1028307954559992 -0.13579239345953559 0 0.1195920268695274 -0.13435801890873961 0 0.1133439292462652 -0.14669813101470161 0 0.1110772144577262 -0.12607447494648069 0 0.1195920268695274 -0.13435801890873961 0 0.125059882544757 -0.1243050716586782 0 0.1195920268695274 -0.13435801890873961 0 0.1133439292462652 -0.14669813101470161 0 0.12550759679471971 -0.14428239988351421 0 0.1133439292462652 -0.14669813101470161 0 0.1238726331408222 -0.15597973401630799 0 0.1122920085546638 -0.16227381202107721 0 0.1133439292462652 -0.14669813101470161 0 0.1238726331408222 -0.15597973401630799 0 0.12550759679471971 -0.14428239988351421 0 0.1122920085546638 -0.16227381202107721 0 0.1240882674421261 -0.17221834261327171 0 0.1116878195257827 -0.17967737761147759 0 0.1238726331408222 -0.15597973401630799 0 0.1122920085546638 -0.16227381202107721 0 0.1240882674421261 -0.17221834261327171 0 0.1232396379011078 -0.1927549034493776 0 0.1240882674421261 -0.17221834261327171 0 0.1116878195257827 -0.17967737761147759 0 0.1232396379011078 -0.1927549034493776 0 0.1116878195257827 -0.17967737761147759 0 0.099180138969906934 -0.19431166954930951 0 0.1116878195257827 -0.17967737761147759 0 0.1001360011504572 -0.16659985177357781 0 0.099180138969906934 -0.19431166954930951 0 0.1001360011504572 -0.16659985177357781 0 0.099180138969906934 -0.19431166954930951 0 0.1001360011504572 -0.16659985177357781 0 0.087035172899110766 -0.18202416968187909 0 0.1116878195257827 -0.17967737761147759 0 0.1001360011504572 -0.16659985177357781 0 0.1122920085546638 -0.16227381202107721 0 0.1116878195257827 -0.17967737761147759 0 0.1001360011504572 -0.16659985177357781 0 0.1006234008225292 -0.15246943509712671 0 0.1122920085546638 -0.16227381202107721 0 0.1001360011504572 -0.16659985177357781 0 0.1006234008225292 -0.15246943509712671 0 0.1001360011504572 -0.16659985177357781 0 0.1001360011504572 -0.16659985177357781 0 0.083956960864695562 -0.1482839632705675 0 0.1001360011504572 -0.16659985177357781 0 0.079225084705666013 -0.1675683830972868 0 0.083956960864695562 -0.1482839632705675 0 0.077775677467109644 -0.1894438906232867 0 0.087035172899110766 -0.18202416968187909 0 0.070769962292113645 -0.17944740942254711 0 0.079225084705666013 -0.1675683830972868 0 0.087035172899110766 -0.18202416968187909 0 0.070769962292113645 -0.17944740942254711 0 0.1001360011504572 -0.16659985177357781 0 0.079225084705666013 -0.1675683830972868 0 0.087035172899110766 -0.18202416968187909 0 0.065123946871468164 -0.19127238357693871 0 0.077775677467109644 -0.1894438906232867 0 0.070769962292113645 -0.17944740942254711 0 0.065123946871468164 -0.19127238357693871 0 0.070769962292113645 -0.17944740942254711 0 0.057329549479635908 -0.18145626931170691 0 0.079225084705666013 -0.1675683830972868 0 0.069844290743162202 -0.15572535069481899 0 0.058130342329691373 -0.1649193602441846 0 0.079225084705666013 -0.1675683830972868 0 0.069844290743162202 -0.15572535069481899 0 0.083956960864695562 -0.1482839632705675 0 0.079225084705666013 -0.1675683830972868 0 0.070769962292113645 -0.17944740942254711 0 0.058130342329691373 -0.1649193602441846 0 0.069844290743162202 -0.15572535069481899 0 0.065690713085214791 -0.1421362209973312 0 0.083956960864695562 -0.1482839632705675 0 0.069844290743162202 -0.15572535069481899 0 0.065690713085214791 -0.1421362209973312 0 0.055338914955394031 -0.1557955185274518 0 0.093837558922739497 -0.14264619108299431 0 0.1006234008225292 -0.15246943509712671 0 0.083956960864695562 -0.1482839632705675 0 0.083956960864695562 -0.1482839632705675 0 0.086025777066828416 -0.13071312073542821 0 0.067777920578933518 -0.1299680747675574 0 0.093837558922739497 -0.14264619108299431 0 0.083956960864695562 -0.1482839632705675 0 0.086025777066828416 -0.13071312073542821 0 0.083956960864695562 -0.1482839632705675 0 0.067777920578933518 -0.1299680747675574 0 0.065690713085214791 -0.1421362209973312 0 0.083956960864695562 -0.1482839632705675 0 0.067777920578933518 -0.1299680747675574 0 0.086025777066828416 -0.13071312073542821 0 0.067777920578933518 -0.1299680747675574 0 0.076734835755005087 -0.11970758577673089 0 0.067777920578933518 -0.1299680747675574 0 0.053441304474890289 -0.13464385441717969 0 0.05399936433302991 -0.12122894057442581 0 0.053441304474890289 -0.13464385441717969 0 0.041268264505893618 -0.12924178955595211 0 0.05399936433302991 -0.12122894057442581 0 0.065690713085214791 -0.1421362209973312 0 0.067777920578933518 -0.1299680747675574 0 0.053441304474890289 -0.13464385441717969 0 0.065690713085214791 -0.1421362209973312 0 0.055338914955394031 -0.1557955185274518 0 0.0384702598713796 -0.15064424619063199 0 0.065690713085214791 -0.1421362209973312 0 0.0384702598713796 -0.15064424619063199 0 0.065690713085214791 -0.1421362209973312 0 0.053441304474890289 -0.13464385441717969 0 0.0384702598713796 -0.15064424619063199 0 0.053441304474890289 -0.13464385441717969 0 0.0384702598713796 -0.15064424619063199 0 0.041268264505893618 -0.12924178955595211 0 0.0384702598713796 -0.15064424619063199 0 0.041268264505893618 -0.12924178955595211 0 0.015842377588640461 -0.12995768139491151 0 0.057329549479635908 -0.18145626931170691 0 0.058130342329691373 -0.1649193602441846 0 0.056528756629579638 -0.1979931783792292 0 0.057329549479635908 -0.18145626931170691 0 0.033889281643562412 -0.17857272488157999 0 0.070769962292113645 -0.17944740942254711 0 0.057329549479635908 -0.18145626931170691 0 0.058130342329691373 -0.1649193602441846 0 0.057329549479635908 -0.18145626931170691 0 0.058130342329691373 -0.1649193602441846 0 0.04455896874752216 -0.16555241451029229 0 0.069844290743162202 -0.15572535069481899 0 0.055338914955394031 -0.1557955185274518 0 0.058130342329691373 -0.1649193602441846 0 0.055338914955394031 -0.1557955185274518 0 0.058130342329691373 -0.1649193602441846 0 0.04455896874752216 -0.16555241451029229 0 0.055338914955394031 -0.1557955185274518 0 0.0384702598713796 -0.15064424619063199 0 0.04455896874752216 -0.16555241451029229 0 0.0384702598713796 -0.15064424619063199 0 0.031574010555557599 -0.1635538019881777 0 0.04455896874752216 -0.16555241451029229 0 0.031574010555557599 -0.1635538019881777 0 0.04455896874752216 -0.16555241451029229 0 0.033889281643562412 -0.17857272488157999 0 0.057329549479635908 -0.18145626931170691 0 0.04455896874752216 -0.16555241451029229 0 0.033889281643562412 -0.17857272488157999 0 0.033889281643562412 -0.17857272488157999 0 0.019555974831457788 -0.18489329081675979 0 0.017860935761059481 -0.17540941327727391 0 0.033889281643562412 -0.17857272488157999 0 0.017860935761059481 -0.17540941327727391 0 0.018922444694438611 -0.16573396598117041 0 0.027972004457906641 -0.19290593557317351 0 0.033889281643562412 -0.17857272488157999 0 0.019555974831457788 -0.18489329081675979 0 0.033889281643562412 -0.17857272488157999 0 0.018922444694438611 -0.16573396598117041 0 0.0384702598713796 -0.15064424619063199 0 0.031574010555557599 -0.1635538019881777 0 0.011249806657544249 -0.1591522713839319 0 0.031574010555557599 -0.1635538019881777 0 0.018922444694438611 -0.16573396598117041 0 0.011249806657544249 -0.1591522713839319 0 0.031574010555557599 -0.1635538019881777 0 0.033889281643562412 -0.17857272488157999 0 0.018922444694438611 -0.16573396598117041 0 0.018922444694438611 -0.16573396598117041 0 0.011249806657544249 -0.1591522713839319 0 0.0051361497124387812 -0.16106315607433669 0 0.018922444694438611 -0.16573396598117041 0 0.0051361497124387812 -0.16106315607433669 0 0.018922444694438611 -0.16573396598117041 0 0.011249806657544249 -0.1591522713839319 0 0.011249806657544249 -0.1591522713839319 0 0.0051361497124387812 -0.16106315607433669 0 0.011249806657544249 -0.1591522713839319 0 0.0051361497124387812 -0.16106315607433669 0 0.00014451492137988051 -0.1496259991592768 0 -0.001198061652550745 -0.17280609881212911 0 0.0051361497124387812 -0.16106315607433669 0 0.0083362452288298274 -0.17396118646513589 0 0.018922444694438611 -0.16573396598117041 0 0.0051361497124387812 -0.16106315607433669 0 0.0083362452288298274 -0.17396118646513589 0 0.017860935761059481 -0.17540941327727391 0 0.018922444694438611 -0.16573396598117041 0 0.0083362452288298274 -0.17396118646513589 0 0.019555974831457788 -0.18489329081675979 0 0.017860935761059481 -0.17540941327727391 0 0.0083362452288298274 -0.17396118646513589 0 -0.001198061652550745 -0.17280609881212911 0 0.0083362452288298274 -0.17396118646513589 0 0.0039750345954989988 -0.18651425943902311 0 0.019555974831457788 -0.18489329081675979 0 0.0083362452288298274 -0.17396118646513589 0 0.0039750345954989988 -0.18651425943902311 0 0.041268264505893618 -0.12924178955595211 0 0.015842377588640461 -0.12995768139491151 0 0.0384702598713796 -0.15064424619063199 0 0.015842377588640461 -0.12995768139491151 0 0.011224689942066299 -0.1440107542725246 0 0.0384702598713796 -0.15064424619063199 0 0.011249806657544249 -0.1591522713839319 0 0.011224689942066299 -0.1440107542725246 0 0.0384702598713796 -0.15064424619063199 0 0.011249806657544249 -0.1591522713839319 0 -0.0095835093286126792 -0.13067357323387099 0 0.011224689942066299 -0.1440107542725246 0 0.00014451492137988051 -0.1496259991592768 0 0.011249806657544249 -0.1591522713839319 0 0.00014451492137988051 -0.1496259991592768 0 0.011249806657544249 -0.1591522713839319 0 0.011224689942066299 -0.1440107542725246 0 0.00014451492137988051 -0.1496259991592768 0 -0.0095835093286126792 -0.13067357323387099 0 0.015842377588640461 -0.12995768139491151 0 -0.0095835093286126792 -0.13067357323387099 0 0.015842377588640461 -0.12995768139491151 0 0.011224689942066299 -0.1440107542725246 0 -0.004447001458793981 -0.1103644265276268 0 -0.0095835093286126792 -0.13067357323387099 0 0.015842377588640461 -0.12995768139491151 0 -0.004447001458793981 -0.1103644265276268 0 0.015842377588640461 -0.12995768139491151 0 0.019064047731892519 -0.1027428983621612 0 0.015842377588640461 -0.12995768139491151 0 0.019064047731892519 -0.1027428983621612 0 0.037106240101941267 -0.1127949235512794 0 0.019064047731892519 -0.1027428983621612 0 0.037234516137291472 -0.08975442686183864 0 0.037106240101941267 -0.1127949235512794 0 -0.004447001458793981 -0.1103644265276268 0 0.019064047731892519 -0.1027428983621612 0 -0.0041979068999104599 -0.092692987180200151 0 -0.004447001458793981 -0.1103644265276268 0 0.019064047731892519 -0.1027428983621612 0 -0.0041979068999104599 -0.092692987180200151 0 0.003886405537072308 -0.074985287574065307 0 0.019828086476746741 -0.084468472620665633 0 -0.0041979068999104599 -0.092692987180200151 0 0.019064047731892519 -0.1027428983621612 0 0.019828086476746741 -0.084468472620665633 0 0.003886405537072308 -0.074985287574065307 0 0.028295076817156449 -0.069568801619081161 0 0.019828086476746741 -0.084468472620665633 0 0.003886405537072308 -0.074985287574065307 0 0.028295076817156449 -0.069568801619081161 0 0.01833358543460277 -0.05641701057889667 0 0.019064047731892519 -0.1027428983621612 0 0.019828086476746741 -0.084468472620665633 0 0.037234516137291472 -0.08975442686183864 0 0.028295076817156449 -0.069568801619081161 0 0.019828086476746741 -0.084468472620665633 0 0.037234516137291472 -0.08975442686183864 0 0.028295076817156449 -0.069568801619081161 0 0.037234516137291472 -0.08975442686183864 0 0.056852127489792813 -0.07490730178705754 0 0.028295076817156449 -0.069568801619081161 0 0.056852127489792813 -0.07490730178705754 0 0.043412112850471737 -0.054930671915401803 0 0.056852127489792813 -0.07490730178705754 0 0.043412112850471737 -0.054930671915401803 0 0.062505798999464707 -0.060826586793076412 0 0.056852127489792813 -0.07490730178705754 0 0.055228870314899682 -0.103843804558387 0 0.070281085843191191 -0.093817275438188408 0 0.037234516137291472 -0.08975442686183864 0 0.056852127489792813 -0.07490730178705754 0 0.055228870314899682 -0.103843804558387 0 0.055228870314899682 -0.103843804558387 0 0.05399936433302991 -0.12122894057442581 0 0.037106240101941267 -0.1127949235512794 0 0.055228870314899682 -0.103843804558387 0 0.05399936433302991 -0.12122894057442581 0 0.065906963652981487 -0.1182248878619804 0 0.041268264505893618 -0.12924178955595211 0 0.05399936433302991 -0.12122894057442581 0 0.037106240101941267 -0.1127949235512794 0 0.041268264505893618 -0.12924178955595211 0 0.015842377588640461 -0.12995768139491151 0 0.037106240101941267 -0.1127949235512794 0 0.037234516137291472 -0.08975442686183864 0 0.055228870314899682 -0.103843804558387 0 0.037106240101941267 -0.1127949235512794 0 0.030110906951190688 -0.01173386609504996 0 0.0045774522161646097 -0.0093144947699853528 0 0.019230231732056138 -0.023667566818530359 0 0.018044735406519189 -0.0027914786915071068 0 0.030110906951190688 -0.01173386609504996 0 0.0045774522161646097 -0.0093144947699853528 0 0.035622497167505339 0.0063925700628825917 0 0.018044735406519189 -0.0027914786915071068 0 0.030110906951190688 -0.01173386609504996 0 0.030110906951190688 -0.01173386609504996 0 0.0045774522161646097 -0.0093144947699853528 0 0.018044735406519189 -0.0027914786915071068 0 0.002394805847480138 -0.0071764921779012506 0 0.0045774522161646097 -0.0093144947699853528 0 0.0006213327713558641 -0.0089396406014967747 0 0.0045774522161646097 -0.0093144947699853528 0 0.0014199230119024339 -0.021574900853890581 0 0.002394805847480138 -0.0071764921779012506 0 0.0006213327713558641 -0.0089396406014967747 0 0.0045774522161646097 -0.0093144947699853528 0 0.0006213327713558641 -0.0089396406014967747 0 0.0045774522161646097 -0.0093144947699853528 0 -0.001488115343110989 -0.0087397640735148233 0 0.002394805847480138 -0.0071764921779012506 0 0.0006213327713558641 -0.0089396406014967747 0 0.002394805847480138 -0.0071764921779012506 0 0.0006213327713558641 -0.0089396406014967747 0 0.002394805847480138 -0.0071764921779012506 0 0.0045774522161646097 -0.0093144947699853528 0 0.0045774522161646097 -0.0093144947699853528 0 0.019230231732056138 -0.023667566818530359 0 0.0045774522161646097 -0.0093144947699853528 0 0.0014199230119024339 -0.021574900853890581 0 0.019230231732056138 -0.023667566818530359 0 0.0014199230119024339 -0.021574900853890581 0 0.0083973707027768379 -0.030855929703784798 0 0.019230231732056138 -0.023667566818530359 0 -0.003476286599935095 -0.036271506326322138 0 0.0014199230119024339 -0.021574900853890581 0 0.0083973707027768379 -0.030855929703784798 0 0.030110906951190688 -0.01173386609504996 0 0.019230231732056138 -0.023667566818530359 0 0.031518170358815163 -0.024102367719011381 0 0.019230231732056138 -0.023667566818530359 0 0.033883011247947889 -0.038020638867075192 0 0.031518170358815163 -0.024102367719011381 0 0.019230231732056138 -0.023667566818530359 0 0.033883011247947889 -0.038020638867075192 0 0.01494251690265052 -0.041372340822573933 0 0.01833358543460277 -0.05641701057889667 0 0.033883011247947889 -0.038020638867075192 0 0.019230231732056138 -0.023667566818530359 0 0.01494251690265052 -0.041372340822573933 0 0.033883011247947889 -0.038020638867075192 0 -0.003476286599935095 -0.036271506326322138 0 -0.00022463716734756899 -0.054496453091326037 0 0.01494251690265052 -0.041372340822573933 0 -0.003476286599935095 -0.036271506326322138 0 0.0083973707027768379 -0.030855929703784798 0 0.01494251690265052 -0.041372340822573933 0 0.0083973707027768379 -0.030855929703784798 0 0.019230231732056138 -0.023667566818530359 0 0.01494251690265052 -0.041372340822573933 0 -0.00022463716734756899 -0.054496453091326037 0 0.003886405537072308 -0.074985287574065307 0 0.01833358543460277 -0.05641701057889667 0 -0.00022463716734756899 -0.054496453091326037 0 0.01494251690265052 -0.041372340822573933 0 0.01833358543460277 -0.05641701057889667 0 0.028295076817156449 -0.069568801619081161 0 0.01833358543460277 -0.05641701057889667 0 0.043412112850471737 -0.054930671915401803 0 0.01833358543460277 -0.05641701057889667 0 0.043412112850471737 -0.054930671915401803 0 0.033883011247947889 -0.038020638867075192 0 0.043412112850471737 -0.054930671915401803 0 0.059769218069649313 -0.045902054602901338 0 0.062505798999464707 -0.060826586793076412 0 0.043412112850471737 -0.054930671915401803 0 0.059769218069649313 -0.045902054602901338 0 0.051344651808144813 -0.03456126235542302 0 0.051344651808144813 -0.03456126235542302 0 0.056061594203691133 -0.025076371103657479 0 0.065665228365204262 -0.034364577790676212 0 0.059769218069649313 -0.045902054602901338 0 0.051344651808144813 -0.03456126235542302 0 0.065665228365204262 -0.034364577790676212 0 0.043412112850471737 -0.054930671915401803 0 0.051344651808144813 -0.03456126235542302 0 0.033883011247947889 -0.038020638867075192 0 0.051344651808144813 -0.03456126235542302 0 0.033883011247947889 -0.038020638867075192 0 0.042848531504065902 -0.022987399095390042 0 0.030110906951190688 -0.01173386609504996 0 0.042848531504065902 -0.022987399095390042 0 0.055644361686216767 -0.014153237420114781 0 0.033883011247947889 -0.038020638867075192 0 0.031518170358815163 -0.024102367719011381 0 0.042848531504065902 -0.022987399095390042 0 0.030110906951190688 -0.01173386609504996 0 0.031518170358815163 -0.024102367719011381 0 0.042848531504065902 -0.022987399095390042 0 0.051344651808144813 -0.03456126235542302 0 0.042848531504065902 -0.022987399095390042 0 0.056061594203691133 -0.025076371103657479 0 0.056061594203691133 -0.025076371103657479 0 0.064805197654823885 -0.019315378856683371 0 0.065665228365204262 -0.034364577790676212 0 0.056061594203691133 -0.025076371103657479 0 0.055644361686216767 -0.014153237420114781 0 0.064805197654823885 -0.019315378856683371 0 0.042848531504065902 -0.022987399095390042 0 0.056061594203691133 -0.025076371103657479 0 0.055644361686216767 -0.014153237420114781 0 0.055644361686216767 -0.014153237420114781 0 0.058196269712748661 -0.0010094984802769141 0 0.069352637037845374 -0.0058266927155855106 0 0.055644361686216767 -0.014153237420114781 0 0.058196269712748661 -0.0010094984802769141 0 0.045210290485040869 -0.0034719151203993228 0 0.030110906951190688 -0.01173386609504996 0 0.055644361686216767 -0.014153237420114781 0 0.045210290485040869 -0.0034719151203993228 0 0.035622497167505339 0.0063925700628825917 0 0.030110906951190688 -0.01173386609504996 0 0.045210290485040869 -0.0034719151203993228 0 0.030110906951190688 -0.01173386609504996 0 0.055644361686216767 -0.014153237420114781 0 0.096167504599054904 0.0042442054759202954 0 0.081717153665888317 -0.0025063239881197622 0 0.095472413630543998 -0.0072730453323191883 0 0.081717153665888317 -0.0025063239881197622 0 0.081177816421242804 -0.016572608745179591 0 0.095472413630543998 -0.0072730453323191883 0 0.055644361686216767 -0.014153237420114781 0 0.081177816421242804 -0.016572608745179591 0 0.055644361686216767 -0.014153237420114781 0 0.069352637037845374 -0.0058266927155855106 0 0.081177816421242804 -0.016572608745179591 0 0.070381517258247442 0.0054324954822656396 0 0.081717153665888317 -0.0025063239881197622 0 0.069352637037845374 -0.0058266927155855106 0 0.070381517258247442 0.0054324954822656396 0 0.058196269712748661 -0.0010094984802769141 0 0.069352637037845374 -0.0058266927155855106 0 0.081717153665888317 -0.0025063239881197622 0 0.069352637037845374 -0.0058266927155855106 0 0.081177816421242804 -0.016572608745179591 0 0.064805197654823885 -0.019315378856683371 0 0.085712771491518958 -0.038211511484016539 0 0.065665228365204262 -0.034364577790676212 0 0.064805197654823885 -0.019315378856683371 0 0.076287907678157074 -0.023986159701047009 0 0.081177816421242804 -0.016572608745179591 0 0.055644361686216767 -0.014153237420114781 0 0.064805197654823885 -0.019315378856683371 0 0.081177816421242804 -0.016572608745179591 0 0.064805197654823885 -0.019315378856683371 0 0.076287907678157074 -0.023986159701047009 0 0.085712771491518958 -0.038211511484016539 0 0.064805197654823885 -0.019315378856683371 0 0.085712771491518958 -0.038211511484016539 0 0.076287907678157074 -0.023986159701047009 0 0.090532384742726735 -0.027505059676875141 0 0.085712771491518958 -0.038211511484016539 0 0.076287907678157074 -0.023986159701047009 0 0.085712771491518958 -0.038211511484016539 0 0.081177816421242804 -0.016572608745179591 0 0.090532384742726735 -0.027505059676875141 0 0.1067112711562688 -0.01899198007024441 0 0.076287907678157074 -0.023986159701047009 0 0.081177816421242804 -0.016572608745179591 0 0.090532384742726735 -0.027505059676875141 0 0.090532384742726735 -0.027505059676875141 0 0.085712771491518958 -0.038211511484016539 0 0.102772156966446 -0.039763038383888151 0 0.085712771491518958 -0.038211511484016539 0 0.07267749436203183 -0.048188407729665747 0 0.085132366133298415 -0.052458296335176707 0 0.085712771491518958 -0.038211511484016539 0 0.065665228365204262 -0.034364577790676212 0 0.07267749436203183 -0.048188407729665747 0 0.059769218069649313 -0.045902054602901338 0 0.065665228365204262 -0.034364577790676212 0 0.07267749436203183 -0.048188407729665747 0 0.059769218069649313 -0.045902054602901338 0 0.07267749436203183 -0.048188407729665747 0 0.062505798999464707 -0.060826586793076412 0 0.07267749436203183 -0.048188407729665747 0 0.062505798999464707 -0.060826586793076412 0 0.07727958311305537 -0.057367419372147309 0 0.085712771491518958 -0.038211511484016539 0 0.098207536939253007 -0.057070397666300149 0 0.07727958311305537 -0.057367419372147309 0 0.085132366133298415 -0.052458296335176707 0 0.088807886296056321 -0.06442462200908719 0 0.085712771491518958 -0.038211511484016539 0 0.085132366133298415 -0.052458296335176707 0 0.098207536939253007 -0.057070397666300149 0 0.07267749436203183 -0.048188407729665747 0 0.07727958311305537 -0.057367419372147309 0 0.085132366133298415 -0.052458296335176707 0 0.085132366133298415 -0.052458296335176707 0 0.098207536939253007 -0.057070397666300149 0 0.088807886296056321 -0.06442462200908719 0 0.085712771491518958 -0.038211511484016539 0 0.1060355466537841 -0.056579106778484822 0 0.085712771491518958 -0.038211511484016539 0 0.098207536939253007 -0.057070397666300149 0 0.1060355466537841 -0.056579106778484822 0 0.098207536939253007 -0.057070397666300149 0 0.1060355466537841 -0.056579106778484822 0 0.1035330678577871 -0.060408744014543561 0 0.1060355466537841 -0.056579106778484822 0 0.1035330678577871 -0.060408744014543561 0 0.1060355466537841 -0.056579106778484822 0 0.12407046944405239 -0.056682210957894767 0 0.1194833752947594 -0.035999389823432593 0 0.1060355466537841 -0.056579106778484822 0 0.1194833752947594 -0.035999389823432593 0 0.102772156966446 -0.039763038383888151 0 0.1060355466537841 -0.056579106778484822 0 0.1194833752947594 -0.035999389823432593 0 0.1194833752947594 -0.035999389823432593 0 0.102772156966446 -0.039763038383888151 0 0.1067112711562688 -0.01899198007024441 0 0.085712771491518958 -0.038211511484016539 0 0.1060355466537841 -0.056579106778484822 0 0.102772156966446 -0.039763038383888151 0 0.090532384742726735 -0.027505059676875141 0 0.102772156966446 -0.039763038383888151 0 0.1067112711562688 -0.01899198007024441 0 0.081177816421242804 -0.016572608745179591 0 0.1067112711562688 -0.01899198007024441 0 0.1194833752947594 -0.035999389823432593 0 0.119688443476294 -0.020419382492060888 0 0.13293120393573529 -0.01541967286838083 0 0.1194833752947594 -0.035999389823432593 0 0.1067112711562688 -0.01899198007024441 0 0.119688443476294 -0.020419382492060888 0 0.119688443476294 -0.020419382492060888 0 0.1196279235184127 -0.011266487206185741 0 0.13293120393573529 -0.01541967286838083 0 0.1067112711562688 -0.01899198007024441 0 0.119688443476294 -0.020419382492060888 0 0.1196279235184127 -0.011266487206185741 0 0.1067112711562688 -0.01899198007024441 0 0.1196279235184127 -0.011266487206185741 0 0.11158832231026521 -0.002538519333972472 0 0.12681727907172599 0.0028609529651058472 0 0.1196279235184127 -0.011266487206185741 0 0.11158832231026521 -0.002538519333972472 0 0.081177816421242804 -0.016572608745179591 0 0.1067112711562688 -0.01899198007024441 0 0.095472413630543998 -0.0072730453323191883 0 0.1067112711562688 -0.01899198007024441 0 0.11158832231026521 -0.002538519333972472 0 0.095472413630543998 -0.0072730453323191883 0 0.096167504599054904 0.0042442054759202954 0 0.11158832231026521 -0.002538519333972472 0 0.095472413630543998 -0.0072730453323191883 0 0.088205186756687592 -0.098499163401079406 0 0.088306584707542421 -0.11364295246223539 0 0.1041297467101449 -0.10443009357677931 0 0.088205186756687592 -0.098499163401079406 0 0.088306584707542421 -0.11364295246223539 0 0.074368452797441906 -0.1081427041937684 0 0.086025777066828416 -0.13071312073542821 0 0.088306584707542421 -0.11364295246223539 0 0.1003755091591467 -0.120365047089626 0 0.086025777066828416 -0.13071312073542821 0 0.088306584707542421 -0.11364295246223539 0 0.076734835755005087 -0.11970758577673089 0 0.088306584707542421 -0.11364295246223539 0 0.076734835755005087 -0.11970758577673089 0 0.074368452797441906 -0.1081427041937684 0 0.076734835755005087 -0.11970758577673089 0 0.065906963652981487 -0.1182248878619804 0 0.074368452797441906 -0.1081427041937684 0 0.055228870314899682 -0.103843804558387 0 0.065906963652981487 -0.1182248878619804 0 0.074368452797441906 -0.1081427041937684 0 0.067777920578933518 -0.1299680747675574 0 0.076734835755005087 -0.11970758577673089 0 0.065906963652981487 -0.1182248878619804 0 0.067777920578933518 -0.1299680747675574 0 0.05399936433302991 -0.12122894057442581 0 0.065906963652981487 -0.1182248878619804 0 0.088205186756687592 -0.098499163401079406 0 0.070281085843191191 -0.093817275438188408 0 0.074368452797441906 -0.1081427041937684 0 0.055228870314899682 -0.103843804558387 0 0.070281085843191191 -0.093817275438188408 0 0.074368452797441906 -0.1081427041937684 0 0.056852127489792813 -0.07490730178705754 0 0.078967107604769243 -0.081534257868326937 0 0.056852127489792813 -0.07490730178705754 0 0.070281085843191191 -0.093817275438188408 0 0.078967107604769243 -0.081534257868326937 0 0.062505798999464707 -0.060826586793076412 0 0.07727958311305537 -0.057367419372147309 0 0.078967107604769243 -0.081534257868326937 0 0.056852127489792813 -0.07490730178705754 0 0.062505798999464707 -0.060826586793076412 0 0.078967107604769243 -0.081534257868326937 0 0.07727958311305537 -0.057367419372147309 0 0.088807886296056321 -0.06442462200908719 0 0.078967107604769243 -0.081534257868326937 0 0.088807886296056321 -0.06442462200908719 0 0.078967107604769243 -0.081534257868326937 0 0.094886380824945021 -0.074739832907536372 0 0.088205186756687592 -0.098499163401079406 0 0.078967107604769243 -0.081534257868326937 0 0.10108208771974569 -0.088161213949596334 0 0.078967107604769243 -0.081534257868326937 0 0.10108208771974569 -0.088161213949596334 0 0.088205186756687592 -0.098499163401079406 0 0.070281085843191191 -0.093817275438188408 0 0.078967107604769243 -0.081534257868326937 0 0.078967107604769243 -0.081534257868326937 0 0.10108208771974569 -0.088161213949596334 0 0.094886380824945021 -0.074739832907536372 0 0.10108208771974569 -0.088161213949596334 0 0.094886380824945021 -0.074739832907536372 0 0.1107023023869871 -0.07592928384858362 0 0.1060355466537841 -0.056579106778484822 0 0.1035330678577871 -0.060408744014543561 0 0.1107023023869871 -0.07592928384858362 0 0.098151026611810355 -0.068041034107876819 0 0.094886380824945021 -0.074739832907536372 0 0.1107023023869871 -0.07592928384858362 0 0.098207536939253007 -0.057070397666300149 0 0.1107023023869871 -0.07592928384858362 0 0.098207536939253007 -0.057070397666300149 0 0.098151026611810355 -0.068041034107876819 0 0.1107023023869871 -0.07592928384858362 0 0.098207536939253007 -0.057070397666300149 0 0.1035330678577871 -0.060408744014543561 0 0.1107023023869871 -0.07592928384858362 0 0.088807886296056321 -0.06442462200908719 0 0.098151026611810355 -0.068041034107876819 0 0.094886380824945021 -0.074739832907536372 0 0.098207536939253007 -0.057070397666300149 0 0.088807886296056321 -0.06442462200908719 0 0.098151026611810355 -0.068041034107876819 0 0.1060355466537841 -0.056579106778484822 0 0.1107023023869871 -0.07592928384858362 0 0.12599115970317629 -0.074614863284063901 0 0.1060355466537841 -0.056579106778484822 0 0.12599115970317629 -0.074614863284063901 0 0.1060355466537841 -0.056579106778484822 0 0.12407046944405239 -0.056682210957894767 0 0.12599115970317629 -0.074614863284063901 0 0.1107023023869871 -0.07592928384858362 0 0.1231970678347219 -0.094788170030866675 0 0.10108208771974569 -0.088161213949596334 0 0.1231970678347219 -0.094788170030866675 0 0.10108208771974569 -0.088161213949596334 0 0.1107023023869871 -0.07592928384858362 0 0.1231970678347219 -0.094788170030866675 0 0.1107023023869871 -0.07592928384858362 0 0.1231970678347219 -0.094788170030866675 0 0.12599115970317629 -0.074614863284063901 0 0.1231970678347219 -0.094788170030866675 0 0.1041297467101449 -0.10443009357677931 0 0.1165495357793246 -0.11537146045311671 0 0.10108208771974569 -0.088161213949596334 0 0.1231970678347219 -0.094788170030866675 0 0.1041297467101449 -0.10443009357677931 0 0.088205186756687592 -0.098499163401079406 0 0.10108208771974569 -0.088161213949596334 0 0.1041297467101449 -0.10443009357677931 0 0.1110772144577262 -0.12607447494648069 0 0.1003755091591467 -0.120365047089626 0 0.1165495357793246 -0.11537146045311671 0 0.088306584707542421 -0.11364295246223539 0 0.1041297467101449 -0.10443009357677931 0 0.1003755091591467 -0.120365047089626 0 0.1041297467101449 -0.10443009357677931 0 0.1003755091591467 -0.120365047089626 0 0.1165495357793246 -0.11537146045311671 0 0.1110772144577262 -0.12607447494648069 0 0.1165495357793246 -0.11537146045311671 0 0.125059882544757 -0.1243050716586782 0 0.1165495357793246 -0.11537146045311671 0 0.125059882544757 -0.1243050716586782 0 0.13570225296767791 -0.1136627830916173 0 0.125059882544757 -0.1243050716586782 0 0.13570225296767791 -0.1136627830916173 0 0.13351042007077771 -0.13535464583232679 0 0.13570225296767791 -0.1136627830916173 0 0.14916210969568239 -0.1144869233999513 0 0.14820743810063461 -0.13253739615236759 0 0.13570225296767791 -0.1136627830916173 0 0.14820743810063461 -0.13253739615236759 0 0.14916210969568239 -0.1144869233999513 0 0.1659023858019596 -0.11068637629522381 0 0.14820743810063461 -0.13253739615236759 0 0.13570225296767791 -0.1136627830916173 0 0.14916210969568239 -0.1144869233999513 0 0.1438387705826743 -0.1009736450727655 0 0.14916210969568239 -0.1144869233999513 0 0.1438387705826743 -0.1009736450727655 0 0.1659023858019596 -0.11068637629522381 0 0.1438387705826743 -0.1009736450727655 0 0.14594677275256851 -0.092650619789643215 0 0.1659023858019596 -0.11068637629522381 0 0.14594677275256851 -0.092650619789643215 0 0.1659023858019596 -0.11068637629522381 0 0.1231970678347219 -0.094788170030866675 0 0.1438387705826743 -0.1009736450727655 0 0.14594677275256851 -0.092650619789643215 0 0.1231970678347219 -0.094788170030866675 0 0.1438387705826743 -0.1009736450727655 0 0.1231970678347219 -0.094788170030866675 0 0.13570225296767791 -0.1136627830916173 0 0.1231970678347219 -0.094788170030866675 0 0.13570225296767791 -0.1136627830916173 0 0.1438387705826743 -0.1009736450727655 0 0.1231970678347219 -0.094788170030866675 0 0.1165495357793246 -0.11537146045311671 0 0.13570225296767791 -0.1136627830916173 0 0.12599115970317629 -0.074614863284063901 0 0.14324551520284479 -0.074303388514748908 0 0.14594677275256851 -0.092650619789643215 0 0.12599115970317629 -0.074614863284063901 0 0.14594677275256851 -0.092650619789643215 0 0.1231970678347219 -0.094788170030866675 0 0.12599115970317629 -0.074614863284063901 0 0.14594677275256851 -0.092650619789643215 0 0.13274812921261911 -0.06482196831319062 0 0.14324551520284479 -0.074303388514748908 0 0.14208920836164879 -0.057453001683217583 0 0.12407046944405239 -0.056682210957894767 0 0.13274812921261911 -0.06482196831319062 0 0.12599115970317629 -0.074614863284063901 0 0.13274812921261911 -0.06482196831319062 0 0.12599115970317629 -0.074614863284063901 0 0.14324551520284479 -0.074303388514748908 0 0.14324551520284479 -0.074303388514748908 0 0.1577676676713505 -0.070958881179004327 0 0.14208920836164879 -0.057453001683217583 0 0.14324551520284479 -0.074303388514748908 0 0.15552700132703259 -0.084480842179265062 0 0.1577676676713505 -0.070958881179004327 0 0.14594677275256851 -0.092650619789643215 0 0.15552700132703259 -0.084480842179265062 0 0.16270751108717671 -0.093919671838121624 0 0.14324551520284479 -0.074303388514748908 0 0.14594677275256851 -0.092650619789643215 0 0.15552700132703259 -0.084480842179265062 0 0.15552700132703259 -0.084480842179265062 0 0.1577676676713505 -0.070958881179004327 0 0.17317205283599571 -0.083245500938658068 0 0.15552700132703259 -0.084480842179265062 0 0.17317205283599571 -0.083245500938658068 0 0.16270751108717671 -0.093919671838121624 0 0.17317205283599571 -0.083245500938658068 0 0.1732436498299591 -0.098484742462365965 0 0.16270751108717671 -0.093919671838121624 0 0.1577676676713505 -0.070958881179004327 0 0.17329006297225849 -0.067144545014819187 0 0.17317205283599571 -0.083245500938658068 0 0.1577676676713505 -0.070958881179004327 0 0.17329006297225849 -0.067144545014819187 0 0.16114266970546481 -0.055348584155622209 0 0.17329006297225849 -0.067144545014819187 0 0.18660459660722059 -0.07121356670435669 0 0.17317205283599571 -0.083245500938658068 0 0.17329006297225849 -0.067144545014819187 0 0.18660459660722059 -0.07121356670435669 0 0.18383722960737159 -0.053734604093409272 0 0.18660459660722059 -0.07121356670435669 0 0.17317205283599571 -0.083245500938658068 0 0.19163234817905089 -0.084272585639399919 0 0.17317205283599571 -0.083245500938658068 0 0.18448732685510821 -0.096160788283265797 0 0.19163234817905089 -0.084272585639399919 0 0.17317205283599571 -0.083245500938658068 0 0.18448732685510821 -0.096160788283265797 0 0.1732436498299591 -0.098484742462365965 0 0.18448732685510821 -0.096160788283265797 0 0.1732436498299591 -0.098484742462365965 0 0.1799489725695555 -0.1084113749565605 0 0.1732436498299591 -0.098484742462365965 0 0.1799489725695555 -0.1084113749565605 0 0.1659023858019596 -0.11068637629522381 0 0.18448732685510821 -0.096160788283265797 0 0.1799489725695555 -0.1084113749565605 0 0.19189947738255089 -0.11079770296415201 0 0.1799489725695555 -0.1084113749565605 0 0.1659023858019596 -0.11068637629522381 0 0.18392927920566929 -0.12697896821793581 0 0.1659023858019596 -0.11068637629522381 0 0.18392927920566929 -0.12697896821793581 0 0.1799489725695555 -0.1084113749565605 0 0.19189947738255089 -0.11079770296415201 0 0.18392927920566929 -0.12697896821793581 0 0.1659023858019596 -0.11068637629522381 0 0.17135699408012309 -0.1393121638749876 0 0.1732436498299591 -0.098484742462365965 0 0.1659023858019596 -0.11068637629522381 0 0.16270751108717671 -0.093919671838121624 0 0.14594677275256851 -0.092650619789643215 0 0.1659023858019596 -0.11068637629522381 0 0.16270751108717671 -0.093919671838121624 0 0.1659023858019596 -0.11068637629522381 0 0.16270751108717671 -0.093919671838121624 0 0.1463790325767105 0.0051600440866713393 0 0.13293120393573529 -0.01541967286838083 0 0.14494909117168939 -0.01571097116995826 0 0.1463790325767105 0.0051600440866713393 0 0.15462421245165581 -0.0058893527151400796 0 0.14494909117168939 -0.01571097116995826 0 0.1463790325767105 0.0051600440866713393 0 0.14494909117168939 -0.01571097116995826 0 0.15462421245165581 -0.0058893527151400796 0 0.14494909117168939 -0.01571097116995826 0 0.1598580582920249 -0.020425916519869049 0 0.1463790325767105 0.0051600440866713393 0 0.12681727907172599 0.0028609529651058472 0 0.13293120393573529 -0.01541967286838083 0 0.1463790325767105 0.0051600440866713393 0 0.13293120393573529 -0.01541967286838083 0 0.12681727907172599 0.0028609529651058472 0 0.1196279235184127 -0.011266487206185741 0 0.13293120393573529 -0.01541967286838083 0 0.13293120393573529 -0.01541967286838083 0 0.14494909117168939 -0.01571097116995826 0 0.1435191497666691 -0.036581986426587887 0 0.1194833752947594 -0.035999389823432593 0 0.13293120393573529 -0.01541967286838083 0 0.1435191497666691 -0.036581986426587887 0 0.1194833752947594 -0.035999389823432593 0 0.13293120393573529 -0.01541967286838083 0 0.14494909117168939 -0.01571097116995826 0 0.1435191497666691 -0.036581986426587887 0 0.14494909117168939 -0.01571097116995826 0 0.1435191497666691 -0.036581986426587887 0 0.1598580582920249 -0.020425916519869049 0 0.1194833752947594 -0.035999389823432593 0 0.1435191497666691 -0.036581986426587887 0 0.13229055071678239 -0.046679147222783213 0 0.12407046944405239 -0.056682210957894767 0 0.1194833752947594 -0.035999389823432593 0 0.13229055071678239 -0.046679147222783213 0 0.1435191497666691 -0.036581986426587887 0 0.13229055071678239 -0.046679147222783213 0 0.14208920836164879 -0.057453001683217583 0 0.12407046944405239 -0.056682210957894767 0 0.13229055071678239 -0.046679147222783213 0 0.14208920836164879 -0.057453001683217583 0 0.12407046944405239 -0.056682210957894767 0 0.13274812921261911 -0.06482196831319062 0 0.14208920836164879 -0.057453001683217583 0 0.1577676676713505 -0.070958881179004327 0 0.14208920836164879 -0.057453001683217583 0 0.16114266970546481 -0.055348584155622209 0 0.1435191497666691 -0.036581986426587887 0 0.14208920836164879 -0.057453001683217583 0 0.1435191497666691 -0.036581986426587887 0 0.14208920836164879 -0.057453001683217583 0 0.16114266970546481 -0.055348584155622209 0 0.16114266970546481 -0.055348584155622209 0 0.18383722960737159 -0.053734604093409272 0 0.16867226584066319 -0.036111154955617203 0 0.17329006297225849 -0.067144545014819187 0 0.16114266970546481 -0.055348584155622209 0 0.18383722960737159 -0.053734604093409272 0 0.18383722960737159 -0.053734604093409272 0 0.16867226584066319 -0.036111154955617203 0 0.1895671539671433 -0.037285104408639982 0 0.1435191497666691 -0.036581986426587887 0 0.16114266970546481 -0.055348584155622209 0 0.16867226584066319 -0.036111154955617203 0 0.1435191497666691 -0.036581986426587887 0 0.16867226584066319 -0.036111154955617203 0 0.1598580582920249 -0.020425916519869049 0 0.16867226584066319 -0.036111154955617203 0 0.1598580582920249 -0.020425916519869049 0 0.17626464034529979 -0.01218273843611789 0 0.16867226584066319 -0.036111154955617203 0 0.17626464034529979 -0.01218273843611789 0 0.19288185645158881 -0.018686415508600542 0 0.16867226584066319 -0.036111154955617203 0 0.19288185645158881 -0.018686415508600542 0 0.16867226584066319 -0.036111154955617203 0 0.19288185645158881 -0.018686415508600542 0 0.1895671539671433 -0.037285104408639982 0 0.1913914811785945 0.0015479160267864781 0 0.177795833794237 0.0058736288592868176 0 0.17626464034529979 -0.01218273843611789 0 0.177795833794237 0.0058736288592868176 0 0.17626464034529979 -0.01218273843611789 0 0.16638725000284621 -0.0041024332455818144 0 0.1913914811785945 0.0015479160267864781 0 0.17626464034529979 -0.01218273843611789 0 0.19288185645158881 -0.018686415508600542 0 0.15462421245165581 -0.0058893527151400796 0 0.1598580582920249 -0.020425916519869049 0 0.16638725000284621 -0.0041024332455818144 0 0.1598580582920249 -0.020425916519869049 0 0.17626464034529979 -0.01218273843611789 0 0.16638725000284621 -0.0041024332455818144 0 0.15628357420278671 0.003810722324721363 0 0.15462421245165581 -0.0058893527151400796 0 0.16638725000284621 -0.0041024332455818144 0 0.21709144706251299 -0.0012616760615819459 0 0.19288185645158881 -0.018686415508600542 0 0.21709144706251299 -0.0012616760615819459 0 0.19288185645158881 -0.018686415508600542 0 0.21106230177929311 -0.016930390785221641 0 0.21709144706251299 -0.0012616760615819459 0 0.21106230177929311 -0.016930390785221641 0 0.21880732635032871 -0.001449260780306197 0 0.21106230177929311 -0.016930390785221641 0 0.22385231661827831 -0.017244899007901549 0 0.21880732635032871 -0.001449260780306197 0 0.21991949691130641 0.00077379957079282309 0 0.21709144706251299 -0.0012616760615819459 0 0.21991949691130641 0.00077379957079282309 0 0.21709144706251299 -0.0012616760615819459 0 0.21880732635032871 -0.001449260780306197 0 0.21709144706251299 -0.0012616760615819459 0 0.21880732635032871 -0.001449260780306197 0 0.21106230177929311 -0.016930390785221641 0 0.21880732635032871 -0.001449260780306197 0 0.1913914811785945 0.0015479160267864781 0 0.21709144706251299 -0.0012616760615819459 0 0.19288185645158881 -0.018686415508600542 0 0.19288185645158881 -0.018686415508600542 0 0.21106230177929311 -0.016930390785221641 0 0.2033172772082579 -0.032411520790137288 0 0.19288185645158881 -0.018686415508600542 0 0.2033172772082579 -0.032411520790137288 0 0.1895671539671433 -0.037285104408639982 0 0.21106230177929311 -0.016930390785221641 0 0.2033172772082579 -0.032411520790137288 0 0.21106230177929311 -0.016930390785221641 0 0.21701755041282189 -0.032304719396535099 0 0.2033172772082579 -0.032411520790137288 0 0.21106230177929311 -0.016930390785221641 0 0.21701755041282189 -0.032304719396535099 0 0.22385231661827831 -0.017244899007901549 0 0.21701755041282189 -0.032304719396535099 0 0.21047104707744299 -0.044055030933792823 0 0.21970932447173591 -0.041885045690610363 0 0.21047104707744299 -0.044055030933792823 0 0.2163169812201669 -0.048151654183774213 0 0.21970932447173591 -0.041885045690610363 0 0.21047104707744299 -0.044055030933792823 0 0.2033172772082579 -0.032411520790137288 0 0.19912714072783499 -0.045481826695435601 0 0.21701755041282189 -0.032304719396535099 0 0.21047104707744299 -0.044055030933792823 0 0.2033172772082579 -0.032411520790137288 0 0.2033172772082579 -0.032411520790137288 0 0.1895671539671433 -0.037285104408639982 0 0.19912714072783499 -0.045481826695435601 0 0.18383722960737159 -0.053734604093409272 0 0.1895671539671433 -0.037285104408639982 0 0.19912714072783499 -0.045481826695435601 0 0.18383722960737159 -0.053734604093409272 0 0.19912714072783499 -0.045481826695435601 0 0.20031667673944939 -0.057421141152823332 0 0.18383722960737159 -0.053734604093409272 0 0.20031667673944939 -0.057421141152823332 0 0.19584992287481651 -0.066326971565447423 0 0.19912714072783499 -0.045481826695435601 0 0.20031667673944939 -0.057421141152823332 0 0.20701231567461709 -0.051722697756719387 0 0.20031667673944939 -0.057421141152823332 0 0.21110366793748389 -0.058962871247726333 0 0.20754781500579161 -0.067167929918243774 0 0.20031667673944939 -0.057421141152823332 0 0.20701231567461709 -0.051722697756719387 0 0.21110366793748389 -0.058962871247726333 0 0.21047104707744299 -0.044055030933792823 0 0.19912714072783499 -0.045481826695435601 0 0.20701231567461709 -0.051722697756719387 0 0.21047104707744299 -0.044055030933792823 0 0.20701231567461709 -0.051722697756719387 0 0.21404304589087411 -0.052692618753818851 0 0.20701231567461709 -0.051722697756719387 0 0.21404304589087411 -0.052692618753818851 0 0.21110366793748389 -0.058962871247726333 0 0.21047104707744299 -0.044055030933792823 0 0.21404304589087411 -0.052692618753818851 0 0.2163169812201669 -0.048151654183774213 0 0.21404304589087411 -0.052692618753818851 0 0.2163169812201669 -0.048151654183774213 0 0.22104450744061471 -0.053973921356874788 0 0.21404304589087411 -0.052692618753818851 0 0.21720125996139161 -0.057407354338342383 0 0.22104450744061471 -0.053973921356874788 0 0.21720125996139161 -0.057407354338342383 0 0.21110366793748389 -0.058962871247726333 0 0.2190710203991128 -0.066761103999133015 0 0.21404304589087411 -0.052692618753818851 0 0.21720125996139161 -0.057407354338342383 0 0.21110366793748389 -0.058962871247726333 0 0.22259109842381891 -0.056331752972584533 0 0.24466000719816181 -0.052572806154117767 0 0.23359814963938669 -0.073112384460560717 0 0.22259109842381891 -0.056331752972584533 0 0.2190710203991128 -0.066761103999133015 0 0.21720125996139161 -0.057407354338342383 0 0.22259109842381891 -0.056331752972584533 0 0.2190710203991128 -0.066761103999133015 0 0.21720125996139161 -0.057407354338342383 0 0.22259109842381891 -0.056331752972584533 0 0.22104450744061471 -0.053973921356874788 0 0.22259109842381891 -0.056331752972584533 0 0.22104450744061471 -0.053973921356874788 0 0.2163169812201669 -0.048151654183774213 0 0.22104450744061471 -0.053973921356874788 0 0.21970932447173591 -0.041885045690610363 0 0.25572186475693609 -0.032033227847674262 0 0.24466000719816181 -0.052572806154117767 0 0.2314560627619717 -0.030066475819188941 0 0.22259109842381891 -0.056331752972584533 0 0.24466000719816181 -0.052572806154117767 0 0.2314560627619717 -0.030066475819188941 0 0.22259109842381891 -0.056331752972584533 0 0.2314560627619717 -0.030066475819188941 0 0.22259109842381891 -0.056331752972584533 0 0.22104450744061471 -0.053973921356874788 0 0.2314560627619717 -0.030066475819188941 0 0.22104450744061471 -0.053973921356874788 0 0.21970932447173591 -0.041885045690610363 0 0.2314560627619717 -0.030066475819188941 0 0.21701755041282189 -0.032304719396535099 0 0.21970932447173591 -0.041885045690610363 0 0.2314560627619717 -0.030066475819188941 0 0.22385231661827831 -0.017244899007901549 0 0.2314560627619717 -0.030066475819188941 0 0.2403210271001277 -0.0038011986657945939 0 0.21701755041282189 -0.032304719396535099 0 0.22385231661827831 -0.017244899007901549 0 0.2314560627619717 -0.030066475819188941 0 0.25159771702699008 -0.014371615300676641 0 0.2314560627619717 -0.030066475819188941 0 0.2403210271001277 -0.0038011986657945939 0 0.25572186475693609 -0.032033227847674262 0 0.25159771702699008 -0.014371615300676641 0 0.2314560627619717 -0.030066475819188941 0 0.2314560627619717 -0.030066475819188941 0 0.2403210271001277 -0.0038011986657945939 0 0.2403210271001277 -0.0038011986657945939 0 0.21880732635032871 -0.001449260780306197 0 0.21991949691130641 0.00077379957079282309 0 0.2403210271001277 -0.0038011986657945939 0 0.21880732635032871 -0.001449260780306197 0 0.22385231661827831 -0.017244899007901549 0 0.2403210271001277 -0.0038011986657945939 0 0.21880732635032871 -0.001449260780306197 0 0.21991949691130641 0.00077379957079282309 0 0.21880732635032871 -0.001449260780306197 0 0.20659325823048899 -0.099029874252906047 0 0.21655448612892231 -0.108466948295262 0 0.2034485844213379 -0.1104083252764293 0 0.20659325823048899 -0.099029874252906047 0 0.21858698215692479 -0.095058636804357027 0 0.21655448612892231 -0.108466948295262 0 0.20659325823048899 -0.099029874252906047 0 0.21858698215692479 -0.095058636804357027 0 0.21076223576946701 -0.091385441013354662 0 0.21237619803781799 -0.123978557377612 0 0.2034485844213379 -0.1104083252764293 0 0.19857579603009881 -0.123745354966356 0 0.21655448612892231 -0.108466948295262 0 0.21237619803781799 -0.123978557377612 0 0.2034485844213379 -0.1104083252764293 0 0.19857579603009881 -0.123745354966356 0 0.19189947738255089 -0.11079770296415201 0 0.18392927920566929 -0.12697896821793581 0 0.2034485844213379 -0.1104083252764293 0 0.19857579603009881 -0.123745354966356 0 0.19189947738255089 -0.11079770296415201 0 0.18448732685510821 -0.096160788283265797 0 0.19189947738255089 -0.11079770296415201 0 0.19704440529688971 -0.097808096169463843 0 0.2034485844213379 -0.1104083252764293 0 0.19189947738255089 -0.11079770296415201 0 0.19704440529688971 -0.097808096169463843 0 0.20659325823048899 -0.099029874252906047 0 0.2034485844213379 -0.1104083252764293 0 0.19704440529688971 -0.097808096169463843 0 0.20659325823048899 -0.099029874252906047 0 0.19704440529688971 -0.097808096169463843 0 0.20377507451519661 -0.086639367611932153 0 0.18448732685510821 -0.096160788283265797 0 0.19704440529688971 -0.097808096169463843 0 0.19163234817905089 -0.084272585639399919 0 0.19163234817905089 -0.084272585639399919 0 0.20020732292815921 -0.075382335334988601 0 0.20377507451519661 -0.086639367611932153 0 0.19704440529688971 -0.097808096169463843 0 0.19163234817905089 -0.084272585639399919 0 0.20377507451519661 -0.086639367611932153 0 0.18660459660722059 -0.07121356670435669 0 0.18383722960737159 -0.053734604093409272 0 0.19584992287481651 -0.066326971565447423 0 0.18660459660722059 -0.07121356670435669 0 0.20020732292815921 -0.075382335334988601 0 0.19584992287481651 -0.066326971565447423 0 0.18660459660722059 -0.07121356670435669 0 0.19163234817905089 -0.084272585639399919 0 0.20020732292815921 -0.075382335334988601 0 0.20031667673944939 -0.057421141152823332 0 0.19584992287481651 -0.066326971565447423 0 0.20754781500579161 -0.067167929918243774 0 0.20020732292815921 -0.075382335334988601 0 0.19584992287481651 -0.066326971565447423 0 0.20754781500579161 -0.067167929918243774 0 0.20020732292815921 -0.075382335334988601 0 0.20754781500579161 -0.067167929918243774 0 0.21182278070176411 -0.07642901816315241 0 0.21182278070176411 -0.07642901816315241 0 0.2190710203991128 -0.066761103999133015 0 0.22185546860341471 -0.076890537193463129 0 0.21110366793748389 -0.058962871247726333 0 0.20754781500579161 -0.067167929918243774 0 0.2190710203991128 -0.066761103999133015 0 0.20754781500579161 -0.067167929918243774 0 0.21182278070176411 -0.07642901816315241 0 0.2190710203991128 -0.066761103999133015 0 0.20377507451519661 -0.086639367611932153 0 0.21076223576946701 -0.091385441013354662 0 0.2156201083762905 -0.085211377739258853 0 0.20659325823048899 -0.099029874252906047 0 0.20377507451519661 -0.086639367611932153 0 0.21076223576946701 -0.091385441013354662 0 0.21182278070176411 -0.07642901816315241 0 0.20377507451519661 -0.086639367611932153 0 0.2156201083762905 -0.085211377739258853 0 0.20020732292815921 -0.075382335334988601 0 0.21182278070176411 -0.07642901816315241 0 0.20377507451519661 -0.086639367611932153 0 0.21182278070176411 -0.07642901816315241 0 0.2156201083762905 -0.085211377739258853 0 0.22185546860341471 -0.076890537193463129 0 0.21858698215692479 -0.095058636804357027 0 0.21076223576946701 -0.091385441013354662 0 0.2156201083762905 -0.085211377739258853 0 0.21858698215692479 -0.095058636804357027 0 0.22254221780738029 -0.08612048538839856 0 0.22945301150852729 -0.089618177888440453 0 0.21858698215692479 -0.095058636804357027 0 0.2156201083762905 -0.085211377739258853 0 0.22254221780738029 -0.08612048538839856 0 0.22254221780738029 -0.08612048538839856 0 0.22667762447946821 -0.081336379644961862 0 0.22945301150852729 -0.089618177888440453 0 0.2156201083762905 -0.085211377739258853 0 0.22254221780738029 -0.08612048538839856 0 0.22185546860341471 -0.076890537193463129 0 0.22254221780738029 -0.08612048538839856 0 0.22667762447946821 -0.081336379644961862 0 0.22185546860341471 -0.076890537193463129 0 0.22667762447946821 -0.081336379644961862 0 0.22945301150852729 -0.089618177888440453 0 0.232130230341555 -0.075838006554786702 0 0.22259109842381891 -0.056331752972584533 0 0.23359814963938669 -0.073112384460560717 0 0.22259109842381891 -0.056331752972584533 0 0.22559767577824291 -0.070341033318702742 0 0.23359814963938669 -0.073112384460560717 0 0.22259109842381891 -0.056331752972584533 0 0.2190710203991128 -0.066761103999133015 0 0.22559767577824291 -0.070341033318702742 0 0.2190710203991128 -0.066761103999133015 0 0.22559767577824291 -0.070341033318702742 0 0.22185546860341471 -0.076890537193463129 0 0.22559767577824291 -0.070341033318702742 0 0.22185546860341471 -0.076890537193463129 0 0.226513327956856 -0.076031742247647013 0 0.22667762447946821 -0.081336379644961862 0 0.22185546860341471 -0.076890537193463129 0 0.226513327956856 -0.076031742247647013 0 0.22559767577824291 -0.070341033318702742 0 0.232130230341555 -0.075838006554786702 0 0.23359814963938669 -0.073112384460560717 0 0.22667762447946821 -0.081336379644961862 0 0.226513327956856 -0.076031742247647013 0 0.232130230341555 -0.075838006554786702 0 0.232130230341555 -0.075838006554786702 0 0.23359814963938669 -0.073112384460560717 0 0.22559767577824291 -0.070341033318702742 0 0.226513327956856 -0.076031742247647013 0 0.232130230341555 -0.075838006554786702 0 0.25578894406637898 -0.071814983055159112 0 0.24466000719816181 -0.052572806154117767 0 0.23359814963938669 -0.073112384460560717 0 0.24466000719816181 -0.052572806154117767 0 0.23359814963938669 -0.073112384460560717 0 0.232130230341555 -0.075838006554786702 0 0.23359814963938669 -0.073112384460560717 0 0.248052431344363 -0.095148438437639593 0 0.25578894406637898 -0.071814983055159112 0 0.23359814963938669 -0.073112384460560717 0 0.248052431344363 -0.095148438437639593 0 0.23359814963938669 -0.073112384460560717 0 0.248052431344363 -0.095148438437639593 0 0.22945301150852729 -0.089618177888440453 0 0.232130230341555 -0.075838006554786702 0 0.248052431344363 -0.095148438437639593 0 0.22945301150852729 -0.089618177888440453 0 0.248052431344363 -0.095148438437639593 0 0.23028066412444251 -0.1035134914659659 0 0.248052431344363 -0.095148438437639593 0 0.23028066412444251 -0.1035134914659659 0 0.24260121657943401 -0.11258968035378961 0 0.21858698215692479 -0.095058636804357027 0 0.21655448612892231 -0.108466948295262 0 0.23028066412444251 -0.1035134914659659 0 0.21858698215692479 -0.095058636804357027 0 0.22945301150852729 -0.089618177888440453 0 0.23028066412444251 -0.1035134914659659 0 0.21655448612892231 -0.108466948295262 0 0.21237619803781799 -0.123978557377612 0 0.22804122980252159 -0.1188128045943018 0 0.21655448612892231 -0.108466948295262 0 0.23028066412444251 -0.1035134914659659 0 0.22804122980252159 -0.1188128045943018 0 0.23028066412444251 -0.1035134914659659 0 0.22804122980252159 -0.1188128045943018 0 0.24260121657943401 -0.11258968035378961 0 0.26250671304934198 -0.1171844924147165 0 0.24260121657943401 -0.11258968035378961 0 0.2441250445765018 -0.1282891748563233 0 0.22804122980252159 -0.1188128045943018 0 0.24260121657943401 -0.11258968035378961 0 0.2441250445765018 -0.1282891748563233 0 0.2441250445765018 -0.1282891748563233 0 0.23903729808979979 -0.1497956366535709 0 0.2244889389359962 -0.13749465980780429 0 0.26140577643439422 -0.14332992145424359 0 0.2441250445765018 -0.1282891748563233 0 0.23903729808979979 -0.1497956366535709 0 0.26140577643439422 -0.14332992145424359 0 0.23903729808979979 -0.1497956366535709 0 0.24727016264961249 -0.1692414738038848 0 0.23903729808979979 -0.1497956366535709 0 0.2244889389359962 -0.13749465980780429 0 0.2199830660130864 -0.1595641520633625 0 0.22804122980252159 -0.1188128045943018 0 0.2441250445765018 -0.1282891748563233 0 0.2244889389359962 -0.13749465980780429 0 0.21237619803781799 -0.123978557377612 0 0.22804122980252159 -0.1188128045943018 0 0.2244889389359962 -0.13749465980780429 0 0.21237619803781799 -0.123978557377612 0 0.2244889389359962 -0.13749465980780429 0 0.2019561726093779 -0.14327156014064921 0 0.21237619803781799 -0.123978557377612 0 0.19857579603009881 -0.123745354966356 0 0.2019561726093779 -0.14327156014064921 0 0.2244889389359962 -0.13749465980780429 0 0.2019561726093779 -0.14327156014064921 0 0.2199830660130864 -0.1595641520633625 0 0.2019561726093779 -0.14327156014064921 0 0.2199830660130864 -0.1595641520633625 0 0.2019561726093779 -0.14327156014064921 0 0.2047419039749544 -0.16383627848553101 0 0.2199830660130864 -0.1595641520633625 0 0.2019561726093779 -0.14327156014064921 0 0.1858442134446858 -0.1403981851473228 0 0.18613440788357311 -0.15203004835571851 0 0.2019561726093779 -0.14327156014064921 0 0.2047419039749544 -0.16383627848553101 0 0.18613440788357311 -0.15203004835571851 0 0.19857579603009881 -0.123745354966356 0 0.2019561726093779 -0.14327156014064921 0 0.18392927920566929 -0.12697896821793581 0 0.2019561726093779 -0.14327156014064921 0 0.18392927920566929 -0.12697896821793581 0 0.2019561726093779 -0.14327156014064921 0 0.1858442134446858 -0.1403981851473228 0 0.18392927920566929 -0.12697896821793581 0 0.20143056513873611 -0.17998665641699849 0 0.18945430304214239 -0.18113699365130109 0 0.1956775580667883 -0.19315745649050381 0 0.20143056513873611 -0.17998665641699849 0 0.18945430304214239 -0.18113699365130109 0 0.19108557901044451 -0.16803916485973749 0 0.19108557901044451 -0.16803916485973749 0 0.2047419039749544 -0.16383627848553101 0 0.18613440788357311 -0.15203004835571851 0 0.20143056513873611 -0.17998665641699849 0 0.19108557901044451 -0.16803916485973749 0 0.2047419039749544 -0.16383627848553101 0 0.2047419039749544 -0.16383627848553101 0 0.21987806867346529 -0.181539582491408 0 0.2199830660130864 -0.1595641520633625 0 0.20143056513873611 -0.17998665641699849 0 0.2047419039749544 -0.16383627848553101 0 0.21987806867346529 -0.181539582491408 0 0.20143056513873611 -0.17998665641699849 0 0.21987806867346529 -0.181539582491408 0 0.21026993533039931 -0.19452922539566581 0 0.21987806867346529 -0.181539582491408 0 0.2199830660130864 -0.1595641520633625 0 0.23800995941679501 -0.17585674398607579 0 0.21987806867346529 -0.181539582491408 0 0.23800995941679501 -0.17585674398607579 0 0.2331345488648309 -0.19515302615352589 0 0.2199830660130864 -0.1595641520633625 0 0.23800995941679501 -0.17585674398607579 0 0.23903729808979979 -0.1497956366535709 0 0.2199830660130864 -0.1595641520633625 0 0.23506515458377289 -0.16194558534122611 0 0.2199830660130864 -0.1595641520633625 0 0.23506515458377289 -0.16194558534122611 0 0.23800995941679501 -0.17585674398607579 0 0.23903729808979979 -0.1497956366535709 0 0.23506515458377289 -0.16194558534122611 0 0.24727016264961249 -0.1692414738038848 0 0.23506515458377289 -0.16194558534122611 0 0.24727016264961249 -0.1692414738038848 0 0.23800995941679501 -0.17585674398607579 0 0.24727016264961249 -0.1692414738038848 0 0.2331345488648309 -0.19515302615352589 0 0.24727016264961249 -0.1692414738038848 0 0.23800995941679501 -0.17585674398607579 0 0.2331345488648309 -0.19515302615352589 0 0.25115080808597218 -0.18349252771031549 0 0.24727016264961249 -0.1692414738038848 0 0.2331345488648309 -0.19515302615352589 0 0.25294493867930001 -0.1971512634910503 0 0.25115080808597218 -0.18349252771031549 0 0.2331345488648309 -0.19515302615352589 0 0.25294493867930001 -0.1971512634910503 0 0.23924146656863479 -0.21600942233651971 0 0.2331345488648309 -0.19515302615352589 0 0.25948399805722178 -0.21095426616987389 0 0.23924146656863479 -0.21600942233651971 0 0.23924146656863479 -0.21600942233651971 0 0.218998935080048 -0.22106457850316641 0 0.21946760776481619 -0.20450875509018021 0 0.2331345488648309 -0.19515302615352589 0 0.218998935080048 -0.22106457850316641 0 0.2331345488648309 -0.19515302615352589 0 0.218998935080048 -0.22106457850316641 0 0.23924146656863479 -0.21600942233651971 0 0.2331345488648309 -0.19515302615352589 0 0.218998935080048 -0.22106457850316641 0 0.21946760776481619 -0.20450875509018021 0 0.22068754015837791 -0.19393264728269499 0 0.2331345488648309 -0.19515302615352589 0 0.21987806867346529 -0.181539582491408 0 0.22068754015837791 -0.19393264728269499 0 0.2331345488648309 -0.19515302615352589 0 0.25406429941061343 -0.23112732810889039 0 0.24146341680214309 -0.24448521489457861 0 0.23197262628044979 -0.22995906340082059 0 0.25406429941061343 -0.23112732810889039 0 0.23924146656863479 -0.21600942233651971 0 0.23197262628044979 -0.22995906340082059 0 0.23924146656863479 -0.21600942233651971 0 0.218998935080048 -0.22106457850316641 0 0.23197262628044979 -0.22995906340082059 0 0.218998935080048 -0.22106457850316641 0 0.23197262628044979 -0.22995906340082059 0 0.2174712270181591 -0.22386497246011361 0 0.23197262628044979 -0.22995906340082059 0 0.22090538197196211 -0.23599380530564679 0 0.2174712270181591 -0.22386497246011361 0 0.23197262628044979 -0.22995906340082059 0 0.2264227451730553 -0.24971222362376699 0 0.22090538197196211 -0.23599380530564679 0 0.24146341680214309 -0.24448521489457861 0 0.23197262628044979 -0.22995906340082059 0 0.2264227451730553 -0.24971222362376699 0 0.21040399342164171 -0.25176681621351038 0 0.2264227451730553 -0.24971222362376699 0 0.22090538197196211 -0.23599380530564679 0 0.21040399342164171 -0.25176681621351038 0 0.22090538197196211 -0.23599380530564679 0 0.20830595876386901 -0.23638945826593061 0 0.21040399342164171 -0.25176681621351038 0 0.20830595876386901 -0.23638945826593061 0 0.19936230214102421 -0.2479946931896729 0 0.22090538197196211 -0.23599380530564679 0 0.20830595876386901 -0.23638945826593061 0 0.2144511399868903 -0.2312706685566866 0 0.218998935080048 -0.22106457850316641 0 0.19612053567392879 -0.2267779885035914 0 0.218998935080048 -0.22106457850316641 0 0.19612053567392879 -0.2267779885035914 0 0.2105383011147646 -0.21819048542197941 0 0.218998935080048 -0.22106457850316641 0 0.20576090592389351 -0.2270860010417686 0 0.19612053567392879 -0.2267779885035914 0 0.20830595876386901 -0.23638945826593061 0 0.20576090592389351 -0.2270860010417686 0 0.20182830522270101 -0.2319599292687276 0 0.20830595876386901 -0.23638945826593061 0 0.20576090592389351 -0.2270860010417686 0 0.2144511399868903 -0.2312706685566866 0 0.22090538197196211 -0.23599380530564679 0 0.2144511399868903 -0.2312706685566866 0 0.2174712270181591 -0.22386497246011361 0 0.20576090592389351 -0.2270860010417686 0 0.2144511399868903 -0.2312706685566866 0 0.21346905720863779 -0.2258257771414271 0 0.2144511399868903 -0.2312706685566866 0 0.21346905720863779 -0.2258257771414271 0 0.2174712270181591 -0.22386497246011361 0 0.218998935080048 -0.22106457850316641 0 0.20576090592389351 -0.2270860010417686 0 0.21346905720863779 -0.2258257771414271 0 0.218998935080048 -0.22106457850316641 0 0.21346905720863779 -0.2258257771414271 0 0.2174712270181591 -0.22386497246011361 0 0.218998935080048 -0.22106457850316641 0 0.2174712270181591 -0.22386497246011361 0 0.19612053567392879 -0.2267779885035914 0 0.2105383011147646 -0.21819048542197941 0 0.20425053182178279 -0.21841625855527369 0 0.19777000223886329 -0.21875233346220549 0 0.19612053567392879 -0.2267779885035914 0 0.20425053182178279 -0.21841625855527369 0 0.19777000223886329 -0.21875233346220549 0 0.19393270034329779 -0.22126915535208849 0 0.19612053567392879 -0.2267779885035914 0 0.19393270034329779 -0.22126915535208849 0 0.18772081891462031 -0.22518952661427791 0 0.19612053567392879 -0.2267779885035914 0 0.19393270034329779 -0.22126915535208849 0 0.18772081891462031 -0.22518952661427791 0 0.19411944454577909 -0.214356772828279 0 0.19612053567392879 -0.2267779885035914 0 0.19712582052911259 -0.23758626926361981 0 0.1871717184338115 -0.23640941086597769 0 0.19612053567392879 -0.2267779885035914 0 0.20182830522270101 -0.2319599292687276 0 0.19712582052911259 -0.23758626926361981 0 0.20576090592389351 -0.2270860010417686 0 0.19612053567392879 -0.2267779885035914 0 0.20182830522270101 -0.2319599292687276 0 0.20830595876386901 -0.23638945826593061 0 0.19712582052911259 -0.23758626926361981 0 0.19936230214102421 -0.2479946931896729 0 0.20830595876386901 -0.23638945826593061 0 0.20182830522270101 -0.2319599292687276 0 0.19712582052911259 -0.23758626926361981 0 0.19712582052911259 -0.23758626926361981 0 0.18957958600208469 -0.24548130840959781 0 0.1871717184338115 -0.23640941086597769 0 0.19712582052911259 -0.23758626926361981 0 0.18957958600208469 -0.24548130840959781 0 0.19936230214102421 -0.2479946931896729 0 0.21026993533039931 -0.19452922539566581 0 0.2106024981415649 -0.2056222994823437 0 0.20186537415214451 -0.20478020160934601 0 0.21987806867346529 -0.181539582491408 0 0.22068754015837791 -0.19393264728269499 0 0.21026993533039931 -0.19452922539566581 0 0.21946760776481619 -0.20450875509018021 0 0.22068754015837791 -0.19393264728269499 0 0.21026993533039931 -0.19452922539566581 0 0.21946760776481619 -0.20450875509018021 0 0.21026993533039931 -0.19452922539566581 0 0.2106024981415649 -0.2056222994823437 0 0.21946760776481619 -0.20450875509018021 0 0.218998935080048 -0.22106457850316641 0 0.21566385185952111 -0.2138241496878262 0 0.21946760776481619 -0.20450875509018021 0 0.21566385185952111 -0.2138241496878262 0 0.21365056347845579 -0.2115327797359787 0 0.21946760776481619 -0.20450875509018021 0 0.21365056347845579 -0.2115327797359787 0 0.2106024981415649 -0.2056222994823437 0 0.218998935080048 -0.22106457850316641 0 0.21566385185952111 -0.2138241496878262 0 0.2105383011147646 -0.21819048542197941 0 0.21566385185952111 -0.2138241496878262 0 0.21365056347845579 -0.2115327797359787 0 0.2105383011147646 -0.21819048542197941 0 0.2105383011147646 -0.21819048542197941 0 0.20775900998200869 -0.21276053558054769 0 0.20425053182178279 -0.21841625855527369 0 0.21365056347845579 -0.2115327797359787 0 0.2105383011147646 -0.21819048542197941 0 0.20775900998200869 -0.21276053558054769 0 0.20775900998200869 -0.21276053558054769 0 0.20425053182178279 -0.21841625855527369 0 0.20156851284219721 -0.21282904574896491 0 0.20775900998200869 -0.21276053558054769 0 0.20186537415214451 -0.20478020160934601 0 0.20156851284219721 -0.21282904574896491 0 0.20775900998200869 -0.21276053558054769 0 0.2106024981415649 -0.2056222994823437 0 0.20186537415214451 -0.20478020160934601 0 0.21365056347845579 -0.2115327797359787 0 0.20775900998200869 -0.21276053558054769 0 0.2106024981415649 -0.2056222994823437 0 0.20186537415214451 -0.20478020160934601 0 0.19411944454577909 -0.214356772828279 0 0.19348214685029161 -0.20221454249066079 0 0.18772081891462031 -0.22518952661427791 0 0.19411944454577909 -0.214356772828279 0 0.18226621063645451 -0.19656373903451449 0 0.20186537415214451 -0.20478020160934601 0 0.20156851284219721 -0.21282904574896491 0 0.19411944454577909 -0.214356772828279 0 0.19411944454577909 -0.214356772828279 0 0.19348214685029161 -0.20221454249066079 0 0.18226621063645451 -0.19656373903451449 0 0.19777000223886329 -0.21875233346220549 0 0.20425053182178279 -0.21841625855527369 0 0.20156851284219721 -0.21282904574896491 0 0.19777000223886329 -0.21875233346220549 0 0.20156851284219721 -0.21282904574896491 0 0.19411944454577909 -0.214356772828279 0 0.19777000223886329 -0.21875233346220549 0 0.19393270034329779 -0.22126915535208849 0 0.19411944454577909 -0.214356772828279 0 0.19348214685029161 -0.20221454249066079 0 0.1956775580667883 -0.19315745649050381 0 0.18226621063645451 -0.19656373903451449 0 0.20186537415214451 -0.20478020160934601 0 0.19348214685029161 -0.20221454249066079 0 0.1956775580667883 -0.19315745649050381 0 0.21026993533039931 -0.19452922539566581 0 0.20186537415214451 -0.20478020160934601 0 0.1956775580667883 -0.19315745649050381 0 0.20143056513873611 -0.17998665641699849 0 0.21026993533039931 -0.19452922539566581 0 0.1956775580667883 -0.19315745649050381 0 0.18945430304214239 -0.18113699365130109 0 0.1956775580667883 -0.19315745649050381 0 0.18226621063645451 -0.19656373903451449 0 0.18226621063645451 -0.19656373903451449 0 0.1715432114556068 -0.21122996104898861 0 0.16984428664340401 -0.18996852359395999 0 0.18772081891462031 -0.22518952661427791 0 0.18226621063645451 -0.19656373903451449 0 0.1715432114556068 -0.21122996104898861 0 0.18772081891462031 -0.22518952661427791 0 0.18226621063645451 -0.19656373903451449 0 0.1715432114556068 -0.21122996104898861 0 0.1573322870795833 -0.20789039819694149 0 0.1623168744573055 -0.22287573648660611 0 0.1573322870795833 -0.20789039819694149 0 0.1623168744573055 -0.22287573648660611 0 0.1522967848894444 -0.22083493224417339 0 0.1715432114556068 -0.21122996104898861 0 0.1573322870795833 -0.20789039819694149 0 0.16984428664340401 -0.18996852359395999 0 0.1573322870795833 -0.20789039819694149 0 0.16984428664340401 -0.18996852359395999 0 0.15597410852767299 -0.19239463322910441 0 0.1715432114556068 -0.21122996104898861 0 0.16984428664340401 -0.18996852359395999 0 0.16984428664340401 -0.18996852359395999 0 0.15597410852767299 -0.19239463322910441 0 0.1614518955362341 -0.18261220584938501 0 0.17531814171820079 -0.25847186551630352 0 0.18140855909891221 -0.24875385404173869 0 0.17324213626780979 -0.23249139850401729 0 0.17531814171820079 -0.25847186551630352 0 0.17324213626780979 -0.23249139850401729 0 0.18140855909891221 -0.24875385404173869 0 0.182482909248532 -0.24101033857802051 0 0.17324213626780979 -0.23249139850401729 0 0.18957958600208469 -0.24548130840959781 0 0.18140855909891221 -0.24875385404173869 0 0.182482909248532 -0.24101033857802051 0 0.18957958600208469 -0.24548130840959781 0 0.182482909248532 -0.24101033857802051 0 0.1871717184338115 -0.23640941086597769 0 0.182482909248532 -0.24101033857802051 0 0.1871717184338115 -0.23640941086597769 0 0.17324213626780979 -0.23249139850401729 0 0.18772081891462031 -0.22518952661427791 0 0.19612053567392879 -0.2267779885035914 0 0.17324213626780979 -0.23249139850401729 0 0.19612053567392879 -0.2267779885035914 0 0.1871717184338115 -0.23640941086597769 0 0.17324213626780979 -0.23249139850401729 0 0.1715432114556068 -0.21122996104898861 0 0.17324213626780979 -0.23249139850401729 0 0.19612053567392879 -0.2267779885035914 0 0.17324213626780979 -0.23249139850401729 0 0.18772081891462031 -0.22518952661427791 0 0.1715432114556068 -0.21122996104898861 0 0.17324213626780979 -0.23249139850401729 0 0.1715432114556068 -0.21122996104898861 0 0.17324213626780979 -0.23249139850401729 0 0.1623168744573055 -0.22287573648660611 0 0.1623168744573055 -0.22287573648660611 0 0.15535209141549861 -0.22942801887575409 0 0.1522967848894444 -0.22083493224417339 0 0.1623168744573055 -0.22287573648660611 0 0.16254320702155209 -0.2351632361734422 0 0.15535209141549861 -0.22942801887575409 0 0.17324213626780979 -0.23249139850401729 0 0.16254320702155209 -0.2351632361734422 0 0.17324213626780979 -0.23249139850401729 0 0.1623168744573055 -0.22287573648660611 0 0.16254320702155209 -0.2351632361734422 0 0.16416434830993021 -0.25348076251168611 0 0.17531814171820079 -0.25847186551630352 0 0.17324213626780979 -0.23249139850401729 0 0.16416434830993021 -0.25348076251168611 0 0.17324213626780979 -0.23249139850401729 0 0.16097870724125449 -0.24292032119762011 0 0.17324213626780979 -0.23249139850401729 0 0.16254320702155209 -0.2351632361734422 0 0.16097870724125449 -0.24292032119762011 0 0.16254320702155209 -0.2351632361734422 0 0.16097870724125449 -0.24292032119762011 0 0.15390853800913809 -0.24274468653761391 0 0.16416434830993021 -0.25348076251168611 0 0.16097870724125449 -0.24292032119762011 0 0.15746623258843939 -0.24717962177743169 0 0.16097870724125449 -0.24292032119762011 0 0.15746623258843939 -0.24717962177743169 0 0.15390853800913809 -0.24274468653761391 0 0.1338120645475761 -0.25178135897747889 0 0.14143480209138451 -0.24391931440815429 0 0.15081333679343489 -0.24957271686280691 0 0.14143480209138451 -0.24391931440815429 0 0.14954523601732381 -0.23656141158161401 0 0.13965007243053049 -0.2272862619181428 0 0.14143480209138451 -0.24391931440815429 0 0.15081333679343489 -0.24957271686280691 0 0.14892547822782029 -0.24319953234754729 0 0.15746623258843939 -0.24717962177743169 0 0.15081333679343489 -0.24957271686280691 0 0.15390853800913809 -0.24274468653761391 0 0.15081333679343489 -0.24957271686280691 0 0.15390853800913809 -0.24274468653761391 0 0.14892547822782029 -0.24319953234754729 0 0.16254320702155209 -0.2351632361734422 0 0.15390853800913809 -0.24274468653761391 0 0.14954523601732381 -0.23656141158161401 0 0.15390853800913809 -0.24274468653761391 0 0.14892547822782029 -0.24319953234754729 0 0.14954523601732381 -0.23656141158161401 0 0.14143480209138451 -0.24391931440815429 0 0.14892547822782029 -0.24319953234754729 0 0.14954523601732381 -0.23656141158161401 0 0.14954523601732381 -0.23656141158161401 0 0.15535209141549861 -0.22942801887575409 0 0.13965007243053049 -0.2272862619181428 0 0.15535209141549861 -0.22942801887575409 0 0.1522967848894444 -0.22083493224417339 0 0.13965007243053049 -0.2272862619181428 0 0.16254320702155209 -0.2351632361734422 0 0.14954523601732381 -0.23656141158161401 0 0.15535209141549861 -0.22942801887575409 0 0.1522967848894444 -0.22083493224417339 0 0.13965007243053049 -0.2272862619181428 0 0.14214428324753289 -0.2154529738929884 0 0.11925867152865099 -0.22395178641925401 0 0.13965007243053049 -0.2272862619181428 0 0.12727927076528461 -0.2378210325384271 0 0.11925867152865099 -0.22395178641925401 0 0.13965007243053049 -0.2272862619181428 0 0.1296813367821156 -0.2112782106774091 0 0.14143480209138451 -0.24391931440815429 0 0.13965007243053049 -0.2272862619181428 0 0.12727927076528461 -0.2378210325384271 0 0.1338120645475761 -0.25178135897747889 0 0.1155402395781918 -0.2507583320391269 0 0.12727927076528461 -0.2378210325384271 0 0.1338120645475761 -0.25178135897747889 0 0.14143480209138451 -0.24391931440815429 0 0.12727927076528461 -0.2378210325384271 0 0.1472064603361167 -0.20247602688276969 0 0.14541013119376039 -0.19094925991957609 0 0.13560729147637779 -0.19666813964102769 0 0.1472064603361167 -0.20247602688276969 0 0.14541013119376039 -0.19094925991957609 0 0.15597410852767299 -0.19239463322910441 0 0.14541013119376039 -0.19094925991957609 0 0.15597410852767299 -0.19239463322910441 0 0.15149562072024261 -0.18002206604153331 0 0.1573322870795833 -0.20789039819694149 0 0.1472064603361167 -0.20247602688276969 0 0.15597410852767299 -0.19239463322910441 0 0.1573322870795833 -0.20789039819694149 0 0.1472064603361167 -0.20247602688276969 0 0.14214428324753289 -0.2154529738929884 0 0.1573322870795833 -0.20789039819694149 0 0.1522967848894444 -0.22083493224417339 0 0.14214428324753289 -0.2154529738929884 0 0.1472064603361167 -0.20247602688276969 0 0.14214428324753289 -0.2154529738929884 0 0.1296813367821156 -0.2112782106774091 0 0.1472064603361167 -0.20247602688276969 0 0.1296813367821156 -0.2112782106774091 0 0.13560729147637779 -0.19666813964102769 0 0.13965007243053049 -0.2272862619181428 0 0.14214428324753289 -0.2154529738929884 0 0.1296813367821156 -0.2112782106774091 0 0.1232396379011078 -0.1927549034493776 0 0.1296813367821156 -0.2112782106774091 0 0.13560729147637779 -0.19666813964102769 0 0.14541013119376039 -0.19094925991957609 0 0.13560729147637779 -0.19666813964102769 0 0.1367671749083921 -0.18318543380344571 0 0.1232396379011078 -0.1927549034493776 0 0.13560729147637779 -0.19666813964102769 0 0.1367671749083921 -0.18318543380344571 0 0.1232396379011078 -0.1927549034493776 0 0.1240882674421261 -0.17221834261327171 0 0.1367671749083921 -0.18318543380344571 0 0.1240882674421261 -0.17221834261327171 0 0.1367671749083921 -0.18318543380344571 0 0.13968624526684381 -0.1663096509244866 0 0.14541013119376039 -0.19094925991957609 0 0.1367671749083921 -0.18318543380344571 0 0.15149562072024261 -0.18002206604153331 0 0.1367671749083921 -0.18318543380344571 0 0.15149562072024261 -0.18002206604153331 0 0.13968624526684381 -0.1663096509244866 0 0.15149562072024261 -0.18002206604153331 0 0.15438358984087761 -0.16681526513507461 0 0.15901421514929279 -0.17490695601163531 0 0.13968624526684381 -0.1663096509244866 0 0.137218974646206 -0.14902146964549531 0 0.15110583492258711 -0.15411329859263981 0 0.15438358984087761 -0.16681526513507461 0 0.15110583492258711 -0.15411329859263981 0 0.16298457853711951 -0.16119870976526179 0 0.15149562072024261 -0.18002206604153331 0 0.15438358984087761 -0.16681526513507461 0 0.13968624526684381 -0.1663096509244866 0 0.15438358984087761 -0.16681526513507461 0 0.13968624526684381 -0.1663096509244866 0 0.15110583492258711 -0.15411329859263981 0 0.1238726331408222 -0.15597973401630799 0 0.13968624526684381 -0.1663096509244866 0 0.137218974646206 -0.14902146964549531 0 0.1238726331408222 -0.15597973401630799 0 0.1240882674421261 -0.17221834261327171 0 0.13968624526684381 -0.1663096509244866 0 0.1238726331408222 -0.15597973401630799 0 0.12550759679471971 -0.14428239988351421 0 0.137218974646206 -0.14902146964549531 0 0.12550759679471971 -0.14428239988351421 0 0.137218974646206 -0.14902146964549531 0 0.13351042007077771 -0.13535464583232679 0 0.13570225296767791 -0.1136627830916173 0 0.13351042007077771 -0.13535464583232679 0 0.14820743810063461 -0.13253739615236759 0 0.137218974646206 -0.14902146964549531 0 0.13351042007077771 -0.13535464583232679 0 0.14820743810063461 -0.13253739615236759 0 0.1195920268695274 -0.13435801890873961 0 0.125059882544757 -0.1243050716586782 0 0.13351042007077771 -0.13535464583232679 0 0.1195920268695274 -0.13435801890873961 0 0.12550759679471971 -0.14428239988351421 0 0.13351042007077771 -0.13535464583232679 0 0.14820743810063461 -0.13253739615236759 0 0.15110583492258711 -0.15411329859263981 0 0.1632605781546366 -0.14974645590444771 0 0.137218974646206 -0.14902146964549531 0 0.14820743810063461 -0.13253739615236759 0 0.15110583492258711 -0.15411329859263981 0 0.1632605781546366 -0.14974645590444771 0 0.17135699408012309 -0.1393121638749876 0 0.1768116023582888 -0.16793795145475099 0 0.15110583492258711 -0.15411329859263981 0 0.1632605781546366 -0.14974645590444771 0 0.16298457853711951 -0.16119870976526179 0 0.14820743810063461 -0.13253739615236759 0 0.1632605781546366 -0.14974645590444771 0 0.17135699408012309 -0.1393121638749876 0 0.1659023858019596 -0.11068637629522381 0 0.14820743810063461 -0.13253739615236759 0 0.17135699408012309 -0.1393121638749876 0 0.1659023858019596 -0.11068637629522381 0 0.17135699408012309 -0.1393121638749876 0 0.18392927920566929 -0.12697896821793581 0 0.17135699408012309 -0.1393121638749876 0 0.1858442134446858 -0.1403981851473228 0 0.18392927920566929 -0.12697896821793581 0 0.17135699408012309 -0.1393121638749876 0 0.1768116023582888 -0.16793795145475099 0 0.17135699408012309 -0.1393121638749876 0 0.18613440788357311 -0.15203004835571851 0 0.1768116023582888 -0.16793795145475099 0 0.17135699408012309 -0.1393121638749876 0 0.1858442134446858 -0.1403981851473228 0 0.18613440788357311 -0.15203004835571851 0 0.19108557901044451 -0.16803916485973749 0 0.18613440788357311 -0.15203004835571851 0 0.1768116023582888 -0.16793795145475099 0 0.18226621063645451 -0.19656373903451449 0 0.16984428664340401 -0.18996852359395999 0 0.1768116023582888 -0.16793795145475099 0 0.18945430304214239 -0.18113699365130109 0 0.19108557901044451 -0.16803916485973749 0 0.1768116023582888 -0.16793795145475099 0 0.18226621063645451 -0.19656373903451449 0 0.1768116023582888 -0.16793795145475099 0 0.18945430304214239 -0.18113699365130109 0 0.18226621063645451 -0.19656373903451449 0 0.1768116023582888 -0.16793795145475099 0 0.16984428664340401 -0.18996852359395999 0 0.1681453618312011 -0.16870708613893129 0 0.16984428664340401 -0.18996852359395999 0 0.1768116023582888 -0.16793795145475099 0 0.1681453618312011 -0.16870708613893129 0 0.16984428664340401 -0.18996852359395999 0 0.1614518955362341 -0.18261220584938501 0 0.1681453618312011 -0.16870708613893129 0 0.15597410852767299 -0.19239463322910441 0 0.15149562072024261 -0.18002206604153331 0 0.1614518955362341 -0.18261220584938501 0 0.1614518955362341 -0.18261220584938501 0 0.15901421514929279 -0.17490695601163531 0 0.1681453618312011 -0.16870708613893129 0 0.15149562072024261 -0.18002206604153331 0 0.1614518955362341 -0.18261220584938501 0 0.15901421514929279 -0.17490695601163531 0 0.15438358984087761 -0.16681526513507461 0 0.16298457853711951 -0.16119870976526179 0 0.1681453618312011 -0.16870708613893129 0 0.15438358984087761 -0.16681526513507461 0 0.15901421514929279 -0.17490695601163531 0 0.1681453618312011 -0.16870708613893129 0 0.1632605781546366 -0.14974645590444771 0 0.1768116023582888 -0.16793795145475099 0 0.16298457853711951 -0.16119870976526179 0 0.1768116023582888 -0.16793795145475099 0 0.16298457853711951 -0.16119870976526179 0 0.1681453618312011 -0.16870708613893129 0 
</DataArray>
</Points>
<Cells>
<DataArray type="UInt32" Name="connectivity" format="ascii">
0 1 2 3 4 5 6 7 8 9 10 11 12 13 14 15 16 17 18 19 20 21 22 23 24 25 26 27 28 29 30 31 32 33 34 35 36 37 38 39 40 41 42 43 44 45 46 47 48 49 50 51 52 53 54 55 56 57 58 59 60 61 62 63 64 65 66 67 68 69 70 71 72 73 74 75 76 77 78 79 80 81 82 83 84 85 86 87 88 89 90 91 92 93 94 95 96 97 98 99 100 101 102 103 104 105 106 107 108 109 110 111 112 113 114 115 116 117 118 119 120 121 122 123 124 125 126 127 128 129 130 131 132 133 134 135 136 137 138 139 140 141 142 143 144 145 146 147 148 149 150 151 152 153 154 155 156 157 158 159 160 161 162 163 164 165 166 167 168 169 170 171 172 173 174 175 176 177 178 179 180 181 182 183 184 185 186 187 188 189 190 191 192 193 194 195 196 197 198 199 200 201 202 203 204 205 206 207 208 209 210 211 212 213 214 215 216 217 218 219 220 221 222 223 224 225 226 227 228 229 230 231 232 233 234 235 236 237 238 239 240 241 242 243 244 245 246 247 248 249 250 251 252 253 254 255 256 257 258 259 260 261 262 263 264 265 266 267 268 269 270 271 272 273 274 275 276 277 278 279 280 281 282 283 284 285 286 287 288 289 290 291 292 293 294 295 296 297 298 299 300 301 302 303 304 305 306 307 308 309 310 311 312 313 314 315 316 317 318 319 320 321 322 323 324 325 326 327 328 329 330 331 332 333 334 335 336 337 338 339 340 341 342 343 344 345 346 347 348 349 350 351 352 353 354 355 356 357 358 359 360 361 362 363 364 365 366 367 368 369 370 371 372 373 374 375 376 377 378 379 380 381 382 383 384 385 386 387 388 389 390 391 392 393 394 395 396 397 398 399 400 401 402 403 404 405 406 407 408 409 410 411 412 413 414 415 416 417 418 419 420 421 422 423 424 425 426 427 428 429 430 431 432 433 434 435 436 437 438 439 440 441 442 443 444 445 446 447 448 449 450 451 452 453 454 455 456 457 458 459 460 461 462 463 464 465 466 467 468 469 470 471 472 473 474 475 476 477 478 479 480 481 482 483 484 485 486 487 488 489 490 491 492 493 494 495 496 497 498 499 500 501 502 503 504 505 506 507 508 509 510 511 512 513 514 515 516 517 518 519 520 521 522 523 524 525 526 527 528 529 530 531 532 533 534 535 536 537 538 539 540 541 542 543 544 545 546 547 548 549 550 551 552 553 554 555 556 557 558 559 560 561 562 563 564 565 566 567 568 569 570 571 572 573 574 575 576 577 578 579 580 581 582 583 584 585 586 587 588 589 590 591 592 593 594 595 596 597 598 599 600 601 602 603 604 605 606 607 608 609 610 611 612 613 614 615 616 617 618 619 620 621 622 623 624 625 626 627 628 629 630 631 632 633 634 635 636 637 638 639 640 641 642 643 644 645 646 647 648 649 650 651 652 653 654 655 656 657 658 659 660 661 662 663 664 665 666 667 668 669 670 671 672 673 674 675 676 677 678 679 680 681 682 683 684 685 686 687 688 689 690 691 692 693 694 695 696 697 698 699 700 701 702 703 704 705 706 707 708 709 710 711 712 713 714 715 716 717 718 719 720 721 722 723 724 725 726 727 728 729 730 731 732 733 734 735 736 737 738 739 740 741 742 743 744 745 746 747 748 749 750 751 752 753 754 755 756 757 758 759 760 761 762 763 764 765 766 767 768 769 770 771 772 773 774 775 776 777 778 779 780 781 782 783 784 785 786 787 788 789 790 791 792 793 794 795 796 797 798 799 800 801 802 803 804 805 806 807 808 809 810 811 812 813 814 815 816 817 818 819 820 821 822 823 824 825 826 827 828 829 830 831 832 833 834 835 836 837 838 839 840 841 842 843 844 845 846 847 848 849 850 851 852 853 854 855 856 857 858 859 860 861 862 863 864 865 866 867 868 869 870 871 872 873 874 875 876 877 878 879 880 881 882 883 884 885 886 887 888 889 890 891 892 893 894 895 896 897 898 899 900 901 902 903 904 905 906 907 908 909 910 911 912 913 914 915 916 917 918 919 920 921 922 923 924 925 926 927 928 929 930 931 932 933 934 935 936 937 938 939 940 941 942 943 944 945 946 947 948 949 950 951 952 953 954 955 956 957 958 959 960 961 962 963 964 965 966 967 968 969 970 971 972 973 974 975 976 977 978 979 980 981 982 983 984 985 986 987 988 989 990 991 992 993 994 995 996 997 998 999 1000 1001 1002 1003 1004 1005 1006 1007 1008 1009 1010 1011 1012 1013 1014 1015 1016 1017 1018 1019 1020 1021 1022 1023 1024 1025 1026 1027 1028 1029 1030 1031 1032 1033 1034 1035 1036 1037 1038 1039 1040 1041 1042 1043 1044 1045 1046 1047 1048 1049 1050 1051 1052 1053 1054 1055 1056 1057 1058 1059 1060 1061 1062 1063 1064 1065 1066 1067 1068 1069 1070 1071 1072 1073 1074 1075 1076 1077 1078 1079 1080 1081 1082 1083 1084 1085 1086 1087 1088 1089 1090 1091 1092 1093 1094 1095 1096 1097 1098 1099 1100 1101 1102 1103 1104 1105 1106 1107 1108 1109 1110 1111 1112 1113 1114 1115 1116 1117 1118 1119 1120 1121 1122 1123 1124 1125 1126 1127 1128 1129 1130 1131 1132 1133 1134 1135 1136 1137 1138 1139 1140 1141 1142 1143 1144 1145 1146 1147 1148 1149 1150 1151 1152 1153 1154 1155 1156 1157 1158 1159 1160 1161 1162 1163 1164 1165 1166 1167 1168 1169 1170 1171 1172 1173 1174 1175 1176 1177 1178 1179 1180 1181 1182 1183 1184 1185 1186 1187 1188 1189 1190 1191 1192 1193 1194 1195 1196 1197 1198 1199 1200 1201 1202 1203 1204 1205 1206 1207 1208 1209 1210 1211 1212 1213 1214 1215 1216 1217 1218 1219 1220 1221 1222 1223 1224 1225 1226 1227 1228 1229 1230 1231 1232 1233 1234 1235 1236 1237 1238 1239 1240 1241 1242 1243 1244 1245 1246 1247 1248 1249 1250 1251 1252 1253 1254 1255 1256 1257 1258 1259 1260 1261 1262 1263 1264 1265 1266 1267 1268 1269 1270 1271 1272 1273 1274 1275 1276 1277 1278 1279 1280 1281 1282 1283 1284 1285 1286 1287 1288 1289 1290 1291 1292 1293 1294 1295 1296 1297 1298 1299 1300 1301 1302 1303 1304 1305 1306 1307 1308 1309 1310 1311 1312 1313 1314 1315 1316 1317 1318 1319 1320 1321 1322 1323 1324 1325 1326 1327 1328 1329 1330 1331 1332 1333 1334 1335 1336 1337 1338 1339 1340 1341 1342 1343 1344 1345 1346 1347 1348 1349 1350 1351 1352 1353 1354 1355 1356 1357 1358 1359 1360 1361 1362 1363 1364 1365 1366 1367 1368 1369 1370 1371 1372 1373 1374 1375 1376 1377 1378 1379 1380 1381 1382 1383 1384 1385 1386 1387 1388 1389 1390 1391 1392 1393 1394 1395 1396 1397 1398 1399 1400 1401 1402 1403 1404 1405 1406 1407 1408 1409 1410 1411 1412 1413 1414 1415 1416 1417 1418 1419 1420 1421 1422 1423 1424 1425 1426 1427 1428 1429 1430 1431 1432 1433 1434 1435 1436 1437 1438 1439 1440 1441 1442 1443 1444 1445 1446 1447 1448 1449 1450 1451 1452 1453 1454 1455 1456 1457 1458 1459 1460 1461 1462 1463 1464 1465 1466 1467 1468 1469 1470 1471 1472 1473 1474 1475 1476 1477 1478 1479 1480 1481 1482 1483 1484 1485 1486 1487 1488 1489 1490 1491 1492 1493 1494 1495 1496 1497 1498 1499 1500 1501 1502 1503 1504 1505 1506 1507 1508 1509 1510 1511 1512 1513 1514 1515 1516 1517 1518 1519 1520 1521 1522 1523 1524 1525 1526 1527 1528 1529 1530 1531 1532 1533 1534 1535 1536 1537 1538 1539 1540 1541 1542 1543 1544 1545 1546 1547 1548 1549 1550 1551 1552 1553 1554 1555 1556 1557 1558 1559 1560 1561 1562 1563 1564 1565 1566 1567 1568 1569 1570 1571 1572 1573 1574 1575 1576 1577 1578 1579 1580 1581 1582 1583 1584 1585 1586 1587 1588 1589 1590 1591 1592 1593 1594 1595 1596 1597 1598 1599 1600 1601 1602 1603 1604 1605 1606 1607 1608 1609 1610 1611 1612 1613 1614 1615 1616 1617 1618 1619 1620 1621 1622 1623 1624 1625 1626 1627 1628 1629 1630 1631 1632 1633 1634 1635 1636 1637 1638 1639 1640 1641 1642 1643 1644 1645 1646 1647 1648 1649 1650 1651 1652 1653 1654 1655 1656 1657 1658 1659 1660 1661 1662 1663 1664 1665 1666 1667 1668 1669 1670 1671 1672 1673 1674 1675 1676 1677 1678 1679 1680 1681 1682 1683 1684 1685 1686 1687 1688 1689 1690 1691 1692 1693 1694 1695 1696 1697 1698 1699 1700 1701 1702 1703 1704 1705 1706 1707 1708 1709 1710 1711 1712 1713 1714 1715 1716 1717 1718 1719 1720 1721 1722 1723 1724 1725 1726 1727 1728 1729 1730 1731 1732 1733 1734 1735 1736 1737 1738 1739 1740 1741 1742 1743 1744 1745 1746 1747 1748 1749 1750 1751 1752 1753 1754 1755 1756 1757 1758 1759 1760 1761 1762 1763 1764 1765 1766 1767 1768 1769 1770 1771 1772 1773 1774 1775 1776 1777 1778 1779 1780 1781 1782 1783 1784 1785 1786 1787 1788 1789 1790 1791 1792 1793 1794 1795 1796 1797 1798 1799 1800 1801 1802 1803 1804 1805 1806 1807 1808 1809 1810 1811 1812 1813 1814 1815 1816 1817 1818 1819 1820 1821 1822 1823 1824 1825 1826 1827 1828 1829 1830 1831 1832 1833 1834 1835 1836 1837 1838 1839 1840 1841 1842 1843 1844 1845 1846 1847 1848 1849 1850 1851 1852 1853 1854 1855 1856 1857 1858 1859 1860 1861 1862 1863 1864 1865 1866 1867 1868 1869 1870 1871 1872 1873 1874 1875 1876 1877 1878 1879 1880 1881 1882 1883 1884 1885 1886 1887 1888 1889 1890 1891 1892 1893 1894 1895 1896 1897 1898 1899 1900 1901 1902 1903 1904 1905 1906 1907 1908 1909 1910 1911 1912 1913 1914 1915 1916 1917 1918 1919 1920 1921 1922 1923 1924 1925 1926 1927 1928 1929 1930 1931 1932 1933 1934 1935 1936 1937 1938 1939 1940 1941 1942 1943 1944 1945 1946 1947 1948 1949 1950 1951 1952 1953 1954 1955 1956 1957 1958 1959 1960 1961 1962 1963 1964 1965 1966 1967 1968 1969 1970 1971 1972 1973 1974 1975 1976 1977 1978 1979 1980 1981 1982 1983 1984 1985 1986 1987 1988 1989 1990 1991 1992 1993 1994 1995 1996 1997 1998 1999 2000 2001 2002 2003 2004 2005 2006 2007 2008 2009 2010 2011 2012 2013 2014 2015 2016 2017 2018 2019 2020 2021 2022 2023 2024 2025 2026 2027 2028 2029 2030 2031 2032 2033 2034 2035 2036 2037 2038 2039 2040 2041 2042 2043 2044 2045 2046 2047 2048 2049 2050 2051 2052 2053 2054 2055 2056 2057 2058 2059 2060 2061 2062 2063 2064 2065 2066 2067 2068 2069 2070 2071 2072 2073 2074 2075 2076 2077 2078 2079 2080 2081 2082 2083 2084 2085 2086 2087 2088 2089 2090 2091 2092 2093 2094 2095 2096 2097 2098 2099 2100 2101 2102 2103 2104 2105 2106 2107 2108 2109 2110 2111 2112 2113 2114 2115 2116 2117 2118 2119 2120 2121 2122 2123 2124 2125 2126 2127 2128 2129 2130 2131 2132 2133 2134 2135 2136 2137 2138 2139 2140 2141 2142 2143 2144 2145 2146 2147 2148 2149 2150 2151 2152 2153 2154 2155 2156 2157 2158 2159 2160 2161 2162 2163 2164 2165 2166 2167 2168 2169 2170 2171 2172 2173 2174 2175 2176 2177 2178 2179 2180 2181 2182 2183 2184 2185 2186 2187 2188 2189 2190 2191 2192 2193 2194 2195 2196 2197 2198 2199 2200 2201 2202 2203 2204 2205 2206 2207 2208 2209 2210 2211 2212 2213 2214 2215 2216 2217 2218 2219 2220 2221 2222 2223 2224 2225 2226 2227 2228 2229 2230 2231 2232 2233 2234 2235 2236 2237 2238 2239 2240 2241 2242 2243 2244 2245 2246 2247 2248 2249 2250 2251 2252 2253 2254 2255 2256 2257 2258 2259 2260 2261 2262 2263 2264 2265 2266 2267 2268 2269 2270 2271 2272 2273 2274 2275 2276 2277 2278 2279 2280 2281 2282 2283 2284 2285 2286 2287 2288 2289 2290 2291 2292 2293 2294 2295 2296 2297 2298 2299 2300 2301 2302 2303 2304 2305 2306 2307 2308 2309 2310 2311 2312 2313 2314 2315 2316 2317 2318 2319 2320 2321 2322 2323 2324 2325 2326 2327 2328 2329 2330 2331 2332 2333 2334 2335 2336 2337 2338 2339 2340 2341 2342 2343 2344 2345 2346 2347 2348 2349 2350 2351 2352 2353 2354 2355 2356 2357 2358 2359 2360 2361 2362 2363 2364 2365 2366 2367 2368 2369 2370 2371 2372 2373 2374 2375 2376 2377 2378 2379 2380 2381 2382 2383 2384 2385 2386 2387 2388 2389 2390 2391 2392 2393 2394 2395 2396 2397 2398 2399 2400 2401 2402 2403 2404 2405 2406 2407 2408 2409 2410 2411 2412 2413 2414 2415 2416 2417 2418 2419 2420 2421 2422 2423 2424 2425 2426 2427 2428 2429 2430 2431 2432 2433 2434 2435 2436 2437 2438 2439 2440 2441 2442 2443 2444 2445 2446 2447 2448 2449 2450 2451 2452 2453 2454 2455 2456 2457 2458 2459 2460 2461 2462 2463 2464 2465 2466 2467 2468 2469 2470 2471 2472 2473 2474 2475 2476 2477 2478 2479 2480 2481 2482 2483 2484 2485 2486 2487 2488 2489 2490 2491 2492 2493 2494 2495 2496 2497 2498 2499 2500 2501 2502 2503 2504 2505 2506 2507 2508 2509 2510 2511 2512 2513 2514 2515 2516 2517 2518 2519 2520 2521 2522 2523 2524 2525 2526 2527 2528 2529 2530 2531 2532 2533 2534 2535 2536 2537 2538 2539 2540 2541 2542 2543 2544 2545 2546 2547 2548 2549 2550 2551 2552 2553 2554 2555 2556 2557 2558 2559 2560 2561 2562 2563 2564 2565 2566 2567 2568 2569 2570 2571 2572 2573 2574 2575 2576 2577 2578 2579 2580 2581 2582 2583 2584 2585 2586 2587 2588 2589 2590 2591 2592 2593 2594 2595 2596 2597 2598 2599 2600 2601 2602 2603 2604 2605 2606 2607 2608 2609 2610 2611 2612 2613 2614 2615 2616 2617 2618 2619 2620 2621 2622 2623 2624 2625 2626 2627 2628 2629 2630 2631 2632 2633 2634 2635 2636 2637 2638 2639 2640 2641 2642 2643 2644 2645 2646 2647 2648 2649 2650 2651 2652 2653 2654 2655 2656 2657 2658 2659 2660 2661 2662 2663 2664 2665 2666 2667 2668 2669 2670 2671 2672 2673 2674 2675 2676 2677 2678 2679 2680 2681 2682 2683 2684 2685 2686 2687 2688 2689 2690 2691 2692 2693 2694 2695 2696 2697 2698 2699 2700 2701 2702 2703 2704 2705 2706 2707 2708 2709 2710 2711 2712 2713 2714 2715 2716 2717 2718 2719 2720 2721 2722 2723 2724 2725 2726 2727 2728 2729 2730 2731 2732 2733 2734 2735 2736 2737 2738 2739 2740 2741 2742 2743 2744 2745 2746 2747 2748 2749 2750 2751 2752 2753 2754 2755 2756 2757 2758 2759 2760 2761 2762 2763 2764 2765 2766 2767 2768 2769 2770 2771 2772 2773 2774 2775 2776 2777 2778 2779 2780 2781 2782 2783 2784 2785 2786 2787 2788 2789 2790 2791 2792 2793 2794 2795 2796 2797 2798 2799 2800 2801 2802 2803 2804 2805 2806 2807 2808 2809 2810 2811 2812 2813 2814 2815 2816 2817 2818 2819 2820 2821 2822 2823 2824 2825 2826 2827 2828 2829 2830 2831 2832 2833 2834 2835 2836 2837 2838 2839 2840 2841 2842 2843 2844 2845 2846 2847 2848 2849 2850 2851 2852 2853 2854 2855 2856 2857 2858 2859 2860 2861 2862 2863 2864 2865 2866 2867 2868 2869 2870 2871 2872 2873 2874 2875 2876 2877 2878 2879 2880 2881 2882 2883 2884 2885 2886 2887 2888 2889 2890 2891 2892 2893 2894 2895 2896 2897 2898 2899 2900 2901 2902 2903 2904 2905 2906 2907 2908 2909 2910 2911 2912 2913 2914 2915 2916 2917 2918 2919 2920 2921 2922 2923 2924 2925 2926 2927 2928 2929 2930 2931 2932 2933 2934 2935 2936 2937 2938 2939 2940 2941 2942 2943 2944 2945 2946 2947 2948 2949 2950 2951 2952 2953 2954 2955 2956 2957 2958 2959 2960 2961 2962 2963 2964 2965 2966 2967 2968 2969 2970 2971 2972 2973 2974 2975 2976 2977 2978 2979 2980 2981 2982 2983 2984 2985 2986 2987 2988 2989 2990 2991 2992 2993 2994 2995 2996 2997 2998 2999 3000 3001 3002 3003 3004 3005 3006 3007 3008 3009 3010 3011 3012 3013 3014 3015 3016 3017 3018 3019 3020 3021 3022 3023 3024 3025 3026 3027 3028 3029 3030 3031 3032 3033 3034 3035 3036 3037 3038 3039 3040 3041 3042 3043 3044 3045 3046 3047 3048 3049 3050 3051 3052 3053 3054 3055 3056 3057 3058 3059 3060 3061 3062 3063 3064 3065 3066 3067 3068 3069 3070 3071 3072 3073 3074 3075 3076 3077 3078 3079 3080 3081 3082 3083 3084 3085 3086 3087 3088 3089 3090 3091 3092 3093 3094 3095 3096 3097 3098 3099 3100 3101 3102 3103 3104 3105 3106 3107 3108 3109 3110 3111 3112 3113 3114 3115 3116 3117 3118 3119 3120 3121 3122 3123 3124 3125 3126 3127 3128 3129 3130 3131 3132 3133 3134 3135 3136 3137 3138 3139 3140 3141 3142 3143 3144 3145 3146 3147 3148 3149 3150 3151 3152 3153 3154 3155 3156 3157 3158 3159 3160 3161 3162 3163 3164 3165 3166 3167 3168 3169 3170 3171 3172 3173 3174 3175 3176 3177 3178 3179 3180 3181 3182 3183 3184 3185 3186 3187 3188 3189 3190 3191 3192 3193 3194 3195 3196 3197 3198 3199 3200 3201 3202 3203 3204 3205 3206 3207 3208 3209 3210 3211 3212 3213 3214 3215 3216 3217 3218 3219 3220 3221 3222 3223 3224 3225 3226 3227 3228 3229 3230 3231 3232 3233 3234 3235 3236 3237 3238 3239 3240 3241 3242 3243 3244 3245 3246 3247 3248 3249 3250 3251 3252 3253 3254 3255 3256 3257 3258 3259 3260 3261 3262 3263 3264 3265 3266 3267 3268 3269 3270 3271 3272 3273 3274 3275 3276 3277 3278 3279 3280 3281 3282 3283 3284 3285 3286 3287 3288 3289 3290 3291 3292 3293 3294 3295 3296 3297 3298 3299 3300 3301 3302 3303 3304 3305 3306 3307 3308 3309 3310 3311 3312 3313 3314 3315 3316 3317 3318 3319 3320 3321 3322 3323 3324 3325 3326 3327 3328 3329 3330 3331 3332 3333 3334 3335 3336 3337 3338 3339 3340 3341 3342 3343 3344 3345 3346 3347 3348 3349 3350 3351 3352 3353 3354 3355 3356 3357 3358 3359 3360 3361 3362 3363 3364 3365 3366 3367 3368 3369 3370 3371 3372 3373 3374 3375 3376 3377 3378 3379 3380 3381 3382 3383 3384 3385 3386 3387 3388 3389 3390 3391 3392 3393 3394 3395 3396 3397 3398 3399 3400 3401 3402 3403 3404 3405 3406 3407 3408 3409 3410 3411 3412 3413 3414 3415 3416 3417 3418 3419 3420 3421 3422 3423 3424 3425 3426 3427 3428 3429 3430 3431 3432 3433 3434 3435 3436 3437 3438 3439 3440 3441 3442 3443 3444 3445 3446 3447 3448 3449 3450 3451 3452 3453 3454 3455 3456 3457 3458 3459 3460 3461 3462 3463 3464 3465 3466 3467 3468 3469 3470 3471 3472 3473 3474 3475 3476 3477 3478 3479 3480 3481 3482 3483 3484 3485 3486 3487 3488 3489 3490 3491 3492 3493 3494 3495 3496 3497 3498 3499 3500 3501 3502 3503 3504 3505 3506 3507 3508 3509 3510 3511 3512 3513 3514 3515 3516 3517 3518 3519 3520 3521 3522 3523 3524 3525 3526 3527 3528 3529 3530 3531 3532 3533 3534 3535 3536 3537 3538 3539 3540 3541 3542 3543 3544 3545 3546 3547 3548 3549 3550 3551 3552 3553 3554 3555 3556 3557 3558 3559 3560 3561 3562 3563 3564 3565 3566 3567 3568 3569 3570 3571 3572 3573 3574 3575 3576 3577 3578 3579 3580 3581 3582 3583 3584 3585 3586 3587 3588 3589 3590 3591 3592 3593 3594 3595 3596 3597 3598 3599 3600 3601 3602 3603 3604 3605 3606 3607 3608 3609 3610 3611 3612 3613 3614 3615 3616 3617 3618 3619 3620 3621 3622 3623 3624 3625 3626 3627 3628 3629 3630 3631 3632 3633 3634 3635 3636 3637 3638 3639 3640 3641 3642 3643 3644 3645 3646 3647 3648 3649 3650 3651 3652 3653 3654 3655 3656 3657 3658 3659 3660 3661 3662 3663 3664 3665 3666 3667 3668 3669 3670 3671 3672 3673 3674 3675 3676 3677 3678 3679 3680 3681 3682 3683 3684 3685 3686 3687 3688 3689 3690 3691 3692 3693 3694 3695 3696 3697 3698 3699 3700 3701 3702 3703 3704 3705 3706 3707 3708 3709 3710 3711 3712 3713 3714 3715 3716 3717 3718 3719 3720 3721 3722 3723 3724 3725 3726 3727 3728 3729 3730 3731 3732 3733 3734 3735 3736 3737 3738 3739 3740 3741 3742 3743 3744 3745 3746 3747 3748 3749 3750 3751 3752 3753 3754 3755 3756 3757 3758 3759 3760 3761 3762 3763 3764 3765 3766 3767 3768 3769 3770 3771 3772 3773 3774 3775 3776 3777 3778 3779 3780 3781 3782 3783 3784 3785 3786 3787 3788 3789 3790 3791 3792 3793 3794 3795 3796 3797 3798 3799 3800 3801 3802 3803 3804 3805 3806 3807 3808 3809 3810 3811 3812 3813 3814 3815 3816 3817 3818 3819 3820 3821 3822 3823 3824 3825 3826 3827 3828 3829 3830 3831 3832 3833 3834 3835 3836 3837 3838 3839 3840 3841 3842 3843 3844 3845 3846 3847 3848 3849 3850 3851 3852 3853 3854 3855 3856 3857 3858 3859 3860 3861 3862 3863 3864 3865 3866 3867 3868 3869 3870 3871 3872 3873 3874 3875 3876 3877 3878 3879 3880 3881 3882 3883 3884 3885 3886 3887 3888 3889 3890 3891 3892 3893 3894 3895 3896 3897 3898 3899 3900 3901 3902 3903 3904 3905 3906 3907 3908 3909 3910 3911 3912 3913 3914 3915 3916 3917 3918 3919 3920 3921 3922 3923 3924 3925 3926 3927 3928 3929 3930 3931 3932 3933 3934 3935 3936 3937 3938 3939 3940 3941 3942 3943 3944 3945 3946 3947 3948 3949 3950 3951 3952 3953 3954 3955 3956 3957 3958 3959 3960 3961 3962 3963 3964 3965 3966 3967 3968 3969 3970 3971 3972 3973 3974 3975 3976 3977 3978 3979 3980 3981 3982 3983 3984 3985 3986 3987 3988 3989 3990 3991 3992 3993 3994 3995 3996 3997 3998 3999 4000 4001 4002 4003 4004 4005 4006 4007 4008 4009 4010 4011 4012 4013 4014 4015 4016 4017 4018 4019 4020 4021 4022 4023 4024 4025 4026 4027 4028 4029 4030 4031 4032 4033 4034 4035 4036 4037 4038 4039 4040 4041 4042 4043 4044 4045 4046 4047 4048 4049 4050 4051 4052 4053 4054 4055 4056 4057 4058 4059 4060 4061 4062 4063 4064 4065 4066 4067 4068 4069 4070 4071 4072 4073 4074 4075 4076 4077 4078 4079 4080 4081 4082 4083 4084 4085 4086 4087 4088 4089 4090 4091 4092 4093 4094 4095 4096 4097 4098 4099 4100 4101 4102 4103 4104 4105 4106 4107 4108 4109 4110 4111 4112 4113 4114 4115 4116 4117 4118 4119 4120 4121 4122 4123 4124 4125 4126 4127 4128 4129 4130 4131 4132 4133 4134 4135 4136 4137 4138 4139 4140 4141 4142 4143 4144 4145 4146 4147 4148 4149 4150 4151 4152 4153 4154 4155 4156 4157 4158 4159 4160 4161 4162 4163 4164 4165 4166 4167 4168 4169 4170 4171 4172 4173 4174 4175 4176 4177 4178 4179 4180 4181 4182 4183 4184 4185 4186 4187 4188 4189 4190 4191 4192 4193 4194 4195 4196 4197 4198 4199 4200 4201 4202 4203 4204 4205 4206 4207 4208 4209 4210 4211 4212 4213 4214 4215 4216 4217 4218 4219 4220 4221 4222 4223 4224 4225 4226 4227 4228 4229 4230 4231 4232 4233 4234 4235 4236 4237 4238 4239 4240 4241 4242 4243 4244 4245 4246 4247 4248 4249 4250 4251 4252 4253 4254 4255 4256 4257 4258 4259 4260 4261 4262 4263 4264 4265 4266 4267 4268 4269 4270 4271 4272 4273 4274 4275 4276 4277 4278 4279 4280 4281 4282 4283 4284 4285 4286 4287 4288 4289 4290 4291 4292 4293 4294 4295 4296 4297 4298 4299 4300 4301 4302 4303 4304 4305 4306 4307 4308 4309 4310 4311 4312 4313 4314 4315 4316 4317 4318 4319 4320 4321 4322 4323 4324 4325 4326 4327 4328 4329 4330 4331 4332 4333 4334 4335 4336 4337 4338 4339 4340 4341 4342 4343 4344 4345 4346 4347 4348 4349 4350 4351 4352 4353 4354 4355 4356 4357 4358 4359 4360 4361 4362 4363 4364 4365 4366 4367 4368 4369 4370 4371 4372 4373 4374 4375 4376 4377 4378 4379 4380 4381 4382 4383 4384 4385 4386 4387 4388 4389 4390 4391 4392 4393 4394 4395 4396 4397 4398 4399 4400 4401 4402 4403 4404 4405 4406 4407 4408 4409 4410 4411 4412 4413 4414 4415 4416 4417 4418 4419 4420 4421 4422 4423 4424 4425 4426 4427 4428 4429 4430 4431 4432 4433 4434 4435 4436 4437 4438 4439 4440 4441 4442 4443 4444 4445 4446 4447 4448 4449 4450 4451 4452 4453 4454 4455 4456 4457 4458 4459 4460 4461 4462 4463 4464 4465 4466 4467 4468 4469 4470 4471 4472 4473 4474 4475 4476 4477 4478 4479 4480 4481 4482 4483 4484 4485 4486 4487 4488 4489 4490 4491 4492 4493 4494 4495 4496 4497 4498 4499 4500 4501 4502 4503 4504 4505 4506 4507 4508 4509 4510 4511 4512 4513 4514 4515 4516 4517 4518 4519 4520 4521 4522 4523 4524 4525 4526 4527 4528 4529 4530 4531 4532 4533 4534 4535 4536 4537 4538 4539 4540 4541 4542 4543 4544 4545 4546 4547 4548 4549 4550 4551 4552 4553 4554 4555 4556 4557 4558 4559 4560 4561 4562 4563 4564 4565 4566 4567 4568 4569 4570 4571 4572 4573 4574 4575 4576 4577 4578 4579 4580 4581 4582 4583 4584 4585 4586 4587 4588 4589 4590 4591 4592 4593 4594 4595 4596 4597 4598 4599 4600 4601 4602 4603 4604 4605 4606 4607 4608 4609 4610 4611 4612 4613 4614 4615 4616 4617 4618 4619 4620 4621 4622 4623 4624 4625 4626 4627 4628 4629 4630 4631 4632 4633 4634 4635 4636 4637 4638 4639 4640 4641 4642 4643 4644 4645 4646 4647 4648 4649 4650 4651 4652 4653 4654 4655 4656 4657 4658 4659 4660 4661 4662 4663 4664 4665 4666 4667 4668 4669 4670 4671 4672 4673 4674 4675 4676 4677 4678 4679 4680 4681 4682 4683 4684 4685 4686 4687 4688 4689 4690 4691 4692 4693 4694 4695 4696 4697 4698 4699 4700 4701 4702 4703 4704 4705 4706 4707 4708 4709 4710 4711 4712 4713 4714 4715 4716 4717 4718 4719 4720 4721 4722 4723 4724 4725 4726 4727 4728 4729 4730 4731 4732 4733 4734 4735 4736 4737 4738 4739 4740 4741 4742 4743 4744 4745 4746 4747 4748 4749 4750 4751 4752 4753 4754 4755 4756 4757 4758 4759 4760 4761 4762 4763 4764 4765 4766 4767 4768 4769 4770 4771 4772 4773 4774 4775 4776 4777 4778 4779 4780 4781 4782 4783 4784 4785 4786 4787 4788 4789 4790 4791 4792 4793 4794 4795 4796 4797 4798 4799 4800 4801 4802 4803 4804 4805 4806 4807 4808 4809 4810 4811 4812 4813 4814 4815 4816 4817 4818 4819 4820 4821 4822 4823 4824 4825 4826 4827 4828 4829 4830 4831 4832 4833 4834 4835 4836 4837 4838 4839 4840 4841 4842 4843 4844 4845 4846 4847 4848 4849 4850 4851 4852 4853 4854 4855 4856 4857 4858 4859 4860 4861 4862 4863 4864 4865 4866 4867 4868 4869 4870 4871 4872 4873 4874 4875 4876 4877 4878 4879 4880 4881 4882 4883 4884 4885 4886 4887 4888 4889 4890 4891 4892 4893 4894 4895 4896 4897 4898 4899 4900 4901 4902 4903 4904 4905 4906 4907 4908 4909 4910 4911 4912 4913 4914 4915 4916 4917 4918 4919 4920 4921 4922 4923 4924 4925 4926 4927 4928 4929 4930 4931 4932 4933 4934 4935 4936 4937 4938 4939 4940 4941 4942 4943 4944 4945 4946 4947 4948 4949 4950 4951 4952 4953 4954 4955 4956 4957 4958 4959 4960 4961 4962 4963 4964 4965 4966 4967 4968 4969 4970 4971 4972 4973 4974 4975 4976 4977 4978 4979 4980 4981 4982 4983 4984 4985 4986 4987 4988 4989 4990 4991 4992 4993 4994 4995 4996 4997 4998 4999 5000 5001 5002 5003 5004 5005 5006 5007 5008 5009 5010 5011 5012 5013 5014 5015 5016 5017 5018 5019 5020 5021 5022 5023 5024 5025 5026 5027 5028 5029 5030 5031 5032 5033 5034 5035 5036 5037 5038 5039 5040 5041 5042 5043 5044 5045 5046 5047 5048 5049 5050 5051 5052 5053 5054 5055 5056 5057 5058 5059 5060 5061 5062 5063 5064 5065 5066 5067 5068 5069 5070 5071 5072 5073 5074 5075 5076 5077 5078 5079 5080 5081 5082 5083 5084 5085 5086 5087 5088 5089 5090 5091 5092 5093 5094 5095 5096 5097 5098 5099 5100 5101 5102 5103 5104 5105 5106 5107 5108 5109 5110 5111 5112 5113 5114 5115 5116 5117 5118 5119 5120 5121 5122 5123 5124 5125 5126 5127 5128 5129 5130 5131 5132 5133 5134 5135 5136 5137 5138 5139 5140 5141 5142 5143 5144 5145 5146 5147 5148 5149 5150 5151 5152 5153 5154 5155 5156 5157 5158 5159 5160 5161 5162 5163 5164 5165 5166 5167 5168 5169 5170 5171 5172 5173 5174 5175 5176 5177 5178 5179 5180 5181 5182 5183 5184 5185 5186 5187 5188 5189 5190 5191 5192 5193 5194 5195 5196 5197 5198 5199 5200 5201 5202 5203 5204 5205 5206 5207 5208 5209 5210 5211 5212 5213 5214 5215 5216 5217 5218 5219 5220 5221 5222 5223 5224 5225 5226 5227 5228 5229 5230 5231 5232 5233 5234 5235 5236 5237 5238 5239 5240 5241 5242 5243 5244 5245 5246 5247 5248 5249 5250 5251 5252 5253 5254 5255 5256 5257 5258 5259 5260 5261 5262 5263 5264 5265 5266 5267 5268 5269 5270 5271 5272 5273 5274 5275 5276 5277 5278 5279 5280 5281 5282 5283 5284 5285 5286 5287 5288 5289 5290 5291 5292 5293 5294 5295 5296 5297 5298 5299 5300 5301 5302 5303 5304 5305 5306 5307 5308 5309 5310 5311 5312 5313 5314 5315 5316 5317 5318 5319 5320 5321 5322 5323 5324 5325 5326 5327 5328 5329 5330 5331 5332 5333 5334 5335 5336 5337 5338 5339 5340 5341 5342 5343 5344 5345 5346 5347 5348 5349 5350 5351 5352 5353 5354 5355 5356 5357 5358 5359 5360 5361 5362 5363 5364 5365 5366 5367 5368 5369 5370 5371 5372 5373 5374 5375 5376 5377 5378 5379 5380 5381 5382 5383 5384 5385 5386 5387 5388 5389 5390 5391 5392 5393 5394 5395 5396 5397 5398 5399 5400 5401 5402 5403 5404 5405 5406 5407 5408 5409 5410 5411 5412 5413 5414 5415 5416 5417 5418 5419 5420 5421 5422 5423 5424 5425 5426 5427 5428 5429 5430 5431 5432 5433 5434 5435 5436 5437 5438 5439 5440 5441 5442 5443 5444 5445 5446 5447 5448 5449 5450 5451 5452 5453 5454 5455 5456 5457 5458 5459 5460 5461 5462 5463 5464 5465 5466 5467 5468 5469 5470 5471 5472 5473 5474 5475 5476 5477 5478 5479 5480 5481 5482 5483 5484 5485 5486 5487 5488 5489 5490 5491 5492 5493 5494 5495 5496 5497 5498 5499 5500 5501 5502 5503 5504 5505 5506 5507 5508 5509 5510 5511 5512 5513 5514 5515 5516 5517 5518 5519 5520 5521 5522 5523 5524 5525 5526 5527 5528 5529 5530 5531 5532 5533 5534 5535 5536 5537 5538 5539 5540 5541 5542 5543 5544 5545 5546 5547 5548 5549 5550 5551 5552 5553 5554 5555 5556 5557 5558 5559 5560 5561 5562 5563 5564 5565 5566 5567 5568 5569 5570 5571 5572 5573 5574 5575 5576 5577 5578 5579 5580 5581 5582 5583 5584 5585 5586 5587 5588 5589 5590 5591 5592 5593 5594 5595 5596 5597 5598 5599 5600 5601 5602 5603 5604 5605 5606 5607 5608 5609 5610 5611 5612 5613 5614 5615 5616 5617 5618 5619 5620 5621 5622 5623 5624 5625 5626 5627 5628 5629 5630 5631 5632 5633 5634 5635 5636 5637 5638 5639 5640 5641 5642 5643 5644 5645 5646 5647 5648 5649 5650 5651 5652 5653 5654 5655 5656 5657 5658 5659 5660 5661 5662 5663 5664 5665 5666 5667 5668 5669 5670 5671 5672 5673 5674 5675 5676 5677 5678 5679 5680 5681 5682 5683 5684 5685 5686 5687 5688 5689 5690 5691 5692 5693 5694 5695 5696 5697 5698 5699 5700 5701 5702 5703 5704 5705 5706 5707 5708 5709 5710 5711 5712 5713 5714 5715 5716 5717 5718 5719 5720 5721 5722 5723 5724 5725 5726 5727 5728 5729 5730 5731 5732 5733 5734 5735 5736 5737 5738 5739 5740 5741 5742 5743 5744 5745 5746 5747 5748 5749 5750 5751 5752 5753 5754 5755 5756 5757 5758 5759 5760 5761 5762 5763 5764 5765 5766 5767 5768 5769 5770 5771 5772 5773 5774 5775 5776 5777 5778 5779 5780 5781 5782 5783 5784 5785 5786 5787 5788 5789 5790 5791 5792 5793 5794 5795 5796 5797 5798 5799 5800 5801 5802 5803 5804 5805 5806 5807 5808 5809 5810 5811 5812 5813 5814 5815 5816 5817 5818 5819 5820 5821 5822 5823 5824 5825 5826 5827 5828 5829 5830 5831 5832 5833 5834 5835 5836 5837 5838 5839 5840 5841 5842 5843 5844 5845 5846 5847 5848 5849 5850 5851 5852 5853 5854 5855 5856 5857 5858 5859 5860 5861 5862 5863 5864 5865 5866 5867 5868 5869 5870 5871 5872 5873 5874 5875 5876 5877 5878 5879 5880 5881 5882 5883 5884 5885 5886 5887 5888 5889 5890 5891 5892 5893 5894 5895 5896 5897 5898 5899 5900 5901 5902 5903 5904 5905 5906 5907 5908 5909 5910 5911 5912 5913 5914 5915 5916 5917 5918 5919 5920 5921 5922 5923 5924 5925 5926 5927 5928 5929 5930 5931 5932 5933 5934 5935 5936 5937 5938 5939 5940 5941 5942 5943 5944 5945 5946 5947 5948 5949 5950 5951 5952 5953 5954 5955 5956 5957 5958 5959 5960 5961 5962 5963 5964 5965 5966 5967 5968 5969 5970 5971 5972 5973 5974 5975 5976 5977 5978 5979 5980 5981 5982 5983 5984 5985 5986 5987 5988 5989 5990 5991 5992 5993 5994 5995 5996 5997 5998 5999 6000 6001 6002 6003 6004 6005 6006 6007 6008 6009 6010 6011 6012 6013 6014 6015 6016 6017 6018 6019 6020 6021 6022 6023 6024 6025 6026 6027 6028 6029 6030 6031 6032 6033 6034 6035 6036 6037 6038 6039 6040 6041 6042 6043 6044 6045 6046 6047 6048 6049 6050 6051 6052 6053 6054 6055 6056 6057 6058 6059 6060 6061 6062 6063 6064 6065 6066 6067 6068 6069 6070 6071 6072 6073 6074 6075 6076 6077 6078 6079 6080 6081 6082 6083 6084 6085 6086 6087 6088 6089 6090 6091 6092 6093 6094 6095 6096 6097 6098 6099 6100 6101 6102 6103 6104 6105 6106 6107 6108 6109 6110 6111 6112 6113 6114 6115 6116 6117 6118 6119 6120 6121 6122 6123 6124 6125 6126 6127 6128 6129 6130 6131 6132 6133 6134 6135 6136 6137 6138 6139 6140 6141 6142 6143 6144 6145 6146 6147 6148 6149 6150 6151 6152 6153 6154 6155 6156 6157 6158 6159 6160 6161 6162 6163 6164 6165 6166 6167 6168 6169 6170 6171 6172 6173 6174 6175 6176 6177 6178 6179 6180 6181 6182 6183 6184 6185 6186 6187 6188 6189 6190 6191 6192 6193 6194 6195 6196 6197 6198 6199 6200 6201 6202 6203 6204 6205 6206 6207 6208 6209 6210 6211 6212 6213 6214 6215 6216 6217 6218 6219 6220 6221 6222 6223 6224 6225 6226 6227 6228 6229 6230 6231 6232 6233 6234 6235 6236 6237 6238 6239 6240 6241 6242 6243 6244 6245 6246 6247 6248 6249 6250 6251 6252 6253 6254 6255 6256 6257 6258 6259 6260 6261 6262 6263 6264 6265 6266 6267 6268 6269 6270 6271 6272 6273 6274 6275 6276 6277 6278 6279 6280 6281 6282 6283 6284 6285 6286 6287 6288 6289 6290 6291 6292 6293 6294 6295 6296 6297 6298 6299 6300 6301 6302 6303 6304 6305 6306 6307 6308 6309 6310 6311 6312 6313 6314 6315 6316 6317 6318 6319 6320 6321 6322 6323 6324 6325 6326 6327 6328 6329 6330 6331 6332 6333 6334 6335 6336 6337 6338 6339 6340 6341 6342 6343 6344 6345 6346 6347 6348 6349 6350 6351 6352 6353 6354 6355 6356 6357 6358 6359 6360 6361 6362 6363 6364 6365 6366 6367 6368 6369 6370 6371 6372 6373 6374 6375 6376 6377 6378 6379 6380 6381 6382 6383 6384 6385 6386 6387 6388 6389 6390 6391 6392 6393 6394 6395 6396 6397 6398 6399 6400 6401 6402 6403 6404 6405 6406 6407 6408 6409 6410 6411 6412 6413 6414 6415 6416 6417 6418 6419 6420 6421 6422 6423 6424 6425 6426 6427 6428 6429 6430 6431 6432 6433 6434 6435 6436 6437 6438 6439 6440 6441 6442 6443 6444 6445 6446 6447 6448 6449 6450 6451 6452 6453 6454 6455 6456 6457 6458 6459 6460 6461 6462 6463 6464 6465 6466 6467 6468 6469 6470 6471 6472 6473 6474 6475 6476 6477 6478 6479 6480 6481 6482 6483 6484 6485 6486 6487 6488 6489 6490 6491 6492 6493 6494 6495 6496 6497 6498 6499 6500 6501 6502 6503 6504 6505 6506 6507 6508 6509 6510 6511 6512 6513 6514 6515 6516 6517 6518 6519 6520 6521 6522 6523 6524 6525 6526 6527 6528 6529 6530 6531 6532 6533 6534 6535 6536 6537 6538 6539 6540 6541 6542 6543 6544 6545 6546 6547 6548 6549 6550 6551 6552 6553 6554 6555 6556 6557 6558 6559 6560 6561 6562 6563 6564 6565 6566 6567 6568 6569 6570 6571 6572 6573 6574 6575 6576 6577 6578 6579 6580 6581 6582 6583 6584 6585 6586 6587 6588 6589 6590 6591 6592 6593 6594 6595 6596 6597 6598 6599 6600 6601 6602 6603 6604 6605 6606 6607 6608 6609 6610 6611 6612 6613 6614 6615 6616 6617 6618 6619 6620 6621 6622 6623 6624 6625 6626 6627 6628 6629 6630 6631 6632 6633 6634 6635 6636 6637 6638 6639 6640 6641 6642 6643 6644 6645 6646 6647 6648 6649 6650 6651 6652 6653 6654 6655 6656 6657 6658 6659 6660 6661 6662 6663 6664 6665 6666 6667 6668 6669 6670 6671 6672 6673 6674 6675 6676 6677 6678 6679 6680 6681 6682 6683 6684 6685 6686 6687 6688 6689 6690 6691 6692 6693 6694 6695 6696 6697 6698 6699 6700 6701 6702 6703 6704 6705 6706 6707 6708 6709 6710 6711 6712 6713 6714 6715 6716 6717 6718 6719 6720 6721 6722 6723 6724 6725 6726 6727 6728 6729 6730 6731 6732 6733 6734 6735 6736 6737 6738 6739 6740 6741 6742 6743 6744 6745 6746 6747 6748 6749 6750 6751 6752 6753 6754 6755 6756 6757 6758 6759 6760 6761 6762 6763 6764 6765 6766 6767 6768 6769 6770 6771 6772 6773 6774 6775 6776 6777 6778 6779 6780 6781 6782 6783 6784 6785 6786 6787 6788 6789 6790 6791 6792 6793 6794 6795 6796 6797 6798 6799 6800 6801 6802 6803 6804 6805 6806 6807 6808 6809 6810 6811 6812 6813 6814 6815 6816 6817 6818 6819 6820 6821 6822 6823 6824 6825 6826 6827 6828 6829 6830 6831 6832 6833 6834 6835 6836 6837 6838 6839 6840 6841 6842 6843 6844 6845 6846 6847 6848 6849 6850 6851 6852 6853 6854 6855 6856 6857 6858 6859 6860 6861 6862 6863 6864 6865 6866 6867 6868 6869 6870 6871 6872 6873 6874 6875 6876 6877 6878 6879 6880 6881 6882 6883 6884 6885 6886 6887 6888 6889 6890 6891 6892 6893 6894 6895 6896 6897 6898 6899 6900 6901 6902 6903 6904 6905 6906 6907 6908 6909 6910 6911 6912 6913 6914 6915 6916 6917 6918 6919 6920 6921 6922 6923 6924 6925 6926 6927 6928 6929 6930 6931 6932 6933 6934 6935 6936 6937 6938 6939 6940 6941 6942 6943 6944 6945 6946 6947 6948 6949 6950 6951 6952 6953 6954 6955 6956 6957 6958 6959 6960 6961 6962 6963 6964 6965 6966 6967 6968 6969 6970 6971 6972 6973 6974 6975 6976 6977 6978 6979 6980 6981 6982 6983 6984 6985 6986 6987 6988 6989 6990 6991 6992 6993 6994 6995 6996 6997 6998 6999 7000 7001 7002 7003 7004 7005 7006 7007 7008 7009 7010 7011 7012 7013 7014 7015 7016 7017 7018 7019 7020 7021 7022 7023 7024 7025 7026 7027 7028 7029 7030 7031 7032 7033 7034 7035 7036 7037 7038 7039 7040 7041 7042 7043 7044 7045 7046 7047 7048 7049 7050 7051 7052 7053 7054 7055 7056 7057 7058 7059 7060 7061 7062 7063 7064 7065 7066 7067 7068 7069 7070 7071 7072 7073 7074 7075 7076 7077 7078 7079 7080 7081 7082 7083 7084 7085 7086 7087 7088 7089 7090 7091 7092 7093 7094 7095 7096 7097 7098 7099 7100 7101 7102 7103 7104 7105 7106 7107 7108 7109 7110 7111 7112 7113 7114 7115 7116 7117 7118 7119 7120 7121 7122 7123 7124 7125 7126 7127 7128 7129 7130 7131 7132 7133 7134 7135 7136 7137 7138 7139 7140 7141 7142 7143 7144 7145 7146 7147 7148 7149 7150 7151 7152 7153 7154 7155 7156 7157 7158 7159 7160 7161 7162 7163 7164 7165 7166 7167 7168 7169 7170 7171 7172 7173 7174 7175 7176 7177 7178 7179 7180 7181 7182 7183 7184 7185 7186 7187 7188 7189 7190 7191 7192 7193 7194 7195 7196 7197 7198 7199 7200 7201 7202 7203 7204 7205 7206 7207 7208 7209 7210 7211 7212 7213 7214 7215 7216 7217 7218 7219 7220 7221 7222 7223 7224 7225 7226 7227 7228 7229 7230 7231 7232 7233 7234 7235 7236 7237 7238 7239 7240 7241 7242 7243 7244 7245 7246 7247 7248 7249 7250 7251 7252 7253 7254 7255 7256 7257 7258 7259 7260 7261 7262 7263 7264 7265 7266 7267 7268 7269 7270 7271 7272 7273 7274 7275 7276 7277 7278 7279 7280 7281 7282 7283 7284 7285 7286 7287 7288 7289 7290 7291 7292 7293 7294 7295 7296 7297 7298 7299 7300 7301 7302 7303 7304 7305 7306 7307 7308 7309 7310 7311 7312 7313 7314 7315 7316 7317 7318 7319 7320 7321 7322 7323 7324 7325 7326 7327 7328 7329 7330 7331 7332 7333 7334 7335 7336 7337 7338 7339 7340 7341 7342 7343 7344 7345 7346 7347 7348 7349 7350 7351 7352 7353 7354 7355 7356 7357 7358 7359 7360 7361 7362 7363 7364 7365 7366 7367 7368 7369 7370 7371 7372 7373 7374 7375 7376 7377 7378 7379 7380 7381 7382 7383 7384 7385 7386 7387 7388 7389 7390 7391 7392 7393 7394 7395 7396 7397 7398 7399 7400 7401 7402 7403 7404 7405 7406 7407 7408 7409 7410 7411 7412 7413 7414 7415 7416 7417 7418 7419 7420 7421 7422 7423 7424 7425 7426 7427 7428 7429 7430 7431 7432 7433 7434 7435 7436 7437 7438 7439 7440 7441 7442 7443 7444 7445 7446 7447 7448 7449 7450 7451 7452 7453 7454 7455 7456 7457 7458 7459 7460 7461 7462 7463 7464 7465 7466 7467 7468 7469 7470 7471 7472 7473 7474 7475 7476 7477 7478 7479 7480 7481 7482 7483 7484 7485 7486 7487 7488 7489 7490 7491 7492 7493 7494 7495 7496 7497 7498 7499 7500 7501 7502 7503 7504 7505 7506 7507 7508 7509 7510 7511 7512 7513 7514 7515 7516 7517 7518 7519 7520 7521 7522 7523 7524 7525 7526 7527 7528 7529 7530 7531 7532 7533 7534 7535 7536 7537 7538 7539 7540 7541 7542 7543 7544 7545 7546 7547 7548 7549 7550 7551 7552 7553 7554 7555 7556 7557 7558 7559 7560 7561 7562 7563 7564 7565 7566 7567 7568 7569 7570 7571 7572 7573 7574 7575 7576 7577 7578 7579 7580 7581 7582 7583 7584 7585 7586 7587 7588 7589 7590 7591 7592 7593 7594 7595 7596 7597 7598 7599 7600 7601 7602 7603 7604 7605 7606 7607 7608 7609 7610 7611 7612 7613 7614 7615 7616 7617 7618 7619 7620 7621 7622 7623 7624 7625 7626 7627 7628 7629 7630 7631 7632 7633 7634 7635 7636 7637 7638 7639 7640 7641 7642 7643 7644 7645 7646 7647 7648 7649 7650 7651 7652 7653 7654 7655 7656 7657 7658 7659 7660 7661 7662 7663 7664 7665 7666 7667 7668 7669 7670 7671 7672 7673 7674 7675 7676 7677 7678 7679 7680 7681 7682 7683 7684 7685 7686 7687 7688 7689 7690 7691 7692 7693 7694 7695 7696 7697 7698 7699 7700 7701 7702 7703 7704 7705 7706 7707 7708 7709 7710 7711 7712 7713 7714 7715 7716 7717 7718 7719 7720 7721 7722 7723 7724 7725 7726 7727 7728 7729 7730 7731 7732 7733 7734 7735 7736 7737 7738 7739 7740 7741 7742 7743 7744 7745 7746 7747 7748 7749 7750 7751 7752 7753 7754 7755 7756 7757 7758 7759 7760 7761 7762 7763 7764 7765 7766 7767 7768 7769 7770 7771 7772 7773 7774 7775 7776 7777 7778 7779 7780 7781 7782 7783 7784 7785 7786 7787 7788 7789 7790 7791 7792 7793 7794 7795 7796 7797 7798 7799 7800 7801 7802 7803 7804 7805 7806 7807 7808 7809 7810 7811 7812 7813 7814 7815 7816 7817 7818 7819 7820 7821 7822 7823 7824 7825 7826 7827 7828 7829 7830 7831 7832 7833 7834 7835 7836 7837 7838 7839 7840 7841 7842 7843 7844 7845 7846 7847 7848 7849 7850 7851 7852 7853 7854 7855 7856 7857 7858 7859 7860 7861 7862 7863 7864 7865 7866 7867 7868 7869 7870 7871 7872 7873 7874 7875 7876 7877 7878 7879 7880 7881 7882 7883 7884 7885 7886 7887 7888 7889 7890 7891 7892 7893 7894 7895 7896 7897 7898 7899 7900 7901 7902 7903 7904 7905 7906 7907 7908 7909 7910 7911 7912 7913 7914 7915 7916 7917 7918 7919 7920 7921 7922 7923 7924 7925 7926 7927 7928 7929 7930 7931 7932 7933 7934 7935 7936 7937 7938 7939 7940 7941 7942 7943 7944 7945 7946 7947 7948 7949 7950 7951 7952 7953 7954 7955 7956 7957 7958 7959 7960 7961 7962 7963 7964 7965 7966 7967 7968 7969 7970 7971 7972 7973 7974 7975 7976 7977 7978 7979 7980 7981 7982 7983 7984 7985 7986 7987 7988 7989 7990 7991 7992 7993 7994 7995 7996 7997 7998 7999 8000 8001 8002 8003 8004 8005 8006 8007 8008 8009 8010 8011 8012 8013 8014 8015 8016 8017 8018 8019 8020 8021 8022 8023 8024 8025 8026 8027 8028 8029 8030 8031 8032 8033 8034 8035 8036 8037 8038 8039 8040 8041 8042 8043 8044 8045 8046 8047 8048 8049 8050 8051 8052 8053 8054 8055 8056 8057 8058 8059 8060 8061 8062 8063 8064 8065 8066 8067 8068 8069 8070 8071 8072 8073 8074 8075 8076 8077 8078 8079 8080 8081 8082 8083 8084 8085 8086 8087 8088 8089 8090 8091 8092 8093 8094 8095 8096 8097 8098 8099 8100 8101 8102 8103 8104 8105 8106 8107 8108 8109 8110 8111 8112 8113 8114 8115 8116 8117 8118 8119 8120 8121 8122 8123 8124 8125 8126 8127 8128 8129 8130 8131 8132 8133 8134 8135 8136 8137 8138 8139 8140 8141 8142 8143 8144 8145 8146 8147 8148 8149 8150 8151 8152 8153 8154 8155 8156 8157 8158 8159 8160 8161 8162 8163 8164 8165 8166 8167 8168 8169 8170 8171 8172 8173 8174 8175 8176 8177 8178 8179 8180 8181 8182 8183 8184 8185 8186 8187 8188 8189 8190 8191 8192 8193 8194 8195 8196 8197 8198 8199 8200 8201 8202 8203 8204 8205 8206 8207 8208 8209 8210 8211 8212 8213 8214 8215 8216 8217 8218 8219 8220 8221 8222 8223 8224 8225 8226 8227 8228 8229 8230 8231 8232 8233 8234 8235 8236 8237 8238 8239 8240 8241 8242 8243 8244 8245 8246 8247 8248 8249 8250 8251 8252 8253 8254 8255 8256 8257 8258 8259 8260 8261 8262 8263 8264 8265 8266 8267 8268 8269 8270 8271 8272 8273 8274 8275 8276 8277 8278 8279 8280 8281 8282 8283 8284 8285 8286 8287 8288 8289 8290 8291 8292 8293 8294 8295 8296 8297 8298 8299 8300 8301 8302 8303 8304 8305 8306 8307 8308 8309 8310 8311 8312 8313 8314 8315 8316 8317 8318 8319 8320 8321 8322 8323 8324 8325 8326 8327 8328 8329 8330 8331 8332 8333 8334 8335 8336 8337 8338 8339 8340 8341 8342 8343 8344 8345 8346 8347 8348 8349 8350 8351 8352 8353 8354 8355 8356 8357 8358 8359 8360 8361 8362 8363 8364 8365 8366 8367 8368 8369 8370 8371 8372 8373 8374 8375 8376 8377 8378 8379 8380 8381 8382 8383 8384 8385 8386 8387 8388 8389 8390 8391 8392 8393 8394 8395 8396 8397 8398 8399 8400 8401 8402 8403 8404 8405 8406 8407 8408 8409 8410 8411 8412 8413 8414 8415 8416 8417 8418 8419 8420 8421 8422 8423 8424 8425 8426 8427 8428 8429 8430 8431 8432 8433 8434 8435 8436 8437 8438 8439 8440 8441 8442 8443 8444 8445 8446 8447 8448 8449 8450 8451 8452 8453 8454 8455 8456 8457 8458 8459 8460 8461 8462 8463 8464 8465 8466 8467 8468 8469 8470 8471 8472 8473 8474 8475 8476 8477 8478 8479 8480 8481 8482 8483 8484 8485 8486 8487 8488 8489 8490 8491 8492 8493 8494 8495 8496 8497 8498 8499 8500 8501 8502 8503 8504 8505 8506 8507 8508 8509 8510 8511 8512 8513 8514 8515 8516 8517 8518 8519 8520 8521 8522 8523 8524 8525 8526 8527 8528 8529 8530 8531 8532 8533 8534 8535 8536 8537 8538 8539 8540 8541 8542 8543 8544 8545 8546 8547 8548 8549 8550 8551 8552 8553 8554 8555 8556 8557 8558 8559 8560 8561 8562 8563 8564 8565 8566 8567 8568 8569 8570 8571 8572 8573 8574 8575 8576 8577 8578 8579 8580 8581 8582 8583 8584 8585 8586 8587 8588 8589 8590 8591 8592 8593 8594 8595 8596 8597 8598 8599 8600 8601 8602 8603 8604 8605 8606 8607 8608 8609 8610 8611 8612 8613 8614 8615 8616 8617 8618 8619 8620 8621 8622 8623 8624 8625 8626 8627 8628 8629 8630 8631 8632 8633 8634 8635 8636 8637 8638 8639 8640 8641 8642 8643 8644 8645 8646 8647 8648 8649 8650 8651 8652 8653 8654 8655 8656 8657 8658 8659 8660 8661 8662 8663 8664 8665 8666 8667 8668 8669 8670 8671 8672 8673 8674 8675 8676 8677 8678 8679 8680 8681 8682 8683 8684 8685 8686 8687 8688 8689 8690 8691 8692 8693 8694 8695 8696 8697 8698 8699 8700 8701 8702 8703 8704 8705 8706 8707 8708 8709 8710 8711 8712 8713 8714 8715 8716 8717 8718 8719 8720 8721 8722 8723 8724 8725 8726 8727 8728 8729 8730 8731 8732 8733 8734 8735 8736 8737 8738 8739 8740 8741 8742 8743 8744 8745 8746 8747 8748 8749 8750 8751 8752 8753 8754 8755 8756 8757 8758 8759 8760 8761 8762 8763 8764 8765 8766 8767 8768 8769 8770 8771 8772 8773 8774 8775 8776 8777 8778 8779 8780 8781 8782 8783 8784 8785 8786 8787 8788 8789 8790 8791 8792 8793 8794 8795 8796 8797 8798 8799 8800 8801 8802 8803 8804 8805 8806 8807 8808 8809 8810 8811 8812 8813 8814 8815 8816 8817 8818 8819 8820 8821 8822 8823 8824 8825 8826 8827 8828 8829 8830 8831 8832 8833 8834 8835 8836 8837 8838 8839 8840 8841 8842 8843 8844 8845 8846 8847 8848 8849 8850 8851 8852 8853 8854 8855 8856 8857 8858 8859 8860 8861 8862 8863 8864 8865 8866 8867 8868 8869 8870 8871 8872 8873 8874 8875 8876 8877 8878 8879 8880 8881 8882 8883 8884 8885 8886 8887 8888 8889 8890 8891 8892 8893 8894 8895 8896 8897 8898 8899 8900 8901 8902 8903 8904 8905 8906 8907 8908 8909 8910 8911 8912 8913 8914 8915 8916 8917 8918 8919 8920 8921 8922 8923 8924 8925 8926 8927 8928 8929 8930 8931 8932 8933 8934 8935 8936 8937 8938 8939 8940 8941 8942 8943 8944 8945 8946 8947 8948 8949 8950 8951 8952 8953 8954 8955 8956 8957 8958 8959 8960 8961 8962 8963 8964 8965 8966 8967 8968 8969 8970 8971 8972 8973 8974 8975 8976 8977 8978 8979 8980 8981 8982 8983 8984 8985 8986 8987 8988 8989 8990 8991 8992 8993 8994 8995 8996 8997 8998 8999 9000 9001 9002 9003 9004 9005 9006 9007 9008 9009 9010 9011 9012 9013 9014 9015 9016 9017 9018 9019 9020 9021 9022 9023 9024 9025 9026 9027 9028 9029 9030 9031 9032 9033 9034 9035 9036 9037 9038 9039 9040 9041 9042 9043 9044 9045 9046 9047 9048 9049 9050 9051 9052 9053 9054 9055 9056 9057 9058 9059 9060 9061 9062 9063 9064 9065 9066 9067 9068 9069 9070 9071 9072 9073 9074 9075 9076 9077 9078 9079 9080 9081 9082 9083 9084 9085 9086 9087 9088 9089 9090 9091 9092 9093 9094 9095 9096 9097 9098 9099 9100 9101 9102 9103 9104 9105 9106 9107 9108 9109 9110 9111 9112 9113 9114 9115 9116 9117 9118 9119 9120 9121 9122 9123 9124 9125 9126 9127 9128 9129 9130 9131 9132 9133 9134 9135 9136 9137 9138 9139 9140 9141 9142 9143 9144 9145 9146 9147 9148 9149 9150 9151 9152 9153 9154 9155 9156 9157 9158 9159 9160 9161 9162 9163 9164 9165 9166 9167 9168 9169 9170 9171 9172 9173 9174 9175 9176 9177 9178 9179 9180 9181 9182 9183 9184 9185 9186 9187 9188 9189 9190 9191 9192 9193 9194 9195 9196 9197 9198 9199 9200 9201 9202 9203 9204 9205 9206 9207 9208 9209 9210 9211 9212 9213 9214 9215 9216 9217 9218 9219 9220 9221 9222 9223 9224 9225 9226 9227 9228 9229 9230 9231 9232 9233 9234 9235 9236 9237 9238 9239 9240 9241 9242 9243 9244 9245 9246 9247 9248 9249 9250 9251 9252 9253 9254 9255 9256 9257 9258 9259 9260 9261 9262 9263 9264 9265 9266 9267 9268 9269 9270 9271 9272 9273 9274 9275 9276 9277 9278 9279 9280 9281 9282 9283 9284 9285 9286 9287 9288 9289 9290 9291 9292 9293 9294 9295 9296 9297 9298 9299 9300 9301 9302 9303 9304 9305 9306 9307 9308 9309 9310 9311 9312 9313 9314 9315 9316 9317 9318 9319 9320 9321 9322 9323 9324 9325 9326 9327 9328 9329 9330 9331 9332 9333 9334 9335 9336 9337 9338 9339 9340 9341 9342 9343 9344 9345 9346 9347 9348 9349 9350 9351 9352 9353 9354 9355 9356 9357 9358 9359 9360 9361 9362 9363 9364 9365 9366 9367 9368 9369 9370 9371 9372 9373 9374 9375 9376 9377 9378 9379 9380 9381 9382 9383 9384 9385 9386 9387 9388 9389 9390 9391 9392 9393 9394 9395 9396 9397 9398 9399 9400 9401 9402 9403 9404 9405 9406 9407 9408 9409 9410 9411 9412 9413 9414 9415 9416 9417 9418 9419 9420 9421 9422 9423 9424 9425 9426 9427 9428 9429 9430 9431 9432 9433 9434 9435 9436 9437 9438 9439 9440 9441 9442 9443 9444 9445 9446 9447 9448 9449 9450 9451 9452 9453 9454 9455 9456 9457 9458 9459 9460 9461 9462 9463 9464 9465 9466 9467 9468 9469 9470 9471 9472 9473 9474 9475 9476 9477 9478 9479 9480 9481 9482 9483 9484 9485 9486 9487 9488 9489 9490 9491 9492 9493 9494 9495 9496 9497 9498 9499 9500 9501 9502 9503 9504 9505 9506 9507 9508 9509 9510 9511 9512 9513 9514 9515 9516 9517 9518 9519 9520 9521 9522 9523 9524 9525 9526 9527 9528 9529 9530 9531 9532 9533 9534 9535 9536 9537 9538 9539 9540 9541 9542 9543 9544 9545 9546 9547 9548 9549 9550 9551 9552 9553 9554 9555 9556 9557 9558 9559 9560 9561 9562 9563 9564 9565 9566 9567 9568 9569 9570 9571 9572 9573 9574 9575 9576 9577 9578 9579 9580 9581 9582 9583 9584 9585 9586 9587 9588 9589 9590 9591 9592 9593 9594 9595 9596 9597 9598 9599 9600 9601 9602 9603 9604 9605 9606 9607 9608 9609 9610 9611 9612 9613 9614 9615 9616 9617 9618 9619 9620 9621 9622 9623 9624 9625 9626 9627 9628 9629 9630 9631 9632 9633 9634 9635 9636 9637 9638 9639 9640 9641 9642 9643 9644 9645 9646 9647 9648 9649 9650 9651 9652 9653 9654 9655 9656 9657 9658 9659 9660 9661 9662 9663 9664 9665 9666 9667 9668 9669 9670 9671 9672 9673 9674 9675 9676 9677 9678 9679 9680 9681 9682 9683 9684 9685 9686 9687 9688 9689 9690 9691 9692 9693 9694 9695 9696 9697 9698 9699 9700 9701 9702 9703 9704 9705 9706 9707 9708 9709 9710 9711 9712 9713 9714 9715 9716 9717 9718 9719 9720 9721 9722 9723 9724 9725 9726 9727 9728 9729 9730 9731 9732 9733 9734 9735 9736 9737 9738 9739 9740 9741 9742 9743 9744 9745 9746 9747 9748 9749 9750 9751 9752 9753 9754 9755 9756 9757 9758 9759 9760 9761 9762 9763 9764 9765 9766 9767 9768 9769 9770 9771 9772 9773 9774 9775 9776 9777 9778 9779 9780 9781 9782 9783 9784 9785 9786 9787 9788 9789 9790 9791 9792 9793 9794 9795 9796 9797 9798 9799 9800 9801 9802 9803 9804 9805 9806 9807 9808 9809 9810 9811 9812 9813 9814 9815 9816 9817 9818 9819 9820 9821 9822 9823 9824 9825 9826 9827 9828 9829 9830 9831 9832 9833 9834 9835 9836 9837 9838 9839 9840 9841 9842 9843 9844 9845 9846 9847 9848 9849 9850 9851 9852 9853 9854 9855 9856 9857 9858 9859 9860 9861 9862 9863 9864 9865 9866 9867 9868 9869 9870 9871 9872 9873 9874 9875 9876 9877 9878 9879 9880 9881 9882 9883 9884 9885 9886 9887 9888 9889 9890 9891 9892 9893 9894 9895 9896 9897 9898 9899 9900 9901 9902 9903 9904 9905 9906 9907 9908 9909 9910 9911 9912 9913 9914 9915 9916 9917 9918 9919 9920 9921 9922 9923 9924 9925 9926 9927 9928 9929 9930 9931 9932 9933 9934 9935 9936 9937 9938 9939 9940 9941 9942 9943 9944 9945 9946 9947 9948 9949 9950 9951 9952 9953 9954 9955 9956 9957 9958 9959 9960 9961 9962 9963 9964 9965 9966 9967 9968 9969 9970 9971 9972 9973 9974 9975 9976 9977 9978 9979 9980 9981 9982 9983 9984 9985 9986 9987 9988 9989 9990 9991 9992 9993 9994 9995 9996 9997 9998 9999 10000 10001 10002 10003 10004 10005 10006 10007 10008 10009 10010 10011 10012 10013 10014 10015 10016 10017 10018 10019 10020 10021 10022 10023 10024 10025 10026 10027 10028 10029 10030 10031 10032 10033 10034 10035 10036 10037 10038 10039 10040 10041 10042 10043 10044 10045 10046 10047 10048 10049 10050 10051 10052 10053 10054 10055 10056 10057 10058 10059 10060 10061 10062 10063 10064 10065 10066 10067 10068 10069 10070 10071 10072 10073 10074 10075 10076 10077 10078 10079 10080 10081 10082 10083 10084 10085 10086 10087 10088 10089 10090 10091 10092 10093 10094 10095 10096 10097 10098 10099 10100 10101 10102 10103 10104 10105 10106 10107 10108 10109 10110 10111 10112 10113 10114 10115 10116 10117 10118 10119 10120 10121 10122 10123 10124 10125 10126 10127 10128 10129 10130 10131 10132 10133 10134 10135 10136 10137 10138 10139 10140 10141 10142 10143 10144 10145 10146 10147 10148 10149 10150 10151 10152 10153 10154 10155 10156 10157 10158 10159 10160 10161 10162 10163 10164 10165 10166 10167 10168 10169 10170 10171 10172 10173 10174 10175 10176 10177 10178 10179 10180 10181 10182 10183 10184 10185 10186 10187 10188 10189 10190 10191 10192 10193 10194 10195 10196 10197 10198 10199 10200 10201 10202 10203 10204 10205 10206 10207 10208 10209 10210 10211 10212 10213 10214 10215 10216 10217 10218 10219 10220 10221 10222 10223 10224 10225 10226 10227 10228 10229 10230 10231 10232 10233 10234 10235 10236 10237 10238 10239 10240 10241 10242 10243 10244 10245 10246 10247 10248 10249 10250 10251 10252 10253 10254 10255 10256 10257 10258 10259 10260 10261 10262 10263 10264 10265 10266 10267 10268 10269 10270 10271 10272 10273 10274 10275 10276 10277 10278 10279 10280 10281 10282 10283 10284 10285 10286 10287 10288 10289 10290 10291 10292 10293 10294 10295 10296 10297 10298 10299 10300 10301 10302 10303 10304 10305 10306 10307 10308 10309 10310 10311 10312 10313 10314 10315 10316 10317 10318 10319 10320 10321 10322 10323 10324 10325 10326 10327 10328 10329 10330 10331 10332 10333 10334 10335 10336 10337 10338 10339 10340 10341 10342 10343 10344 10345 10346 10347 10348 10349 10350 10351 10352 10353 10354 10355 10356 10357 10358 10359 10360 10361 10362 10363 10364 10365 10366 10367 10368 10369 10370 10371 10372 10373 10374 10375 10376 10377 10378 10379 10380 10381 10382 10383 10384 10385 10386 10387 10388 10389 10390 10391 10392 10393 10394 10395 10396 10397 10398 10399 10400 10401 10402 10403 10404 10405 10406 10407 10408 10409 10410 10411 10412 10413 10414 10415 10416 10417 10418 10419 10420 10421 10422 10423 10424 10425 10426 10427 10428 10429 10430 10431 10432 10433 10434 10435 10436 10437 10438 10439 10440 10441 10442 10443 10444 10445 10446 10447 10448 10449 10450 10451 10452 10453 10454 10455 10456 10457 10458 10459 10460 10461 10462 10463 10464 10465 10466 10467 10468 10469 10470 10471 10472 10473 10474 10475 10476 10477 10478 10479 10480 10481 10482 10483 10484 10485 10486 10487 10488 10489 10490 10491 10492 10493 10494 10495 10496 10497 10498 10499 10500 10501 10502 10503 10504 10505 10506 10507 10508 10509 10510 10511 10512 10513 10514 10515 10516 10517 10518 10519 10520 10521 10522 10523 10524 10525 10526 10527 10528 10529 10530 10531 10532 10533 10534 10535 10536 10537 10538 10539 10540 10541 10542 10543 10544 10545 10546 10547 10548 10549 10550 10551 10552 10553 10554 10555 10556 10557 10558 10559 10560 10561 10562 10563 10564 10565 10566 10567 10568 10569 10570 10571 10572 10573 10574 10575 10576 10577 10578 10579 10580 10581 10582 10583 10584 10585 10586 10587 10588 10589 10590 10591 10592 10593 10594 10595 10596 10597 10598 10599 10600 10601 10602 10603 10604 10605 10606 10607 10608 10609 10610 10611 10612 10613 10614 10615 10616 10617 10618 10619 10620 10621 10622 10623 10624 10625 10626 10627 10628 10629 10630 10631 10632 10633 10634 10635 10636 10637 10638 10639 10640 10641 10642 10643 10644 10645 10646 10647 10648 10649 10650 10651 10652 10653 10654 10655 10656 10657 10658 10659 10660 10661 10662 10663 10664 10665 10666 10667 10668 10669 10670 10671 10672 10673 10674 10675 10676 10677 10678 10679 10680 10681 10682 10683 10684 10685 10686 10687 10688 10689 10690 10691 10692 10693 10694 10695 10696 10697 10698 10699 10700 10701 10702 10703 10704 10705 10706 10707 10708 10709 10710 10711 10712 10713 10714 10715 10716 10717 10718 10719 10720 10721 10722 10723 10724 10725 10726 10727 10728 10729 10730 10731 10732 10733 10734 10735 10736 10737 10738 10739 10740 10741 10742 10743 10744 10745 10746 10747 10748 10749 10750 10751 10752 10753 10754 10755 10756 10757 10758 10759 10760 10761 10762 10763 10764 10765 10766 10767 10768 10769 10770 10771 10772 10773 10774 10775 10776 10777 10778 10779 10780 10781 10782 10783 10784 10785 10786 10787 10788 10789 10790 10791 10792 10793 10794 10795 10796 10797 10798 10799 10800 10801 10802 10803 10804 10805 10806 10807 10808 10809 10810 10811 10812 10813 10814 10815 10816 10817 10818 10819 10820 10821 10822 10823 10824 10825 10826 10827 10828 10829 10830 10831 10832 10833 10834 10835 10836 10837 10838 10839 10840 10841 10842 10843 10844 10845 10846 10847 10848 10849 10850 10851 10852 10853 10854 10855 10856 10857 10858 10859 10860 10861 10862 10863 10864 10865 10866 10867 10868 10869 10870 10871 10872 10873 10874 10875 10876 10877 10878 10879 10880 10881 10882 10883 10884 10885 10886 10887 10888 10889 10890 10891 10892 10893 10894 10895 10896 10897 10898 10899 10900 10901 10902 10903 10904 10905 10906 10907 10908 10909 10910 10911 10912 10913 10914 10915 10916 10917 10918 10919 10920 10921 10922 10923 10924 10925 10926 10927 10928 10929 10930 10931 10932 10933 10934 10935 10936 10937 10938 10939 10940 10941 10942 10943 10944 10945 10946 10947 10948 10949 10950 10951 10952 10953 10954 10955 10956 10957 10958 10959 10960 10961 10962 10963 10964 10965 10966 10967 10968 10969 10970 10971 10972 10973 10974 10975 10976 10977 10978 10979 10980 10981 10982 10983 10984 10985 10986 10987 10988 10989 10990 10991 10992 10993 10994 10995 10996 10997 10998 10999 11000 11001 11002 11003 11004 11005 11006 11007 11008 11009 11010 11011 11012 11013 11014 11015 11016 11017 11018 11019 11020 11021 11022 11023 11024 11025 11026 11027 11028 11029 11030 11031 11032 11033 11034 11035 11036 11037 11038 11039 11040 11041 11042 11043 11044 11045 11046 11047 11048 11049 11050 11051 11052 11053 11054 11055 11056 11057 11058 11059 11060 11061 11062 11063 11064 11065 11066 11067 11068 11069 11070 11071 11072 11073 11074 11075 11076 11077 11078 11079 11080 11081 11082 11083 11084 11085 11086 11087 11088 11089 11090 11091 11092 11093 11094 11095 11096 11097 11098 11099 11100 11101 11102 11103 11104 11105 11106 11107 11108 11109 11110 11111 11112 11113 11114 11115 11116 11117 11118 11119 11120 11121 11122 11123 11124 11125 11126 11127 11128 11129 11130 11131 11132 11133 11134 11135 11136 11137 11138 11139 11140 11141 11142 11143 11144 11145 11146 11147 11148 11149 11150 11151 11152 11153 11154 11155 11156 11157 11158 11159 11160 11161 11162 11163 11164 11165 11166 11167 11168 11169 11170 11171 11172 11173 11174 11175 11176 11177 11178 11179 11180 11181 11182 11183 11184 11185 11186 11187 11188 11189 11190 11191 11192 11193 11194 11195 11196 11197 11198 11199 11200 11201 11202 11203 11204 11205 11206 11207 11208 11209 11210 11211 11212 11213 11214 11215 11216 11217 11218 11219 11220 11221 11222 11223 11224 11225 11226 11227 11228 11229 11230 11231 11232 11233 11234 11235 11236 11237 11238 11239 11240 11241 11242 11243 11244 11245 11246 11247 11248 11249 11250 11251 11252 11253 11254 11255 11256 11257 11258 11259 11260 11261 11262 11263 11264 11265 11266 11267 11268 11269 11270 11271 11272 11273 11274 11275 11276 11277 11278 11279 11280 11281 11282 11283 11284 11285 11286 11287 11288 11289 11290 11291 11292 11293 11294 11295 11296 11297 11298 11299 11300 11301 11302 11303 11304 11305 11306 11307 11308 11309 11310 11311 11312 11313 11314 11315 11316 11317 11318 11319 11320 11321 11322 11323 11324 11325 11326 11327 11328 11329 11330 11331 11332 11333 11334 11335 11336 11337 11338 11339 11340 11341 11342 11343 11344 11345 11346 11347 11348 11349 11350 11351 11352 11353 11354 11355 11356 11357 11358 11359 11360 11361 11362 11363 11364 11365 11366 11367 11368 11369 11370 11371 11372 11373 11374 11375 11376 11377 11378 11379 11380 11381 11382 11383 11384 11385 11386 11387 11388 11389 11390 11391 11392 11393 11394 11395 11396 11397 11398 11399 11400 11401 11402 11403 11404 11405 11406 11407 11408 11409 11410 11411 11412 11413 11414 11415 11416 11417 11418 11419 11420 11421 11422 11423 11424 11425 11426 11427 11428 11429 11430 11431 11432 11433 11434 11435 11436 11437 11438 11439 11440 11441 11442 11443 11444 11445 11446 11447 11448 11449 11450 11451 11452 11453 11454 11455 11456 11457 11458 11459 11460 11461 11462 11463 11464 11465 11466 11467 11468 11469 11470 11471 11472 11473 11474 11475 11476 11477 11478 11479 11480 11481 11482 11483 11484 11485 11486 11487 11488 11489 11490 11491 11492 11493 11494 11495 11496 11497 11498 11499 11500 11501 11502 11503 11504 11505 11506 11507 11508 11509 11510 11511 11512 11513 11514 11515 11516 11517 11518 11519 11520 11521 11522 11523 11524 11525 11526 11527 11528 11529 11530 11531 11532 11533 11534 11535 11536 11537 11538 11539 11540 11541 11542 11543 11544 11545 11546 11547 11548 11549 11550 11551 11552 11553 11554 11555 11556 11557 11558 11559 11560 11561 11562 11563 11564 11565 11566 11567 11568 11569 11570 11571 11572 11573 11574 11575 11576 11577 11578 11579 11580 11581 11582 11583 11584 11585 11586 11587 11588 11589 11590 11591 11592 11593 11594 11595 11596 11597 11598 11599 11600 11601 11602 11603 11604 11605 11606 11607 11608 11609 11610 11611 11612 11613 11614 11615 11616 11617 11618 11619 11620 11621 11622 11623 11624 11625 11626 11627 11628 11629 11630 11631 11632 11633 11634 11635 11636 11637 11638 11639 11640 11641 11642 11643 11644 11645 11646 11647 11648 11649 11650 11651 11652 11653 11654 11655 11656 11657 11658 11659 11660 11661 11662 11663 11664 11665 11666 11667 11668 11669 11670 11671 11672 11673 11674 11675 11676 11677 11678 11679 11680 11681 11682 11683 11684 11685 11686 11687 11688 11689 11690 11691 11692 11693 11694 11695 11696 11697 11698 11699 11700 11701 11702 11703 11704 11705 11706 11707 11708 11709 11710 11711 11712 11713 11714 11715 11716 11717 11718 11719 11720 11721 11722 11723 11724 11725 11726 11727 11728 11729 11730 11731 11732 11733 11734 11735 11736 11737 11738 11739 11740 11741 11742 11743 11744 11745 11746 11747 11748 11749 11750 11751 11752 11753 11754 11755 11756 11757 11758 11759 11760 11761 11762 11763 11764 11765 11766 11767 11768 11769 11770 11771 11772 11773 11774 11775 11776 11777 11778 11779 11780 11781 11782 11783 11784 11785 11786 11787 11788 11789 11790 11791 11792 11793 11794 11795 11796 11797 11798 11799 11800 11801 11802 11803 11804 11805 11806 11807 11808 11809 11810 11811 11812 11813 11814 11815 11816 11817 11818 11819 11820 11821 11822 11823 11824 11825 11826 11827 11828 11829 11830 11831 11832 11833 11834 11835 11836 11837 11838 11839 11840 11841 11842 11843 11844 11845 11846 11847 11848 11849 11850 11851 11852 11853 11854 11855 11856 11857 11858 11859 11860 11861 11862 11863 11864 11865 11866 11867 11868 11869 11870 11871 11872 11873 11874 11875 11876 11877 11878 11879 11880 11881 11882 11883 11884 11885 11886 11887 11888 11889 11890 11891 11892 11893 11894 11895 11896 11897 11898 11899 11900 11901 11902 11903 11904 11905 11906 11907 11908 11909 11910 11911 11912 11913 11914 11915 11916 11917 11918 11919 11920 11921 11922 11923 11924 11925 11926 11927 11928 11929 11930 11931 11932 11933 11934 11935 11936 11937 11938 11939 11940 11941 11942 11943 11944 11945 11946 11947 11948 11949 11950 11951 11952 11953 11954 11955 11956 11957 11958 11959 11960 11961 11962 11963 11964 11965 11966 11967 11968 11969 11970 11971 11972 11973 11974 11975 11976 11977 11978 11979 11980 11981 11982 11983 11984 11985 11986 11987 11988 11989 11990 11991 11992 11993 11994 11995 11996 11997 11998 11999 12000 12001 12002 12003 12004 12005 12006 12007 12008 12009 12010 12011 12012 12013 12014 12015 12016 12017 12018 12019 12020 12021 12022 12023 12024 12025 12026 12027 12028 12029 12030 12031 12032 12033 12034 12035 12036 12037 12038 12039 12040 12041 12042 12043 12044 12045 12046 12047 12048 12049 12050 12051 12052 12053 12054 12055 12056 12057 12058 12059 12060 12061 12062 12063 12064 12065 12066 12067 12068 12069 12070 12071 12072 12073 12074 12075 12076 12077 12078 12079 12080 12081 12082 12083 12084 12085 12086 12087 12088 12089 12090 12091 12092 12093 12094 12095 12096 12097 12098 12099 12100 12101 12102 12103 12104 12105 12106 12107 12108 12109 12110 12111 12112 12113 12114 12115 12116 12117 12118 12119 12120 12121 12122 12123 12124 12125 12126 12127 12128 12129 12130 12131 12132 12133 12134 12135 12136 12137 12138 12139 12140 12141 12142 12143 12144 12145 12146 12147 12148 12149 12150 12151 12152 12153 12154 12155 12156 12157 12158 12159 12160 12161 12162 12163 12164 12165 12166 12167 12168 12169 12170 12171 12172 12173 12174 12175 12176 12177 12178 12179 12180 12181 12182 12183 12184 12185 12186 12187 12188 12189 12190 12191 12192 12193 12194 12195 12196 12197 12198 12199 12200 12201 12202 12203 12204 12205 12206 12207 12208 12209 12210 12211 12212 12213 12214 12215 12216 12217 12218 12219 12220 12221 12222 12223 12224 12225 12226 12227 12228 12229 12230 12231 12232 12233 12234 12235 12236 12237 12238 12239 12240 12241 12242 12243 12244 12245 12246 12247 12248 12249 12250 12251 12252 12253 12254 12255 12256 12257 12258 12259 12260 12261 12262 12263 12264 12265 12266 12267 12268 12269 12270 12271 12272 12273 12274 12275 12276 12277 12278 12279 12280 12281 12282 12283 12284 12285 12286 12287 12288 12289 12290 12291 12292 12293 12294 12295 12296 12297 12298 12299 12300 12301 12302 12303 12304 12305 12306 12307 12308 12309 12310 12311 12312 12313 12314 12315 12316 12317 12318 12319 12320 12321 12322 12323 12324 12325 12326 12327 12328 12329 12330 12331 12332 12333 12334 12335 12336 12337 12338 12339 12340 12341 12342 12343 12344 12345 12346 12347 12348 12349 12350 12351 12352 12353 12354 12355 12356 12357 12358 12359 12360 12361 12362 12363 12364 12365 12366 12367 12368 12369 12370 12371 12372 12373 12374 12375 12376 12377 12378 12379 12380 12381 12382 12383 12384 12385 12386 12387 12388 12389 12390 12391 12392 12393 12394 12395 12396 12397 12398 12399 12400 12401 12402 12403 12404 12405 12406 12407 12408 12409 12410 12411 12412 12413 12414 12415 12416 12417 12418 12419 12420 12421 12422 12423 12424 12425 12426 12427 12428 12429 12430 12431 12432 12433 12434 12435 12436 12437 12438 12439 12440 12441 12442 12443 12444 12445 12446 12447 12448 12449 12450 12451 12452 12453 12454 12455 12456 12457 12458 12459 12460 12461 12462 12463 12464 12465 12466 12467 12468 12469 12470 12471 12472 12473 12474 12475 12476 12477 12478 12479 12480 12481 12482 12483 12484 12485 12486 12487 12488 12489 12490 12491 12492 12493 12494 12495 12496 12497 12498 12499 12500 12501 12502 12503 12504 12505 12506 12507 12508 12509 12510 12511 12512 12513 12514 12515 12516 12517 12518 12519 12520 12521 12522 12523 12524 12525 12526 12527 12528 12529 12530 12531 12532 12533 12534 12535 12536 12537 12538 12539 12540 12541 12542 12543 12544 12545 12546 12547 12548 12549 12550 12551 12552 12553 12554 12555 12556 12557 12558 12559 12560 12561 12562 12563 12564 12565 12566 12567 12568 12569 12570 12571 12572 12573 12574 12575 12576 12577 12578 12579 12580 12581 12582 12583 12584 12585 12586 12587 12588 12589 12590 12591 12592 12593 12594 12595 12596 12597 12598 12599 12600 12601 12602 12603 12604 12605 12606 12607 12608 12609 12610 12611 12612 12613 12614 12615 12616 12617 12618 12619 12620 12621 12622 12623 12624 12625 12626 12627 12628 12629 12630 12631 12632 12633 12634 12635 12636 12637 12638 12639 12640 12641 12642 12643 12644 12645 12646 12647 12648 12649 12650 12651 12652 12653 12654 12655 12656 12657 12658 12659 12660 12661 12662 12663 12664 12665 12666 12667 12668 12669 12670 12671 12672 12673 12674 12675 12676 12677 12678 12679 12680 12681 12682 12683 12684 12685 12686 12687 12688 12689 12690 12691 12692 12693 12694 12695 12696 12697 12698 12699 12700 12701 12702 12703 12704 12705 12706 12707 12708 12709 12710 12711 12712 12713 12714 12715 12716 12717 12718 12719 12720 12721 12722 12723 12724 12725 12726 12727 12728 12729 12730 12731 12732 12733 12734 12735 12736 12737 12738 12739 12740 12741 12742 12743 12744 12745 12746 12747 12748 12749 12750 12751 12752 12753 12754 12755 12756 12757 12758 12759 12760 12761 12762 12763 12764 12765 12766 12767 12768 12769 12770 12771 12772 12773 12774 12775 12776 12777 12778 12779 12780 12781 12782 12783 12784 12785 12786 12787 12788 12789 12790 12791 12792 12793 12794 12795 12796 12797 12798 12799 12800 12801 12802 12803 12804 12805 12806 12807 12808 12809 12810 12811 12812 12813 12814 12815 12816 12817 12818 12819 12820 12821 12822 12823 12824 12825 12826 12827 12828 12829 12830 12831 12832 12833 12834 12835 12836 12837 12838 12839 12840 12841 12842 12843 12844 12845 12846 12847 12848 12849 12850 12851 12852 12853 12854 12855 12856 12857 12858 12859 12860 12861 12862 12863 12864 12865 12866 12867 12868 12869 12870 12871 12872 12873 12874 12875 12876 12877 12878 12879 12880 12881 12882 12883 12884 12885 12886 12887 12888 12889 12890 12891 12892 12893 12894 12895 12896 12897 12898 12899 12900 12901 12902 12903 12904 12905 12906 12907 12908 12909 12910 12911 12912 12913 12914 12915 12916 12917 12918 12919 12920 12921 12922 12923 12924 12925 12926 12927 12928 12929 12930 12931 12932 12933 12934 12935 12936 12937 12938 12939 12940 12941 12942 12943 12944 12945 12946 12947 12948 12949 12950 12951 12952 12953 12954 12955 12956 12957 12958 12959 12960 12961 12962 12963 12964 12965 12966 12967 12968 12969 12970 12971 12972 12973 12974 12975 12976 12977 12978 12979 12980 12981 12982 12983 12984 12985 12986 12987 12988 12989 12990 12991 12992 12993 12994 12995 12996 12997 12998 12999 13000 13001 13002 13003 13004 13005 13006 13007 13008 13009 13010 13011 13012 13013 13014 13015 13016 13017 13018 13019 13020 13021 13022 13023 13024 13025 13026 13027 13028 13029 13030 13031 13032 13033 13034 13035 13036 13037 13038 13039 13040 13041 13042 13043 13044 13045 13046 13047 13048 13049 13050 13051 13052 13053 13054 13055 13056 13057 13058 13059 13060 13061 13062 13063 13064 13065 13066 13067 13068 13069 13070 13071 13072 13073 13074 13075 13076 13077 13078 13079 13080 13081 13082 13083 13084 13085 13086 13087 13088 13089 13090 13091 13092 13093 13094 13095 13096 13097 13098 13099 13100 13101 13102 13103 13104 13105 13106 13107 13108 13109 13110 13111 13112 13113 13114 13115 13116 13117 13118 13119 13120 13121 13122 13123 13124 13125 13126 13127 13128 13129 13130 13131 13132 13133 13134 13135 13136 13137 13138 13139 13140 13141 13142 13143 13144 13145 13146 13147 13148 13149 13150 13151 13152 13153 13154 13155 13156 13157 13158 13159 13160 13161 13162 13163 13164 13165 13166 13167 13168 13169 13170 13171 13172 13173 13174 13175 13176 13177 13178 13179 13180 13181 13182 13183 13184 13185 13186 13187 13188 13189 13190 13191 13192 13193 13194 13195 13196 13197 13198 13199 13200 13201 13202 13203 13204 13205 13206 13207 13208 13209 13210 13211 13212 13213 13214 13215 13216 13217 13218 13219 13220 13221 13222 13223 13224 13225 13226 13227 13228 13229 13230 13231 13232 13233 13234 13235 13236 13237 13238 13239 13240 13241 13242 13243 13244 13245 13246 13247 13248 13249 13250 13251 13252 13253 13254 13255 13256 13257 13258 13259 13260 13261 13262 13263 13264 13265 13266 13267 13268 13269 13270 13271 13272 13273 13274 13275 13276 13277 13278 13279 13280 13281 13282 13283 13284 13285 13286 13287 13288 13289 13290 13291 13292 13293 13294 13295 13296 13297 13298 13299 13300 13301 13302 13303 13304 13305 13306 13307 13308 13309 13310 13311 13312 13313 13314 13315 13316 13317 13318 13319 13320 13321 13322 13323 13324 13325 13326 13327 13328 13329 13330 13331 13332 13333 13334 13335 13336 13337 13338 13339 13340 13341 13342 13343 13344 13345 13346 13347 13348 13349 13350 13351 13352 13353 13354 13355 13356 13357 13358 13359 13360 13361 13362 13363 13364 13365 13366 13367 13368 13369 13370 13371 13372 13373 13374 13375 13376 13377 13378 13379 13380 13381 13382 13383 13384 13385 13386 13387 13388 13389 13390 13391 13392 13393 13394 13395 13396 13397 13398 13399 13400 13401 13402 13403 13404 13405 13406 13407 13408 13409 13410 13411 13412 13413 13414 13415 13416 13417 13418 13419 13420 13421 13422 13423 13424 13425 13426 13427 13428 13429 13430 13431 13432 13433 13434 13435 13436 13437 13438 13439 13440 13441 13442 13443 13444 13445 13446 13447 13448 13449 13450 13451 13452 13453 13454 13455 13456 13457 13458 13459 13460 13461 13462 13463 13464 13465 13466 13467 13468 13469 13470 13471 13472 13473 13474 13475 13476 13477 13478 13479 13480 13481 13482 13483 13484 13485 13486 13487 13488 13489 13490 13491 13492 13493 13494 13495 13496 13497 13498 13499 13500 13501 13502 13503 13504 13505 13506 13507 13508 13509 13510 13511 13512 13513 13514 13515 13516 13517 13518 13519 13520 13521 13522 13523 13524 13525 13526 13527 13528 13529 13530 13531 13532 13533 13534 13535 13536 13537 13538 13539 13540 13541 13542 13543 13544 13545 13546 13547 13548 13549 13550 13551 13552 13553 13554 13555 13556 13557 13558 13559 13560 13561 13562 13563 13564 13565 13566 13567 13568 13569 13570 13571 13572 13573 13574 13575 13576 13577 13578 13579 13580 13581 13582 13583 13584 13585 13586 13587 13588 13589 13590 13591 13592 13593 13594 13595 13596 13597 13598 13599 13600 13601 13602 13603 13604 13605 13606 13607 13608 13609 13610 13611 13612 13613 13614 13615 13616 13617 13618 13619 13620 13621 13622 13623 13624 13625 13626 13627 13628 13629 13630 13631 13632 13633 13634 13635 13636 13637 13638 13639 13640 13641 13642 13643 13644 13645 13646 13647 13648 13649 13650 13651 13652 13653 13654 13655 13656 13657 13658 13659 13660 13661 13662 13663 13664 13665 13666 13667 13668 13669 13670 13671 13672 13673 13674 13675 13676 13677 13678 13679 13680 13681 13682 13683 13684 13685 13686 13687 13688 13689 13690 13691 13692 13693 13694 13695 13696 13697 13698 13699 13700 13701 13702 13703 13704 13705 13706 13707 13708 13709 13710 13711 13712 13713 13714 13715 13716 13717 13718 13719 13720 13721 13722 13723 13724 13725 13726 13727 13728 13729 13730 13731 13732 13733 13734 13735 13736 13737 13738 13739 13740 13741 13742 13743 13744 13745 13746 13747 13748 13749 13750 13751 13752 13753 13754 13755 13756 13757 13758 13759 13760 13761 13762 13763 13764 13765 13766 13767 13768 13769 13770 13771 13772 13773 13774 13775 13776 13777 13778 13779 13780 13781 13782 13783 13784 13785 13786 13787 13788 13789 13790 13791 13792 13793 13794 13795 13796 13797 13798 13799 13800 13801 13802 13803 13804 13805 13806 13807 13808 13809 13810 13811 13812 13813 13814 13815 13816 13817 13818 13819 13820 13821 13822 13823 13824 13825 13826 13827 13828 13829 13830 13831 13832 13833 13834 13835 13836 13837 13838 13839 13840 13841 13842 13843 13844 13845 13846 13847 13848 13849 13850 13851 13852 13853 13854 13855 13856 13857 13858 13859 13860 13861 13862 13863 13864 13865 13866 13867 13868 13869 13870 13871 13872 13873 13874 13875 13876 13877 13878 13879 13880 13881 13882 13883 13884 13885 13886 13887 13888 13889 13890 13891 13892 13893 13894 13895 13896 13897 13898 13899 13900 13901 13902 13903 13904 13905 13906 13907 13908 13909 13910 13911 13912 13913 13914 13915 13916 13917 13918 13919 13920 13921 13922 13923 13924 13925 13926 13927 13928 13929 13930 13931 13932 13933 13934 13935 13936 13937 13938 13939 13940 13941 13942 13943 13944 13945 13946 13947 13948 13949 13950 13951 13952 13953 13954 13955 13956 13957 13958 13959 13960 13961 13962 13963 13964 13965 13966 13967 13968 13969 13970 13971 13972 13973 13974 13975 13976 13977 13978 13979 13980 13981 13982 13983 13984 13985 13986 13987 13988 13989 13990 13991 13992 13993 13994 13995 13996 13997 13998 13999 14000 14001 14002 14003 14004 14005 14006 14007 14008 14009 14010 14011 14012 14013 14014 14015 14016 14017 14018 14019 14020 14021 14022 14023 14024 14025 14026 14027 14028 14029 14030 14031 14032 14033 14034 14035 14036 14037 14038 14039 14040 14041 14042 14043 14044 14045 14046 14047 14048 14049 14050 14051 14052 14053 14054 14055 14056 14057 14058 14059 14060 14061 14062 14063 14064 14065 14066 14067 14068 14069 14070 14071 14072 14073 14074 14075 14076 14077 14078 14079 14080 14081 14082 14083 14084 14085 14086 14087 14088 14089 14090 14091 14092 14093 14094 14095 14096 14097 14098 14099 14100 14101 14102 14103 14104 14105 14106 14107 14108 14109 14110 14111 14112 14113 14114 14115 14116 14117 14118 14119 14120 14121 14122 14123 14124 14125 14126 14127 14128 14129 14130 14131 14132 14133 14134 14135 14136 14137 14138 14139 14140 14141 14142 14143 14144 14145 14146 14147 14148 14149 14150 14151 14152 14153 14154 14155 14156 14157 14158 14159 14160 14161 14162 14163 14164 14165 14166 14167 14168 14169 14170 14171 14172 14173 14174 14175 14176 14177 14178 14179 14180 14181 14182 14183 14184 14185 14186 14187 14188 14189 14190 14191 14192 14193 14194 14195 14196 14197 14198 14199 14200 14201 14202 14203 14204 14205 14206 14207 14208 14209 14210 14211 14212 14213 14214 14215 14216 14217 14218 14219 14220 14221 14222 14223 14224 14225 14226 14227 14228 14229 14230 14231 14232 14233 14234 14235 14236 14237 14238 14239 14240 14241 14242 14243 14244 14245 14246 14247 14248 14249 14250 14251 14252 14253 14254 14255 14256 14257 14258 14259 14260 14261 14262 14263 14264 14265 14266 14267 14268 14269 14270 14271 14272 14273 14274 14275 14276 14277 14278 14279 14280 14281 14282 14283 14284 14285 14286 14287 14288 14289 14290 14291 14292 14293 14294 14295 14296 14297 14298 14299 14300 14301 14302 14303 14304 14305 14306 14307 14308 14309 14310 14311 14312 14313 14314 14315 14316 14317 14318 14319 14320 14321 14322 14323 14324 14325 14326 14327 14328 14329 14330 14331 14332 14333 14334 14335 14336 14337 14338 14339 14340 14341 14342 14343 14344 14345 14346 14347 14348 14349 14350 14351 14352 14353 14354 14355 14356 14357 14358 14359 14360 14361 14362 14363 14364 14365 14366 14367 14368 14369 14370 14371 14372 14373 14374 14375 14376 14377 14378 14379 14380 14381 14382 14383 14384 14385 14386 14387 14388 14389 14390 14391 14392 14393 14394 14395 14396 14397 14398 14399 14400 14401 14402 14403 14404 14405 14406 14407 14408 14409 14410 14411 14412 14413 14414 14415 14416 14417 14418 14419 14420 14421 14422 14423 14424 14425 14426 14427 14428 14429 14430 14431 14432 14433 14434 14435 14436 14437 14438 14439 14440 14441 14442 14443 14444 14445 14446 14447 14448 14449 14450 14451 14452 14453 14454 14455 14456 14457 14458 14459 14460 14461 14462 14463 14464 14465 14466 14467 14468 14469 14470 14471 14472 14473 14474 14475 14476 14477 14478 14479 14480 14481 14482 14483 14484 14485 14486 14487 14488 14489 14490 14491 14492 14493 14494 14495 14496 14497 14498 14499 14500 14501 14502 14503 14504 14505 14506 14507 14508 14509 14510 14511 14512 14513 14514 14515 14516 14517 14518 14519 14520 14521 14522 14523 14524 14525 14526 14527 14528 14529 14530 14531 14532 14533 14534 14535 14536 14537 14538 14539 14540 14541 14542 14543 14544 14545 14546 14547 14548 14549 14550 14551 14552 14553 14554 14555 14556 14557 14558 14559 14560 14561 14562 14563 14564 14565 14566 14567 14568 14569 14570 14571 14572 14573 14574 14575 14576 14577 14578 14579 14580 14581 14582 14583 14584 14585 14586 14587 14588 14589 14590 14591 14592 14593 14594 14595 14596 14597 14598 14599 14600 14601 14602 14603 14604 14605 14606 14607 14608 14609 14610 14611 14612 14613 14614 14615 14616 14617 14618 14619 14620 14621 14622 14623 14624 14625 14626 14627 14628 14629 14630 14631 14632 14633 14634 14635 14636 14637 14638 14639 14640 14641 14642 14643 14644 14645 14646 14647 14648 14649 14650 14651 14652 14653 14654 14655 14656 14657 14658 14659 14660 14661 14662 14663 14664 14665 14666 14667 14668 14669 14670 14671 14672 14673 14674 14675 14676 14677 14678 14679 14680 14681 14682 14683 14684 14685 14686 14687 14688 14689 14690 14691 14692 14693 14694 14695 14696 14697 14698 14699 14700 14701 14702 14703 14704 14705 14706 14707 14708 14709 14710 14711 14712 14713 14714 14715 14716 14717 14718 14719 14720 14721 14722 14723 14724 14725 14726 14727 14728 14729 14730 14731 14732 14733 14734 14735 14736 14737 14738 14739 14740 14741 14742 14743 14744 14745 14746 14747 14748 14749 14750 14751 14752 14753 14754 14755 14756 14757 14758 14759 14760 14761 14762 14763 14764 14765 14766 14767 14768 14769 14770 14771 14772 14773 14774 14775 14776 14777 14778 14779 14780 14781 14782 14783 14784 14785 14786 14787 14788 14789 14790 14791 14792 14793 14794 14795 14796 14797 14798 14799 14800 14801 14802 14803 14804 14805 14806 14807 14808 14809 14810 14811 14812 14813 14814 14815 14816 14817 14818 14819 14820 14821 14822 14823 14824 14825 14826 14827 14828 14829 14830 14831 14832 14833 14834 14835 14836 14837 14838 14839 14840 14841 14842 14843 14844 14845 14846 14847 14848 14849 14850 14851 14852 14853 14854 14855 14856 14857 14858 14859 14860 14861 14862 14863 14864 14865 14866 14867 14868 14869 14870 14871 14872 14873 14874 14875 14876 14877 14878 14879 14880 14881 14882 14883 14884 14885 14886 14887 14888 14889 14890 14891 14892 14893 14894 14895 14896 14897 14898 14899 14900 14901 14902 14903 14904 14905 14906 14907 14908 14909 14910 14911 14912 14913 14914 14915 14916 14917 14918 14919 14920 14921 14922 14923 14924 14925 14926 14927 14928 14929 14930 14931 14932 14933 14934 14935 14936 14937 14938 14939 14940 14941 14942 14943 14944 14945 14946 14947 14948 14949 14950 14951 14952 14953 14954 14955 14956 14957 14958 14959 14960 14961 14962 14963 14964 14965 14966 14967 14968 14969 14970 14971 14972 14973 14974 14975 14976 14977 14978 14979 14980 14981 14982 14983 14984 14985 14986 14987 14988 14989 14990 14991 14992 14993 14994 14995 14996 14997 14998 14999 15000 15001 15002 15003 15004 15005 15006 15007 15008 15009 15010 15011 15012 15013 15014 15015 15016 15017 15018 15019 15020 15021 15022 15023 15024 15025 15026 15027 15028 15029 15030 15031 15032 15033 15034 15035 15036 15037 15038 15039 15040 15041 15042 15043 15044 15045 15046 15047 15048 15049 15050 15051 15052 15053 15054 15055 15056 15057 15058 15059 15060 15061 15062 15063 15064 15065 15066 15067 15068 15069 15070 15071 15072 15073 15074 15075 15076 15077 15078 15079 15080 15081 15082 15083 15084 15085 15086 15087 15088 15089 15090 15091 15092 15093 15094 15095 15096 15097 15098 15099 15100 15101 15102 15103 15104 15105 15106 15107 15108 15109 15110 15111 15112 15113 15114 15115 15116 15117 15118 15119 15120 15121 15122 15123 15124 15125 15126 15127 15128 15129 15130 15131 15132 15133 15134 15135 15136 15137 15138 15139 15140 15141 15142 15143 15144 15145 15146 15147 15148 15149 15150 15151 15152 15153 15154 15155 15156 15157 15158 15159 15160 15161 15162 15163 15164 15165 15166 15167 15168 15169 15170 15171 15172 15173 15174 15175 15176 15177 15178 15179 15180 15181 15182 15183 15184 15185 15186 15187 15188 15189 15190 15191 15192 15193 15194 15195 15196 15197 15198 15199 15200 15201 15202 15203 15204 15205 15206 15207 15208 15209 15210 15211 15212 15213 15214 15215 15216 15217 15218 15219 15220 15221 15222 15223 15224 15225 15226 15227 15228 15229 15230 15231 15232 15233 15234 15235 15236 15237 15238 15239 15240 15241 15242 15243 15244 15245 15246 15247 15248 15249 15250 15251 15252 15253 15254 15255 15256 15257 15258 15259 15260 15261 15262 15263 15264 15265 15266 15267 15268 15269 15270 15271 15272 15273 15274 15275 15276 15277 15278 15279 15280 15281 15282 15283 15284 15285 15286 15287 15288 15289 15290 15291 15292 15293 15294 15295 15296 15297 15298 15299 15300 15301 15302 15303 15304 15305 15306 15307 15308 15309 15310 15311 15312 15313 15314 15315 15316 15317 15318 15319 15320 15321 15322 15323 15324 15325 15326 15327 15328 15329 15330 15331 15332 15333 15334 15335 15336 15337 15338 15339 15340 15341 15342 15343 15344 15345 15346 15347 15348 15349 15350 15351 15352 15353 15354 15355 15356 15357 15358 15359 15360 15361 15362 15363 15364 15365 15366 15367 15368 15369 15370 15371 15372 15373 15374 15375 15376 15377 15378 15379 15380 15381 15382 15383 15384 15385 15386 15387 15388 15389 15390 15391 15392 15393 15394 15395 15396 15397 15398 15399 15400 15401 15402 15403 15404 15405 15406 15407 15408 15409 15410 15411 15412 15413 15414 15415 15416 15417 15418 15419 15420 15421 15422 15423 15424 15425 15426 15427 15428 15429 15430 15431 15432 15433 15434 15435 15436 15437 15438 15439 15440 15441 15442 15443 15444 15445 15446 15447 15448 15449 15450 15451 15452 15453 15454 15455 15456 15457 15458 15459 15460 15461 15462 15463 15464 15465 15466 15467 15468 15469 15470 15471 15472 15473 15474 15475 15476 15477 15478 15479 15480 15481 15482 15483 15484 15485 15486 15487 15488 15489 15490 15491 15492 15493 15494 15495 15496 15497 15498 15499 15500 15501 15502 15503 15504 15505 15506 15507 15508 15509 15510 15511 15512 15513 15514 15515 15516 15517 15518 15519 15520 15521 15522 15523 15524 15525 15526 15527 15528 15529 15530 15531 15532 15533 15534 15535 15536 15537 15538 15539 15540 15541 15542 15543 15544 15545 15546 15547 15548 15549 15550 15551 15552 15553 15554 15555 15556 15557 15558 15559 15560 15561 15562 15563 15564 15565 15566 15567 15568 15569 15570 15571 15572 15573 15574 15575 15576 15577 15578 15579 15580 15581 15582 15583 15584 15585 15586 15587 15588 15589 15590 15591 15592 15593 15594 15595 15596 15597 15598 15599 15600 15601 15602 15603 15604 15605 15606 15607 15608 15609 15610 15611 15612 15613 15614 15615 15616 15617 15618 15619 15620 15621 15622 15623 15624 15625 15626 15627 15628 15629 15630 15631 15632 15633 15634 15635 15636 15637 15638 15639 15640 15641 15642 15643 15644 15645 15646 15647 15648 15649 15650 15651 15652 15653 15654 15655 15656 15657 15658 15659 15660 15661 15662 15663 15664 15665 15666 15667 15668 15669 15670 15671 15672 15673 15674 15675 15676 15677 15678 15679 15680 15681 15682 15683 15684 15685 15686 15687 15688 15689 15690 15691 15692 15693 15694 15695 15696 15697 15698 15699 15700 15701 15702 15703 15704 15705 15706 15707 15708 15709 15710 15711 15712 15713 15714 15715 15716 15717 15718 15719 15720 15721 15722 15723 15724 15725 15726 15727 15728 15729 15730 15731 15732 15733 15734 15735 15736 15737 15738 15739 15740 15741 15742 15743 15744 15745 15746 15747 15748 15749 15750 15751 15752 15753 15754 15755 15756 15757 15758 15759 15760 15761 15762 15763 15764 15765 15766 15767 15768 15769 15770 15771 15772 15773 15774 15775 15776 15777 15778 15779 15780 15781 15782 15783 15784 15785 15786 15787 15788 15789 15790 15791 15792 15793 15794 15795 15796 15797 15798 15799 15800 15801 15802 15803 15804 15805 15806 15807 15808 15809 15810 15811 15812 15813 15814 15815 15816 15817 15818 15819 15820 15821 15822 15823 15824 15825 15826 15827 15828 15829 15830 15831 15832 15833 15834 15835 15836 15837 15838 15839 15840 15841 15842 15843 15844 15845 15846 15847 15848 15849 15850 15851 15852 15853 15854 15855 15856 15857 15858 15859 15860 15861 15862 15863 15864 15865 15866 15867 15868 15869 15870 15871 15872 15873 15874 15875 15876 15877 15878 15879 15880 15881 15882 15883 15884 15885 15886 15887 15888 15889 15890 15891 15892 15893 15894 15895 15896 15897 15898 15899 15900 15901 15902 15903 15904 15905 15906 15907 15908 15909 15910 15911 15912 15913 15914 15915 15916 15917 15918 15919 15920 15921 15922 15923 15924 15925 15926 15927 15928 15929 15930 15931 15932 15933 15934 15935 15936 15937 15938 15939 15940 15941 15942 15943 15944 15945 15946 15947 15948 15949 15950 15951 15952 15953 15954 15955 15956 15957 15958 15959 15960 15961 15962 15963 15964 15965 15966 15967 15968 15969 15970 15971 15972 15973 15974 15975 15976 15977 15978 15979 15980 15981 15982 15983 15984 15985 15986 15987 15988 15989 15990 15991 15992 15993 15994 15995 15996 15997 15998 15999 16000 16001 16002 16003 16004 16005 16006 16007 16008 16009 16010 16011 16012 16013 16014 16015 16016 16017 16018 16019 16020 16021 16022 16023 16024 16025 16026 16027 16028 16029 16030 16031 16032 16033 16034 16035 16036 16037 16038 16039 16040 16041 16042 16043 16044 16045 16046 16047 16048 16049 16050 16051 16052 16053 16054 16055 16056 16057 16058 16059 16060 16061 16062 16063 16064 16065 16066 16067 16068 16069 16070 16071 16072 16073 16074 16075 16076 16077 16078 16079 16080 16081 16082 16083 16084 16085 16086 16087 16088 16089 16090 16091 16092 16093 16094 16095 16096 16097 16098 16099 16100 16101 16102 16103 16104 16105 16106 16107 16108 16109 16110 16111 16112 16113 16114 16115 16116 16117 16118 16119 16120 16121 16122 16123 16124 16125 16126 16127 16128 16129 16130 16131 16132 16133 16134 16135 16136 16137 16138 16139 16140 16141 16142 16143 16144 16145 16146 16147 16148 16149 16150 16151 16152 16153 16154 16155 16156 16157 16158 16159 16160 16161 16162 16163 16164 16165 16166 16167 16168 16169 16170 16171 16172 16173 16174 16175 16176 16177 16178 16179 16180 16181 16182 16183 16184 16185 16186 16187 16188 16189 16190 16191 16192 16193 16194 16195 16196 16197 16198 16199 16200 16201 16202 16203 16204 16205 16206 16207 16208 16209 16210 16211 16212 16213 16214 16215 16216 16217 16218 16219 16220 16221 16222 16223 16224 16225 16226 16227 16228 16229 16230 16231 16232 16233 16234 16235 16236 16237 16238 16239 16240 16241 16242 16243 16244 16245 16246 16247 16248 16249 16250 16251 16252 16253 16254 16255 16256 16257 16258 16259 16260 16261 16262 16263 16264 16265 16266 16267 16268 16269 16270 16271 16272 16273 16274 16275 16276 16277 16278 16279 16280 16281 16282 16283 16284 16285 16286 16287 16288 16289 16290 16291 16292 16293 16294 16295 16296 16297 16298 16299 16300 16301 16302 16303 16304 16305 16306 16307 16308 16309 16310 16311 16312 16313 16314 16315 16316 16317 16318 16319 16320 16321 16322 16323 16324 16325 16326 16327 16328 16329 16330 16331 16332 16333 16334 16335 16336 16337 16338 16339 16340 16341 16342 16343 16344 16345 16346 16347 16348 16349 16350 16351 16352 16353 16354 16355 16356 16357 16358 16359 16360 16361 16362 16363 16364 16365 16366 16367 16368 16369 16370 16371 16372 16373 16374 16375 16376 16377 16378 16379 16380 16381 16382 16383 16384 16385 16386 16387 16388 16389 16390 16391 16392 16393 16394 16395 16396 16397 16398 16399 16400 16401 16402 16403 16404 16405 16406 16407 16408 16409 16410 16411 16412 16413 16414 16415 16416 16417 16418 16419 16420 16421 16422 16423 16424 16425 16426 16427 16428 16429 16430 16431 16432 16433 16434 16435 16436 16437 16438 16439 16440 16441 16442 16443 16444 16445 16446 16447 16448 16449 16450 16451 16452 16453 16454 16455 16456 16457 16458 16459 16460 16461 16462 16463 16464 16465 16466 16467 16468 16469 16470 16471 16472 16473 16474 16475 16476 16477 16478 16479 16480 16481 16482 16483 16484 16485 16486 16487 16488 16489 16490 16491 16492 16493 16494 16495 16496 16497 16498 16499 16500 16501 16502 16503 16504 16505 16506 16507 16508 16509 16510 16511 16512 16513 16514 16515 16516 16517 16518 16519 16520 16521 16522 16523 16524 16525 16526 16527 16528 16529 16530 16531 16532 16533 16534 16535 16536 16537 16538 16539 16540 16541 16542 16543 16544 16545 16546 16547 16548 16549 16550 16551 16552 16553 16554 16555 16556 16557 16558 16559 16560 16561 16562 16563 16564 16565 16566 16567 16568 16569 16570 16571 16572 16573 16574 16575 16576 16577 16578 16579 16580 16581 16582 16583 16584 16585 16586 16587 16588 16589 16590 16591 16592 16593 16594 16595 16596 16597 16598 16599 16600 16601 16602 16603 16604 16605 16606 16607 16608 16609 16610 16611 16612 16613 16614 16615 16616 16617 16618 16619 16620 16621 16622 16623 16624 16625 16626 16627 16628 16629 16630 16631 16632 16633 16634 16635 16636 16637 16638 16639 16640 16641 16642 16643 16644 16645 16646 16647 16648 16649 16650 16651 16652 16653 16654 16655 16656 16657 16658 16659 16660 16661 16662 16663 16664 16665 16666 16667 16668 16669 16670 16671 16672 16673 16674 16675 16676 16677 16678 16679 16680 16681 16682 16683 16684 16685 16686 16687 16688 16689 16690 16691 16692 16693 16694 16695 16696 16697 16698 16699 16700 16701 16702 16703 16704 16705 16706 16707 16708 16709 16710 16711 16712 16713 16714 16715 16716 16717 16718 16719 16720 16721 16722 16723 16724 16725 16726 16727 16728 16729 16730 16731 16732 16733 16734 16735 16736 16737 16738 16739 16740 16741 16742 16743 16744 16745 16746 16747 16748 16749 16750 16751 16752 16753 16754 16755 16756 16757 16758 16759 16760 16761 16762 16763 16764 16765 16766 16767 16768 16769 16770 16771 16772 16773 16774 16775 16776 16777 16778 16779 16780 16781 16782 16783 16784 16785 16786 16787 16788 16789 16790 16791 16792 16793 16794 16795 16796 16797 16798 16799 16800 16801 16802 16803 16804 16805 16806 16807 16808 16809 16810 16811 16812 16813 16814 16815 16816 16817 16818 16819 16820 16821 16822 16823 16824 16825 16826 16827 16828 16829 16830 16831 16832 16833 16834 16835 16836 16837 16838 16839 16840 16841 16842 16843 16844 16845 16846 16847 16848 16849 16850 16851 16852 16853 16854 16855 16856 16857 16858 16859 16860 16861 16862 16863 16864 16865 16866 16867 16868 16869 16870 16871 16872 16873 16874 16875 16876 16877 16878 16879 16880 16881 16882 16883 16884 16885 16886 16887 16888 16889 16890 16891 16892 16893 16894 16895 16896 16897 16898 16899 16900 16901 16902 16903 16904 16905 16906 16907 16908 16909 16910 16911 16912 16913 16914 16915 16916 16917 16918 16919 16920 16921 16922 16923 16924 16925 16926 16927 16928 16929 16930 16931 16932 16933 16934 16935 16936 16937 16938 16939 16940 16941 16942 16943 16944 16945 16946 16947 16948 16949 16950 16951 16952 16953 16954 16955 16956 16957 16958 16959 16960 16961 16962 16963 16964 16965 16966 16967 16968 16969 16970 16971 16972 16973 16974 16975 16976 16977 16978 16979 16980 16981 16982 16983 16984 16985 16986 16987 16988 16989 16990 16991 16992 16993 16994 16995 16996 16997 16998 16999 17000 17001 17002 17003 17004 17005 17006 17007 17008 17009 17010 17011 17012 17013 17014 17015 17016 17017 17018 17019 17020 17021 17022 17023 17024 17025 17026 17027 17028 17029 17030 17031 17032 17033 17034 17035 17036 17037 17038 17039 17040 17041 17042 17043 17044 17045 17046 17047 17048 17049 17050 17051 17052 17053 17054 17055 17056 17057 17058 17059 17060 17061 17062 17063 17064 17065 17066 17067 17068 17069 17070 17071 17072 17073 17074 17075 17076 17077 17078 17079 17080 17081 17082 17083 17084 17085 17086 17087 17088 17089 17090 17091 17092 17093 17094 17095 17096 17097 17098 17099 17100 17101 17102 17103 17104 17105 17106 17107 17108 17109 17110 17111 17112 17113 17114 17115 17116 17117 17118 17119 17120 17121 17122 17123 17124 17125 17126 17127 17128 17129 17130 17131 17132 17133 17134 17135 17136 17137 17138 17139 17140 17141 17142 17143 17144 17145 17146 17147 17148 17149 17150 17151 17152 17153 17154 17155 17156 17157 17158 17159 17160 17161 17162 17163 17164 17165 17166 17167 17168 17169 17170 17171 17172 17173 17174 17175 17176 17177 17178 17179 17180 17181 17182 17183 17184 17185 17186 17187 17188 17189 17190 17191 17192 17193 17194 17195 17196 17197 17198 17199 17200 17201 17202 17203 17204 17205 17206 17207 17208 17209 17210 17211 17212 17213 17214 17215 17216 17217 17218 17219 17220 17221 17222 17223 17224 17225 17226 17227 17228 17229 17230 17231 17232 17233 17234 17235 17236 17237 17238 17239 17240 17241 17242 17243 17244 17245 17246 17247 17248 17249 17250 17251 17252 17253 17254 17255 17256 17257 17258 17259 17260 17261 17262 17263 17264 17265 17266 17267 17268 17269 17270 17271 17272 17273 17274 17275 17276 17277 17278 17279 17280 17281 17282 17283 17284 17285 17286 17287 17288 17289 17290 17291 17292 17293 17294 17295 17296 17297 17298 17299 17300 17301 17302 17303 17304 17305 17306 17307 17308 17309 17310 17311 17312 17313 17314 17315 17316 17317 17318 17319 17320 17321 17322 17323 17324 17325 17326 17327 17328 17329 17330 17331 17332 17333 17334 17335 17336 17337 17338 17339 17340 17341 17342 17343 17344 17345 17346 17347 17348 17349 17350 17351 17352 17353 17354 17355 17356 17357 17358 17359 17360 17361 17362 17363 17364 17365 17366 17367 17368 17369 17370 17371 17372 17373 17374 17375 17376 17377 17378 17379 17380 17381 17382 17383 17384 17385 17386 17387 17388 17389 17390 17391 17392 17393 17394 17395 17396 17397 17398 17399 17400 17401 17402 17403 17404 17405 17406 17407 17408 17409 17410 17411 17412 17413 17414 17415 17416 17417 17418 17419 17420 17421 17422 17423 17424 17425 17426 17427 17428 17429 17430 17431 17432 17433 17434 17435 17436 17437 17438 17439 17440 17441 17442 17443 17444 17445 17446 17447 17448 17449 17450 17451 17452 17453 17454 17455 17456 17457 17458 17459 17460 17461 17462 17463 17464 17465 17466 17467 17468 17469 17470 17471 17472 17473 17474 17475 17476 17477 17478 17479 17480 17481 17482 17483 17484 17485 17486 17487 17488 17489 17490 17491 17492 17493 17494 17495 17496 17497 17498 17499 17500 17501 17502 17503 17504 17505 17506 17507 17508 17509 17510 17511 17512 17513 17514 17515 17516 17517 17518 17519 17520 17521 17522 17523 17524 17525 17526 17527 17528 17529 17530 17531 17532 17533 17534 17535 17536 17537 17538 17539 17540 17541 17542 17543 17544 17545 17546 17547 17548 17549 17550 17551 17552 17553 17554 17555 17556 17557 17558 17559 17560 17561 17562 17563 17564 17565 17566 17567 17568 17569 17570 17571 17572 17573 17574 17575 17576 17577 17578 17579 17580 17581 17582 17583 17584 17585 17586 17587 17588 17589 17590 17591 17592 17593 17594 17595 17596 17597 17598 17599 17600 17601 17602 17603 17604 17605 17606 17607 17608 17609 17610 17611 17612 17613 17614 17615 17616 17617 17618 17619 17620 17621 17622 17623 17624 17625 17626 17627 17628 17629 17630 17631 17632 17633 17634 17635 17636 17637 17638 17639 17640 17641 17642 17643 17644 17645 17646 17647 17648 17649 17650 17651 17652 17653 17654 17655 17656 17657 17658 17659 17660 17661 17662 17663 17664 17665 17666 17667 17668 17669 17670 17671 17672 17673 17674 17675 17676 17677 17678 17679 17680 17681 17682 17683 17684 17685 17686 17687 17688 17689 17690 17691 17692 17693 17694 17695 17696 17697 17698 17699 17700 17701 17702 17703 17704 17705 17706 17707 17708 17709 17710 17711 17712 17713 17714 17715 17716 17717 17718 17719 17720 17721 17722 17723 17724 17725 17726 17727 17728 17729 17730 17731 17732 17733 17734 17735 17736 17737 17738 17739 17740 17741 17742 17743 17744 17745 17746 17747 17748 17749 17750 17751 17752 17753 17754 17755 17756 17757 17758 17759 17760 17761 17762 17763 17764 17765 17766 17767 17768 17769 17770 17771 17772 17773 17774 17775 17776 17777 17778 17779 17780 17781 17782 17783 17784 17785 17786 17787 17788 17789 17790 17791 17792 17793 17794 17795 17796 17797 17798 17799 17800 17801 17802 17803 17804 17805 17806 17807 17808 17809 17810 17811 17812 17813 17814 17815 17816 17817 17818 17819 17820 17821 17822 17823 17824 17825 17826 17827 17828 17829 17830 17831 17832 17833 17834 17835 17836 17837 17838 17839 17840 17841 17842 17843 17844 17845 17846 17847 17848 17849 17850 17851 17852 17853 17854 17855 17856 17857 17858 17859 17860 17861 17862 17863 17864 17865 17866 17867 17868 17869 17870 17871 17872 17873 17874 17875 17876 17877 17878 17879 17880 17881 17882 17883 17884 17885 17886 17887 17888 17889 17890 17891 17892 17893 17894 17895 17896 17897 17898 17899 17900 17901 17902 17903 17904 17905 17906 17907 17908 17909 17910 17911 17912 17913 17914 17915 17916 17917 17918 17919 17920 17921 17922 17923 17924 17925 17926 17927 17928 17929 17930 17931 17932 17933 17934 17935 17936 17937 17938 17939 17940 17941 17942 17943 17944 17945 17946 17947 17948 17949 17950 17951 17952 17953 17954 17955 17956 17957 17958 17959 17960 17961 17962 17963 17964 17965 17966 17967 17968 17969 17970 17971 17972 17973 17974 17975 17976 17977 17978 17979 17980 17981 17982 17983 17984 17985 17986 17987 17988 17989 17990 17991 17992 17993 17994 17995 17996 17997 17998 17999 18000 18001 18002 18003 18004 18005 18006 18007 18008 18009 18010 18011 18012 18013 18014 18015 18016 18017 18018 18019 18020 18021 18022 18023 18024 18025 18026 18027 18028 18029 18030 18031 18032 18033 18034 18035 18036 18037 18038 18039 18040 18041 18042 18043 18044 18045 18046 18047 18048 18049 18050 18051 18052 18053 18054 18055 18056 18057 18058 18059 18060 18061 18062 18063 18064 18065 18066 18067 18068 18069 18070 18071 18072 18073 18074 18075 18076 18077 18078 18079 18080 18081 18082 18083 18084 18085 18086 18087 18088 18089 18090 18091 18092 18093 18094 18095 18096 18097 18098 18099 18100 18101 18102 18103 18104 18105 18106 18107 18108 18109 18110 18111 18112 18113 18114 18115 18116 18117 18118 18119 18120 18121 18122 18123 18124 18125 18126 18127 18128 18129 18130 18131 18132 18133 18134 18135 18136 18137 18138 18139 18140 18141 18142 18143 18144 18145 18146 18147 18148 18149 18150 18151 18152 18153 18154 18155 18156 18157 18158 18159 18160 18161 18162 18163 18164 18165 18166 18167 18168 18169 18170 18171 18172 18173 18174 18175 18176 18177 18178 18179 18180 18181 18182 18183 18184 18185 18186 18187 18188 18189 18190 18191 18192 18193 18194 18195 18196 18197 18198 18199 18200 18201 18202 18203 18204 18205 18206 18207 18208 18209 18210 18211 18212 18213 18214 18215 18216 18217 18218 18219 18220 18221 18222 18223 18224 18225 18226 18227 18228 18229 18230 18231 18232 18233 18234 18235 18236 18237 18238 18239 18240 18241 18242 18243 18244 18245 18246 18247 18248 18249 18250 18251 18252 18253 18254 18255 18256 18257 18258 18259 18260 18261 18262 18263 18264 18265 18266 18267 18268 18269 18270 18271 18272 18273 18274 18275 18276 18277 18278 18279 18280 18281 18282 18283 18284 18285 18286 18287 18288 18289 18290 18291 18292 18293 18294 18295 18296 18297 18298 18299 18300 18301 18302 18303 18304 18305 18306 18307 18308 18309 18310 18311 18312 18313 18314 18315 18316 18317 18318 18319 18320 18321 18322 18323 18324 18325 18326 18327 18328 18329 18330 18331 18332 18333 18334 18335 18336 18337 18338 18339 18340 18341 18342 18343 18344 18345 18346 18347 18348 18349 18350 18351 18352 18353 18354 18355 18356 18357 18358 18359 18360 18361 18362 18363 18364 18365 18366 18367 18368 18369 18370 18371 18372 18373 18374 18375 18376 18377 18378 18379 18380 18381 18382 18383 18384 18385 18386 18387 18388 18389 18390 18391 18392 18393 18394 18395 18396 18397 18398 18399 18400 18401 18402 18403 18404 18405 18406 18407 18408 18409 18410 18411 18412 18413 18414 18415 18416 18417 18418 18419 18420 18421 18422 18423 18424 18425 18426 18427 18428 18429 18430 18431 18432 18433 18434 18435 18436 18437 18438 18439 18440 18441 18442 18443 18444 18445 18446 18447 18448 18449 18450 18451 18452 18453 18454 18455 18456 18457 18458 18459 18460 18461 18462 18463 18464 18465 18466 18467 18468 18469 18470 18471 18472 18473 18474 18475 18476 18477 18478 18479 18480 18481 18482 18483 18484 18485 18486 18487 18488 18489 18490 18491 18492 18493 18494 18495 18496 18497 18498 18499 18500 18501 18502 18503 18504 18505 18506 18507 18508 18509 18510 18511 18512 18513 18514 18515 18516 18517 18518 18519 18520 18521 18522 18523 18524 18525 18526 18527 18528 18529 18530 18531 18532 18533 18534 18535 18536 18537 18538 18539 18540 18541 18542 18543 18544 18545 18546 18547 18548 18549 18550 18551 18552 18553 18554 18555 18556 18557 18558 18559 18560 18561 18562 18563 18564 18565 18566 18567 18568 18569 18570 18571 18572 18573 18574 18575 18576 18577 18578 18579 18580 18581 18582 18583 18584 18585 18586 18587 18588 18589 18590 18591 18592 18593 18594 18595 18596 18597 18598 18599 18600 18601 18602 18603 18604 18605 18606 18607 18608 18609 18610 18611 18612 18613 18614 18615 18616 18617 18618 18619 18620 18621 18622 18623 18624 18625 18626 18627 18628 18629 18630 18631 18632 18633 18634 18635 18636 18637 18638 18639 18640 18641 18642 18643 18644 18645 18646 18647 18648 18649 18650 18651 18652 18653 18654 18655 18656 18657 18658 18659 18660 18661 18662 18663 18664 18665 18666 18667 18668 18669 18670 18671 18672 18673 18674 18675 18676 18677 18678 18679 18680 18681 18682 18683 18684 18685 18686 18687 18688 18689 18690 18691 18692 18693 18694 18695 18696 18697 18698 18699 18700 18701 18702 18703 18704 18705 18706 18707 18708 18709 18710 18711 18712 18713 18714 18715 18716 18717 18718 18719 18720 18721 18722 18723 18724 18725 18726 18727 18728 18729 18730 18731 18732 18733 18734 18735 18736 18737 18738 18739 18740 18741 18742 18743 18744 18745 18746 18747 18748 18749 18750 18751 18752 18753 18754 18755 18756 18757 18758 18759 18760 18761 18762 18763 18764 18765 18766 18767 18768 18769 18770 18771 18772 18773 18774 18775 18776 18777 18778 18779 18780 18781 18782 18783 18784 18785 18786 18787 18788 18789 18790 18791 18792 18793 18794 18795 18796 18797 18798 18799 18800 18801 18802 18803 18804 18805 18806 18807 18808 18809 18810 18811 18812 18813 18814 18815 18816 18817 18818 18819 18820 18821 18822 18823 18824 18825 18826 18827 18828 18829 18830 18831 18832 18833 18834 18835 18836 18837 18838 18839 18840 18841 18842 18843 18844 18845 18846 18847 18848 18849 18850 18851 18852 18853 18854 18855 18856 18857 18858 18859 18860 18861 18862 18863 18864 18865 18866 18867 18868 18869 18870 18871 18872 18873 18874 18875 18876 18877 18878 18879 18880 18881 18882 18883 18884 18885 18886 18887 18888 18889 18890 18891 18892 18893 18894 18895 18896 18897 18898 18899 18900 18901 18902 18903 18904 18905 18906 18907 18908 18909 18910 18911 18912 18913 18914 18915 18916 18917 18918 18919 18920 18921 18922 18923 18924 18925 18926 18927 18928 18929 18930 18931 18932 18933 18934 18935 18936 18937 18938 18939 18940 18941 18942 18943 18944 18945 18946 18947 18948 18949 18950 18951 18952 18953 18954 18955 18956 18957 18958 18959 18960 18961 18962 18963 18964 18965 18966 18967 18968 18969 18970 18971 18972 18973 18974 18975 18976 18977 18978 18979 18980 18981 18982 18983 18984 18985 18986 18987 18988 18989 18990 18991 18992 18993 18994 18995 18996 18997 18998 18999 19000 19001 19002 19003 19004 19005 19006 19007 19008 19009 19010 19011 19012 19013 19014 19015 19016 19017 19018 19019 19020 19021 19022 19023 19024 19025 19026 19027 19028 19029 19030 19031 19032 19033 19034 19035 19036 19037 19038 19039 19040 19041 19042 19043 19044 19045 19046 19047 19048 19049 19050 19051 19052 19053 19054 19055 19056 19057 19058 19059 19060 19061 19062 19063 19064 19065 19066 19067 19068 19069 19070 19071 19072 19073 19074 19075 19076 19077 19078 19079 19080 19081 19082 19083 19084 19085 19086 19087 19088 19089 19090 19091 19092 19093 19094 19095 19096 19097 19098 19099 19100 19101 19102 19103 19104 19105 19106 19107 19108 19109 19110 19111 19112 19113 19114 19115 19116 19117 19118 19119 19120 19121 19122 19123 19124 19125 19126 19127 19128 19129 19130 19131 19132 19133 19134 19135 19136 19137 19138 19139 19140 19141 19142 19143 19144 19145 19146 19147 19148 19149 19150 19151 19152 19153 19154 19155 19156 19157 19158 19159 19160 19161 19162 19163 19164 19165 19166 19167 19168 19169 19170 19171 19172 19173 19174 19175 19176 19177 19178 19179 19180 19181 19182 19183 19184 19185 19186 19187 19188 19189 19190 19191 19192 19193 19194 19195 19196 19197 19198 19199 19200 19201 19202 19203 19204 19205 19206 19207 19208 19209 19210 19211 19212 19213 19214 19215 19216 19217 19218 19219 19220 19221 19222 19223 19224 19225 19226 19227 19228 19229 19230 19231 19232 19233 19234 19235 19236 19237 19238 19239 19240 19241 19242 19243 19244 19245 19246 19247 19248 19249 19250 19251 19252 19253 19254 19255 19256 19257 19258 19259 19260 19261 19262 19263 19264 19265 19266 19267 19268 19269 19270 19271 19272 19273 19274 19275 19276 19277 19278 19279 19280 19281 19282 19283 19284 19285 19286 19287 19288 19289 19290 19291 19292 19293 19294 19295 19296 19297 19298 19299 19300 19301 19302 19303 19304 19305 19306 19307 19308 19309 19310 19311 19312 19313 19314 19315 19316 19317 19318 19319 19320 19321 19322 19323 19324 19325 19326 19327 19328 19329 19330 19331 19332 19333 19334 19335 19336 19337 19338 19339 19340 19341 19342 19343 19344 19345 19346 19347 19348 19349 19350 19351 19352 19353 19354 19355 19356 19357 19358 19359 19360 19361 19362 19363 19364 19365 19366 19367 19368 19369 19370 19371 19372 19373 19374 19375 19376 19377 19378 19379 19380 19381 19382 19383 19384 19385 19386 19387 19388 19389 19390 19391 19392 19393 19394 19395 19396 19397 19398 19399 19400 19401 19402 19403 19404 19405 19406 19407 19408 19409 19410 19411 19412 19413 19414 19415 19416 19417 19418 19419 19420 19421 19422 19423 19424 19425 19426 19427 19428 19429 19430 19431 19432 19433 19434 19435 19436 19437 19438 19439 19440 19441 19442 19443 19444 19445 19446 19447 19448 19449 19450 19451 19452 19453 19454 19455 19456 19457 19458 19459 19460 19461 19462 19463 19464 19465 19466 19467 19468 19469 19470 19471 19472 19473 19474 19475 19476 19477 19478 19479 19480 19481 19482 19483 19484 19485 19486 19487 19488 19489 19490 19491 19492 19493 19494 19495 19496 19497 19498 19499 19500 19501 19502 19503 19504 19505 19506 19507 19508 19509 19510 19511 19512 19513 19514 19515 19516 19517 19518 19519 19520 19521 19522 19523 19524 19525 19526 19527 19528 19529 19530 19531 19532 19533 19534 19535 19536 19537 19538 19539 19540 19541 19542 19543 19544 19545 19546 19547 19548 19549 19550 19551 19552 19553 19554 19555 19556 19557 19558 19559 19560 19561 19562 19563 19564 19565 19566 19567 19568 19569 19570 19571 19572 19573 19574 19575 19576 19577 19578 19579 19580 19581 19582 19583 19584 19585 19586 19587 19588 19589 19590 19591 19592 19593 19594 19595 19596 19597 19598 19599 19600 19601 19602 19603 19604 19605 19606 19607 19608 19609 19610 19611 19612 19613 19614 19615 19616 19617 19618 19619 19620 19621 19622 19623 19624 19625 19626 19627 19628 19629 19630 19631 19632 19633 19634 19635 19636 19637 19638 19639 19640 19641 19642 19643 19644 19645 19646 19647 19648 19649 19650 19651 19652 19653 19654 19655 19656 19657 19658 19659 19660 19661 19662 19663 19664 19665 19666 19667 19668 19669 19670 19671 19672 19673 19674 19675 19676 19677 19678 19679 19680 19681 19682 19683 19684 19685 19686 19687 19688 19689 19690 19691 19692 19693 19694 19695 19696 19697 19698 19699 19700 19701 19702 19703 19704 19705 19706 19707 19708 19709 19710 19711 19712 19713 19714 19715 19716 19717 19718 19719 19720 19721 19722 19723 19724 19725 19726 19727 19728 19729 19730 19731 19732 19733 19734 19735 19736 19737 19738 19739 19740 19741 19742 19743 19744 19745 19746 19747 19748 19749 19750 19751 19752 19753 19754 19755 19756 19757 19758 19759 19760 19761 19762 19763 19764 19765 19766 19767 19768 19769 19770 19771 19772 19773 19774 19775 19776 19777 19778 19779 19780 19781 19782 19783 19784 19785 19786 19787 19788 19789 19790 19791 19792 19793 19794 19795 19796 19797 19798 19799 19800 19801 19802 19803 19804 19805 19806 19807 19808 19809 19810 19811 19812 19813 19814 19815 19816 19817 19818 19819 19820 19821 19822 19823 19824 19825 19826 19827 19828 19829 19830 19831 19832 19833 19834 19835 19836 19837 19838 19839 19840 19841 19842 19843 19844 19845 19846 19847 19848 19849 19850 19851 19852 19853 19854 19855 19856 19857 19858 19859 19860 19861 19862 19863 19864 19865 19866 19867 19868 19869 19870 19871 19872 19873 19874 19875 19876 19877 19878 19879 19880 19881 19882 19883 19884 19885 19886 19887 19888 19889 19890 19891 19892 19893 19894 19895 19896 19897 19898 19899 19900 19901 19902 19903 19904 19905 19906 19907 19908 19909 19910 19911 19912 19913 19914 19915 19916 19917 19918 19919 19920 19921 19922 19923 19924 19925 19926 19927 19928 19929 19930 19931 19932 19933 19934 19935 19936 19937 19938 19939 19940 19941 19942 19943 19944 19945 19946 19947 19948 19949 19950 19951 19952 19953 19954 19955 19956 19957 19958 19959 19960 19961 19962 19963 19964 19965 19966 19967 19968 19969 19970 19971 19972 19973 19974 19975 19976 19977 19978 19979 19980 19981 19982 19983 19984 19985 19986 19987 19988 19989 19990 19991 19992 19993 19994 19995 19996 19997 19998 19999 20000 20001 20002 20003 20004 20005 20006 20007 20008 20009 20010 20011 20012 20013 20014 20015 20016 20017 20018 20019 20020 20021 20022 20023 20024 20025 20026 20027 20028 20029 20030 20031 20032 20033 20034 20035 20036 20037 20038 20039 20040 20041 20042 20043 20044 20045 20046 20047 20048 20049 20050 20051 20052 20053 20054 20055 20056 20057 20058 20059 20060 20061 20062 20063 20064 20065 20066 20067 20068 20069 20070 20071 20072 20073 20074 20075 20076 20077 20078 20079 20080 20081 20082 20083 20084 20085 20086 20087 20088 20089 20090 20091 20092 20093 20094 20095 20096 20097 20098 20099 20100 20101 20102 20103 20104 20105 20106 20107 20108 20109 20110 20111 20112 20113 20114 20115 20116 20117 20118 20119 20120 20121 20122 20123 20124 20125 20126 20127 20128 20129 20130 20131 20132 20133 20134 20135 20136 20137 20138 20139 20140 20141 20142 20143 20144 20145 20146 20147 20148 20149 20150 20151 20152 20153 20154 20155 20156 20157 20158 20159 20160 20161 20162 20163 20164 20165 20166 20167 20168 20169 20170 20171 20172 20173 20174 20175 20176 20177 20178 20179 20180 20181 20182 20183 20184 20185 20186 20187 20188 20189 20190 20191 20192 20193 20194 20195 20196 20197 20198 20199 20200 20201 20202 20203 20204 20205 20206 20207 20208 20209 20210 20211 20212 20213 20214 20215 20216 20217 20218 20219 20220 20221 20222 20223 20224 20225 20226 20227 20228 20229 20230 20231 20232 20233 20234 20235 20236 20237 20238 20239 20240 20241 20242 20243 20244 20245 20246 20247 20248 20249 20250 20251 20252 20253 20254 20255 20256 20257 20258 20259 20260 20261 20262 20263 20264 20265 20266 20267 20268 20269 20270 20271 20272 20273 20274 20275 20276 20277 20278 20279 20280 20281 20282 20283 20284 20285 20286 20287 20288 20289 20290 20291 20292 20293 20294 20295 20296 20297 20298 20299 20300 20301 20302 20303 20304 20305 20306 20307 20308 20309 20310 20311 20312 20313 20314 20315 20316 20317 20318 20319 20320 20321 20322 20323 20324 20325 20326 20327 20328 20329 20330 20331 20332 20333 20334 20335 20336 20337 20338 20339 20340 20341 20342 20343 20344 20345 20346 20347 20348 20349 20350 20351 20352 20353 20354 20355 20356 20357 20358 20359 20360 20361 20362 20363 20364 20365 20366 20367 20368 20369 20370 20371 20372 20373 20374 20375 20376 20377 20378 20379 20380 20381 20382 20383 20384 20385 20386 20387 20388 20389 20390 20391 20392 20393 20394 20395 20396 20397 20398 20399 20400 20401 20402 20403 20404 20405 20406 20407 20408 20409 20410 20411 20412 20413 20414 20415 20416 20417 20418 20419 20420 20421 20422 20423 20424 20425 20426 20427 20428 20429 20430 20431 20432 20433 20434 20435 20436 20437 20438 20439 20440 20441 20442 20443 20444 20445 20446 20447 20448 20449 20450 20451 20452 20453 20454 20455 20456 20457 20458 20459 20460 20461 20462 20463 20464 20465 20466 20467 20468 20469 20470 20471 20472 20473 20474 20475 20476 20477 20478 20479 20480 20481 20482 20483 20484 20485 20486 20487 20488 20489 20490 20491 20492 20493 20494 20495 20496 20497 20498 20499 20500 20501 20502 20503 20504 20505 20506 20507 20508 20509 20510 20511 20512 20513 20514 20515 20516 20517 20518 20519 20520 20521 20522 20523 20524 20525 20526 20527 20528 20529 20530 20531 20532 20533 20534 20535 20536 20537 20538 20539 20540 20541 20542 20543 20544 20545 20546 20547 20548 20549 20550 20551 20552 20553 20554 20555 20556 20557 20558 20559 20560 20561 20562 20563 20564 20565 20566 20567 20568 20569 20570 20571 20572 20573 20574 20575 20576 20577 20578 20579 20580 20581 20582 20583 20584 20585 20586 20587 20588 20589 20590 20591 20592 20593 20594 20595 20596 20597 20598 20599 20600 20601 20602 20603 20604 20605 20606 20607 20608 20609 20610 20611 20612 20613 20614 20615 20616 20617 20618 20619 20620 20621 20622 20623 20624 20625 20626 20627 20628 20629 20630 20631 20632 20633 20634 20635 20636 20637 20638 20639 20640 20641 20642 20643 20644 20645 20646 20647 20648 20649 20650 20651 20652 20653 20654 20655 20656 20657 20658 20659 20660 20661 20662 20663 20664 20665 20666 20667 20668 20669 20670 20671 20672 20673 20674 20675 20676 20677 20678 20679 20680 20681 20682 20683 20684 20685 20686 20687 20688 20689 20690 20691 20692 20693 20694 20695 20696 20697 20698 20699 20700 20701 20702 20703 20704 20705 20706 20707 20708 20709 20710 20711 20712 20713 20714 20715 20716 20717 20718 20719 20720 20721 20722 20723 20724 20725 20726 20727 20728 20729 20730 20731 20732 20733 20734 20735 20736 20737 20738 20739 20740 20741 20742 20743 20744 20745 20746 20747 20748 20749 20750 20751 20752 20753 20754 20755 20756 20757 20758 20759 20760 20761 20762 20763 20764 20765 20766 20767 20768 20769 20770 20771 20772 20773 20774 20775 20776 20777 20778 20779 20780 20781 20782 20783 20784 20785 20786 20787 20788 20789 20790 20791 20792 20793 20794 20795 20796 20797 20798 20799 20800 20801 20802 20803 20804 20805 20806 20807 20808 20809 20810 20811 20812 20813 20814 20815 20816 20817 20818 20819 20820 20821 20822 20823 20824 20825 20826 20827 20828 20829 20830 20831 20832 20833 20834 20835 20836 20837 20838 20839 20840 20841 20842 20843 20844 20845 20846 20847 20848 20849 20850 20851 20852 20853 20854 20855 20856 20857 20858 20859 20860 20861 20862 20863 20864 20865 20866 20867 20868 20869 20870 20871 20872 20873 20874 20875 20876 20877 20878 20879 20880 20881 20882 20883 20884 20885 20886 20887 20888 20889 20890 20891 20892 20893 20894 20895 20896 20897 20898 20899 20900 20901 20902 20903 20904 20905 20906 20907 20908 20909 20910 20911 20912 20913 20914 20915 20916 20917 20918 20919 20920 20921 20922 20923 20924 20925 20926 20927 20928 20929 20930 20931 20932 20933 20934 20935 20936 20937 20938 20939 20940 20941 20942 20943 20944 20945 20946 20947 20948 20949 20950 20951 20952 20953 20954 20955 20956 20957 20958 20959 20960 20961 20962 20963 20964 20965 20966 20967 20968 20969 20970 20971 20972 20973 20974 20975 20976 20977 20978 20979 20980 20981 20982 20983 20984 20985 20986 20987 20988 20989 20990 20991 20992 20993 20994 20995 20996 20997 20998 20999 21000 21001 21002 21003 21004 21005 21006 21007 21008 21009 21010 21011 21012 21013 21014 21015 21016 21017 21018 21019 21020 21021 21022 21023 21024 21025 21026 21027 21028 21029 21030 21031 21032 21033 21034 21035 21036 21037 21038 21039 21040 21041 21042 21043 21044 21045 21046 21047 21048 21049 21050 21051 21052 21053 21054 21055 21056 21057 21058 21059 21060 21061 21062 21063 21064 21065 21066 21067 21068 21069 21070 21071 21072 21073 21074 21075 21076 21077 21078 21079 21080 21081 21082 21083 21084 21085 21086 21087 21088 21089 21090 21091 21092 21093 21094 21095 21096 21097 21098 21099 21100 21101 21102 21103 21104 21105 21106 21107 21108 21109 21110 21111 21112 21113 21114 21115 21116 21117 21118 21119 21120 21121 21122 21123 21124 21125 21126 21127 21128 21129 21130 21131 21132 21133 21134 21135 21136 21137 21138 21139 21140 21141 21142 21143 21144 21145 21146 21147 21148 21149 21150 21151 21152 21153 21154 21155 21156 21157 21158 21159 21160 21161 21162 21163 21164 21165 21166 21167 21168 21169 21170 21171 21172 21173 21174 21175 21176 21177 21178 21179 21180 21181 21182 21183 21184 21185 21186 21187 21188 21189 21190 21191 21192 21193 21194 21195 21196 21197 21198 21199 21200 21201 21202 21203 21204 21205 21206 21207 21208 21209 21210 21211 21212 21213 21214 21215 21216 21217 21218 21219 21220 21221 21222 21223 21224 21225 21226 21227 21228 21229 21230 21231 21232 21233 21234 21235 21236 21237 21238 21239 21240 21241 21242 21243 21244 21245 21246 21247 21248 21249 21250 21251 21252 21253 21254 21255 21256 21257 21258 21259 21260 21261 21262 21263 21264 21265 21266 21267 21268 21269 21270 21271 21272 21273 21274 21275 21276 21277 21278 21279 21280 21281 21282 21283 21284 21285 21286 21287 21288 21289 21290 21291 21292 21293 21294 21295 21296 21297 21298 21299 21300 21301 21302 21303 21304 21305 21306 21307 21308 21309 21310 21311 21312 21313 21314 21315 21316 21317 21318 21319 21320 21321 21322 21323 21324 21325 21326 21327 21328 21329 21330 21331 21332 21333 21334 21335 21336 21337 21338 21339 21340 21341 21342 21343 21344 21345 21346 21347 21348 21349 21350 21351 21352 21353 21354 21355 21356 21357 21358 21359 21360 21361 21362 21363 21364 21365 21366 21367 21368 21369 21370 21371 21372 21373 21374 21375 21376 21377 21378 21379 21380 21381 21382 21383 21384 21385 21386 21387 21388 21389 21390 21391 21392 21393 21394 21395 21396 21397 21398 21399 21400 21401 21402 21403 21404 21405 21406 21407 21408 21409 21410 21411 21412 21413 21414 21415 21416 21417 21418 21419 21420 21421 21422 21423 21424 21425 21426 21427 21428 21429 21430 21431 21432 21433 21434 21435 21436 21437 21438 21439 21440 21441 21442 21443 21444 21445 21446 21447 21448 21449 21450 21451 21452 21453 21454 21455 21456 21457 21458 21459 21460 21461 21462 21463 21464 21465 21466 21467 21468 21469 21470 21471 21472 21473 21474 21475 21476 21477 21478 21479 21480 21481 21482 21483 21484 21485 21486 21487 21488 21489 21490 21491 21492 21493 21494 21495 21496 21497 21498 21499 21500 21501 21502 21503 21504 21505 21506 21507 21508 21509 21510 21511 21512 21513 21514 21515 21516 21517 21518 21519 21520 21521 21522 21523 21524 21525 21526 21527 21528 21529 21530 21531 21532 21533 21534 21535 21536 21537 21538 21539 21540 21541 21542 21543 21544 21545 21546 21547 21548 21549 21550 21551 21552 21553 21554 21555 21556 21557 21558 21559 21560 21561 21562 21563 21564 21565 21566 21567 21568 21569 21570 21571 21572 21573 21574 21575 21576 21577 21578 21579 21580 21581 21582 21583 21584 21585 21586 21587 21588 21589 21590 21591 21592 21593 21594 21595 21596 21597 21598 21599 21600 21601 21602 21603 21604 21605 21606 21607 21608 21609 21610 21611 21612 21613 21614 21615 21616 21617 21618 21619 21620 21621 21622 21623 21624 21625 21626 21627 21628 21629 21630 21631 21632 21633 21634 21635 21636 21637 21638 21639 21640 21641 21642 21643 21644 21645 21646 21647 21648 21649 21650 21651 21652 21653 21654 21655 21656 21657 21658 21659 21660 21661 21662 21663 21664 21665 21666 21667 21668 21669 21670 21671 21672 21673 21674 21675 21676 21677 21678 21679 21680 21681 21682 21683 21684 21685 21686 21687 21688 21689 21690 21691 21692 21693 21694 21695 21696 21697 21698 21699 21700 21701 21702 21703 21704 21705 21706 21707 21708 21709 21710 21711 21712 21713 21714 21715 21716 21717 21718 21719 21720 21721 21722 21723 21724 21725 21726 21727 21728 21729 21730 21731 21732 21733 21734 21735 21736 21737 21738 21739 21740 21741 21742 21743 21744 21745 21746 21747 21748 21749 21750 21751 21752 21753 21754 21755 21756 21757 21758 21759 21760 21761 21762 21763 21764 21765 21766 21767 21768 21769 21770 21771 21772 21773 21774 21775 21776 21777 21778 21779 21780 21781 21782 21783 21784 21785 21786 21787 21788 21789 21790 21791 21792 21793 21794 21795 21796 21797 21798 21799 21800 21801 21802 21803 21804 21805 21806 21807 21808 21809 21810 21811 21812 21813 21814 21815 21816 21817 21818 21819 21820 21821 21822 21823 21824 21825 21826 21827 21828 21829 21830 21831 21832 21833 21834 21835 21836 21837 21838 21839 21840 21841 21842 21843 21844 21845 21846 21847 21848 21849 21850 21851 21852 21853 21854 21855 21856 21857 21858 21859 21860 21861 21862 21863 21864 21865 21866 21867 21868 21869 21870 21871 21872 21873 21874 21875 21876 21877 21878 21879 21880 21881 21882 21883 21884 21885 21886 21887 21888 21889 21890 21891 21892 21893 21894 21895 21896 21897 21898 21899 21900 21901 21902 21903 21904 21905 21906 21907 21908 21909 21910 21911 21912 21913 21914 21915 21916 21917 21918 21919 21920 21921 21922 21923 21924 21925 21926 21927 21928 21929 21930 21931 21932 21933 21934 21935 21936 21937 21938 21939 21940 21941 21942 21943 21944 21945 21946 21947 21948 21949 21950 21951 21952 21953 21954 21955 21956 21957 21958 21959 21960 21961 21962 21963 21964 21965 21966 21967 21968 21969 21970 21971 21972 21973 21974 21975 21976 21977 21978 21979 21980 21981 21982 21983 21984 21985 21986 21987 21988 21989 21990 21991 21992 21993 21994 21995 21996 21997 21998 21999 22000 22001 22002 22003 22004 22005 22006 22007 22008 22009 22010 22011 22012 22013 22014 22015 22016 22017 22018 22019 22020 22021 22022 22023 22024 22025 22026 22027 22028 22029 22030 22031 22032 22033 22034 22035 22036 22037 22038 22039 22040 22041 22042 22043 22044 22045 22046 22047 22048 22049 22050 22051 22052 22053 22054 22055 22056 22057 22058 22059 22060 22061 22062 22063 22064 22065 22066 22067 22068 22069 22070 22071 22072 22073 22074 22075 22076 22077 22078 22079 22080 22081 22082 22083 22084 22085 22086 22087 22088 22089 22090 22091 22092 22093 22094 22095 22096 22097 22098 22099 22100 22101 22102 22103 22104 22105 22106 22107 22108 22109 22110 22111 22112 22113 22114 22115 22116 22117 22118 22119 22120 22121 22122 22123 22124 22125 22126 22127 22128 22129 22130 22131 22132 22133 22134 22135 22136 22137 22138 22139 22140 22141 22142 22143 22144 22145 22146 22147 22148 22149 22150 22151 22152 22153 22154 22155 22156 22157 22158 22159 22160 22161 22162 22163 22164 22165 22166 22167 22168 22169 22170 22171 22172 22173 22174 22175 22176 22177 22178 22179 22180 22181 22182 22183 22184 22185 22186 22187 22188 22189 22190 22191 22192 22193 22194 22195 22196 22197 22198 22199 22200 22201 22202 22203 22204 22205 22206 22207 22208 22209 22210 22211 22212 22213 22214 22215 22216 22217 22218 22219 22220 22221 22222 22223 22224 22225 22226 22227 22228 22229 22230 22231 22232 22233 22234 22235 22236 22237 22238 22239 22240 22241 22242 22243 22244 22245 22246 22247 22248 22249 22250 22251 22252 22253 22254 22255 22256 22257 22258 22259 22260 22261 22262 22263 22264 22265 22266 22267 22268 22269 22270 22271 22272 22273 22274 22275 22276 22277 22278 22279 22280 22281 22282 22283 22284 22285 22286 22287 22288 22289 22290 22291 22292 22293 22294 22295 22296 22297 22298 22299 22300 22301 22302 22303 22304 22305 22306 22307 22308 22309 22310 22311 22312 22313 22314 22315 22316 22317 22318 22319 22320 22321 22322 22323 22324 22325 22326 22327 22328 22329 22330 22331 22332 22333 22334 22335 22336 22337 22338 22339 22340 22341 22342 22343 22344 22345 22346 22347 22348 22349 22350 22351 22352 22353 22354 22355 22356 22357 22358 22359 22360 22361 22362 22363 22364 22365 22366 22367 22368 22369 22370 22371 22372 22373 22374 22375 22376 22377 22378 22379 22380 22381 22382 22383 22384 22385 22386 22387 22388 22389 22390 22391 22392 22393 22394 22395 22396 22397 22398 22399 22400 22401 22402 22403 22404 22405 22406 22407 22408 22409 22410 22411 22412 22413 22414 22415 22416 22417 22418 22419 22420 22421 22422 22423 22424 22425 22426 22427 22428 22429 22430 22431 22432 22433 22434 22435 22436 22437 22438 22439 22440 22441 22442 22443 22444 22445 22446 22447 22448 22449 22450 22451 22452 22453 22454 22455 22456 22457 22458 22459 22460 22461 22462 22463 22464 22465 22466 22467 22468 22469 22470 22471 22472 22473 22474 22475 22476 22477 22478 22479 22480 22481 22482 22483 22484 22485 22486 22487 22488 22489 22490 22491 22492 22493 22494 22495 22496 22497 22498 22499 22500 22501 22502 22503 22504 22505 22506 22507 22508 22509 22510 22511 22512 22513 22514 22515 22516 22517 22518 22519 22520 22521 22522 22523 22524 22525 22526 22527 22528 22529 22530 22531 22532 22533 22534 22535 22536 22537 22538 22539 22540 22541 22542 22543 22544 22545 22546 22547 22548 22549 22550 22551 22552 22553 22554 22555 22556 22557 22558 22559 22560 22561 22562 22563 22564 22565 22566 22567 22568 22569 22570 22571 22572 22573 22574 22575 22576 22577 22578 22579 22580 22581 22582 22583 22584 22585 22586 22587 22588 22589 22590 22591 22592 22593 22594 22595 22596 22597 22598 22599 22600 22601 22602 22603 22604 22605 22606 22607 22608 22609 22610 22611 22612 22613 22614 22615 22616 22617 22618 22619 22620 22621 22622 22623 22624 22625 22626 22627 22628 22629 22630 22631 22632 22633 22634 22635 22636 22637 22638 22639 22640 22641 22642 22643 22644 22645 22646 22647 22648 22649 22650 22651 22652 22653 22654 22655 22656 22657 22658 22659 22660 22661 22662 22663 22664 22665 22666 22667 22668 22669 22670 22671 22672 22673 22674 22675 22676 22677 22678 22679 22680 22681 22682 22683 22684 22685 22686 22687 22688 22689 22690 22691 22692 22693 22694 22695 22696 22697 22698 22699 22700 22701 22702 22703 22704 22705 22706 22707 22708 22709 22710 22711 22712 22713 22714 22715 22716 22717 22718 22719 22720 22721 22722 22723 22724 22725 22726 22727 22728 22729 22730 22731 22732 22733 22734 22735 22736 22737 22738 22739 22740 22741 22742 22743 22744 22745 22746 22747 22748 22749 22750 22751 22752 22753 22754 22755 22756 22757 22758 22759 22760 22761 22762 22763 22764 22765 22766 22767 22768 22769 22770 22771 22772 22773 22774 22775 22776 22777 22778 22779 22780 22781 22782 22783 22784 22785 22786 22787 22788 22789 22790 22791 22792 22793 22794 22795 22796 22797 22798 22799 22800 22801 22802 22803 22804 22805 22806 22807 22808 22809 22810 22811 22812 22813 22814 22815 22816 22817 22818 22819 22820 22821 22822 22823 22824 22825 22826 22827 22828 22829 22830 22831 22832 22833 22834 22835 22836 22837 22838 22839 22840 22841 22842 22843 22844 22845 22846 22847 22848 22849 22850 22851 22852 22853 22854 22855 22856 22857 22858 22859 22860 22861 22862 22863 22864 22865 22866 22867 22868 22869 22870 22871 22872 22873 22874 22875 22876 22877 22878 22879 22880 22881 22882 22883 22884 22885 22886 22887 22888 22889 22890 22891 22892 22893 22894 22895 22896 22897 22898 22899 22900 22901 22902 22903 22904 22905 22906 22907 22908 22909 22910 22911 22912 22913 22914 22915 22916 22917 22918 22919 22920 22921 22922 22923 22924 22925 22926 22927 22928 22929 22930 22931 22932 22933 22934 22935 22936 22937 22938 22939 22940 22941 22942 22943 22944 22945 22946 22947 22948 22949 22950 22951 22952 22953 22954 22955 22956 22957 22958 22959 22960 22961 22962 22963 22964 22965 22966 22967 22968 22969 22970 22971 22972 22973 22974 22975 22976 22977 22978 22979 22980 22981 22982 22983 22984 22985 22986 22987 22988 22989 22990 22991 22992 22993 22994 22995 22996 22997 22998 22999 23000 23001 23002 23003 23004 23005 23006 23007 23008 23009 23010 23011 23012 23013 23014 23015 23016 23017 23018 23019 23020 23021 23022 23023 23024 23025 23026 23027 23028 23029 23030 23031 23032 23033 23034 23035 23036 23037 23038 23039 23040 23041 23042 23043 23044 23045 23046 23047 23048 23049 23050 23051 23052 23053 23054 23055 23056 23057 23058 23059 23060 23061 23062 23063 23064 23065 23066 23067 23068 23069 23070 23071 23072 23073 23074 23075 23076 23077 23078 23079 23080 23081 23082 23083 23084 23085 23086 23087 23088 23089 23090 23091 23092 23093 23094 23095 23096 23097 23098 23099 23100 23101 23102 23103 23104 23105 23106 23107 23108 23109 23110 23111 23112 23113 23114 23115 23116 23117 23118 23119 23120 23121 23122 23123 23124 23125 23126 23127 23128 23129 23130 23131 23132 23133 23134 23135 23136 23137 23138 23139 23140 23141 23142 23143 23144 23145 23146 23147 23148 23149 23150 23151 23152 23153 23154 23155 23156 23157 23158 23159 23160 23161 23162 23163 23164 23165 23166 23167 23168 23169 23170 23171 23172 23173 23174 23175 23176 23177 23178 23179 23180 23181 23182 23183 23184 23185 23186 23187 23188 23189 23190 23191 23192 23193 23194 23195 23196 23197 23198 23199 23200 23201 23202 23203 23204 23205 23206 23207 23208 23209 23210 23211 23212 23213 23214 23215 23216 23217 23218 23219 23220 23221 23222 23223 23224 23225 23226 23227 23228 23229 23230 23231 23232 23233 23234 23235 23236 23237 23238 23239 23240 23241 23242 23243 23244 23245 23246 23247 23248 23249 23250 23251 23252 23253 23254 23255 23256 23257 23258 23259 23260 23261 23262 23263 23264 23265 23266 23267 23268 23269 23270 23271 23272 23273 23274 23275 23276 23277 23278 23279 23280 23281 23282 23283 23284 23285 23286 23287 23288 23289 23290 23291 23292 23293 23294 23295 23296 23297 23298 23299 23300 23301 23302 23303 23304 23305 23306 23307 23308 23309 23310 23311 23312 23313 23314 23315 23316 23317 23318 23319 23320 23321 23322 23323 23324 23325 23326 23327 23328 23329 23330 23331 23332 23333 23334 23335 23336 23337 23338 23339 23340 23341 23342 23343 23344 23345 23346 23347 23348 23349 23350 23351 23352 23353 23354 23355 23356 23357 23358 23359 23360 23361 23362 23363 23364 23365 23366 23367 23368 23369 23370 23371 23372 23373 23374 23375 23376 23377 23378 23379 23380 23381 23382 23383 23384 23385 23386 23387 23388 23389 23390 23391 23392 23393 23394 23395 23396 23397 23398 23399 23400 23401 23402 23403 23404 23405 23406 23407 23408 23409 23410 23411 23412 23413 23414 23415 23416 23417 23418 23419 23420 23421 23422 23423 23424 23425 23426 23427 23428 23429 23430 23431 23432 23433 23434 23435 23436 23437 23438 23439 23440 23441 23442 23443 23444 23445 23446 23447 23448 23449 23450 23451 23452 23453 23454 23455 23456 23457 23458 23459 23460 23461 23462 23463 23464 23465 23466 23467 23468 23469 23470 23471 23472 23473 23474 23475 23476 23477 23478 23479 23480 23481 23482 23483 23484 23485 23486 23487 23488 23489 23490 23491 23492 23493 23494 23495 23496 23497 23498 23499 23500 23501 23502 23503 23504 23505 23506 23507 23508 23509 23510 23511 23512 23513 23514 23515 23516 23517 23518 23519 23520 23521 23522 23523 23524 23525 23526 23527 23528 23529 23530 23531 23532 23533 23534 23535 23536 23537 23538 23539 23540 23541 23542 23543 23544 23545 23546 23547 23548 23549 23550 23551 23552 23553 23554 23555 23556 23557 23558 23559 23560 23561 23562 23563 23564 23565 23566 23567 23568 23569 23570 23571 23572 23573 23574 23575 23576 23577 23578 23579 23580 23581 23582 23583 23584 23585 23586 23587 23588 23589 23590 23591 23592 23593 23594 23595 23596 23597 23598 23599 23600 23601 23602 23603 23604 23605 23606 23607 23608 23609 23610 23611 23612 23613 23614 23615 23616 23617 23618 23619 23620 23621 23622 23623 23624 23625 23626 23627 23628 23629 23630 23631 23632 23633 23634 23635 23636 23637 23638 23639 23640 23641 23642 23643 23644 23645 23646 23647 23648 23649 23650 23651 23652 23653 23654 23655 23656 23657 23658 23659 23660 23661 23662 23663 23664 23665 23666 23667 23668 23669 23670 23671 23672 23673 23674 23675 23676 23677 23678 23679 23680 23681 23682 23683 23684 23685 23686 23687 23688 23689 23690 23691 23692 23693 23694 23695 23696 23697 23698 23699 23700 23701 23702 23703 23704 23705 23706 23707 23708 23709 23710 23711 23712 23713 23714 23715 23716 23717 23718 23719 23720 23721 23722 23723 23724 23725 23726 23727 23728 23729 23730 23731 23732 23733 23734 23735 23736 23737 23738 23739 23740 23741 23742 23743 23744 23745 23746 23747 23748 23749 23750 23751 23752 23753 23754 23755 23756 23757 23758 23759 23760 23761 23762 23763 23764 23765 23766 23767 23768 23769 23770 23771 23772 23773 23774 23775 23776 23777 23778 23779 23780 23781 23782 23783 23784 23785 23786 23787 23788 23789 23790 23791 23792 23793 23794 23795 23796 23797 23798 23799 23800 23801 23802 23803 23804 23805 23806 23807 23808 23809 23810 23811 23812 23813 23814 23815 23816 23817 23818 23819 23820 23821 23822 23823 23824 23825 23826 23827 23828 23829 23830 23831 23832 23833 23834 23835 23836 23837 23838 23839 23840 23841 23842 23843 23844 23845 23846 23847 23848 23849 23850 23851 23852 23853 23854 23855 23856 23857 23858 23859 23860 23861 23862 23863 23864 23865 23866 23867 23868 23869 23870 23871 23872 23873 23874 23875 23876 23877 23878 23879 23880 23881 23882 23883 23884 23885 23886 23887 23888 23889 23890 23891 23892 23893 23894 23895 23896 23897 23898 23899 23900 23901 23902 23903 23904 23905 23906 23907 23908 23909 23910 23911 23912 23913 23914 23915 23916 23917 23918 23919 23920 23921 23922 23923 23924 23925 23926 23927 23928 23929 23930 23931 23932 23933 23934 23935 23936 23937 23938 23939 23940 23941 23942 23943 23944 23945 23946 23947 23948 23949 23950 23951 23952 23953 23954 23955 23956 23957 23958 23959 23960 23961 23962 23963 23964 23965 23966 23967 23968 23969 23970 23971 23972 23973 23974 23975 23976 23977 23978 23979 23980 23981 23982 23983 23984 23985 23986 23987 23988 23989 23990 23991 23992 23993 23994 23995 23996 23997 23998 23999 24000 24001 24002 24003 24004 24005 24006 24007 24008 24009 24010 24011 24012 24013 24014 24015 24016 24017 24018 24019 24020 24021 24022 24023 24024 24025 24026 24027 24028 24029 24030 24031 24032 24033 24034 24035 24036 24037 24038 24039 24040 24041 24042 24043 24044 24045 24046 24047 24048 24049 24050 24051 24052 24053 24054 24055 24056 24057 24058 24059 24060 24061 24062 24063 24064 24065 24066 24067 24068 24069 24070 24071 24072 24073 24074 24075 24076 24077 24078 24079 24080 24081 24082 24083 24084 24085 24086 24087 24088 24089 24090 24091 24092 24093 24094 24095 24096 24097 24098 24099 24100 24101 24102 24103 24104 24105 24106 24107 24108 24109 24110 24111 24112 24113 24114 24115 24116 24117 24118 24119 24120 24121 24122 24123 24124 24125 24126 24127 24128 24129 24130 24131 24132 24133 24134 24135 24136 24137 24138 24139 24140 24141 24142 24143 24144 24145 24146 24147 24148 24149 24150 24151 24152 24153 24154 24155 24156 24157 24158 24159 24160 24161 24162 24163 24164 24165 24166 24167 24168 24169 24170 24171 24172 24173 24174 24175 24176 24177 24178 24179 24180 24181 24182 24183 24184 24185 24186 24187 24188 24189 24190 24191 24192 24193 24194 24195 24196 24197 24198 24199 24200 24201 24202 24203 24204 24205 24206 24207 24208 24209 24210 24211 24212 24213 24214 24215 24216 24217 24218 24219 24220 24221 24222 24223 24224 24225 24226 24227 24228 24229 24230 24231 24232 24233 24234 24235 24236 24237 24238 24239 24240 24241 24242 24243 24244 24245 24246 24247 24248 24249 24250 24251 24252 24253 24254 24255 24256 24257 24258 24259 24260 24261 24262 24263 24264 24265 24266 24267 24268 24269 24270 24271 24272 24273 24274 24275 24276 24277 24278 24279 24280 24281 24282 24283 24284 24285 24286 24287 24288 24289 24290 24291 24292 24293 24294 24295 24296 24297 24298 24299 24300 24301 24302 24303 24304 24305 24306 24307 24308 24309 24310 24311 24312 24313 24314 24315 24316 24317 24318 24319 24320 24321 24322 24323 24324 24325 24326 24327 24328 24329 24330 24331 24332 24333 24334 24335 24336 24337 24338 24339 24340 24341 24342 24343 24344 24345 24346 24347 24348 24349 24350 24351 24352 24353 24354 24355 24356 24357 24358 24359 24360 24361 24362 24363 24364 24365 24366 24367 24368 24369 24370 24371 24372 24373 24374 24375 24376 24377 24378 24379 24380 24381 24382 24383 24384 24385 24386 24387 24388 24389 24390 24391 24392 24393 24394 24395 24396 24397 24398 24399 24400 24401 24402 24403 24404 24405 24406 24407 24408 24409 24410 24411 24412 24413 24414 24415 24416 24417 24418 24419 24420 24421 24422 24423 24424 24425 24426 24427 24428 24429 24430 24431 24432 24433 24434 24435 24436 24437 24438 24439 24440 24441 24442 24443 24444 24445 24446 24447 24448 24449 24450 24451 24452 24453 24454 24455 24456 24457 24458 24459 24460 24461 24462 24463 24464 24465 24466 24467 24468 24469 24470 24471 24472 24473 24474 24475 24476 24477 24478 24479 24480 24481 24482 24483 24484 24485 24486 24487 24488 24489 24490 24491 24492 24493 24494 24495 24496 24497 24498 24499 24500 24501 24502 24503 24504 24505 24506 24507 24508 24509 24510 24511 24512 24513 24514 24515 24516 24517 24518 24519 24520 24521 24522 24523 24524 24525 24526 24527 24528 24529 24530 24531 24532 24533 24534 24535 24536 24537 24538 24539 24540 24541 24542 24543 24544 24545 24546 24547 24548 24549 24550 24551 24552 24553 24554 24555 24556 24557 24558 24559 24560 24561 24562 24563 24564 24565 24566 24567 24568 24569 24570 24571 24572 24573 24574 24575 24576 24577 24578 24579 24580 24581 24582 24583 24584 24585 24586 24587 24588 24589 24590 24591 24592 24593 24594 24595 24596 24597 24598 24599 24600 24601 24602 24603 24604 24605 24606 24607 24608 24609 24610 24611 24612 24613 24614 24615 24616 24617 24618 24619 24620 24621 24622 24623 24624 24625 24626 24627 24628 24629 24630 24631 24632 24633 24634 24635 24636 24637 24638 24639 24640 24641 24642 24643 24644 24645 24646 24647 24648 24649 24650 24651 24652 24653 24654 24655 24656 24657 24658 24659 24660 24661 24662 24663 24664 24665 24666 24667 24668 24669 24670 24671 24672 24673 24674 24675 24676 24677 24678 24679 24680 24681 24682 24683 24684 24685 24686 24687 24688 24689 24690 24691 24692 24693 24694 24695 24696 24697 24698 24699 24700 24701 24702 24703 24704 24705 24706 24707 24708 24709 24710 24711 24712 24713 24714 24715 24716 24717 24718 24719 24720 24721 24722 24723 24724 24725 24726 24727 24728 24729 24730 24731 24732 24733 24734 24735 24736 24737 24738 24739 24740 24741 24742 24743 24744 24745 24746 24747 24748 24749 24750 24751 24752 24753 24754 24755 24756 24757 24758 24759 24760 24761 24762 24763 24764 24765 24766 24767 24768 24769 24770 24771 24772 24773 24774 24775 24776 24777 24778 24779 24780 24781 24782 24783 24784 24785 24786 24787 24788 24789 24790 24791 24792 24793 24794 24795 24796 24797 24798 24799 24800 24801 24802 24803 24804 24805 24806 24807 24808 24809 24810 24811 24812 24813 24814 24815 24816 24817 24818 24819 24820 24821 24822 24823 24824 24825 24826 24827 24828 24829 24830 24831 24832 24833 24834 24835 24836 24837 24838 24839 24840 24841 24842 24843 24844 24845 24846 24847 24848 24849 24850 24851 24852 24853 24854 24855 24856 24857 24858 24859 24860 24861 24862 24863 24864 24865 24866 24867 24868 24869 24870 24871 24872 24873 24874 24875 24876 24877 24878 24879 24880 24881 24882 24883 24884 24885 24886 24887 24888 24889 24890 24891 24892 24893 24894 24895 24896 24897 24898 24899 24900 24901 24902 24903 24904 24905 24906 24907 24908 24909 24910 24911 24912 24913 24914 24915 24916 24917 24918 24919 24920 24921 24922 24923 24924 24925 24926 24927 24928 24929 24930 24931 24932 24933 24934 24935 24936 24937 24938 24939 24940 24941 24942 24943 24944 24945 24946 24947 24948 24949 24950 24951 24952 24953 24954 24955 24956 24957 24958 24959 24960 24961 24962 24963 24964 24965 24966 24967 24968 24969 24970 24971 24972 24973 24974 24975 24976 24977 24978 24979 24980 24981 24982 24983 24984 24985 24986 24987 24988 24989 24990 24991 24992 24993 24994 24995 24996 24997 24998 24999 25000 25001 25002 25003 25004 25005 25006 25007 25008 25009 25010 25011 25012 25013 25014 25015 25016 25017 25018 25019 25020 25021 25022 25023 25024 25025 25026 25027 25028 25029 25030 25031 25032 25033 25034 25035 25036 25037 25038 25039 25040 25041 25042 25043 25044 25045 25046 25047 25048 25049 25050 25051 25052 25053 25054 25055 25056 25057 25058 25059 25060 25061 25062 25063 25064 25065 25066 25067 25068 25069 25070 25071 25072 25073 25074 25075 25076 25077 25078 25079 25080 25081 25082 25083 25084 25085 25086 25087 25088 25089 25090 25091 25092 25093 25094 25095 25096 25097 25098 25099 25100 25101 25102 25103 25104 25105 25106 25107 25108 25109 25110 25111 25112 25113 25114 25115 25116 25117 25118 25119 25120 25121 25122 25123 25124 25125 25126 25127 25128 25129 25130 25131 25132 25133 25134 25135 25136 25137 25138 25139 25140 25141 25142 25143 25144 25145 25146 25147 25148 25149 25150 25151 25152 25153 25154 25155 25156 25157 25158 25159 25160 25161 25162 25163 25164 25165 25166 25167 25168 25169 25170 25171 25172 25173 25174 25175 25176 25177 25178 25179 25180 25181 25182 25183 25184 25185 25186 25187 25188 25189 25190 25191 25192 25193 25194 25195 25196 25197 25198 25199 25200 25201 25202 25203 25204 25205 25206 25207 25208 25209 25210 25211 25212 25213 25214 25215 25216 25217 25218 25219 25220 25221 25222 25223 25224 25225 25226 25227 25228 25229 25230 25231 25232 25233 25234 25235 25236 25237 25238 25239 25240 25241 25242 25243 25244 25245 25246 25247 25248 25249 25250 25251 25252 25253 25254 25255 25256 25257 25258 25259 25260 25261 25262 25263 25264 25265 25266 25267 25268 25269 25270 25271 25272 25273 25274 25275 25276 25277 25278 25279 25280 25281 25282 25283 25284 25285 25286 25287 25288 25289 25290 25291 25292 25293 25294 25295 25296 25297 25298 25299 25300 25301 25302 25303 25304 25305 25306 25307 25308 25309 25310 25311 25312 25313 25314 25315 25316 25317 25318 25319 25320 25321 25322 25323 25324 25325 25326 25327 25328 25329 25330 25331 25332 25333 25334 25335 25336 25337 25338 25339 25340 25341 25342 25343 25344 25345 25346 25347 25348 25349 25350 25351 25352 25353 25354 25355 25356 25357 25358 25359 25360 25361 25362 25363 25364 25365 25366 25367 25368 25369 25370 25371 25372 25373 25374 25375 25376 25377 25378 25379 25380 25381 25382 25383 25384 25385 25386 25387 25388 25389 25390 25391 25392 25393 25394 25395 25396 25397 25398 25399 25400 25401 25402 25403 25404 25405 25406 25407 25408 25409 25410 25411 25412 25413 25414 25415 25416 25417 25418 25419 25420 25421 25422 25423 25424 25425 25426 25427 25428 25429 25430 25431 25432 25433 25434 25435 25436 25437 25438 25439 25440 25441 25442 25443 25444 25445 25446 25447 25448 25449 25450 25451 25452 25453 25454 25455 25456 25457 25458 25459 25460 25461 25462 25463 25464 25465 25466 25467 25468 25469 25470 25471 25472 25473 25474 25475 25476 25477 25478 25479 25480 25481 25482 25483 25484 25485 25486 25487 25488 25489 25490 25491 25492 25493 25494 25495 25496 25497 25498 25499 25500 25501 25502 25503 25504 25505 25506 25507 25508 25509 25510 25511 25512 25513 25514 25515 25516 25517 25518 25519 25520 25521 25522 25523 25524 25525 25526 25527 25528 25529 25530 25531 25532 25533 25534 25535 25536 25537 25538 25539 25540 25541 25542 25543 25544 25545 25546 25547 25548 25549 25550 25551 25552 25553 25554 25555 25556 25557 25558 25559 25560 25561 25562 25563 25564 25565 25566 25567 25568 25569 25570 25571 25572 25573 25574 25575 25576 25577 25578 25579 25580 25581 25582 25583 25584 25585 25586 25587 25588 25589 25590 25591 25592 25593 25594 25595 25596 25597 25598 25599 25600 25601 25602 25603 25604 25605 25606 25607 25608 25609 25610 25611 25612 25613 25614 25615 25616 25617 25618 25619 25620 25621 25622 25623 25624 25625 25626 25627 25628 25629 25630 25631 25632 25633 25634 25635 25636 25637 25638 25639 25640 25641 25642 25643 25644 25645 25646 25647 25648 25649 25650 25651 25652 25653 25654 25655 25656 25657 25658 25659 25660 25661 25662 25663 25664 25665 25666 25667 25668 25669 25670 25671 25672 25673 25674 25675 25676 25677 25678 25679 25680 25681 25682 25683 25684 25685 25686 25687 25688 25689 25690 25691 25692 25693 25694 25695 25696 25697 25698 25699 25700 25701 25702 25703 25704 25705 25706 25707 25708 25709 25710 25711 25712 25713 25714 25715 25716 25717 25718 25719 25720 25721 25722 25723 25724 25725 25726 25727 25728 25729 25730 25731 25732 25733 25734 25735 25736 25737 25738 25739 25740 25741 25742 25743 25744 25745 25746 25747 25748 25749 25750 25751 25752 25753 25754 25755 25756 25757 25758 25759 25760 25761 25762 25763 25764 25765 25766 25767 25768 25769 25770 25771 25772 25773 25774 25775 25776 25777 25778 25779 25780 25781 25782 25783 25784 25785 25786 25787 25788 25789 25790 25791 25792 25793 25794 25795 25796 25797 25798 25799 25800 25801 25802 25803 25804 25805 25806 25807 25808 25809 25810 25811 25812 25813 25814 25815 25816 25817 25818 25819 25820 25821 25822 25823 25824 25825 25826 25827 25828 25829 25830 25831 25832 25833 25834 25835 25836 25837 25838 25839 25840 25841 25842 25843 25844 25845 25846 25847 25848 25849 25850 25851 25852 25853 25854 25855 25856 25857 25858 25859 25860 25861 25862 25863 25864 25865 25866 25867 25868 25869 25870 25871 25872 25873 25874 25875 25876 25877 25878 25879 25880 25881 25882 25883 25884 25885 25886 25887 25888 25889 25890 25891 25892 25893 25894 25895 25896 25897 25898 25899 25900 25901 25902 25903 25904 25905 25906 25907 25908 25909 25910 25911 25912 25913 25914 25915 25916 25917 25918 25919 25920 25921 25922 25923 25924 25925 25926 25927 25928 25929 25930 25931 25932 25933 25934 25935 25936 25937 25938 25939 25940 25941 25942 25943 25944 25945 25946 25947 25948 25949 25950 25951 25952 25953 25954 25955 25956 25957 25958 25959 25960 25961 25962 25963 25964 25965 25966 25967 25968 25969 25970 25971 25972 25973 25974 25975 25976 25977 25978 25979 25980 25981 25982 25983 25984 25985 25986 25987 25988 25989 25990 25991 25992 25993 25994 25995 25996 25997 25998 25999 26000 26001 26002 26003 26004 26005 26006 26007 26008 26009 26010 26011 26012 26013 26014 26015 26016 26017 26018 26019 26020 26021 26022 26023 26024 26025 26026 26027 26028 26029 26030 26031 26032 26033 26034 26035 26036 26037 26038 26039 26040 26041 26042 26043 26044 26045 26046 26047 26048 26049 26050 26051 26052 26053 26054 26055 26056 26057 26058 26059 26060 26061 26062 26063 26064 26065 26066 26067 26068 26069 26070 26071 26072 26073 26074 26075 26076 26077 26078 26079 26080 26081 26082 26083 26084 26085 26086 26087 26088 26089 26090 26091 26092 26093 26094 26095 26096 26097 26098 26099 26100 26101 26102 26103 26104 26105 26106 26107 26108 26109 26110 26111 26112 26113 26114 26115 26116 26117 26118 26119 26120 26121 26122 26123 26124 26125 26126 26127 26128 26129 26130 26131 26132 26133 26134 26135 26136 26137 26138 26139 26140 26141 26142 26143 26144 26145 26146 26147 26148 26149 26150 26151 26152 26153 26154 26155 26156 26157 26158 26159 26160 26161 26162 26163 26164 26165 26166 26167 26168 26169 26170 26171 26172 26173 26174 26175 26176 26177 26178 26179 26180 26181 26182 26183 26184 26185 26186 26187 26188 26189 26190 26191 26192 26193 26194 26195 26196 26197 26198 26199 26200 26201 26202 26203 26204 26205 26206 26207 26208 26209 26210 26211 26212 26213 26214 26215 26216 26217 26218 26219 26220 26221 26222 26223 26224 26225 26226 26227 26228 26229 26230 26231 26232 26233 26234 26235 26236 26237 26238 26239 26240 26241 26242 26243 26244 26245 26246 26247 26248 26249 26250 26251 26252 26253 26254 26255 26256 26257 26258 26259 26260 26261 26262 26263 26264 26265 26266 26267 26268 26269 26270 26271 26272 26273 26274 26275 26276 26277 26278 26279 26280 26281 26282 26283 26284 26285 26286 26287 26288 26289 26290 26291 26292 26293 26294 26295 26296 26297 26298 26299 26300 26301 26302 26303 26304 26305 26306 26307 26308 26309 26310 26311 26312 26313 26314 26315 26316 26317 26318 26319 26320 26321 26322 26323 26324 26325 26326 26327 26328 26329 26330 26331 26332 26333 26334 26335 26336 26337 26338 26339 26340 26341 26342 26343 26344 26345 26346 26347 26348 26349 26350 26351 26352 26353 26354 26355 26356 26357 26358 26359 26360 26361 26362 26363 26364 26365 26366 26367 26368 26369 26370 26371 26372 26373 26374 26375 26376 26377 26378 26379 26380 26381 26382 26383 26384 26385 26386 26387 26388 26389 26390 26391 26392 26393 26394 26395 26396 26397 26398 26399 26400 26401 26402 26403 26404 26405 26406 26407 26408 26409 26410 26411 26412 26413 26414 26415 26416 26417 26418 26419 26420 26421 26422 26423 26424 26425 26426 26427 26428 26429 26430 26431 26432 26433 26434 26435 26436 26437 26438 26439 26440 26441 26442 26443 26444 26445 26446 26447 26448 26449 26450 26451 26452 26453 26454 26455 26456 26457 26458 26459 26460 26461 26462 26463 26464 26465 26466 26467 26468 26469 26470 26471 26472 26473 26474 26475 26476 26477 26478 26479 26480 26481 26482 26483 26484 26485 26486 26487 26488 26489 26490 26491 26492 26493 26494 26495 26496 26497 26498 26499 26500 26501 26502 26503 26504 26505 26506 26507 26508 26509 26510 26511 26512 26513 26514 26515 26516 26517 26518 26519 26520 26521 26522 26523 26524 26525 26526 26527 26528 26529 26530 26531 26532 26533 26534 26535 26536 26537 26538 26539 26540 26541 26542 26543 26544 26545 26546 26547 26548 26549 26550 26551 26552 26553 26554 26555 26556 26557 26558 26559 26560 26561 26562 26563 26564 26565 26566 26567 26568 26569 26570 26571 26572 26573 26574 26575 26576 26577 26578 26579 26580 26581 26582 26583 26584 26585 26586 26587 26588 26589 26590 26591 26592 26593 26594 26595 26596 26597 26598 26599 26600 26601 26602 26603 26604 26605 26606 26607 26608 26609 26610 26611 26612 26613 26614 26615 26616 26617 26618 26619 26620 26621 26622 26623 26624 26625 26626 26627 26628 26629 26630 26631 26632 26633 26634 26635 26636 26637 26638 26639 26640 26641 26642 26643 26644 26645 26646 26647 26648 26649 26650 26651 26652 26653 26654 26655 26656 26657 26658 26659 26660 26661 26662 26663 26664 26665 26666 26667 26668 26669 26670 26671 26672 26673 26674 26675 26676 26677 26678 26679 26680 26681 26682 26683 26684 26685 26686 26687 26688 26689 26690 26691 26692 26693 26694 26695 26696 26697 26698 26699 26700 26701 26702 26703 26704 26705 26706 26707 26708 26709 26710 26711 26712 26713 26714 26715 26716 26717 26718 26719 26720 26721 26722 26723 26724 26725 26726 26727 26728 26729 26730 26731 26732 26733 26734 26735 26736 26737 26738 26739 26740 26741 26742 26743 26744 26745 26746 26747 26748 26749 26750 26751 26752 26753 26754 26755 26756 26757 26758 26759 26760 26761 26762 26763 26764 26765 26766 26767 26768 26769 26770 26771 26772 26773 26774 26775 26776 26777 26778 26779 26780 26781 26782 26783 26784 26785 26786 26787 26788 26789 26790 26791 26792 26793 26794 26795 26796 26797 26798 26799 26800 26801 26802 26803 26804 26805 26806 26807 26808 26809 26810 26811 26812 26813 26814 26815 26816 26817 26818 26819 26820 26821 26822 26823 26824 26825 26826 26827 26828 26829 26830 26831 26832 26833 26834 26835 26836 26837 26838 26839 26840 26841 26842 26843 26844 26845 26846 26847 26848 26849 26850 26851 26852 26853 26854 26855 26856 26857 26858 26859 26860 26861 26862 26863 26864 26865 26866 26867 26868 26869 26870 26871 26872 26873 26874 26875 26876 26877 26878 26879 26880 26881 26882 26883 26884 26885 26886 26887 26888 26889 26890 26891 26892 26893 26894 26895 26896 26897 26898 26899 26900 26901 26902 26903 26904 26905 26906 26907 26908 26909 26910 26911 26912 26913 26914 26915 26916 26917 26918 26919 26920 26921 26922 26923 26924 26925 26926 26927 26928 26929 26930 26931 26932 26933 26934 26935 26936 26937 26938 26939 26940 26941 26942 26943 26944 26945 26946 26947 26948 26949 26950 26951 26952 26953 26954 26955 26956 26957 26958 26959 26960 26961 26962 26963 26964 26965 26966 26967 26968 26969 26970 26971 26972 26973 26974 26975 26976 26977 26978 26979 26980 26981 26982 26983 26984 26985 26986 26987 26988 26989 26990 26991 26992 26993 26994 26995 26996 26997 26998 26999 27000 27001 27002 27003 27004 27005 27006 27007 27008 27009 27010 27011 27012 27013 27014 27015 27016 27017 27018 27019 27020 27021 27022 27023 27024 27025 27026 27027 27028 27029 27030 27031 27032 27033 27034 27035 27036 27037 27038 27039 27040 27041 27042 27043 27044 27045 27046 27047 27048 27049 27050 27051 27052 27053 27054 27055 27056 27057 27058 27059 27060 27061 27062 27063 27064 27065 27066 27067 27068 27069 27070 27071 27072 27073 27074 27075 27076 27077 27078 27079 27080 27081 27082 27083 27084 27085 27086 27087 27088 27089 27090 27091 27092 27093 27094 27095 27096 27097 27098 27099 27100 27101 27102 27103 27104 27105 27106 27107 27108 27109 27110 27111 27112 27113 27114 27115 27116 27117 27118 27119 27120 27121 27122 27123 27124 27125 27126 27127 27128 27129 27130 27131 27132 27133 27134 27135 27136 27137 27138 27139 27140 27141 27142 27143 27144 27145 27146 27147 27148 27149 27150 27151 27152 27153 27154 27155 27156 27157 27158 27159 27160 27161 27162 27163 27164 27165 27166 27167 27168 27169 27170 27171 27172 27173 27174 27175 27176 27177 27178 27179 27180 27181 27182 27183 27184 27185 27186 27187 27188 27189 27190 27191 27192 27193 27194 27195 27196 27197 27198 27199 27200 27201 27202 27203 27204 27205 27206 27207 27208 27209 27210 27211 27212 27213 27214 27215 27216 27217 27218 27219 27220 27221 27222 27223 27224 27225 27226 27227 27228 27229 27230 27231 27232 27233 27234 27235 27236 27237 27238 27239 27240 27241 27242 27243 27244 27245 27246 27247 27248 27249 27250 27251 27252 27253 27254 27255 27256 27257 27258 27259 27260 27261 27262 27263 27264 27265 27266 27267 27268 27269 27270 27271 27272 27273 27274 27275 27276 27277 27278 27279 27280 27281 27282 27283 27284 27285 27286 27287 27288 27289 27290 27291 27292 27293 27294 27295 27296 27297 27298 27299 27300 27301 27302 27303 27304 27305 27306 27307 27308 27309 27310 27311 27312 27313 27314 27315 27316 27317 27318 27319 27320 27321 27322 27323 27324 27325 27326 27327 27328 27329 27330 27331 27332 27333 27334 27335 27336 27337 27338 27339 27340 27341 27342 27343 27344 27345 27346 27347 27348 27349 27350 27351 27352 27353 27354 27355 27356 27357 27358 27359 27360 27361 27362 27363 27364 27365 27366 27367 27368 27369 27370 27371 27372 27373 27374 27375 27376 27377 27378 27379 27380 27381 27382 27383 27384 27385 27386 27387 27388 27389 27390 27391 27392 27393 27394 27395 27396 27397 27398 27399 27400 27401 27402 27403 27404 27405 27406 27407 27408 27409 27410 27411 27412 27413 27414 27415 27416 27417 27418 27419 27420 27421 27422 27423 27424 27425 27426 27427 27428 27429 27430 27431 27432 27433 27434 27435 27436 27437 27438 27439 27440 27441 27442 27443 27444 27445 27446 27447 27448 27449 27450 27451 27452 27453 27454 27455 27456 27457 27458 27459 27460 27461 27462 27463 27464 27465 27466 27467 27468 27469 27470 27471 27472 27473 27474 27475 27476 27477 27478 27479 27480 27481 27482 27483 27484 27485 27486 27487 27488 27489 27490 27491 27492 27493 27494 27495 27496 27497 27498 27499 27500 27501 27502 27503 27504 27505 27506 27507 27508 27509 27510 27511 27512 27513 27514 27515 27516 27517 27518 27519 27520 27521 27522 27523 27524 27525 27526 27527 27528 27529 27530 27531 27532 27533 27534 27535 27536 27537 27538 27539 27540 27541 27542 27543 27544 27545 27546 27547 27548 27549 27550 27551 27552 27553 27554 27555 27556 27557 27558 27559 27560 27561 27562 27563 27564 27565 27566 27567 27568 27569 27570 27571 27572 27573 27574 27575 27576 27577 27578 27579 27580 27581 27582 27583 27584 27585 27586 27587 27588 27589 27590 27591 27592 27593 27594 27595 27596 27597 27598 27599 27600 27601 27602 27603 27604 27605 27606 27607 27608 27609 27610 27611 27612 27613 27614 27615 27616 27617 27618 27619 27620 27621 27622 27623 27624 27625 27626 27627 27628 27629 27630 27631 27632 27633 27634 27635 27636 27637 27638 27639 27640 27641 27642 27643 27644 27645 27646 27647 27648 27649 27650 27651 27652 27653 27654 27655 27656 27657 27658 27659 27660 27661 27662 27663 27664 27665 27666 27667 27668 27669 27670 27671 27672 27673 27674 27675 27676 27677 27678 27679 27680 27681 27682 27683 27684 27685 27686 27687 27688 27689 27690 27691 27692 27693 27694 27695 27696 27697 27698 27699 27700 27701 27702 27703 27704 27705 27706 27707 27708 27709 27710 27711 27712 27713 27714 27715 27716 27717 27718 27719 27720 27721 27722 27723 27724 27725 27726 27727 27728 27729 27730 27731 27732 27733 27734 27735 27736 27737 27738 27739 27740 27741 27742 27743 27744 27745 27746 27747 27748 27749 27750 27751 27752 27753 27754 27755 27756 27757 27758 27759 27760 27761 27762 27763 27764 27765 27766 27767 27768 27769 27770 27771 27772 27773 27774 27775 27776 27777 27778 27779 27780 27781 27782 27783 27784 27785 27786 27787 27788 27789 27790 27791 27792 27793 27794 27795 27796 27797 27798 27799 27800 27801 27802 27803 27804 27805 27806 27807 27808 27809 27810 27811 27812 27813 27814 27815 27816 27817 27818 27819 27820 27821 27822 27823 27824 27825 27826 27827 27828 27829 27830 27831 27832 27833 27834 27835 27836 27837 27838 27839 27840 27841 27842 27843 27844 27845 27846 27847 27848 27849 27850 27851 27852 27853 27854 27855 27856 27857 27858 27859 27860 27861 27862 27863 27864 27865 27866 27867 27868 27869 27870 27871 27872 27873 27874 27875 27876 27877 27878 27879 27880 27881 27882 27883 27884 27885 27886 27887 27888 27889 27890 27891 27892 27893 27894 27895 27896 27897 27898 27899 27900 27901 27902 27903 27904 27905 27906 27907 27908 27909 27910 27911 27912 27913 27914 27915 27916 27917 27918 27919 27920 27921 27922 27923 27924 27925 27926 27927 27928 27929 27930 27931 27932 27933 27934 27935 27936 27937 27938 27939 27940 27941 27942 27943 27944 27945 27946 27947 27948 27949 27950 27951 27952 27953 27954 27955 27956 27957 27958 27959 27960 27961 27962 27963 27964 27965 27966 27967 27968 27969 27970 27971 27972 27973 27974 27975 27976 27977 27978 27979 27980 27981 27982 27983 27984 27985 27986 27987 27988 27989 27990 27991 27992 27993 27994 27995 27996 27997 27998 27999 28000 28001 28002 28003 28004 28005 28006 28007 28008 28009 28010 28011 28012 28013 28014 28015 28016 28017 28018 28019 28020 28021 28022 28023 28024 28025 28026 28027 28028 28029 28030 28031 28032 28033 28034 28035 28036 28037 28038 28039 28040 28041 28042 28043 28044 28045 28046 28047 28048 28049 28050 28051 28052 28053 28054 28055 28056 28057 28058 28059 28060 28061 28062 28063 28064 28065 28066 28067 28068 28069 28070 28071 28072 28073 28074 28075 28076 28077 28078 28079 28080 28081 28082 28083 28084 28085 28086 28087 28088 28089 28090 28091 28092 28093 28094 28095 28096 28097 28098 28099 28100 28101 28102 28103 28104 28105 28106 28107 28108 28109 28110 28111 28112 28113 28114 28115 28116 28117 28118 28119 28120 28121 28122 28123 28124 28125 28126 28127 28128 28129 28130 28131 28132 28133 28134 28135 28136 28137 28138 28139 28140 28141 28142 28143 28144 28145 28146 28147 28148 28149 28150 28151 28152 28153 28154 28155 28156 28157 28158 28159 28160 28161 28162 28163 28164 28165 28166 28167 28168 28169 28170 28171 28172 28173 28174 28175 28176 28177 28178 28179 28180 28181 28182 28183 28184 28185 28186 28187 28188 28189 28190 28191 28192 28193 28194 28195 28196 28197 28198 28199 28200 28201 28202 28203 28204 28205 28206 28207 28208 28209 28210 28211 28212 28213 28214 28215 28216 28217 28218 28219 28220 28221 28222 28223 28224 28225 28226 28227 28228 28229 28230 28231 28232 28233 28234 28235 28236 28237 28238 28239 28240 28241 28242 28243 28244 28245 28246 28247 28248 28249 28250 28251 28252 28253 28254 28255 28256 28257 28258 28259 28260 28261 28262 28263 28264 28265 28266 28267 28268 28269 28270 28271 28272 28273 28274 28275 28276 28277 28278 28279 28280 28281 28282 28283 28284 28285 28286 28287 28288 28289 28290 28291 28292 28293 28294 28295 28296 28297 28298 28299 28300 28301 28302 28303 28304 28305 28306 28307 28308 28309 28310 28311 28312 28313 28314 28315 28316 28317 28318 28319 28320 28321 28322 28323 28324 28325 28326 28327 28328 28329 28330 28331 28332 28333 28334 28335 28336 28337 28338 28339 28340 28341 28342 28343 28344 28345 28346 28347 28348 28349 28350 28351 28352 28353 28354 28355 28356 28357 28358 28359 28360 28361 28362 28363 28364 28365 28366 28367 28368 28369 28370 28371 28372 28373 28374 28375 28376 28377 28378 28379 28380 28381 28382 28383 28384 28385 28386 28387 28388 28389 28390 28391 28392 28393 28394 28395 28396 28397 28398 28399 28400 28401 28402 28403 28404 28405 28406 28407 28408 28409 28410 28411 28412 28413 28414 28415 28416 28417 28418 28419 28420 28421 28422 28423 28424 28425 28426 28427 28428 28429 28430 28431 28432 28433 28434 28435 28436 28437 28438 28439 28440 28441 28442 28443 28444 28445 28446 28447 28448 28449 28450 28451 28452 28453 28454 28455 28456 28457 28458 28459 28460 28461 28462 28463 28464 28465 28466 28467 28468 28469 28470 28471 28472 28473 28474 28475 28476 28477 28478 28479 28480 28481 28482 28483 28484 28485 28486 28487 28488 28489 28490 28491 28492 28493 28494 28495 28496 28497 28498 28499 28500 28501 28502 28503 28504 28505 28506 28507 28508 28509 28510 28511 28512 28513 28514 28515 28516 28517 28518 28519 28520 28521 28522 28523 28524 28525 28526 28527 28528 28529 28530 28531 28532 28533 28534 28535 28536 28537 28538 28539 28540 28541 28542 28543 28544 28545 28546 28547 28548 28549 28550 28551 28552 28553 28554 28555 28556 28557 28558 28559 28560 28561 28562 28563 28564 28565 28566 28567 28568 28569 28570 28571 28572 28573 28574 28575 28576 28577 28578 28579 28580 28581 28582 28583 28584 28585 28586 28587 28588 28589 28590 28591 28592 28593 28594 28595 28596 28597 28598 28599 28600 28601 28602 28603 28604 28605 28606 28607 28608 28609 28610 28611 28612 28613 28614 28615 28616 28617 28618 28619 28620 28621 28622 28623 28624 28625 28626 28627 28628 28629 28630 28631 28632 28633 28634 28635 28636 28637 28638 28639 28640 28641 28642 28643 28644 28645 28646 28647 28648 28649 28650 28651 28652 28653 28654 28655 28656 28657 28658 28659 28660 28661 28662 28663 28664 28665 28666 28667 28668 28669 28670 28671 28672 28673 28674 28675 28676 28677 28678 28679 28680 28681 28682 28683 28684 28685 28686 28687 28688 28689 28690 28691 28692 28693 28694 28695 28696 28697 28698 28699 28700 28701 28702 28703 28704 28705 28706 28707 28708 28709 28710 28711 28712 28713 28714 28715 28716 28717 28718 28719 28720 28721 28722 28723 28724 28725 28726 28727 28728 28729 28730 28731 28732 28733 28734 28735 28736 28737 28738 28739 28740 28741 28742 28743 28744 28745 28746 28747 28748 28749 28750 28751 28752 28753 28754 28755 28756 28757 28758 28759 28760 28761 28762 28763 28764 28765 28766 28767 28768 28769 28770 28771 28772 28773 28774 28775 28776 28777 28778 28779 28780 28781 28782 28783 28784 28785 28786 28787 28788 28789 28790 28791 28792 28793 28794 28795 28796 28797 28798 28799 28800 28801 28802 28803 28804 28805 28806 28807 28808 28809 28810 28811 28812 28813 28814 28815 28816 28817 28818 28819 28820 28821 28822 28823 28824 28825 28826 28827 28828 28829 28830 28831 28832 28833 28834 28835 28836 28837 28838 28839 28840 28841 28842 28843 28844 28845 28846 28847 28848 28849 28850 28851 28852 28853 28854 28855 28856 28857 28858 28859 28860 28861 28862 28863 28864 28865 28866 28867 28868 28869 28870 28871 28872 28873 28874 28875 28876 28877 28878 28879 28880 28881 28882 28883 28884 28885 28886 28887 28888 28889 28890 28891 28892 28893 28894 28895 28896 28897 28898 28899 28900 28901 28902 28903 28904 28905 28906 28907 28908 28909 28910 28911 28912 28913 28914 28915 28916 28917 28918 28919 28920 28921 28922 28923 28924 28925 28926 28927 28928 28929 28930 28931 28932 28933 28934 28935 28936 28937 28938 28939 28940 28941 28942 28943 28944 28945 28946 28947 28948 28949 28950 28951 28952 28953 28954 28955 28956 28957 28958 28959 28960 28961 28962 28963 28964 28965 28966 28967 28968 28969 28970 28971 28972 28973 28974 28975 28976 28977 28978 28979 28980 28981 28982 28983 28984 28985 28986 28987 28988 28989 28990 28991 28992 28993 28994 28995 28996 28997 28998 28999 29000 29001 29002 29003 29004 29005 29006 29007 29008 29009 29010 29011 29012 29013 29014 29015 29016 29017 29018 29019 29020 29021 29022 29023 29024 29025 29026 29027 29028 29029 29030 29031 29032 29033 29034 29035 29036 29037 29038 29039 29040 29041 29042 29043 29044 29045 29046 29047 29048 29049 29050 29051 29052 29053 29054 29055 29056 29057 29058 29059 29060 29061 29062 29063 29064 29065 29066 29067 29068 29069 29070 29071 29072 29073 29074 29075 29076 29077 29078 29079 29080 29081 29082 29083 29084 29085 29086 29087 29088 29089 29090 29091 29092 29093 29094 29095 29096 29097 29098 29099 29100 29101 29102 29103 29104 29105 29106 29107 29108 29109 29110 29111 29112 29113 29114 29115 29116 29117 29118 29119 29120 29121 29122 29123 29124 29125 29126 29127 29128 29129 29130 29131 29132 29133 29134 29135 29136 29137 29138 29139 29140 29141 29142 29143 29144 29145 29146 29147 29148 29149 29150 29151 29152 29153 29154 29155 29156 29157 29158 29159 29160 29161 29162 29163 29164 29165 29166 29167 29168 29169 29170 29171 29172 29173 29174 29175 29176 29177 29178 29179 29180 29181 29182 29183 29184 29185 29186 29187 29188 29189 29190 29191 29192 29193 29194 29195 29196 29197 29198 29199 29200 29201 29202 29203 29204 29205 29206 29207 29208 29209 29210 29211 29212 29213 29214 29215 29216 29217 29218 29219 29220 29221 29222 29223 29224 29225 29226 29227 29228 29229 29230 29231 29232 29233 29234 29235 29236 29237 29238 29239 29240 29241 29242 29243 29244 29245 29246 29247 29248 29249 29250 29251 29252 29253 29254 29255 29256 29257 29258 29259 29260 29261 29262 29263 29264 29265 29266 29267 29268 29269 29270 29271 29272 29273 29274 29275 29276 29277 29278 29279 29280 29281 29282 29283 29284 29285 29286 29287 29288 29289 29290 29291 29292 29293 29294 29295 29296 29297 29298 29299 29300 29301 29302 29303 29304 29305 29306 29307 29308 29309 29310 29311 29312 29313 29314 29315 29316 29317 29318 29319 29320 29321 29322 29323 29324 29325 29326 29327 29328 29329 29330 29331 29332 29333 29334 29335 29336 29337 29338 29339 29340 29341 29342 29343 29344 29345 29346 29347 29348 29349 29350 29351 29352 29353 29354 29355 29356 29357 29358 29359 29360 29361 29362 29363 29364 29365 29366 29367 29368 29369 29370 29371 29372 29373 29374 29375 29376 29377 29378 29379 29380 29381 29382 29383 29384 29385 29386 29387 29388 29389 29390 29391 29392 29393 29394 29395 29396 29397 29398 29399 29400 29401 29402 29403 29404 29405 29406 29407 29408 29409 29410 29411 29412 29413 29414 29415 29416 29417 29418 29419 29420 29421 29422 29423 29424 29425 29426 29427 29428 29429 29430 29431 29432 29433 29434 29435 29436 29437 29438 29439 29440 29441 29442 29443 29444 29445 29446 29447 29448 29449 29450 29451 29452 29453 29454 29455 29456 29457 29458 29459 29460 29461 29462 29463 29464 29465 29466 29467 29468 29469 29470 29471 29472 29473 29474 29475 29476 29477 29478 29479 29480 29481 29482 29483 29484 29485 29486 29487 29488 29489 29490 29491 29492 29493 29494 29495 29496 29497 29498 29499 29500 29501 29502 29503 29504 29505 29506 29507 29508 29509 29510 29511 29512 29513 29514 29515 29516 29517 29518 29519 29520 29521 29522 29523 29524 29525 29526 29527 29528 29529 29530 29531 29532 29533 29534 29535 29536 29537 29538 29539 29540 29541 29542 29543 29544 29545 29546 29547 29548 29549 29550 29551 29552 29553 29554 29555 29556 29557 29558 29559 29560 29561 29562 29563 29564 29565 29566 29567 29568 29569 29570 29571 29572 29573 29574 29575 29576 29577 29578 29579 29580 29581 29582 29583 29584 29585 29586 29587 29588 29589 29590 29591 29592 29593 29594 29595 29596 29597 29598 29599 29600 29601 29602 29603 29604 29605 29606 29607 29608 29609 29610 29611 29612 29613 29614 29615 29616 29617 29618 29619 29620 29621 29622 29623 29624 29625 29626 29627 29628 29629 29630 29631 29632 29633 29634 29635 29636 29637 29638 29639 29640 29641 29642 29643 29644 29645 29646 29647 29648 29649 29650 29651 29652 29653 29654 29655 29656 29657 29658 29659 29660 29661 29662 29663 29664 29665 29666 29667 29668 29669 29670 29671 29672 29673 29674 29675 29676 29677 29678 29679 29680 29681 29682 29683 29684 29685 29686 29687 29688 29689 29690 29691 29692 29693 29694 29695 29696 29697 29698 29699 29700 29701 29702 29703 29704 29705 29706 29707 29708 29709 29710 29711 29712 29713 29714 29715 29716 29717 29718 29719 29720 29721 29722 29723 29724 29725 29726 29727 29728 29729 29730 29731 29732 29733 29734 29735 29736 29737 29738 29739 29740 29741 29742 29743 29744 29745 29746 29747 29748 29749 29750 29751 29752 29753 29754 29755 29756 29757 29758 29759 29760 29761 29762 29763 29764 29765 29766 29767 29768 29769 29770 29771 29772 29773 29774 29775 29776 29777 29778 29779 29780 29781 29782 29783 29784 29785 29786 29787 29788 29789 29790 29791 29792 29793 29794 29795 29796 29797 29798 29799 29800 29801 29802 29803 29804 29805 29806 29807 29808 29809 29810 29811 29812 29813 29814 29815 29816 29817 29818 29819 29820 29821 29822 29823 29824 29825 29826 29827 29828 29829 29830 29831 29832 29833 29834 29835 29836 29837 29838 29839 29840 29841 29842 29843 29844 29845 29846 29847 29848 29849 29850 29851 29852 29853 29854 29855 29856 29857 29858 29859 29860 29861 29862 29863 29864 29865 29866 29867 29868 29869 29870 29871 29872 29873 29874 29875 29876 29877 29878 29879 29880 29881 29882 29883 29884 29885 29886 29887 29888 29889 29890 29891 29892 29893 29894 29895 29896 29897 29898 29899 29900 29901 29902 29903 29904 29905 29906 29907 29908 29909 29910 29911 29912 29913 29914 29915 29916 29917 29918 29919 29920 29921 29922 29923 29924 29925 29926 29927 29928 29929 29930 29931 29932 29933 29934 29935 29936 29937 29938 29939 29940 29941 29942 29943 29944 29945 29946 29947 29948 29949 29950 29951 29952 29953 29954 29955 29956 29957 29958 29959 29960 29961 29962 29963 29964 29965 29966 29967 29968 29969 29970 29971 29972 29973 29974 29975 29976 29977 29978 29979 29980 29981 29982 29983 29984 29985 29986 29987 29988 29989 29990 29991 29992 29993 29994 29995 29996 29997 29998 29999 30000 30001 30002 30003 30004 30005 30006 30007 30008 30009 30010 30011 30012 30013 30014 30015 30016 30017 30018 30019 30020 30021 30022 30023 30024 30025 30026 30027 30028 30029 30030 30031 30032 30033 30034 30035 30036 30037 30038 30039 30040 30041 30042 30043 30044 30045 30046 30047 30048 30049 30050 30051 30052 30053 30054 30055 30056 30057 30058 30059 30060 30061 30062 30063 30064 30065 30066 30067 30068 30069 30070 30071 30072 30073 30074 30075 30076 30077 30078 30079 30080 30081 30082 30083 30084 30085 30086 30087 30088 30089 30090 30091 30092 30093 30094 30095 30096 30097 30098 30099 30100 30101 30102 30103 30104 30105 30106 30107 30108 30109 30110 30111 30112 30113 30114 30115 30116 30117 30118 30119 30120 30121 30122 30123 30124 30125 30126 30127 30128 30129 30130 30131 30132 30133 30134 30135 30136 30137 30138 30139 30140 30141 30142 30143 30144 30145 30146 30147 30148 30149 30150 30151 30152 30153 30154 30155 30156 30157 30158 30159 30160 30161 30162 30163 30164 30165 30166 30167 30168 30169 30170 30171 30172 30173 30174 30175 30176 30177 30178 30179 30180 30181 30182 30183 30184 30185 30186 30187 30188 30189 30190 30191 30192 30193 30194 30195 30196 30197 30198 30199 30200 30201 30202 30203 30204 30205 30206 30207 30208 30209 30210 30211 30212 30213 30214 30215 30216 30217 30218 30219 30220 30221 30222 30223 30224 30225 30226 30227 30228 30229 30230 30231 30232 30233 30234 30235 30236 30237 30238 30239 30240 30241 30242 30243 30244 30245 30246 30247 30248 30249 30250 30251 30252 30253 30254 30255 30256 30257 30258 30259 30260 30261 30262 30263 30264 30265 30266 30267 30268 30269 30270 30271 30272 30273 30274 30275 30276 30277 30278 30279 30280 30281 30282 30283 30284 30285 30286 30287 30288 30289 30290 30291 30292 30293 30294 30295 30296 30297 30298 30299 30300 30301 30302 30303 30304 30305 30306 30307 30308 30309 30310 30311 30312 30313 30314 30315 30316 30317 30318 30319 30320 30321 30322 30323 30324 30325 30326 30327 30328 30329 30330 30331 30332 30333 30334 30335 30336 30337 30338 30339 30340 30341 30342 30343 30344 30345 30346 30347 30348 30349 30350 30351 30352 30353 30354 30355 30356 30357 30358 30359 30360 30361 30362 30363 30364 30365 30366 30367 30368 30369 30370 30371 30372 30373 30374 30375 30376 30377 30378 30379 30380 30381 30382 30383 30384 30385 30386 30387 30388 30389 30390 30391 30392 30393 30394 30395 30396 30397 30398 30399 30400 30401 30402 30403 30404 30405 30406 30407 30408 30409 30410 30411 30412 30413 30414 30415 30416 30417 30418 30419 30420 30421 30422 30423 30424 30425 30426 30427 30428 30429 30430 30431 30432 30433 30434 30435 30436 30437 30438 30439 30440 30441 30442 30443 30444 30445 30446 30447 30448 30449 30450 30451 30452 30453 30454 30455 30456 30457 30458 30459 30460 30461 30462 30463 30464 30465 30466 30467 30468 30469 30470 30471 30472 30473 30474 30475 30476 30477 30478 30479 30480 30481 30482 30483 30484 30485 30486 30487 30488 30489 30490 30491 30492 30493 30494 30495 30496 30497 30498 30499 30500 30501 30502 30503 30504 30505 30506 30507 30508 30509 30510 30511 30512 30513 30514 30515 30516 30517 30518 30519 30520 30521 30522 30523 30524 30525 30526 30527 30528 30529 30530 30531 30532 30533 30534 30535 30536 30537 30538 30539 30540 30541 30542 30543 30544 30545 30546 30547 30548 30549 30550 30551 30552 30553 30554 30555 30556 30557 30558 30559 30560 30561 30562 30563 30564 30565 30566 30567 30568 30569 30570 30571 30572 30573 30574 30575 30576 30577 30578 30579 30580 30581 30582 30583 30584 30585 30586 30587 30588 30589 30590 30591 30592 30593 30594 30595 30596 30597 30598 30599 30600 30601 30602 30603 30604 30605 30606 30607 30608 30609 30610 30611 30612 30613 30614 30615 30616 30617 
</DataArray>
<DataArray type="UInt32" Name="offsets" format="ascii">
2 5 8 11 14 17 20 23 26 28 31 34 37 39 42 45 48 51 54 57 60 63 66 69 72 75 78 81 84 86 89 92 94 97 100 103 105 108 111 114 116 119 122 125 128 131 134 137 140 142 145 148 151 154 157 160 162 165 168 171 174 177 180 183 186 189 191 194 197 199 202 205 208 210 213 215 218 220 222 225 228 231 234 237 240 243 246 249 251 254 256 259 262 264 267 270 273 276 279 282 285 288 291 294 297 300 303 306 309 311 314 317 320 323 325 328 331 333 335 338 341 343 346 349 352 354 356 358 361 363 366 369 372 375 378 381 384 387 390 392 394 397 400 403 406 409 412 414 417 420 423 426 429 431 433 436 439 441 444 447 449 451 454 456 458 461 464 467 470 473 476 479 482 485 488 491 494 496 499 502 504 507 510 513 516 519 522 525 528 531 534 537 540 543 546 549 552 555 558 561 564 566 569 572 575 578 581 584 587 590 593 596 599 602 605 608 611 613 616 619 621 624 627 630 633 635 637 640 643 646 649 652 655 658 661 664 667 670 673 676 679 682 684 687 690 693 695 698 701 704 707 710 713 716 719 721 723 726 729 732 735 738 741 744 747 750 752 755 758 761 764 767 769 772 774 777 780 783 786 789 791 793 796 799 802 804 807 809 812 815 818 820 823 825 828 831 833 836 839 842 844 847 850 853 856 859 861 863 866 869 871 874 876 878 881 884 886 889 891 894 897 900 903 905 908 910 913 916 918 920 922 925 927 930 932 934 937 940 943 946 949 952 955 958 961 963 966 969 972 975 978 981 984 987 990 993 996 999 1002 1005 1008 1011 1014 1017 1020 1023 1026 1029 1032 1035 1037 1040 1042 1045 1048 1051 1054 1057 1059 1062 1064 1067 1070 1072 1075 1078 1081 1084 1086 1089 1091 1094 1097 1100 1103 1106 1109 1112 1115 1118 1121 1124 1127 1130 1132 1135 1138 1140 1143 1146 1149 1152 1155 1158 1161 1164 1167 1170 1173 1176 1179 1182 1185 1188 1191 1193 1196 1199 1202 1205 1208 1211 1214 1217 1220 1223 1225 1228 1231 1234 1236 1238 1241 1244 1247 1250 1253 1256 1259 1262 1265 1268 1271 1274 1277 1280 1283 1286 1289 1292 1295 1298 1301 1304 1307 1309 1312 1315 1317 1320 1323 1325 1328 1330 1333 1336 1339 1341 1344 1346 1348 1351 1354 1357 1360 1363 1366 1369 1372 1375 1378 1380 1383 1386 1389 1392 1395 1398 1401 1404 1407 1410 1413 1416 1419 1422 1425 1428 1431 1434 1437 1440 1443 1446 1449 1452 1455 1458 1461 1464 1467 1470 1473 1476 1478 1481 1484 1487 1490 1492 1495 1498 1501 1504 1507 1510 1513 1515 1518 1521 1524 1527 1530 1533 1536 1539 1542 1544 1547 1549 1551 1554 1557 1559 1562 1564 1567 1570 1573 1576 1579 1582 1585 1588 1590 1593 1596 1599 1602 1605 1607 1610 1613 1616 1619 1622 1625 1627 1630 1633 1636 1639 1642 1645 1648 1651 1653 1656 1658 1661 1664 1667 1670 1673 1675 1678 1680 1683 1686 1689 1692 1695 1698 1700 1703 1706 1709 1712 1715 1718 1721 1724 1727 1730 1732 1734 1737 1740 1743 1746 1748 1751 1754 1757 1760 1763 1766 1769 1772 1775 1778 1781 1784 1786 1789 1792 1794 1797 1800 1803 1806 1809 1812 1815 1818 1821 1824 1826 1828 1831 1834 1837 1840 1843 1846 1849 1852 1855 1858 1860 1863 1865 1868 1871 1874 1877 1880 1883 1886 1889 1892 1895 1898 1901 1904 1907 1910 1913 1916 1919 1922 1925 1928 1931 1934 1937 1940 1943 1946 1949 1952 1955 1958 1961 1964 1967 1970 1973 1976 1979 1982 1984 1987 1990 1993 1995 1998 2000 2003 2005 2008 2011 2013 2016 2018 2021 2023 2026 2029 2031 2034 2037 2040 2043 2046 2049 2052 2055 2057 2060 2063 2065 2068 2071 2074 2077 2079 2082 2085 2088 2091 2094 2097 2100 2103 2106 2109 2111 2114 2116 2119 2121 2124 2126 2129 2131 2134 2137 2140 2142 2145 2147 2150 2153 2156 2159 2162 2165 2168 2171 2174 2177 2180 2183 2185 2188 2191 2193 2195 2198 2201 2204 2206 2209 2212 2214 2217 2220 2222 2225 2228 2231 2233 2236 2239 2242 2245 2248 2250 2253 2256 2258 2260 2263 2266 2269 2271 2273 2275 2278 2281 2283 2286 2289 2291 2294 2297 2300 2303 2306 2309 2311 2314 2317 2319 2322 2325 2327 2330 2333 2336 2339 2342 2345 2348 2351 2353 2356 2359 2362 2365 2368 2370 2372 2374 2377 2380 2383 2386 2389 2392 2395 2398 2401 2404 2407 2409 2412 2415 2418 2421 2423 2426 2429 2432 2435 2438 2441 2444 2446 2449 2452 2455 2457 2460 2462 2465 2467 2470 2472 2475 2478 2481 2484 2487 2490 2493 2496 2499 2502 2504 2507 2510 2513 2516 2519 2522 2525 2528 2530 2533 2536 2538 2541 2544 2547 2550 2552 2555 2558 2561 2564 2567 2570 2572 2575 2577 2580 2583 2586 2589 2592 2595 2597 2599 2602 2605 2608 2611 2613 2616 2618 2621 2624 2627 2629 2632 2635 2638 2641 2644 2647 2650 2652 2654 2657 2660 2662 2665 2667 2669 2671 2674 2677 2680 2683 2686 2689 2692 2694 2697 2700 2703 2706 2709 2712 2715 2718 2721 2724 2727 2730 2733 2735 2738 2741 2744 2747 2750 2753 2756 2759 2762 2765 2767 2770 2773 2775 2778 2781 2784 2787 2790 2792 2795 2798 2801 2804 2807 2810 2813 2816 2818 2821 2823 2826 2829 2831 2834 2837 2839 2842 2845 2848 2851 2853 2856 2859 2862 2865 2868 2870 2873 2876 2879 2882 2885 2888 2891 2894 2897 2899 2902 2905 2907 2909 2912 2915 2918 2921 2923 2926 2928 2931 2934 2936 2938 2941 2943 2946 2948 2951 2954 2957 2960 2963 2965 2968 2971 2974 2976 2979 2982 2985 2987 2990 2993 2996 2999 3002 3005 3008 3011 3014 3017 3019 3022 3025 3028 3031 3034 3037 3040 3043 3046 3049 3052 3055 3058 3061 3064 3067 3070 3073 3075 3078 3081 3083 3086 3089 3092 3095 3097 3100 3103 3106 3109 3112 3115 3118 3121 3124 3127 3130 3133 3136 3139 3142 3145 3148 3151 3154 3157 3160 3163 3166 3169 3172 3175 3178 3181 3184 3187 3190 3193 3196 3199 3202 3205 3208 3211 3214 3217 3220 3223 3226 3229 3232 3235 3238 3241 3244 3247 3250 3253 3256 3259 3262 3265 3268 3271 3273 3276 3279 3282 3285 3288 3291 3294 3297 3300 3303 3306 3309 3312 3315 3318 3321 3324 3327 3330 3332 3335 3338 3341 3344 3346 3349 3352 3355 3358 3361 3364 3367 3370 3373 3376 3379 3382 3385 3388 3391 3394 3397 3400 3402 3405 3408 3411 3414 3416 3419 3422 3425 3428 3431 3433 3435 3438 3441 3444 3447 3450 3453 3456 3459 3462 3465 3468 3471 3474 3477 3480 3483 3486 3489 3491 3494 3497 3500 3502 3505 3507 3510 3513 3516 3519 3522 3525 3528 3531 3534 3536 3539 3542 3545 3548 3550 3552 3555 3558 3561 3564 3567 3570 3573 3576 3579 3582 3585 3588 3591 3594 3597 3600 3603 3606 3609 3611 3614 3617 3620 3623 3626 3629 3632 3635 3638 3641 3644 3647 3650 3652 3655 3658 3661 3664 3667 3670 3673 3676 3679 3682 3685 3688 3691 3694 3697 3700 3703 3706 3709 3712 3715 3718 3720 3723 3726 3729 3732 3735 3738 3741 3743 3746 3749 3752 3754 3757 3760 3763 3766 3769 3772 3775 3778 3781 3784 3787 3790 3793 3796 3799 3802 3805 3808 3811 3814 3817 3820 3823 3826 3828 3831 3833 3836 3839 3842 3845 3847 3850 3852 3855 3858 3861 3864 3867 3870 3873 3875 3878 3881 3884 3887 3889 3892 3895 3898 3901 3904 3907 3910 3913 3916 3919 3922 3924 3927 3930 3933 3936 3939 3942 3944 3947 3949 3952 3955 3958 3961 3964 3966 3969 3972 3974 3977 3980 3982 3985 3988 3991 3994 3997 4000 4003 4006 4009 4012 4015 4018 4021 4024 4027 4030 4033 4036 4039 4042 4045 4048 4051 4054 4057 4060 4063 4065 4068 4071 4074 4076 4079 4081 4084 4087 4089 4091 4094 4097 4100 4102 4105 4108 4111 4114 4116 4119 4121 4124 4127 4129 4132 4135 4138 4141 4144 4146 4149 4152 4155 4158 4161 4163 4166 4169 4172 4175 4178 4181 4184 4187 4190 4193 4196 4199 4202 4205 4208 4211 4214 4217 4220 4223 4226 4229 4232 4235 4238 4241 4244 4247 4250 4253 4256 4259 4262 4265 4268 4271 4274 4277 4280 4283 4286 4289 4292 4294 4296 4299 4302 4305 4308 4311 4314 4317 4320 4323 4326 4329 4332 4335 4338 4341 4344 4347 4350 4353 4356 4359 4362 4365 4368 4371 4374 4377 4380 4382 4385 4388 4391 4394 4396 4399 4402 4405 4408 4410 4413 4416 4419 4422 4425 4428 4431 4433 4436 4438 4441 4444 4447 4450 4453 4455 4458 4461 4464 4467 4470 4473 4476 4479 4482 4485 4487 4490 4493 4496 4499 4502 4505 4508 4511 4514 4517 4520 4523 4526 4529 4532 4535 4538 4541 4544 4547 4550 4553 4556 4559 4562 4564 4567 4570 4573 4576 4578 4581 4583 4586 4589 4591 4594 4596 4599 4602 4605 4608 4611 4614 4616 4619 4622 4625 4627 4630 4633 4636 4639 4642 4645 4648 4651 4654 4657 4660 4663 4666 4669 4672 4675 4678 4680 4683 4685 4688 4691 4694 4697 4700 4702 4705 4707 4710 4713 4716 4719 4722 4725 4728 4731 4733 4736 4739 4742 4745 4748 4751 4754 4757 4760 4763 4766 4769 4772 4775 4778 4781 4784 4787 4790 4793 4796 4799 4802 4804 4807 4809 4812 4815 4818 4821 4824 4827 4830 4833 4836 4839 4842 4845 4847 4850 4853 4856 4859 4862 4865 4868 4871 4874 4877 4880 4883 4886 4889 4892 4895 4898 4901 4904 4907 4910 4913 4916 4919 4922 4925 4928 4930 4933 4936 4939 4941 4944 4946 4948 4951 4954 4957 4960 4963 4965 4968 4971 4974 4977 4980 4983 4986 4989 4992 4995 4998 5001 5004 5007 5010 5013 5016 5019 5022 5025 5028 5031 5034 5037 5039 5042 5045 5047 5050 5053 5056 5059 5062 5065 5068 5071 5073 5075 5078 5081 5084 5087 5090 5093 5096 5099 5102 5105 5107 5110 5113 5115 5117 5120 5122 5125 5128 5131 5134 5137 5139 5142 5144 5146 5148 5151 5154 5157 5160 5163 5166 5168 5171 5174 5177 5180 5183 5186 5189 5192 5195 5197 5200 5202 5205 5208 5210 5213 5216 5219 5222 5225 5228 5231 5234 5237 5240 5243 5246 5249 5252 5255 5258 5261 5264 5267 5270 5273 5276 5279 5282 5285 5288 5290 5292 5295 5298 5301 5304 5307 5310 5313 5316 5319 5322 5325 5328 5331 5334 5337 5340 5343 5346 5349 5352 5355 5358 5361 5364 5367 5370 5373 5376 5379 5382 5385 5388 5391 5394 5397 5400 5403 5406 5409 5412 5415 5418 5421 5424 5427 5430 5433 5436 5439 5442 5445 5448 5451 5454 5457 5460 5462 5465 5468 5471 5474 5477 5480 5483 5486 5489 5491 5493 5496 5499 5502 5504 5507 5510 5513 5516 5519 5522 5525 5528 5531 5534 5537 5540 5543 5546 5549 5552 5555 5558 5561 5564 5567 5570 5573 5576 5579 5582 5585 5588 5591 5594 5596 5599 5602 5605 5608 5611 5614 5617 5619 5622 5625 5628 5631 5634 5637 5640 5642 5645 5648 5650 5653 5656 5659 5662 5665 5668 5671 5674 5677 5679 5682 5685 5687 5689 5692 5695 5698 5700 5703 5706 5709 5712 5715 5718 5721 5724 5727 5730 5733 5735 5738 5741 5744 5747 5749 5752 5754 5757 5760 5762 5765 5768 5770 5772 5775 5778 5781 5784 5787 5790 5793 5796 5799 5802 5804 5806 5809 5812 5815 5818 5821 5824 5826 5829 5832 5835 5838 5841 5844 5846 5849 5851 5854 5857 5860 5863 5866 5868 5870 5873 5876 5879 5882 5885 5888 5891 5894 5897 5900 5903 5906 5909 5912 5915 5918 5921 5924 5927 5929 5931 5934 5937 5939 5942 5945 5948 5951 5954 5957 5960 5963 5966 5969 5972 5974 5977 5980 5983 5986 5989 5992 5995 5998 6001 6004 6007 6010 6013 6016 6019 6022 6025 6028 6031 6034 6037 6040 6043 6046 6049 6052 6055 6058 6060 6063 6066 6069 6072 6074 6076 6079 6082 6085 6088 6091 6094 6097 6099 6102 6104 6107 6110 6113 6116 6119 6122 6125 6128 6131 6134 6137 6140 6143 6146 6149 6152 6155 6158 6161 6164 6166 6168 6171 6173 6176 6179 6182 6185 6188 6190 6193 6196 6199 6202 6205 6208 6211 6214 6217 6220 6223 6226 6229 6232 6235 6238 6241 6243 6246 6249 6252 6255 6258 6261 6264 6267 6270 6273 6276 6278 6281 6284 6287 6290 6293 6296 6299 6302 6305 6308 6310 6313 6316 6319 6322 6325 6328 6331 6334 6337 6339 6342 6345 6348 6351 6353 6356 6359 6362 6364 6367 6370 6373 6376 6378 6381 6384 6387 6390 6393 6396 6399 6402 6405 6407 6410 6413 6416 6419 6421 6424 6427 6430 6433 6436 6439 6442 6445 6447 6450 6452 6454 6457 6459 6461 6464 6467 6470 6472 6475 6478 6481 6483 6486 6488 6491 6494 6497 6500 6503 6505 6508 6511 6514 6516 6519 6522 6525 6528 6531 6534 6536 6538 6541 6544 6547 6550 6553 6556 6559 6562 6565 6568 6571 6573 6576 6578 6580 6583 6586 6589 6592 6595 6597 6599 6602 6605 6607 6610 6613 6616 6619 6621 6624 6627 6630 6633 6636 6638 6641 6644 6647 6650 6652 6654 6657 6660 6662 6665 6667 6669 6672 6675 6678 6681 6684 6687 6690 6693 6696 6699 6702 6705 6708 6711 6714 6717 6720 6723 6726 6729 6732 6734 6737 6740 6742 6745 6747 6750 6753 6756 6758 6761 6764 6767 6770 6773 6776 6778 6780 6783 6786 6789 6792 6795 6798 6800 6803 6806 6808 6811 6814 6817 6820 6823 6826 6828 6831 6834 6837 6839 6842 6845 6848 6851 6854 6857 6859 6862 6865 6868 6871 6874 6877 6880 6883 6886 6889 6892 6895 6898 6900 6903 6905 6908 6911 6914 6917 6920 6923 6926 6929 6932 6934 6937 6940 6943 6945 6948 6951 6954 6957 6960 6963 6966 6969 6972 6975 6977 6980 6983 6986 6989 6992 6995 6998 7001 7004 7007 7010 7013 7016 7019 7022 7025 7028 7031 7034 7037 7040 7043 7046 7049 7052 7054 7057 7060 7063 7065 7068 7071 7073 7076 7079 7082 7085 7088 7090 7093 7096 7099 7101 7104 7107 7110 7113 7116 7119 7122 7124 7127 7130 7133 7136 7139 7142 7145 7148 7151 7154 7157 7160 7163 7166 7169 7172 7175 7177 7180 7182 7185 7188 7191 7194 7197 7200 7203 7206 7209 7211 7214 7216 7219 7221 7224 7226 7228 7231 7234 7237 7240 7242 7245 7248 7251 7254 7256 7259 7262 7265 7268 7271 7273 7276 7278 7281 7284 7286 7289 7292 7295 7298 7301 7304 7307 7310 7313 7316 7319 7322 7325 7328 7331 7334 7337 7339 7342 7345 7348 7351 7354 7357 7359 7362 7365 7368 7371 7374 7376 7379 7382 7385 7388 7391 7394 7397 7399 7402 7405 7407 7410 7413 7416 7419 7422 7425 7427 7430 7433 7436 7438 7441 7444 7447 7450 7453 7456 7459 7462 7465 7468 7471 7474 7477 7480 7483 7486 7489 7491 7494 7497 7500 7503 7506 7508 7510 7513 7516 7519 7522 7525 7527 7530 7532 7535 7537 7540 7542 7544 7547 7550 7553 7555 7557 7560 7563 7566 7569 7572 7575 7578 7581 7584 7587 7590 7593 7596 7599 7602 7605 7608 7611 7614 7617 7620 7623 7626 7629 7632 7635 7638 7641 7644 7647 7650 7653 7656 7659 7662 7665 7668 7671 7673 7676 7679 7682 7685 7688 7691 7694 7696 7699 7701 7704 7707 7710 7713 7716 7719 7721 7724 7727 7730 7732 7735 7738 7741 7743 7745 7748 7750 7753 7756 7759 7762 7765 7768 7770 7773 7776 7778 7781 7784 7787 7790 7793 7796 7799 7802 7805 7808 7811 7814 7816 7818 7820 7823 7826 7829 7831 7834 7837 7840 7843 7846 7849 7852 7855 7858 7861 7864 7867 7870 7873 7876 7879 7882 7885 7888 7891 7894 7897 7899 7902 7905 7908 7911 7913 7916 7919 7922 7925 7928 7931 7934 7936 7939 7942 7945 7948 7951 7953 7956 7959 7962 7965 7968 7970 7973 7976 7979 7982 7985 7988 7991 7994 7997 7999 8002 8005 8008 8011 8013 8016 8019 8022 8025 8028 8031 8034 8037 8040 8043 8045 8048 8051 8053 8056 8059 8062 8065 8068 8071 8074 8077 8080 8083 8086 8089 8092 8095 8098 8101 8104 8107 8110 8113 8115 8118 8121 8124 8127 8129 8132 8135 8138 8141 8144 8147 8150 8153 8155 8158 8161 8164 8167 8170 8172 8175 8178 8180 8183 8186 8189 8192 8195 8198 8201 8204 8207 8210 8213 8216 8218 8221 8224 8227 8230 8233 8236 8239 8242 8245 8248 8251 8254 8257 8260 8263 8266 8269 8272 8275 8278 8281 8284 8287 8290 8293 8296 8299 8302 8304 8307 8310 8313 8316 8319 8322 8325 8328 8331 8334 8337 8340 8343 8346 8348 8351 8354 8357 8360 8363 8366 8369 8372 8375 8378 8381 8384 8387 8390 8393 8396 8399 8402 8405 8407 8410 8413 8416 8419 8422 8425 8428 8430 8433 8436 8439 8442 8445 8448 8451 8454 8457 8460 8463 8466 8469 8472 8475 8478 8481 8484 8487 8490 8493 8496 8499 8502 8504 8507 8510 8513 8516 8519 8521 8524 8527 8530 8533 8536 8539 8542 8545 8548 8551 8553 8556 8559 8561 8564 8566 8569 8572 8575 8578 8581 8584 8587 8589 8592 8594 8597 8599 8602 8605 8608 8611 8614 8617 8620 8623 8626 8629 8632 8635 8638 8641 8644 8647 8650 8653 8656 8659 8662 8665 8668 8671 8674 8677 8680 8683 8686 8689 8692 8695 8698 8701 8704 8707 8709 8712 8715 8718 8721 8724 8727 8730 8733 8736 8739 8742 8745 8748 8751 8754 8757 8760 8763 8766 8769 8772 8775 8778 8781 8784 8787 8790 8793 8796 8799 8802 8804 8807 8810 8813 8816 8819 8822 8824 8826 8829 8832 8835 8838 8841 8844 8847 8850 8853 8856 8859 8862 8865 8867 8870 8873 8876 8879 8882 8885 8888 8891 8894 8897 8899 8901 8904 8906 8909 8912 8915 8917 8920 8922 8924 8927 8929 8932 8935 8938 8941 8944 8947 8950 8952 8954 8957 8960 8963 8966 8968 8971 8974 8977 8980 8982 8985 8987 8990 8992 8994 8997 8999 9002 9005 9008 9011 9014 9016 9019 9021 9023 9025 9027 9030 9033 9036 9039 9042 9044 9047 9050 9052 9054 9057 9060 9063 9065 9068 9071 9073 9076 9079 9082 9085 9087 9090 9093 9095 9098 9101 9103 9106 9109 9112 9115 9118 9121 9124 9127 9130 9133 9136 9139 9142 9145 9147 9150 9152 9155 9158 9161 9164 9167 9169 9172 9175 9177 9180 9183 9186 9189 9192 9194 9197 9200 9203 9206 9209 9212 9215 9218 9221 9224 9226 9229 9232 9235 9238 9241 9244 9247 9250 9253 9256 9259 9261 9264 9267 9270 9273 9276 9279 9281 9284 9287 9290 9293 9296 9299 9302 9305 9308 9311 9314 9317 9320 9323 9325 9328 9331 9334 9336 9339 9342 9345 9348 9351 9354 9357 9359 9362 9364 9367 9370 9373 9376 9379 9382 9385 9388 9391 9394 9397 9400 9403 9406 9409 9412 9415 9418 9421 9424 9427 9430 9433 9436 9439 9442 9445 9448 9451 9454 9457 9460 9463 9466 9469 9472 9474 9477 9479 9482 9485 9487 9490 9492 9495 9498 9501 9504 9507 9510 9512 9515 9518 9520 9522 9525 9528 9531 9534 9537 9540 9542 9545 9548 9551 9554 9557 9560 9563 9565 9568 9571 9574 9577 9580 9583 9586 9589 9592 9595 9598 9601 9604 9607 9610 9613 9616 9619 9622 9624 9627 9630 9633 9635 9638 9640 9643 9645 9648 9651 9654 9657 9659 9662 9665 9668 9671 9674 9677 9679 9682 9685 9688 9691 9694 9697 9699 9702 9705 9707 9710 9713 9716 9719 9722 9725 9727 9730 9733 9736 9739 9742 9745 9748 9751 9754 9756 9759 9761 9764 9767 9770 9773 9776 9778 9780 9783 9786 9789 9791 9793 9796 9799 9802 9805 9808 9811 9813 9816 9819 9821 9823 9826 9829 9831 9834 9837 9839 9842 9845 9848 9851 9853 9856 9859 9862 9865 9868 9871 9873 9876 9879 9882 9885 9888 9891 9894 9897 9900 9903 9905 9908 9911 9914 9916 9918 9921 9924 9927 9930 9933 9936 9939 9942 9945 9947 9950 9953 9956 9959 9962 9965 9968 9971 9974 9977 9980 9982 9984 9987 9990 9993 9996 9998 10001 10004 10007 10010 10012 10015 10018 10021 10024 10026 10029 10032 10035 10037 10040 10043 10046 10049 10051 10054 10057 10060 10063 10066 10068 10071 10074 10077 10080 10082 10085 10088 10091 10094 10097 10100 10103 10106 10109 10112 10115 10118 10121 10124 10127 10130 10133 10136 10139 10142 10145 10148 10151 10154 10157 10160 10163 10166 10169 10172 10175 10178 10180 10183 10186 10189 10192 10194 10197 10200 10203 10206 10209 10212 10214 10217 10220 10223 10225 10228 10230 10233 10236 10239 10242 10245 10248 10251 10254 10257 10260 10263 10266 10269 10272 10275 10278 10281 10284 10287 10290 10293 10296 10299 10301 10304 10306 10309 10312 10315 10317 10320 10323 10326 10329 10332 10335 10338 10341 10344 10347 10350 10353 10356 10358 10361 10364 10366 10369 10372 10374 10376 10379 10381 10384 10387 10390 10393 10396 10399 10402 10405 10408 10411 10414 10417 10420 10423 10426 10429 10432 10434 10437 10440 10443 10446 10449 10451 10454 10457 10460 10463 10466 10469 10472 10474 10477 10480 10483 10486 10489 10492 10495 10497 10500 10503 10506 10509 10512 10515 10518 10521 10524 10527 10530 10533 10536 10539 10542 10544 10547 10550 10553 10555 10558 10561 10564 10567 10570 10573 10576 10579 10582 10585 10588 10590 10593 10596 10599 10602 10605 10608 10610 10613 10616 10618 10621 10623 10626 10629 10632 10634 10637 10640 10643 10646 10649 10652 10655 10658 10661 10664 10667 10669 10672 10675 10678 10681 10684 10686 10689 10692 10695 10697 10700 10703 10706 10708 10711 10714 10717 10720 10723 10725 10728 10730 10733 10736 10739 10742 10745 10748 10751 10754 10756 10759 10761 10764 10767 10769 10772 10774 10777 10779 10782 10785 10788 10791 10794 10797 10800 10803 10806 10809 10811 10814 10816 10819 10822 10825 10828 10830 10833 10836 10839 10841 10843 10846 10849 10852 10854 10857 10859 10861 10864 10867 10869 10871 10874 10876 10878 10881 10884 10886 10888 10891 10894 10896 10899 10902 10904 10907 10909 10912 10915 10917 10920 10923 10925 10928 10930 10933 10936 10939 10941 10944 10946 10949 10952 10954 10956 10959 10962 10965 10967 10969 10972 10974 10977 10980 10983 10986 10989 10992 10995 10998 11000 11003 11006 11008 11010 11013 11015 11018 11020 11022 11025 11028 11031 11033 11036 11039 11041 11044 11047 11050 11053 11056 11059 11061 11063 11066 11069 11072 11075 11078 11081 11084 11086 11088 11091 11094 11097 11100 11102 11105 11108 11111 11113 11116 11119 11121 11124 11127 11130 11133 11136 11138 11141 11144 11146 11149 11152 11155 11157 11159 11162 11165 11167 11170 11173 11176 11178 11181 11184 11187 11189 11191 11194 11197 11199 11202 11205 11208 11211 11213 11215 11218 11221 11223 11225 11228 11230 11232 11235 11238 11241 11244 11247 11250 11252 11255 11258 11261 11264 11267 11270 11273 11276 11279 11282 11284 11286 11289 11292 11295 11298 11301 11304 11307 11309 11312 11315 11318 11321 11324 11327 11330 11333 11336 11338 11341 11344 11346 11349 11352 11354 11357 11360 11363 11366 11369 11372 11375 11378 11381 11384 11387 11390 11393 11396 11399 11402 11405 11408 11410 11412 11415 11418 11421 11424 11426 11429 11432 11434 11437 11440 11443 11446 11449 11452 11455 11458 11461 11463 11466 11469 11471 11474 11477 11480 11483 11486 11489 11492 11495 11498 11501 11504 11506 11509 11511 11514 11517 11520 11523 11526 11529 11532 11535 11538 11541 11543 11546 11549 11552 11555 11558 11561 11564 11567 11570 11573 11576 11579 11582 11585 11588 11591 11594 11597 11600 11603 11606 11609 11612 11615 11618 11621 11624 11627 11630 11633 11636 11639 11642 11645 11648 11651 11654 11657 11660 11662 11665 11668 11671 11674 11677 11680 11683 11686 11689 11691 11694 11697 11699 11702 11705 11708 11711 11714 11717 11720 11723 11726 11729 11732 11735 11738 11741 11744 11747 11749 11752 11754 11757 11760 11762 11765 11768 11771 11773 11775 11778 11780 11782 11785 11787 11790 11793 11795 11798 11801 11803 11806 11809 11812 11815 11818 11821 11824 11827 11830 11833 11836 11839 11842 11845 11848 11851 11854 11857 11860 11863 11866 11868 11871 11874 11877 11880 11883 11886 11889 11892 11895 11898 11901 11904 11907 11910 11913 11916 11919 11922 11925 11927 11930 11933 11936 11939 11942 11944 11947 11950 11953 11956 11959 11962 11965 11968 11971 11974 11977 11980 11983 11986 11989 11992 11995 11998 12001 12004 12007 12010 12013 12016 12018 12021 12024 12027 12030 12033 12036 12038 12041 12044 12047 12050 12053 12056 12059 12062 12065 12068 12071 12074 12077 12080 12083 12085 12088 12091 12094 12096 12098 12101 12104 12107 12109 12112 12115 12118 12121 12124 12127 12130 12133 12135 12138 12141 12144 12147 12149 12152 12155 12158 12161 12164 12167 12170 12173 12176 12179 12182 12185 12188 12190 12193 12196 12199 12202 12205 12208 12211 12214 12217 12220 12223 12226 12229 12232 12235 12238 12241 12244 12247 12250 12253 12256 12259 12262 12265 12268 12271 12273 12276 12279 12282 12285 12288 12291 12294 12297 12300 12303 12306 12309 12312 12315 12318 12320 12322 12325 12328 12331 12333 12336 12339 12342 12345 12348 12351 12354 12357 12360 12363 12366 12369 12372 12375 12378 12381 12384 12387 12390 12393 12396 12399 12402 12405 12408 12411 12414 12417 12420 12423 12425 12428 12431 12434 12437 12440 12443 12446 12449 12452 12455 12458 12461 12464 12467 12470 12473 12476 12479 12482 12485 12488 12491 12494 12497 12500 12502 12505 12508 12511 12514 12517 12520 12523 12525 12528 12531 12534 12536 12539 12542 12544 12547 12550 12553 12556 12559 12562 12565 12568 12570 12572 12575 12578 12581 12584 12587 12589 12592 12595 12598 12601 12604 12607 12610 12613 12616 12619 12622 12625 12628 12631 12634 12637 12640 12643 12646 12648 12651 12653 12656 12658 12661 12664 12667 12669 12672 12674 12677 12680 12683 12686 12689 12692 12695 12698 12701 12704 12707 12710 12712 12715 12718 12721 12724 12726 12729 12732 12734 12737 12739 12742 12745 12747 12750 12753 12756 12758 12761 12764 12767 12770 12773 12776 12779 12782 12785 12787 12790 12793 12796 12799 12801 12804 12807 12810 12813 12815 12818 12821 12824 12827 12830 12833 12835 12838 12840 12843 12845 12848 12851 12854 12856 12859 12862 12865 12868 12871 12874 12876 12878 12881 12884 12887 12890 12893 12895 12898 12901 12904 12907 12910 12913 12916 12919 12922 12925 12928 12931 12934 12937 12940 12943 12946 12949 12952 12954 12957 12960 12963 12966 12969 12972 12975 12978 12981 12983 12986 12988 12991 12993 12996 12999 13002 13005 13008 13011 13014 13017 13020 13023 13026 13029 13031 13034 13037 13039 13042 13045 13048 13051 13054 13057 13060 13063 13066 13068 13071 13073 13076 13079 13082 13085 13088 13091 13093 13096 13099 13102 13105 13108 13111 13114 13117 13120 13123 13126 13129 13132 13135 13138 13141 13144 13147 13150 13153 13156 13159 13162 13165 13168 13171 13174 13177 13180 13183 13186 13189 13192 13195 13198 13201 13204 13207 13210 13213 13216 13218 13221 13224 13226 13229 13231 13234 13237 13240 13242 13244 13247 13250 13252 13255 13258 13261 13264 13267 13270 13273 13276 13279 13282 13285 13288 13290 13293 13296 13299 13302 13305 13308 13311 13314 13317 13320 13323 13326 13328 13331 13334 13337 13340 13343 13346 13349 13352 13355 13358 13361 13364 13367 13370 13373 13375 13378 13381 13384 13387 13390 13392 13395 13398 13401 13404 13407 13410 13413 13416 13419 13421 13424 13427 13430 13433 13435 13438 13441 13444 13447 13450 13453 13456 13459 13462 13465 13468 13470 13473 13475 13478 13480 13483 13486 13489 13491 13494 13497 13500 13503 13506 13509 13512 13515 13518 13521 13524 13527 13530 13533 13536 13539 13542 13545 13548 13551 13553 13556 13559 13562 13565 13568 13571 13574 13577 13580 13583 13586 13589 13592 13595 13598 13601 13604 13607 13609 13612 13615 13618 13621 13624 13626 13629 13632 13635 13638 13641 13644 13647 13650 13652 13655 13658 13660 13663 13666 13669 13672 13675 13678 13681 13683 13686 13689 13692 13695 13698 13701 13704 13707 13710 13712 13715 13718 13721 13724 13727 13730 13733 13736 13739 13742 13745 13748 13751 13754 13757 13760 13763 13766 13769 13772 13775 13778 13781 13784 13786 13789 13791 13794 13797 13799 13802 13805 13808 13811 13814 13817 13820 13823 13825 13828 13831 13834 13837 13840 13843 13845 13848 13851 13854 13857 13860 13863 13866 13869 13872 13875 13878 13881 13883 13886 13889 13892 13895 13898 13901 13904 13907 13910 13913 13916 13919 13922 13925 13927 13930 13933 13936 13938 13941 13944 13947 13950 13952 13955 13958 13961 13964 13967 13970 13973 13976 13979 13982 13985 13988 13991 13994 13997 14000 14003 14006 14009 14012 14015 14018 14021 14024 14027 14030 14032 14035 14038 14040 14043 14046 14049 14052 14055 14058 14061 14064 14067 14069 14072 14075 14077 14080 14083 14085 14088 14091 14094 14097 14100 14103 14106 14109 14112 14115 14118 14121 14124 14127 14130 14133 14136 14139 14142 14145 14148 14151 14154 14157 14160 14163 14166 14169 14172 14175 14178 14181 14184 14187 14190 14193 14196 14199 14202 14205 14208 14211 14214 14217 14220 14223 14226 14229 14232 14235 14238 14241 14244 14247 14250 14253 14256 14259 14262 14265 14268 14271 14274 14276 14279 14282 14285 14288 14291 14294 14296 14299 14302 14305 14308 14311 14314 14317 14320 14323 14326 14329 14331 14333 14336 14339 14341 14344 14346 14349 14352 14354 14357 14360 14362 14365 14368 14371 14374 14377 14380 14383 14386 14388 14391 14394 14397 14400 14403 14406 14409 14412 14415 14417 14420 14423 14426 14429 14431 14434 14437 14440 14443 14446 14449 14452 14455 14458 14461 14464 14467 14470 14473 14476 14478 14481 14484 14487 14490 14492 14495 14497 14500 14503 14506 14508 14511 14514 14516 14519 14522 14525 14528 14531 14534 14537 14540 14543 14546 14549 14551 14554 14557 14559 14562 14565 14568 14570 14573 14576 14578 14580 14583 14586 14588 14591 14594 14597 14600 14603 14606 14609 14612 14614 14617 14620 14623 14626 14628 14631 14633 14636 14638 14641 14644 14647 14650 14652 14655 14658 14661 14663 14666 14669 14672 14675 14678 14681 14684 14687 14690 14693 14696 14699 14702 14705 14708 14711 14714 14717 14719 14722 14725 14728 14731 14734 14737 14740 14743 14746 14749 14752 14755 14758 14761 14764 14767 14770 14773 14776 14779 14782 14785 14788 14791 14794 14797 14800 14803 14806 14809 14812 14815 14818 14821 14824 14827 14830 14833 14836 14839 14841 14844 14847 14850 14853 14856 14858 14861 14864 14867 14870 14873 14876 14879 14882 14885 14888 14891 14894 14897 14899 14902 14905 14907 14910 14913 14916 14918 14921 14923 14926 14929 14932 14935 14937 14940 14943 14946 14949 14952 14955 14958 14961 14964 14966 14969 14972 14974 14976 14979 14981 14984 14987 14990 14993 14996 14999 15002 15005 15008 15011 15014 15017 15020 15023 15026 15029 15032 15035 15038 15041 15044 15047 15050 15052 15055 15058 15061 15063 15066 15069 15072 15075 15078 15081 15084 15086 15089 15092 15095 15098 15101 15104 15107 15110 15113 15116 15119 15122 15125 15128 15131 15134 15137 15140 15143 15146 15149 15152 15155 15157 15160 15163 15166 15169 15172 15174 15177 15179 15181 15184 15187 15190 15192 15195 15198 15200 15203 15206 15209 15212 15215 15218 15221 15224 15227 15230 15233 15235 15238 15241 15244 15246 15249 15251 15254 15257 15260 15263 15266 15268 15271 15273 15276 15278 15281 15284 15287 15290 15293 15296 15299 15302 15304 15306 15308 15311 15314 15316 15319 15322 15325 15328 15331 15334 15337 15340 15343 15346 15349 15352 15355 15358 15361 15364 15367 15370 15373 15376 15379 15382 15385 15388 15391 15394 15397 15400 15403 15406 15409 15412 15415 15418 15421 15424 15427 15429 15432 15435 15438 15441 15444 15447 15450 15452 15455 15458 15460 15463 15466 15469 15472 15475 15478 15481 15484 15487 15490 15493 15496 15499 15502 15505 15508 15511 15514 15517 15520 15523 15526 15529 15531 15534 15537 15540 15543 15546 15549 15552 15555 15558 15561 15563 15566 15569 15572 15575 15577 15580 15583 15586 15589 15591 15594 15596 15598 15601 15604 15607 15610 15612 15615 15618 15620 15623 15626 15628 15630 15633 15636 15639 15642 15645 15648 15651 15653 15656 15659 15662 15665 15668 15671 15674 15677 15680 15683 15686 15689 15692 15694 15697 15700 15703 15706 15709 15712 15715 15717 15719 15722 15724 15727 15729 15732 15735 15738 15740 15743 15746 15749 15752 15755 15757 15760 15763 15765 15768 15771 15774 15777 15780 15783 15786 15788 15791 15794 15797 15800 15803 15806 15809 15812 15814 15817 15820 15823 15825 15828 15831 15834 15837 15840 15842 15844 15847 15850 15852 15855 15858 15861 15864 15867 15870 15873 15876 15879 15882 15885 15888 15891 15894 15896 15899 15902 15904 15907 15909 15912 15915 15918 15921 15923 15926 15929 15932 15935 15938 15940 15943 15946 15948 15950 15953 15956 15959 15962 15964 15967 15970 15973 15976 15979 15982 15985 15988 15990 15993 15995 15998 16001 16004 16007 16010 16013 16016 16019 16021 16024 16027 16030 16033 16035 16038 16041 16044 16047 16050 16053 16056 16059 16062 16065 16068 16071 16074 16077 16080 16083 16086 16089 16092 16095 16098 16101 16104 16107 16110 16113 16116 16119 16122 16125 16128 16131 16134 16136 16139 16142 16145 16148 16151 16154 16157 16159 16162 16165 16168 16171 16174 16177 16180 16183 16186 16189 16192 16195 16197 16200 16203 16206 16209 16211 16214 16217 16220 16223 16226 16229 16232 16235 16238 16241 16244 16247 16250 16252 16255 16258 16260 16263 16266 16269 16272 16274 16277 16280 16283 16286 16289 16292 16295 16298 16301 16304 16307 16309 16312 16314 16317 16320 16322 16325 16328 16331 16334 16336 16339 16342 16345 16348 16351 16354 16357 16360 16363 16366 16369 16372 16375 16378 16381 16384 16387 16390 16393 16396 16399 16402 16405 16408 16411 16414 16417 16420 16422 16425 16428 16431 16434 16436 16439 16442 16445 16448 16451 16454 16457 16460 16463 16465 16468 16471 16474 16476 16479 16482 16485 16488 16491 16494 16496 16499 16501 16504 16506 16509 16512 16515 16518 16521 16524 16527 16530 16533 16536 16539 16542 16545 16548 16551 16554 16557 16560 16563 16566 16569 16572 16575 16578 16581 16584 16587 16590 16593 16596 16599 16602 16605 16608 16611 16613 16616 16618 16621 16624 16627 16630 16633 16636 16639 16642 16644 16647 16650 16653 16656 16659 16662 16665 16668 16671 16674 16677 16680 16682 16685 16688 16691 16694 16697 16700 16703 16706 16709 16712 16715 16718 16721 16723 16726 16729 16731 16734 16737 16740 16743 16745 16748 16751 16754 16757 16759 16762 16765 16768 16771 16774 16776 16778 16781 16783 16786 16789 16791 16794 16797 16800 16803 16805 16808 16810 16813 16816 16819 16822 16825 16828 16831 16834 16836 16839 16842 16845 16848 16850 16853 16856 16859 16862 16865 16868 16871 16874 16877 16880 16883 16886 16889 16892 16895 16898 16901 16904 16907 16910 16913 16916 16918 16921 16924 16927 16930 16933 16936 16939 16942 16945 16948 16951 16954 16957 16960 16963 16966 16969 16972 16975 16978 16981 16983 16986 16989 16992 16995 16998 17001 17004 17006 17009 17011 17014 17017 17020 17023 17026 17029 17032 17035 17038 17041 17044 17047 17050 17053 17056 17059 17062 17065 17068 17071 17074 17077 17080 17083 17086 17089 17091 17094 17097 17100 17103 17106 17108 17111 17113 17116 17119 17122 17125 17127 17129 17131 17134 17136 17139 17142 17145 17147 17150 17153 17156 17159 17161 17164 17166 17169 17172 17175 17178 17180 17183 17186 17189 17191 17193 17195 17198 17200 17203 17205 17208 17211 17213 17216 17219 17222 17225 17228 17231 17234 17237 17240 17243 17245 17248 17250 17253 17255 17258 17261 17264 17267 17269 17272 17275 17278 17281 17283 17286 17289 17292 17295 17298 17301 17304 17307 17310 17313 17315 17318 17320 17323 17326 17328 17331 17334 17336 17339 17342 17345 17348 17351 17353 17356 17359 17362 17365 17368 17371 17374 17377 17380 17383 17386 17389 17391 17394 17397 17400 17402 17405 17408 17411 17414 17417 17419 17422 17425 17428 17431 17434 17437 17440 17443 17446 17449 17452 17455 17458 17461 17464 17467 17470 17473 17476 17479 17482 17484 17487 17490 17493 17496 17498 17501 17504 17507 17509 17512 17514 17517 17520 17522 17525 17527 17530 17533 17536 17539 17542 17545 17547 17550 17553 17556 17559 17561 17564 17566 17569 17572 17575 17578 17581 17584 17587 17589 17592 17595 17598 17601 17604 17607 17610 17612 17615 17618 17621 17624 17627 17630 17633 17636 17639 17642 17645 17648 17651 17654 17657 17660 17663 17665 17668 17671 17674 17676 17679 17682 17685 17688 17691 17694 17697 17700 17703 17706 17709 17712 17715 17718 17720 17723 17726 17729 17732 17735 17738 17741 17744 17747 17750 17753 17756 17759 17762 17765 17768 17771 17774 17777 17780 17783 17786 17789 17792 17795 17798 17801 17803 17806 17808 17811 17814 17817 17819 17822 17825 17828 17830 17833 17836 17838 17840 17843 17846 17849 17852 17855 17858 17861 17864 17866 17869 17872 17874 17877 17880 17883 17886 17888 17891 17893 17896 17899 17902 17904 17907 17910 17913 17916 17919 17922 17925 17928 17931 17934 17936 17939 17942 17944 17947 17950 17952 17955 17958 17961 17964 17967 17970 17973 17975 17978 17981 17983 17985 17988 17991 17994 17996 17999 18002 18005 18008 18011 18014 18016 18019 18022 18025 18028 18030 18033 18036 18039 18041 18044 18047 18050 18053 18055 18058 18061 18063 18066 18069 18072 18075 18078 18081 18084 18087 18090 18093 18096 18098 18101 18104 18107 18110 18112 18115 18117 18120 18122 18125 18127 18130 18133 18136 18139 18142 18145 18148 18151 18154 18157 18160 18162 18164 18167 18170 18173 18176 18179 18182 18184 18187 18190 18192 18195 18198 18201 18204 18207 18210 18212 18215 18218 18221 18223 18226 18228 18231 18234 18237 18239 18242 18245 18248 18251 18254 18257 18259 18262 18265 18268 18271 18274 18277 18279 18282 18284 18287 18290 18293 18295 18298 18301 18304 18307 18309 18312 18315 18318 18321 18324 18327 18330 18332 18335 18337 18340 18342 18345 18348 18351 18353 18355 18358 18361 18363 18366 18369 18372 18375 18378 18380 18383 18385 18387 18389 18391 18394 18397 18400 18403 18406 18408 18410 18413 18416 18418 18421 18424 18427 18429 18432 18435 18438 18441 18444 18447 18450 18453 18456 18458 18461 18464 18467 18469 18472 18475 18478 18481 18484 18487 18490 18492 18495 18497 18500 18503 18506 18509 18511 18514 18516 18519 18522 18525 18528 18530 18533 18536 18539 18542 18545 18548 18551 18554 18557 18559 18562 18565 18568 18571 18574 18577 18580 18583 18586 18589 18592 18595 18598 18601 18604 18607 18610 18613 18616 18619 18622 18624 18627 18630 18633 18636 18638 18641 18644 18647 18650 18653 18655 18658 18660 18663 18666 18669 18672 18675 18678 18681 18684 18687 18690 18693 18695 18698 18700 18703 18705 18707 18710 18712 18715 18717 18720 18723 18726 18728 18731 18734 18737 18739 18742 18745 18748 18751 18753 18756 18758 18761 18764 18767 18770 18773 18776 18779 18782 18784 18787 18790 18793 18796 18799 18802 18805 18808 18810 18813 18816 18819 18822 18825 18828 18831 18834 18837 18839 18842 18845 18847 18850 18853 18856 18858 18861 18864 18867 18870 18873 18876 18879 18882 18885 18888 18891 18894 18896 18899 18902 18905 18908 18910 18913 18916 18919 18922 18925 18928 18930 18933 18936 18939 18942 18944 18947 18949 18952 18955 18958 18961 18964 18967 18970 18972 18975 18978 18981 18983 18985 18988 18991 18994 18997 18999 19002 19004 19007 19010 19012 19015 19018 19021 19024 19027 19030 19033 19036 19039 19042 19045 19048 19051 19054 19057 19060 19063 19066 19069 19072 19075 19078 19081 19084 19087 19090 19093 19096 19099 19102 19105 19108 19111 19114 19117 19119 19122 19125 19128 19130 19133 19136 19139 19142 19145 19148 19151 19154 19157 19160 19163 19166 19169 19171 19174 19176 19179 19182 19185 19188 19191 19194 19197 19200 19203 19206 19209 19212 19215 19217 19220 19223 19225 19228 19231 19234 19237 19240 19242 19245 19248 19251 19254 19257 19260 19263 19266 19269 19272 19275 19278 19281 19284 19287 19290 19293 19296 19299 19301 19303 19306 19309 19311 19314 19317 19319 19322 19325 19328 19331 19334 19337 19340 19342 19345 19348 19351 19354 19356 19359 19362 19365 19368 19371 19374 19377 19380 19383 19386 19389 19392 19395 19398 19400 19403 19406 19408 19411 19414 19417 19420 19423 19426 19429 19431 19433 19436 19439 19442 19445 19448 19451 19454 19457 19460 19463 19466 19469 19472 19475 19478 19481 19483 19486 19489 19492 19495 19497 19500 19503 19505 19508 19511 19513 19516 19519 19522 19525 19528 19531 19534 19537 19540 19543 19546 19549 19551 19554 19557 19560 19563 19565 19568 19571 19574 19577 19580 19583 19586 19589 19592 19594 19596 19598 19601 19604 19607 19609 19612 19615 19617 19619 19622 19624 19627 19630 19633 19635 19638 19641 19644 19647 19650 19653 19656 19659 19662 19665 19668 19671 19674 19677 19680 19683 19686 19689 19692 19695 19698 19701 19704 19707 19710 19713 19716 19719 19722 19725 19728 19731 19734 19737 19740 19743 19746 19749 19752 19755 19758 19761 19764 19767 19770 19773 19776 19779 19781 19784 19786 19789 19792 19795 19798 19801 19804 19807 19810 19813 19815 19818 19821 19824 19827 19830 19833 19835 19838 19841 19844 19847 19850 19852 19855 19858 19861 19864 19867 19870 19873 19876 19879 19882 19885 19888 19891 19894 19897 19899 19902 19905 19908 19911 19914 19917 19920 19922 19925 19928 19931 19934 19937 19939 19941 19944 19947 19950 19953 19955 19958 19961 19964 19967 19970 19973 19976 19979 19982 19985 19988 19991 19994 19997 20000 20003 20006 20009 20012 20015 20018 20020 20023 20026 20029 20032 20035 20038 20040 20043 20046 20049 20051 20054 20057 20060 20063 20066 20069 20072 20075 20078 20081 20084 20087 20090 20093 20096 20099 20102 20105 20107 20110 20112 20115 20118 20121 20124 20127 20129 20131 20134 20137 20140 20142 20145 20148 20151 20154 20157 20160 20162 20165 20168 20171 20174 20177 20179 20182 20184 20187 20190 20192 20195 20198 20201 20204 20206 20209 20212 20215 20218 20220 20223 20226 20229 20232 20234 20237 20240 20243 20246 20249 20252 20255 20258 20261 20264 20267 20270 20273 20275 20278 20281 20284 20287 20290 20293 20296 20299 20302 20305 20308 20311 20314 20317 20320 20323 20325 20328 20331 20334 20337 20339 20342 20345 20348 20351 20353 20356 20359 20362 20365 20368 20371 20374 20377 20380 20383 20385 20388 20391 20394 20397 20399 20402 20405 20408 20411 20414 20417 20420 20423 20426 20429 20432 20435 20438 20441 20444 20446 20449 20452 20455 20457 20460 20463 20466 20469 20472 20475 20478 20481 20484 20487 20490 20493 20496 20499 20501 20504 20507 20510 20513 20516 20519 20522 20525 20528 20531 20534 20536 20539 20542 20544 20547 20550 20553 20556 20559 20562 20564 20566 20569 20572 20575 20578 20580 20583 20585 20588 20591 20594 20596 20599 20602 20604 20607 20610 20613 20616 20619 20622 20625 20628 20631 20634 20637 20640 20643 20646 20649 20652 20654 20657 20660 20663 20666 20669 20672 20675 20678 20680 20682 20685 20688 20691 20693 20695 20698 20700 20703 20705 20708 20711 20714 20717 20719 20722 20725 20728 20731 20734 20737 20740 20743 20746 20749 20752 20755 20758 20760 20763 20765 20768 20771 20774 20777 20780 20783 20786 20789 20791 20793 20796 20799 20801 20803 20805 20808 20811 20814 20817 20820 20823 20825 20828 20831 20833 20836 20839 20841 20843 20845 20847 20850 20853 20856 20859 20862 20865 20868 20871 20874 20877 20880 20883 20886 20888 20891 20894 20896 20899 20901 20904 20907 20910 20913 20916 20919 20922 20924 20926 20929 20932 20934 20937 20940 20942 20945 20948 20951 20954 20956 20958 20960 20962 20965 20968 20971 20974 20977 20980 20983 20986 20989 20992 20995 20998 21001 21004 21006 21009 21012 21014 21017 21020 21023 21026 21028 21031 21034 21037 21039 21042 21045 21047 21050 21053 21055 21058 21061 21063 21065 21068 21070 21073 21076 21079 21082 21085 21088 21090 21093 21096 21099 21102 21104 21107 21110 21113 21116 21119 21121 21124 21127 21129 21132 21134 21136 21139 21142 21145 21147 21150 21153 21156 21159 21162 21164 21167 21170 21173 21175 21178 21181 21184 21186 21189 21192 21195 21198 21201 21204 21207 21209 21212 21215 21218 21221 21224 21226 21229 21232 21235 21238 21241 21244 21247 21249 21252 21254 21256 21259 21262 21264 21267 21270 21273 21276 21279 21282 21284 21287 21290 21293 21296 21299 21302 21304 21307 21310 21313 21316 21319 21322 21324 21327 21329 21332 21334 21337 21340 21342 21345 21348 21351 21354 21356 21358 21360 21362 21365 21368 21371 21374 21377 21380 21383 21386 21388 21391 21394 21397 21399 21402 21404 21407 21410 21413 21416 21419 21422 21425 21428 21431 21434 21437 21440 21443 21446 21449 21452 21454 21457 21459 21462 21465 21468 21471 21474 21477 21480 21483 21485 21488 21491 21494 21497 21500 21502 21505 21508 21510 21513 21516 21519 21522 21525 21528 21530 21532 21535 21538 21540 21543 21546 21549 21552 21555 21558 21561 21564 21567 21570 21573 21575 21577 21580 21583 21586 21589 21591 21594 21597 21600 21603 21606 21609 21612 21615 21617 21620 21623 21626 21629 21631 21634 21637 21640 21643 21646 21649 21651 21654 21656 21659 21661 21664 21667 21670 21673 21676 21679 21682 21685 21688 21691 21694 21697 21700 21703 21706 21709 21712 21715 21717 21720 21723 21726 21729 21732 21735 21738 21741 21744 21747 21750 21753 21756 21759 21762 21765 21768 21770 21772 21775 21778 21781 21784 21787 21790 21793 21796 21799 21802 21805 21808 21811 21814 21817 21820 21823 21826 21829 21832 21835 21838 21841 21844 21847 21850 21853 21856 21859 21862 21865 21868 21871 21874 21877 21880 21883 21886 21889 21892 21895 21898 21901 21904 21907 21909 21912 21914 21917 21920 21923 21926 21929 21932 21935 21937 21940 21943 21946 21948 21951 21953 21955 21957 21960 21962 21964 21967 21970 21972 21974 21976 21979 21982 21985 21988 21991 21993 21996 21998 22000 22003 22006 22009 22012 22015 22018 22021 22023 22026 22029 22031 22034 22037 22039 22041 22044 22047 22050 22053 22056 22059 22061 22064 22067 22069 22071 22074 22077 22079 22082 22085 22088 22090 22093 22096 22099 22102 22104 22107 22110 22113 22115 22118 22121 22123 22126 22129 22132 22135 22138 22141 22144 22147 22150 22153 22156 22159 22162 22165 22168 22171 22174 22177 22180 22182 22184 22187 22190 22193 22195 22198 22201 22204 22207 22209 22212 22215 22218 22221 22224 22226 22228 22231 22234 22237 22240 22243 22246 22249 22252 22255 22257 22260 22263 22266 22269 22272 22275 22278 22281 22284 22287 22290 22293 22296 22299 22302 22305 22308 22311 22314 22317 22320 22323 22326 22329 22332 22335 22338 22340 22343 22345 22347 22350 22353 22356 22359 22362 22365 22368 22371 22374 22377 22380 22383 22386 22389 22392 22395 22398 22401 22404 22407 22410 22413 22416 22419 22422 22425 22428 22430 22433 22436 22438 22441 22444 22446 22449 22452 22454 22457 22459 22462 22465 22468 22471 22474 22477 22480 22482 22485 22488 22491 22494 22497 22500 22503 22506 22509 22512 22515 22518 22520 22523 22525 22528 22530 22533 22536 22539 22542 22545 22547 22550 22553 22556 22559 22561 22564 22567 22569 22572 22575 22578 22581 22584 22587 22590 22593 22595 22598 22601 22604 22607 22610 22613 22615 22618 22621 22624 22627 22629 22632 22635 22638 22640 22643 22646 22649 22652 22655 22658 22661 22664 22667 22670 22673 22676 22679 22682 22685 22688 22691 22694 22696 22699 22701 22704 22707 22710 22712 22715 22718 22721 22724 22727 22730 22733 22736 22739 22742 22745 22748 22751 22754 22757 22760 22763 22766 22769 22771 22774 22777 22780 22782 22785 22788 22791 22793 22796 22799 22802 22805 22808 22811 22814 22817 22820 22823 22826 22829 22832 22835 22838 22840 22843 22846 22849 22852 22854 22857 22860 22862 22865 22868 22871 22874 22877 22880 22882 22885 22887 22890 22892 22894 22896 22899 22902 22905 22907 22909 22912 22915 22918 22921 22924 22927 22930 22932 22935 22938 22941 22943 22946 22948 22951 22954 22957 22960 22963 22966 22969 22972 22975 22977 22980 22983 22986 22989 22992 22995 22998 23001 23003 23006 23009 23012 23015 23017 23020 23023 23026 23029 23032 23035 23038 23041 23044 23047 23050 23053 23056 23059 23062 23065 23068 23071 23074 23077 23080 23082 23084 23087 23090 23093 23096 23099 23102 23105 23108 23110 23113 23116 23119 23122 23125 23128 23131 23134 23137 23140 23142 23145 23148 23151 23154 23157 23160 23162 23165 23168 23171 23174 23177 23179 23182 23184 23187 23190 23192 23194 23197 23200 23203 23206 23209 23212 23215 23218 23221 23224 23227 23230 23233 23236 23239 23242 23245 23248 23251 23254 23257 23260 23263 23266 23269 23272 23275 23278 23281 23284 23287 23290 23293 23296 23299 23302 23305 23308 23311 23314 23317 23320 23323 23326 23329 23332 23335 23338 23340 23342 23345 23348 23350 23353 23356 23359 23362 23365 23367 23369 23372 23375 23377 23379 23382 23385 23388 23391 23394 23397 23400 23403 23406 23409 23411 23414 23417 23420 23423 23426 23429 23432 23435 23438 23441 23444 23447 23450 23453 23456 23458 23461 23464 23467 23470 23473 23476 23479 23482 23485 23488 23491 23494 23497 23499 23502 23504 23506 23508 23511 23514 23517 23520 23523 23526 23529 23532 23534 23536 23539 23542 23545 23548 23550 23553 23556 23559 23562 23565 23568 23571 23574 23576 23579 23582 23585 23588 23591 23594 23597 23600 23603 23606 23609 23612 23615 23618 23621 23624 23627 23629 23632 23635 23638 23641 23644 23647 23649 23652 23655 23657 23660 23663 23666 23669 23672 23675 23678 23681 23684 23687 23690 23693 23696 23699 23702 23705 23708 23711 23713 23716 23719 23722 23724 23727 23730 23732 23735 23737 23739 23742 23745 23747 23750 23753 23756 23758 23761 23764 23766 23769 23771 23773 23776 23779 23782 23785 23787 23790 23793 23796 23799 23802 23805 23807 23810 23812 23815 23818 23821 23823 23826 23829 23832 23835 23837 23840 23842 23844 23847 23850 23853 23856 23859 23861 23864 23866 23869 23871 23874 23876 23878 23881 23884 23887 23890 23893 23896 23899 23901 23904 23906 23909 23912 23914 23917 23920 23922 23925 23928 23931 23934 23937 23940 23943 23946 23949 23952 23955 23958 23961 23964 23967 23970 23973 23976 23979 23982 23985 23988 23991 23994 23997 24000 24003 24006 24009 24012 24015 24017 24020 24023 24026 24029 24032 24035 24038 24041 24044 24047 24050 24053 24056 24059 24062 24065 24068 24071 24074 24077 24080 24083 24086 24088 24091 24094 24097 24100 24103 24105 24107 24110 24113 24116 24119 24122 24125 24128 24131 24134 24137 24140 24143 24146 24149 24152 24155 24158 24161 24164 24167 24170 24172 24175 24178 24181 24184 24187 24190 24193 24196 24199 24202 24205 24208 24211 24213 24216 24218 24221 24224 24227 24229 24232 24235 24238 24241 24244 24247 24250 24253 24255 24258 24260 24263 24266 24269 24272 24275 24277 24280 24283 24286 24289 24292 24295 24298 24301 24304 24307 24310 24312 24315 24318 24321 24324 24327 24330 24333 24336 24339 24342 24345 24347 24350 24353 24356 24359 24362 24365 24368 24371 24373 24376 24379 24382 24385 24388 24391 24394 24397 24400 24403 24406 24409 24412 24415 24418 24421 24424 24427 24430 24433 24436 24439 24442 24445 24448 24451 24453 24456 24459 24461 24464 24467 24470 24473 24476 24479 24482 24485 24488 24491 24494 24497 24500 24503 24506 24509 24512 24515 24518 24521 24524 24527 24530 24533 24536 24539 24542 24545 24547 24550 24552 24555 24557 24560 24563 24566 24569 24572 24574 24577 24580 24583 24586 24588 24591 24594 24597 24599 24602 24605 24608 24611 24614 24617 24620 24623 24626 24629 24632 24635 24638 24641 24644 24647 24650 24653 24655 24657 24659 24662 24665 24668 24671 24674 24677 24680 24683 24686 24689 24692 24695 24698 24700 24703 24706 24709 24712 24715 24718 24721 24724 24727 24730 24733 24736 24738 24741 24744 24746 24749 24752 24755 24758 24761 24764 24767 24770 24773 24776 24779 24782 24785 24788 24791 24794 24797 24800 24803 24806 24809 24811 24813 24816 24819 24822 24825 24828 24831 24834 24837 24840 24843 24846 24849 24852 24855 24857 24860 24863 24865 24868 24871 24874 24877 24879 24882 24885 24888 24891 24894 24897 24899 24902 24905 24908 24911 24914 24917 24920 24923 24926 24929 24932 24935 24938 24941 24944 24947 24950 24953 24955 24958 24961 24964 24967 24970 24972 24975 24978 24981 24984 24987 24990 24993 24996 24999 25002 25005 25008 25011 25014 25017 25020 25023 25026 25029 25032 25035 25038 25041 25044 25047 25050 25053 25056 25058 25061 25063 25066 25069 25072 25075 25077 25079 25082 25085 25088 25091 25094 25097 25100 25103 25106 25109 25112 25115 25118 25121 25124 25127 25130 25133 25136 25139 25142 25145 25148 25151 25154 25157 25160 25163 25166 25169 25172 25175 25178 25181 25184 25186 25189 25192 25195 25198 25200 25203 25206 25209 25212 25215 25218 25221 25224 25227 25230 25233 25235 25238 25241 25244 25247 25250 25253 25256 25259 25262 25265 25268 25271 25274 25277 25280 25283 25286 25288 25290 25293 25295 25298 25301 25304 25307 25310 25313 25316 25319 25322 25325 25327 25330 25333 25336 25339 25342 25345 25348 25351 25354 25357 25360 25363 25366 25369 25372 25375 25378 25380 25383 25386 25389 25392 25394 25397 25400 25403 25406 25409 25412 25415 25418 25421 25424 25427 25430 25433 25436 25439 25442 25445 25448 25451 25454 25457 25460 25463 25466 25469 25472 25475 25478 25481 25484 25487 25490 25493 25496 25499 25502 25505 25508 25511 25514 25517 25520 25523 25526 25529 25532 25535 25538 25541 25544 25547 25550 25553 25556 25559 25562 25565 25568 25571 25574 25577 25580 25583 25586 25589 25592 25595 25598 25601 25604 25607 25610 25613 25616 25619 25622 25625 25628 25631 25634 25637 25639 25642 25645 25648 25651 25654 25657 25660 25662 25665 25668 25670 25673 25676 25679 25682 25685 25688 25691 25694 25697 25700 25703 25706 25708 25711 25713 25716 25718 25721 25724 25727 25730 25733 25736 25739 25742 25744 25747 25750 25753 25756 25759 25762 25765 25768 25771 25773 25776 25779 25782 25785 25788 25791 25794 25797 25800 25803 25806 25809 25812 25815 25818 25821 25824 25827 25830 25833 25836 25838 25841 25844 25847 25850 25853 25856 25859 25862 25865 25868 25871 25874 25876 25879 25882 25885 25888 25891 25893 25896 25899 25901 25904 25907 25910 25913 25915 25917 25920 25923 25925 25928 25931 25934 25937 25940 25943 25946 25948 25950 25953 25956 25959 25962 25965 25968 25971 25974 25977 25980 25983 25986 25988 25991 25994 25997 26000 26002 26005 26008 26011 26014 26017 26020 26023 26026 26028 26031 26034 26037 26040 26042 26045 26048 26051 26054 26056 26059 26062 26065 26068 26071 26074 26077 26079 26082 26085 26088 26091 26094 26096 26099 26102 26105 26107 26110 26113 26116 26119 26122 26124 26127 26130 26133 26136 26139 26142 26145 26148 26151 26154 26157 26160 26163 26166 26168 26171 26174 26176 26179 26182 26185 26188 26191 26194 26197 26200 26203 26206 26209 26212 26215 26218 26221 26224 26227 26230 26233 26236 26239 26241 26244 26247 26249 26252 26255 26257 26260 26263 26266 26269 26272 26275 26278 26281 26284 26287 26290 26293 26296 26299 26302 26305 26308 26311 26314 26317 26320 26323 26326 26329 26332 26335 26338 26341 26344 26347 26349 26352 26355 26358 26361 26363 26366 26369 26371 26374 26376 26379 26382 26385 26388 26390 26393 26395 26398 26401 26403 26406 26408 26411 26413 26415 26418 26421 26423 26426 26428 26431 26433 26436 26439 26441 26444 26447 26450 26453 26456 26459 26461 26464 26466 26469 26472 26474 26476 26479 26482 26484 26487 26489 26492 26495 26497 26500 26503 26505 26508 26511 26513 26515 26517 26520 26522 26525 26528 26531 26534 26537 26540 26543 26546 26548 26551 26554 26557 26560 26563 26566 26569 26571 26574 26577 26580 26583 26586 26589 26592 26595 26598 26601 26604 26607 26610 26613 26615 26618 26621 26624 26627 26630 26633 26636 26639 26642 26645 26648 26651 26654 26657 26660 26663 26666 26669 26672 26674 26677 26680 26683 26686 26689 26692 26695 26698 26701 26704 26707 26710 26713 26716 26719 26722 26725 26728 26731 26734 26737 26740 26743 26746 26749 26752 26755 26758 26761 26764 26767 26769 26772 26775 26778 26780 26783 26785 26787 26790 26792 26795 26798 26801 26803 26806 26809 26812 26815 26817 26819 26821 26824 26827 26830 26833 26836 26839 26842 26845 26848 26851 26854 26857 26860 26863 26866 26869 26872 26874 26877 26880 26883 26886 26889 26892 26895 26898 26901 26903 26906 26909 26912 26914 26917 26920 26923 26926 26929 26932 26935 26938 26941 26944 26947 26950 26952 26955 26958 26960 26963 26966 26969 26972 26975 26978 26981 26984 26987 26990 26993 26996 26999 27002 27005 27008 27011 27014 27017 27020 27023 27026 27028 27031 27034 27037 27040 27043 27046 27049 27052 27055 27058 27061 27064 27067 27070 27073 27076 27079 27082 27084 27087 27090 27093 27096 27099 27102 27105 27107 27110 27113 27116 27119 27121 27124 27127 27130 27133 27136 27139 27142 27145 27148 27151 27154 27157 27160 27163 27166 27169 27172 27175 27178 27181 27184 27187 27190 27193 27196 27199 27202 27205 27208 27211 27214 27217 27220 27223 27226 27228 27230 27233 27236 27239 27242 27244 27247 27249 27252 27255 27258 27261 27264 27266 27269 27272 27275 27278 27281 27284 27287 27290 27292 27294 27297 27300 27303 27306 27308 27311 27314 27317 27320 27323 27326 27329 27332 27335 27338 27341 27344 27347 27350 27353 27356 27359 27362 27365 27368 27371 27373 27376 27379 27382 27385 27388 27391 27393 27396 27399 27401 27404 27407 27410 27413 27416 27419 27422 27425 27428 27430 27433 27436 27439 27442 27445 27448 27451 27454 27456 27459 27462 27465 27468 27471 27474 27477 27480 27483 27486 27489 27492 27495 27498 27501 27504 27507 27509 27512 27515 27517 27520 27523 27526 27529 27532 27535 27538 27541 27544 27547 27550 27553 27556 27559 27562 27565 27568 27571 27574 27577 27580 27583 27586 27589 27592 27595 27598 27601 27604 27606 27609 27611 27614 27617 27620 27623 27626 27629 27632 27635 27638 27641 27644 27647 27650 27653 27656 27659 27662 27665 27668 27671 27674 27677 27679 27682 27685 27688 27690 27693 27696 27699 27702 27705 27708 27711 27714 27717 27720 27723 27726 27728 27731 27734 27737 27739 27741 27744 27747 27749 27752 27755 27758 27761 27764 27767 27770 27773 27776 27778 27781 27784 27787 27790 27793 27796 27799 27802 27805 27808 27811 27814 27817 27819 27822 27824 27827 27830 27833 27836 27839 27842 27845 27848 27851 27854 27857 27860 27863 27866 27869 27872 27875 27878 27881 27884 27887 27890 27893 27896 27899 27902 27905 27908 27911 27913 27916 27919 27922 27925 27928 27931 27933 27936 27939 27942 27945 27948 27951 27954 27957 27960 27963 27966 27969 27972 27975 27978 27981 27983 27986 27988 27991 27994 27997 28000 28003 28006 28009 28011 28014 28017 28020 28022 28025 28028 28031 28034 28036 28039 28042 28045 28048 28051 28054 28056 28059 28062 28065 28068 28070 28073 28075 28078 28081 28084 28087 28090 28093 28096 28099 28101 28103 28106 28109 28112 28114 28116 28119 28122 28125 28128 28131 28134 28137 28139 28141 28144 28146 28148 28151 28154 28157 28160 28162 28165 28167 28170 28173 28176 28179 28182 28185 28187 28190 28193 28196 28199 28201 28204 28207 28210 28213 28215 28218 28221 28224 28227 28230 28232 28235 28238 28240 28243 28246 28249 28252 28254 28257 28260 28263 28266 28269 28272 28275 28278 28281 28283 28285 28288 28291 28294 28297 28300 28303 28306 28309 28312 28315 28318 28321 28324 28326 28329 28331 28334 28337 28340 28343 28346 28349 28352 28355 28358 28361 28364 28367 28370 28373 28376 28379 28382 28385 28388 28391 28394 28396 28399 28402 28405 28408 28411 28414 28417 28420 28423 28426 28429 28432 28435 28438 28441 28444 28447 28450 28453 28456 28459 28462 28465 28468 28471 28474 28476 28479 28482 28485 28488 28491 28494 28497 28500 28502 28505 28507 28510 28513 28516 28519 28522 28525 28527 28530 28533 28536 28539 28542 28545 28548 28551 28554 28557 28560 28563 28566 28569 28572 28575 28578 28581 28584 28587 28590 28593 28596 28599 28602 28605 28607 28610 28613 28616 28619 28622 28625 28628 28631 28633 28636 28639 28641 28644 28647 28649 28652 28655 28658 28661 28664 28666 28669 28672 28675 28678 28681 28684 28687 28690 28693 28695 28698 28701 28704 28707 28710 28713 28716 28719 28722 28725 28728 28731 28734 28737 28740 28742 28745 28748 28751 28754 28757 28760 28763 28766 28768 28771 28774 28777 28780 28783 28786 28789 28792 28795 28798 28801 28804 28807 28810 28813 28816 28819 28822 28824 28827 28829 28832 28834 28837 28840 28842 28844 28847 28850 28853 28856 28859 28862 28865 28868 28871 28874 28877 28880 28883 28886 28888 28891 28894 28897 28900 28903 28906 28908 28911 28914 28917 28919 28922 28925 28928 28931 28934 28937 28940 28943 28946 28949 28952 28955 28957 28960 28963 28966 28969 28971 28973 28975 28978 28981 28984 28987 28990 28993 28996 28998 29001 29004 29006 29009 29011 29014 29016 29019 29022 29025 29028 29031 29033 29036 29039 29042 29045 29048 29051 29054 29057 29060 29063 29066 29069 29072 29075 29078 29081 29084 29087 29090 29093 29095 29098 29101 29104 29106 29109 29111 29113 29115 29118 29121 29124 29127 29130 29132 29135 29138 29141 29144 29147 29150 29153 29156 29159 29162 29165 29168 29171 29174 29177 29180 29183 29186 29189 29192 29195 29198 29201 29204 29207 29210 29212 29215 29218 29220 29223 29226 29229 29232 29235 29238 29241 29244 29246 29249 29251 29254 29257 29260 29263 29266 29269 29272 29275 29277 29280 29283 29286 29289 29291 29294 29297 29299 29302 29305 29307 29310 29313 29316 29318 29321 29324 29327 29330 29333 29336 29339 29342 29345 29348 29351 29354 29357 29360 29363 29366 29369 29372 29375 29378 29380 29383 29386 29389 29392 29395 29398 29400 29403 29406 29409 29412 29415 29417 29420 29423 29426 29429 29432 29434 29437 29439 29441 29444 29447 29450 29453 29456 29459 29462 29465 29468 29471 29474 29477 29479 29482 29485 29488 29491 29493 29496 29498 29500 29503 29506 29509 29511 29514 29517 29520 29523 29526 29529 29532 29535 29538 29541 29544 29547 29550 29553 29556 29559 29562 29565 29568 29571 29574 29577 29579 29582 29584 29587 29590 29592 29595 29598 29600 29603 29606 29608 29611 29614 29617 29619 29621 29624 29627 29630 29633 29636 29639 29642 29644 29647 29650 29653 29656 29659 29662 29665 29668 29670 29673 29676 29679 29682 29685 29688 29691 29693 29696 29699 29702 29704 29707 29709 29711 29714 29717 29720 29722 29725 29728 29731 29734 29737 29740 29743 29746 29749 29752 29755 29758 29761 29764 29767 29770 29773 29776 29779 29782 29785 29788 29790 29793 29796 29798 29801 29804 29807 29809 29812 29815 29818 29821 29824 29827 29830 29832 29834 29837 29840 29842 29845 29848 29851 29854 29857 29860 29863 29866 29869 29872 29875 29878 29881 29884 29887 29890 29893 29896 29899 29902 29905 29908 29911 29914 29917 29920 29923 29926 29929 29932 29935 29938 29941 29944 29947 29949 29952 29955 29958 29961 29964 29967 29970 29972 29975 29978 29980 29983 29986 29988 29991 29994 29997 30000 30003 30006 30009 30012 30015 30018 30021 30024 30027 30030 30033 30036 30039 30042 30045 30047 30050 30053 30056 30059 30061 30064 30067 30070 30073 30076 30079 30082 30085 30088 30091 30093 30096 30099 30102 30105 30107 30110 30113 30116 30119 30121 30123 30126 30128 30131 30134 30137 30140 30143 30146 30149 30152 30155 30158 30161 30164 30167 30170 30172 30175 30178 30181 30184 30187 30190 30193 30196 30199 30201 30204 30207 30210 30213 30216 30219 30222 30225 30228 30231 30234 30237 30240 30243 30246 30249 30252 30255 30258 30261 30264 30267 30270 30273 30276 30279 30282 30285 30288 30291 30294 30297 30300 30303 30306 30309 30312 30315 30318 30321 30324 30326 30329 30332 30335 30338 30340 30343 30346 30348 30351 30354 30357 30360 30363 30366 30368 30370 30373 30376 30379 30382 30384 30387 30390 30393 30396 30399 30402 30405 30408 30411 30414 30417 30420 30423 30426 30429 30432 30435 30438 30441 30444 30447 30450 30453 30456 30459 30462 30465 30468 30471 30474 30477 30480 30483 30486 30489 30492 30495 30498 30501 30504 30507 30510 30513 30516 30519 30522 30525 30528 30531 30534 30537 30540 30543 30546 30549 30552 30555 30558 30561 30564 30567 30569 30572 30575 30578 30581 30584 30586 30589 30591 30594 30597 30600 30603 30606 30609 30612 30615 30618 
</DataArray>
<DataArray type="UInt32" Name="types" format="ascii">
3 5 5 5 5 5 5 5 5 3 5 5 5 3 5 5 5 5 5 5 5 5 5 5 5 5 5 5 5 3 5 5 3 5 5 5 3 5 5 5 3 5 5 5 5 5 5 5 5 3 5 5 5 5 5 5 3 5 5 5 5 5 5 5 5 5 3 5 5 3 5 5 5 3 5 3 5 3 3 5 5 5 5 5 5 5 5 5 3 5 3 5 5 3 5 5 5 5 5 5 5 5 5 5 5 5 5 5 5 3 5 5 5 5 3 5 5 3 3 5 5 3 5 5 5 3 3 3 5 3 5 5 5 5 5 5 5 5 5 3 3 5 5 5 5 5 5 3 5 5 5 5 5 3 3 5 5 3 5 5 3 3 5 3 3 5 5 5 5 5 5 5 5 5 5 5 5 3 5 5 3 5 5 5 5 5 5 5 5 5 5 5 5 5 5 5 5 5 5 5 5 3 5 5 5 5 5 5 5 5 5 5 5 5 5 5 5 3 5 5 3 5 5 5 5 3 3 5 5 5 5 5 5 5 5 5 5 5 5 5 5 5 3 5 5 5 3 5 5 5 5 5 5 5 5 3 3 5 5 5 5 5 5 5 5 5 3 5 5 5 5 5 3 5 3 5 5 5 5 5 3 3 5 5 5 3 5 3 5 5 5 3 5 3 5 5 3 5 5 5 3 5 5 5 5 5 3 3 5 5 3 5 3 3 5 5 3 5 3 5 5 5 5 3 5 3 5 5 3 3 3 5 3 5 3 3 5 5 5 5 5 5 5 5 5 3 5 5 5 5 5 5 5 5 5 5 5 5 5 5 5 5 5 5 5 5 5 5 5 5 3 5 3 5 5 5 5 5 3 5 3 5 5 3 5 5 5 5 3 5 3 5 5 5 5 5 5 5 5 5 5 5 5 5 3 5 5 3 5 5 5 5 5 5 5 5 5 5 5 5 5 5 5 5 5 3 5 5 5 5 5 5 5 5 5 5 3 5 5 5 3 3 5 5 5 5 5 5 5 5 5 5 5 5 5 5 5 5 5 5 5 5 5 5 5 3 5 5 3 5 5 3 5 3 5 5 5 3 5 3 3 5 5 5 5 5 5 5 5 5 5 3 5 5 5 5 5 5 5 5 5 5 5 5 5 5 5 5 5 5 5 5 5 5 5 5 5 5 5 5 5 5 5 5 3 5 5 5 5 3 5 5 5 5 5 5 5 3 5 5 5 5 5 5 5 5 5 3 5 3 3 5 5 3 5 3 5 5 5 5 5 5 5 5 3 5 5 5 5 5 3 5 5 5 5 5 5 3 5 5 5 5 5 5 5 5 3 5 3 5 5 5 5 5 3 5 3 5 5 5 5 5 5 3 5 5 5 5 5 5 5 5 5 5 3 3 5 5 5 5 3 5 5 5 5 5 5 5 5 5 5 5 5 3 5 5 3 5 5 5 5 5 5 5 5 5 5 3 3 5 5 5 5 5 5 5 5 5 5 3 5 3 5 5 5 5 5 5 5 5 5 5 5 5 5 5 5 5 5 5 5 5 5 5 5 5 5 5 5 5 5 5 5 5 5 5 5 5 5 5 5 3 5 5 5 3 5 3 5 3 5 5 3 5 3 5 3 5 5 3 5 5 5 5 5 5 5 5 3 5 5 3 5 5 5 5 3 5 5 5 5 5 5 5 5 5 5 3 5 3 5 3 5 3 5 3 5 5 5 3 5 3 5 5 5 5 5 5 5 5 5 5 5 5 3 5 5 3 3 5 5 5 3 5 5 3 5 5 3 5 5 5 3 5 5 5 5 5 3 5 5 3 3 5 5 5 3 3 3 5 5 3 5 5 3 5 5 5 5 5 5 3 5 5 3 5 5 3 5 5 5 5 5 5 5 5 3 5 5 5 5 5 3 3 3 5 5 5 5 5 5 5 5 5 5 5 3 5 5 5 5 3 5 5 5 5 5 5 5 3 5 5 5 3 5 3 5 3 5 3 5 5 5 5 5 5 5 5 5 5 3 5 5 5 5 5 5 5 5 3 5 5 3 5 5 5 5 3 5 5 5 5 5 5 3 5 3 5 5 5 5 5 5 3 3 5 5 5 5 3 5 3 5 5 5 3 5 5 5 5 5 5 5 3 3 5 5 3 5 3 3 3 5 5 5 5 5 5 5 3 5 5 5 5 5 5 5 5 5 5 5 5 5 3 5 5 5 5 5 5 5 5 5 5 3 5 5 3 5 5 5 5 5 3 5 5 5 5 5 5 5 5 3 5 3 5 5 3 5 5 3 5 5 5 5 3 5 5 5 5 5 3 5 5 5 5 5 5 5 5 5 3 5 5 3 3 5 5 5 5 3 5 3 5 5 3 3 5 3 5 3 5 5 5 5 5 3 5 5 5 3 5 5 5 3 5 5 5 5 5 5 5 5 5 5 3 5 5 5 5 5 5 5 5 5 5 5 5 5 5 5 5 5 5 3 5 5 3 5 5 5 5 3 5 5 5 5 5 5 5 5 5 5 5 5 5 5 5 5 5 5 5 5 5 5 5 5 5 5 5 5 5 5 5 5 5 5 5 5 5 5 5 5 5 5 5 5 5 5 5 5 5 5 5 5 5 5 5 5 5 5 3 5 5 5 5 5 5 5 5 5 5 5 5 5 5 5 5 5 5 5 3 5 5 5 5 3 5 5 5 5 5 5 5 5 5 5 5 5 5 5 5 5 5 5 3 5 5 5 5 3 5 5 5 5 5 3 3 5 5 5 5 5 5 5 5 5 5 5 5 5 5 5 5 5 5 3 5 5 5 3 5 3 5 5 5 5 5 5 5 5 5 3 5 5 5 5 3 3 5 5 5 5 5 5 5 5 5 5 5 5 5 5 5 5 5 5 5 3 5 5 5 5 5 5 5 5 5 5 5 5 5 3 5 5 5 5 5 5 5 5 5 5 5 5 5 5 5 5 5 5 5 5 5 5 3 5 5 5 5 5 5 5 3 5 5 5 3 5 5 5 5 5 5 5 5 5 5 5 5 5 5 5 5 5 5 5 5 5 5 5 5 3 5 3 5 5 5 5 3 5 3 5 5 5 5 5 5 5 3 5 5 5 5 3 5 5 5 5 5 5 5 5 5 5 5 3 5 5 5 5 5 5 3 5 3 5 5 5 5 5 3 5 5 3 5 5 3 5 5 5 5 5 5 5 5 5 5 5 5 5 5 5 5 5 5 5 5 5 5 5 5 5 5 5 3 5 5 5 3 5 3 5 5 3 3 5 5 5 3 5 5 5 5 3 5 3 5 5 3 5 5 5 5 5 3 5 5 5 5 5 3 5 5 5 5 5 5 5 5 5 5 5 5 5 5 5 5 5 5 5 5 5 5 5 5 5 5 5 5 5 5 5 5 5 5 5 5 5 5 5 5 5 5 5 3 3 5 5 5 5 5 5 5 5 5 5 5 5 5 5 5 5 5 5 5 5 5 5 5 5 5 5 5 5 3 5 5 5 5 3 5 5 5 5 3 5 5 5 5 5 5 5 3 5 3 5 5 5 5 5 3 5 5 5 5 5 5 5 5 5 5 3 5 5 5 5 5 5 5 5 5 5 5 5 5 5 5 5 5 5 5 5 5 5 5 5 5 3 5 5 5 5 3 5 3 5 5 3 5 3 5 5 5 5 5 5 3 5 5 5 3 5 5 5 5 5 5 5 5 5 5 5 5 5 5 5 5 5 3 5 3 5 5 5 5 5 3 5 3 5 5 5 5 5 5 5 5 3 5 5 5 5 5 5 5 5 5 5 5 5 5 5 5 5 5 5 5 5 5 5 5 3 5 3 5 5 5 5 5 5 5 5 5 5 5 5 3 5 5 5 5 5 5 5 5 5 5 5 5 5 5 5 5 5 5 5 5 5 5 5 5 5 5 5 3 5 5 5 3 5 3 3 5 5 5 5 5 3 5 5 5 5 5 5 5 5 5 5 5 5 5 5 5 5 5 5 5 5 5 5 5 5 3 5 5 3 5 5 5 5 5 5 5 5 3 3 5 5 5 5 5 5 5 5 5 5 3 5 5 3 3 5 3 5 5 5 5 5 3 5 3 3 3 5 5 5 5 5 5 3 5 5 5 5 5 5 5 5 5 3 5 3 5 5 3 5 5 5 5 5 5 5 5 5 5 5 5 5 5 5 5 5 5 5 5 5 5 5 5 5 5 3 3 5 5 5 5 5 5 5 5 5 5 5 5 5 5 5 5 5 5 5 5 5 5 5 5 5 5 5 5 5 5 5 5 5 5 5 5 5 5 5 5 5 5 5 5 5 5 5 5 5 5 5 5 5 5 5 5 3 5 5 5 5 5 5 5 5 5 3 3 5 5 5 3 5 5 5 5 5 5 5 5 5 5 5 5 5 5 5 5 5 5 5 5 5 5 5 5 5 5 5 5 5 5 3 5 5 5 5 5 5 5 3 5 5 5 5 5 5 5 3 5 5 3 5 5 5 5 5 5 5 5 5 3 5 5 3 3 5 5 5 3 5 5 5 5 5 5 5 5 5 5 5 3 5 5 5 5 3 5 3 5 5 3 5 5 3 3 5 5 5 5 5 5 5 5 5 5 3 3 5 5 5 5 5 5 3 5 5 5 5 5 5 3 5 3 5 5 5 5 5 3 3 5 5 5 5 5 5 5 5 5 5 5 5 5 5 5 5 5 5 5 3 3 5 5 3 5 5 5 5 5 5 5 5 5 5 5 3 5 5 5 5 5 5 5 5 5 5 5 5 5 5 5 5 5 5 5 5 5 5 5 5 5 5 5 5 3 5 5 5 5 3 3 5 5 5 5 5 5 5 3 5 3 5 5 5 5 5 5 5 5 5 5 5 5 5 5 5 5 5 5 5 5 3 3 5 3 5 5 5 5 5 3 5 5 5 5 5 5 5 5 5 5 5 5 5 5 5 5 5 3 5 5 5 5 5 5 5 5 5 5 5 3 5 5 5 5 5 5 5 5 5 5 3 5 5 5 5 5 5 5 5 5 3 5 5 5 5 3 5 5 5 3 5 5 5 5 3 5 5 5 5 5 5 5 5 5 3 5 5 5 5 3 5 5 5 5 5 5 5 5 3 5 3 3 5 3 3 5 5 5 3 5 5 5 3 5 3 5 5 5 5 5 3 5 5 5 3 5 5 5 5 5 5 3 3 5 5 5 5 5 5 5 5 5 5 5 3 5 3 3 5 5 5 5 5 3 3 5 5 3 5 5 5 5 3 5 5 5 5 5 3 5 5 5 5 3 3 5 5 3 5 3 3 5 5 5 5 5 5 5 5 5 5 5 5 5 5 5 5 5 5 5 5 5 3 5 5 3 5 3 5 5 5 3 5 5 5 5 5 5 3 3 5 5 5 5 5 5 3 5 5 3 5 5 5 5 5 5 3 5 5 5 3 5 5 5 5 5 5 3 5 5 5 5 5 5 5 5 5 5 5 5 5 3 5 3 5 5 5 5 5 5 5 5 5 3 5 5 5 3 5 5 5 5 5 5 5 5 5 5 3 5 5 5 5 5 5 5 5 5 5 5 5 5 5 5 5 5 5 5 5 5 5 5 5 5 3 5 5 5 3 5 5 3 5 5 5 5 5 3 5 5 5 3 5 5 5 5 5 5 5 3 5 5 5 5 5 5 5 5 5 5 5 5 5 5 5 5 5 3 5 3 5 5 5 5 5 5 5 5 5 3 5 3 5 3 5 3 3 5 5 5 5 3 5 5 5 5 3 5 5 5 5 5 3 5 3 5 5 3 5 5 5 5 5 5 5 5 5 5 5 5 5 5 5 5 5 3 5 5 5 5 5 5 3 5 5 5 5 5 3 5 5 5 5 5 5 5 3 5 5 3 5 5 5 5 5 5 3 5 5 5 3 5 5 5 5 5 5 5 5 5 5 5 5 5 5 5 5 5 3 5 5 5 5 5 3 3 5 5 5 5 5 3 5 3 5 3 5 3 3 5 5 5 3 3 5 5 5 5 5 5 5 5 5 5 5 5 5 5 5 5 5 5 5 5 5 5 5 5 5 5 5 5 5 5 5 5 5 5 5 5 5 5 3 5 5 5 5 5 5 5 3 5 3 5 5 5 5 5 5 3 5 5 5 3 5 5 5 3 3 5 3 5 5 5 5 5 5 3 5 5 3 5 5 5 5 5 5 5 5 5 5 5 5 3 3 3 5 5 5 3 5 5 5 5 5 5 5 5 5 5 5 5 5 5 5 5 5 5 5 5 5 5 3 5 5 5 5 3 5 5 5 5 5 5 5 3 5 5 5 5 5 3 5 5 5 5 5 3 5 5 5 5 5 5 5 5 5 3 5 5 5 5 3 5 5 5 5 5 5 5 5 5 5 3 5 5 3 5 5 5 5 5 5 5 5 5 5 5 5 5 5 5 5 5 5 5 5 3 5 5 5 5 3 5 5 5 5 5 5 5 5 3 5 5 5 5 5 3 5 5 3 5 5 5 5 5 5 5 5 5 5 5 5 3 5 5 5 5 5 5 5 5 5 5 5 5 5 5 5 5 5 5 5 5 5 5 5 5 5 5 5 5 3 5 5 5 5 5 5 5 5 5 5 5 5 5 5 3 5 5 5 5 5 5 5 5 5 5 5 5 5 5 5 5 5 5 5 3 5 5 5 5 5 5 5 3 5 5 5 5 5 5 5 5 5 5 5 5 5 5 5 5 5 5 5 5 5 5 5 5 3 5 5 5 5 5 3 5 5 5 5 5 5 5 5 5 5 3 5 5 3 5 3 5 5 5 5 5 5 5 3 5 3 5 3 5 5 5 5 5 5 5 5 5 5 5 5 5 5 5 5 5 5 5 5 5 5 5 5 5 5 5 5 5 5 5 5 5 5 5 5 3 5 5 5 5 5 5 5 5 5 5 5 5 5 5 5 5 5 5 5 5 5 5 5 5 5 5 5 5 5 5 5 3 5 5 5 5 5 5 3 3 5 5 5 5 5 5 5 5 5 5 5 5 5 3 5 5 5 5 5 5 5 5 5 5 3 3 5 3 5 5 5 3 5 3 3 5 3 5 5 5 5 5 5 5 3 3 5 5 5 5 3 5 5 5 5 3 5 3 5 3 3 5 3 5 5 5 5 5 3 5 3 3 3 3 5 5 5 5 5 3 5 5 3 3 5 5 5 3 5 5 3 5 5 5 5 3 5 5 3 5 5 3 5 5 5 5 5 5 5 5 5 5 5 5 5 5 3 5 3 5 5 5 5 5 3 5 5 3 5 5 5 5 5 3 5 5 5 5 5 5 5 5 5 5 3 5 5 5 5 5 5 5 5 5 5 5 3 5 5 5 5 5 5 3 5 5 5 5 5 5 5 5 5 5 5 5 5 5 3 5 5 5 3 5 5 5 5 5 5 5 3 5 3 5 5 5 5 5 5 5 5 5 5 5 5 5 5 5 5 5 5 5 5 5 5 5 5 5 5 5 5 5 5 5 5 5 5 5 5 3 5 3 5 5 3 5 3 5 5 5 5 5 5 3 5 5 3 3 5 5 5 5 5 5 3 5 5 5 5 5 5 5 3 5 5 5 5 5 5 5 5 5 5 5 5 5 5 5 5 5 5 5 3 5 5 5 3 5 3 5 3 5 5 5 5 3 5 5 5 5 5 5 3 5 5 5 5 5 5 3 5 5 3 5 5 5 5 5 5 3 5 5 5 5 5 5 5 5 5 3 5 3 5 5 5 5 5 3 3 5 5 5 3 3 5 5 5 5 5 5 3 5 5 3 3 5 5 3 5 5 3 5 5 5 5 3 5 5 5 5 5 5 3 5 5 5 5 5 5 5 5 5 5 3 5 5 5 3 3 5 5 5 5 5 5 5 5 5 3 5 5 5 5 5 5 5 5 5 5 5 3 3 5 5 5 5 3 5 5 5 5 3 5 5 5 5 3 5 5 5 3 5 5 5 5 3 5 5 5 5 5 3 5 5 5 5 3 5 5 5 5 5 5 5 5 5 5 5 5 5 5 5 5 5 5 5 5 5 5 5 5 5 5 5 5 5 5 5 5 3 5 5 5 5 3 5 5 5 5 5 5 3 5 5 5 3 5 3 5 5 5 5 5 5 5 5 5 5 5 5 5 5 5 5 5 5 5 5 5 5 5 3 5 3 5 5 5 3 5 5 5 5 5 5 5 5 5 5 5 5 5 3 5 5 3 5 5 3 3 5 3 5 5 5 5 5 5 5 5 5 5 5 5 5 5 5 5 5 3 5 5 5 5 5 3 5 5 5 5 5 5 5 3 5 5 5 5 5 5 5 3 5 5 5 5 5 5 5 5 5 5 5 5 5 5 5 3 5 5 5 3 5 5 5 5 5 5 5 5 5 5 5 3 5 5 5 5 5 5 3 5 5 3 5 3 5 5 5 3 5 5 5 5 5 5 5 5 5 5 5 3 5 5 5 5 5 3 5 5 5 3 5 5 5 3 5 5 5 5 5 3 5 3 5 5 5 5 5 5 5 5 3 5 3 5 5 3 5 3 5 3 5 5 5 5 5 5 5 5 5 5 3 5 3 5 5 5 5 3 5 5 5 3 3 5 5 5 3 5 3 3 5 5 3 3 5 3 3 5 5 3 3 5 5 3 5 5 3 5 3 5 5 3 5 5 3 5 3 5 5 5 3 5 3 5 5 3 3 5 5 5 3 3 5 3 5 5 5 5 5 5 5 5 3 5 5 3 3 5 3 5 3 3 5 5 5 3 5 5 3 5 5 5 5 5 5 3 3 5 5 5 5 5 5 5 3 3 5 5 5 5 3 5 5 5 3 5 5 3 5 5 5 5 5 3 5 5 3 5 5 5 3 3 5 5 3 5 5 5 3 5 5 5 3 3 5 5 3 5 5 5 5 3 3 5 5 3 3 5 3 3 5 5 5 5 5 5 3 5 5 5 5 5 5 5 5 5 5 3 3 5 5 5 5 5 5 5 3 5 5 5 5 5 5 5 5 5 3 5 5 3 5 5 3 5 5 5 5 5 5 5 5 5 5 5 5 5 5 5 5 5 5 3 3 5 5 5 5 3 5 5 3 5 5 5 5 5 5 5 5 5 3 5 5 3 5 5 5 5 5 5 5 5 5 5 5 3 5 3 5 5 5 5 5 5 5 5 5 5 3 5 5 5 5 5 5 5 5 5 5 5 5 5 5 5 5 5 5 5 5 5 5 5 5 5 5 5 5 5 5 5 5 5 5 5 5 5 5 5 3 5 5 5 5 5 5 5 5 5 3 5 5 3 5 5 5 5 5 5 5 5 5 5 5 5 5 5 5 5 3 5 3 5 5 3 5 5 5 3 3 5 3 3 5 3 5 5 3 5 5 3 5 5 5 5 5 5 5 5 5 5 5 5 5 5 5 5 5 5 5 5 5 3 5 5 5 5 5 5 5 5 5 5 5 5 5 5 5 5 5 5 5 3 5 5 5 5 5 3 5 5 5 5 5 5 5 5 5 5 5 5 5 5 5 5 5 5 5 5 5 5 5 5 3 5 5 5 5 5 5 3 5 5 5 5 5 5 5 5 5 5 5 5 5 5 5 3 5 5 5 3 3 5 5 5 3 5 5 5 5 5 5 5 5 3 5 5 5 5 3 5 5 5 5 5 5 5 5 5 5 5 5 5 3 5 5 5 5 5 5 5 5 5 5 5 5 5 5 5 5 5 5 5 5 5 5 5 5 5 5 5 3 5 5 5 5 5 5 5 5 5 5 5 5 5 5 5 3 3 5 5 5 3 5 5 5 5 5 5 5 5 5 5 5 5 5 5 5 5 5 5 5 5 5 5 5 5 5 5 5 5 5 5 3 5 5 5 5 5 5 5 5 5 5 5 5 5 5 5 5 5 5 5 5 5 5 5 5 5 3 5 5 5 5 5 5 5 3 5 5 5 3 5 5 3 5 5 5 5 5 5 5 5 3 3 5 5 5 5 5 3 5 5 5 5 5 5 5 5 5 5 5 5 5 5 5 5 5 5 5 3 5 3 5 3 5 5 5 3 5 3 5 5 5 5 5 5 5 5 5 5 5 5 3 5 5 5 5 3 5 5 3 5 3 5 5 3 5 5 5 3 5 5 5 5 5 5 5 5 5 3 5 5 5 5 3 5 5 5 5 3 5 5 5 5 5 5 3 5 3 5 3 5 5 5 3 5 5 5 5 5 5 3 3 5 5 5 5 5 3 5 5 5 5 5 5 5 5 5 5 5 5 5 5 5 5 5 5 5 3 5 5 5 5 5 5 5 5 5 3 5 3 5 3 5 5 5 5 5 5 5 5 5 5 5 5 3 5 5 3 5 5 5 5 5 5 5 5 5 3 5 3 5 5 5 5 5 5 3 5 5 5 5 5 5 5 5 5 5 5 5 5 5 5 5 5 5 5 5 5 5 5 5 5 5 5 5 5 5 5 5 5 5 5 5 5 5 5 5 5 3 5 5 3 5 3 5 5 5 3 3 5 5 3 5 5 5 5 5 5 5 5 5 5 5 5 3 5 5 5 5 5 5 5 5 5 5 5 5 3 5 5 5 5 5 5 5 5 5 5 5 5 5 5 5 3 5 5 5 5 5 3 5 5 5 5 5 5 5 5 5 3 5 5 5 5 3 5 5 5 5 5 5 5 5 5 5 5 3 5 3 5 3 5 5 5 3 5 5 5 5 5 5 5 5 5 5 5 5 5 5 5 5 5 5 5 5 3 5 5 5 5 5 5 5 5 5 5 5 5 5 5 5 5 5 5 3 5 5 5 5 5 3 5 5 5 5 5 5 5 5 3 5 5 3 5 5 5 5 5 5 5 3 5 5 5 5 5 5 5 5 5 3 5 5 5 5 5 5 5 5 5 5 5 5 5 5 5 5 5 5 5 5 5 5 5 5 3 5 3 5 5 3 5 5 5 5 5 5 5 5 3 5 5 5 5 5 5 3 5 5 5 5 5 5 5 5 5 5 5 5 3 5 5 5 5 5 5 5 5 5 5 5 5 5 5 3 5 5 5 3 5 5 5 5 3 5 5 5 5 5 5 5 5 5 5 5 5 5 5 5 5 5 5 5 5 5 5 5 5 5 5 3 5 5 3 5 5 5 5 5 5 5 5 5 3 5 5 3 5 5 3 5 5 5 5 5 5 5 5 5 5 5 5 5 5 5 5 5 5 5 5 5 5 5 5 5 5 5 5 5 5 5 5 5 5 5 5 5 5 5 5 5 5 5 5 5 5 5 5 5 5 5 5 5 5 5 5 5 5 5 5 5 5 5 3 5 5 5 5 5 5 3 5 5 5 5 5 5 5 5 5 5 5 3 3 5 5 3 5 3 5 5 3 5 5 3 5 5 5 5 5 5 5 5 3 5 5 5 5 5 5 5 5 5 3 5 5 5 5 3 5 5 5 5 5 5 5 5 5 5 5 5 5 5 5 3 5 5 5 5 3 5 3 5 5 5 3 5 5 3 5 5 5 5 5 5 5 5 5 5 5 3 5 5 3 5 5 5 3 5 5 3 3 5 5 3 5 5 5 5 5 5 5 5 3 5 5 5 5 3 5 3 5 3 5 5 5 5 3 5 5 5 3 5 5 5 5 5 5 5 5 5 5 5 5 5 5 5 5 5 5 3 5 5 5 5 5 5 5 5 5 5 5 5 5 5 5 5 5 5 5 5 5 5 5 5 5 5 5 5 5 5 5 5 5 5 5 5 5 5 5 5 3 5 5 5 5 5 3 5 5 5 5 5 5 5 5 5 5 5 5 5 3 5 5 3 5 5 5 3 5 3 5 5 5 5 3 5 5 5 5 5 5 5 5 5 3 5 5 3 3 5 3 5 5 5 5 5 5 5 5 5 5 5 5 5 5 5 5 5 5 5 5 5 5 5 3 5 5 5 3 5 5 5 5 5 5 5 3 5 5 5 5 5 5 5 5 5 5 5 5 5 5 5 5 5 5 5 5 5 5 5 3 5 5 5 5 5 3 5 3 3 5 5 5 3 5 5 3 5 5 5 5 5 5 5 5 5 5 5 3 5 5 5 3 5 3 5 5 5 5 5 3 5 3 5 3 5 5 5 5 5 5 5 5 3 3 3 5 5 3 5 5 5 5 5 5 5 5 5 5 5 5 5 5 5 5 5 5 5 5 5 5 5 5 5 5 5 5 5 5 5 5 5 5 5 5 5 3 5 5 5 5 5 5 5 3 5 5 3 5 5 5 5 5 5 5 5 5 5 5 5 5 5 5 5 5 5 5 5 5 5 5 3 5 5 5 5 5 5 5 5 5 5 3 5 5 5 5 3 5 5 5 5 3 5 3 3 5 5 5 5 3 5 5 3 5 5 3 3 5 5 5 5 5 5 5 3 5 5 5 5 5 5 5 5 5 5 5 5 5 3 5 5 5 5 5 5 5 3 3 5 3 5 3 5 5 5 3 5 5 5 5 5 3 5 5 3 5 5 5 5 5 5 5 3 5 5 5 5 5 5 5 5 3 5 5 5 3 5 5 5 5 5 3 3 5 5 3 5 5 5 5 5 5 5 5 5 5 5 5 5 5 3 5 5 3 5 3 5 5 5 5 3 5 5 5 5 5 3 5 5 3 3 5 5 5 5 3 5 5 5 5 5 5 5 5 3 5 3 5 5 5 5 5 5 5 5 3 5 5 5 5 3 5 5 5 5 5 5 5 5 5 5 5 5 5 5 5 5 5 5 5 5 5 5 5 5 5 5 5 5 5 5 5 5 5 3 5 5 5 5 5 5 5 3 5 5 5 5 5 5 5 5 5 5 5 5 3 5 5 5 5 3 5 5 5 5 5 5 5 5 5 5 5 5 5 3 5 5 3 5 5 5 5 3 5 5 5 5 5 5 5 5 5 5 5 3 5 3 5 5 3 5 5 5 5 3 5 5 5 5 5 5 5 5 5 5 5 5 5 5 5 5 5 5 5 5 5 5 5 5 5 5 5 5 3 5 5 5 5 3 5 5 5 5 5 5 5 5 5 3 5 5 5 3 5 5 5 5 5 5 3 5 3 5 3 5 5 5 5 5 5 5 5 5 5 5 5 5 5 5 5 5 5 5 5 5 5 5 5 5 5 5 5 5 5 5 5 5 5 5 3 5 3 5 5 5 5 5 5 5 5 3 5 5 5 5 5 5 5 5 5 5 5 5 3 5 5 5 5 5 5 5 5 5 5 5 5 5 3 5 5 3 5 5 5 5 3 5 5 5 5 3 5 5 5 5 5 3 3 5 3 5 5 3 5 5 5 5 3 5 3 5 5 5 5 5 5 5 5 3 5 5 5 5 3 5 5 5 5 5 5 5 5 5 5 5 5 5 5 5 5 5 5 5 5 5 5 3 5 5 5 5 5 5 5 5 5 5 5 5 5 5 5 5 5 5 5 5 5 3 5 5 5 5 5 5 5 3 5 3 5 5 5 5 5 5 5 5 5 5 5 5 5 5 5 5 5 5 5 5 5 5 5 5 5 5 3 5 5 5 5 5 3 5 3 5 5 5 5 3 3 3 5 3 5 5 5 3 5 5 5 5 3 5 3 5 5 5 5 3 5 5 5 3 3 3 5 3 5 3 5 5 3 5 5 5 5 5 5 5 5 5 5 3 5 3 5 3 5 5 5 5 3 5 5 5 5 3 5 5 5 5 5 5 5 5 5 5 3 5 3 5 5 3 5 5 3 5 5 5 5 5 3 5 5 5 5 5 5 5 5 5 5 5 5 3 5 5 5 3 5 5 5 5 5 3 5 5 5 5 5 5 5 5 5 5 5 5 5 5 5 5 5 5 5 5 5 3 5 5 5 5 3 5 5 5 3 5 3 5 5 3 5 3 5 5 5 5 5 5 3 5 5 5 5 3 5 3 5 5 5 5 5 5 5 3 5 5 5 5 5 5 5 3 5 5 5 5 5 5 5 5 5 5 5 5 5 5 5 5 5 3 5 5 5 3 5 5 5 5 5 5 5 5 5 5 5 5 5 5 3 5 5 5 5 5 5 5 5 5 5 5 5 5 5 5 5 5 5 5 5 5 5 5 5 5 5 5 3 5 3 5 5 5 3 5 5 5 3 5 5 3 3 5 5 5 5 5 5 5 5 3 5 5 3 5 5 5 5 3 5 3 5 5 5 3 5 5 5 5 5 5 5 5 5 5 3 5 5 3 5 5 3 5 5 5 5 5 5 5 3 5 5 3 3 5 5 5 3 5 5 5 5 5 5 3 5 5 5 5 3 5 5 5 3 5 5 5 5 3 5 5 3 5 5 5 5 5 5 5 5 5 5 5 3 5 5 5 5 3 5 3 5 3 5 3 5 5 5 5 5 5 5 5 5 5 5 3 3 5 5 5 5 5 5 3 5 5 3 5 5 5 5 5 5 3 5 5 5 3 5 3 5 5 5 3 5 5 5 5 5 5 3 5 5 5 5 5 5 3 5 3 5 5 5 3 5 5 5 5 3 5 5 5 5 5 5 5 3 5 3 5 3 5 5 5 3 3 5 5 3 5 5 5 5 5 3 5 3 3 3 3 5 5 5 5 5 3 3 5 5 3 5 5 5 3 5 5 5 5 5 5 5 5 5 3 5 5 5 3 5 5 5 5 5 5 5 3 5 3 5 5 5 5 3 5 3 5 5 5 5 3 5 5 5 5 5 5 5 5 5 3 5 5 5 5 5 5 5 5 5 5 5 5 5 5 5 5 5 5 5 5 5 3 5 5 5 5 3 5 5 5 5 5 3 5 3 5 5 5 5 5 5 5 5 5 5 5 3 5 3 5 3 3 5 3 5 3 5 5 5 3 5 5 5 3 5 5 5 5 3 5 3 5 5 5 5 5 5 5 5 3 5 5 5 5 5 5 5 5 3 5 5 5 5 5 5 5 5 5 3 5 5 3 5 5 5 3 5 5 5 5 5 5 5 5 5 5 5 5 3 5 5 5 5 3 5 5 5 5 5 5 3 5 5 5 5 3 5 3 5 5 5 5 5 5 5 3 5 5 5 3 3 5 5 5 5 3 5 3 5 5 3 5 5 5 5 5 5 5 5 5 5 5 5 5 5 5 5 5 5 5 5 5 5 5 5 5 5 5 5 5 5 5 5 5 5 5 3 5 5 5 3 5 5 5 5 5 5 5 5 5 5 5 5 5 3 5 3 5 5 5 5 5 5 5 5 5 5 5 5 5 3 5 5 3 5 5 5 5 5 3 5 5 5 5 5 5 5 5 5 5 5 5 5 5 5 5 5 5 5 3 3 5 5 3 5 5 3 5 5 5 5 5 5 5 3 5 5 5 5 3 5 5 5 5 5 5 5 5 5 5 5 5 5 5 3 5 5 3 5 5 5 5 5 5 5 3 3 5 5 5 5 5 5 5 5 5 5 5 5 5 5 5 5 3 5 5 5 5 3 5 5 3 5 5 3 5 5 5 5 5 5 5 5 5 5 5 5 3 5 5 5 5 3 5 5 5 5 5 5 5 5 5 3 3 3 5 5 5 3 5 5 3 3 5 3 5 5 5 3 5 5 5 5 5 5 5 5 5 5 5 5 5 5 5 5 5 5 5 5 5 5 5 5 5 5 5 5 5 5 5 5 5 5 5 5 5 5 5 5 5 5 5 5 5 5 5 5 3 5 3 5 5 5 5 5 5 5 5 5 3 5 5 5 5 5 5 3 5 5 5 5 5 3 5 5 5 5 5 5 5 5 5 5 5 5 5 5 5 3 5 5 5 5 5 5 5 3 5 5 5 5 5 3 3 5 5 5 5 3 5 5 5 5 5 5 5 5 5 5 5 5 5 5 5 5 5 5 5 5 5 3 5 5 5 5 5 5 3 5 5 5 3 5 5 5 5 5 5 5 5 5 5 5 5 5 5 5 5 5 5 3 5 3 5 5 5 5 5 3 3 5 5 5 3 5 5 5 5 5 5 3 5 5 5 5 5 3 5 3 5 5 3 5 5 5 5 3 5 5 5 5 3 5 5 5 5 3 5 5 5 5 5 5 5 5 5 5 5 5 5 3 5 5 5 5 5 5 5 5 5 5 5 5 5 5 5 5 3 5 5 5 5 3 5 5 5 5 3 5 5 5 5 5 5 5 5 5 5 3 5 5 5 5 3 5 5 5 5 5 5 5 5 5 5 5 5 5 5 5 3 5 5 5 3 5 5 5 5 5 5 5 5 5 5 5 5 5 5 3 5 5 5 5 5 5 5 5 5 5 5 3 5 5 3 5 5 5 5 5 5 3 3 5 5 5 5 3 5 3 5 5 5 3 5 5 3 5 5 5 5 5 5 5 5 5 5 5 5 5 5 5 5 3 5 5 5 5 5 5 5 5 3 3 5 5 5 3 3 5 3 5 3 5 5 5 5 3 5 5 5 5 5 5 5 5 5 5 5 5 5 3 5 3 5 5 5 5 5 5 5 5 3 3 5 5 3 3 3 5 5 5 5 5 5 3 5 5 3 5 5 3 3 3 3 5 5 5 5 5 5 5 5 5 5 5 5 5 3 5 5 3 5 3 5 5 5 5 5 5 5 3 3 5 5 3 5 5 3 5 5 5 5 3 3 3 3 5 5 5 5 5 5 5 5 5 5 5 5 5 5 3 5 5 3 5 5 5 5 3 5 5 5 3 5 5 3 5 5 3 5 5 3 3 5 3 5 5 5 5 5 5 3 5 5 5 5 3 5 5 5 5 5 3 5 5 3 5 3 3 5 5 5 3 5 5 5 5 5 3 5 5 5 3 5 5 5 3 5 5 5 5 5 5 5 3 5 5 5 5 5 3 5 5 5 5 5 5 5 3 5 3 3 5 5 3 5 5 5 5 5 5 3 5 5 5 5 5 5 3 5 5 5 5 5 5 3 5 3 5 3 5 5 3 5 5 5 5 3 3 3 3 5 5 5 5 5 5 5 5 3 5 5 5 3 5 3 5 5 5 5 5 5 5 5 5 5 5 5 5 5 5 5 3 5 3 5 5 5 5 5 5 5 5 3 5 5 5 5 5 3 5 5 3 5 5 5 5 5 5 3 3 5 5 3 5 5 5 5 5 5 5 5 5 5 5 3 3 5 5 5 5 3 5 5 5 5 5 5 5 5 3 5 5 5 5 3 5 5 5 5 5 5 3 5 3 5 3 5 5 5 5 5 5 5 5 5 5 5 5 5 5 5 5 5 5 3 5 5 5 5 5 5 5 5 5 5 5 5 5 5 5 5 5 3 3 5 5 5 5 5 5 5 5 5 5 5 5 5 5 5 5 5 5 5 5 5 5 5 5 5 5 5 5 5 5 5 5 5 5 5 5 5 5 5 5 5 5 5 5 5 3 5 3 5 5 5 5 5 5 5 3 5 5 5 3 5 3 3 3 5 3 3 5 5 3 3 3 5 5 5 5 5 3 5 3 3 5 5 5 5 5 5 5 3 5 5 3 5 5 3 3 5 5 5 5 5 5 3 5 5 3 3 5 5 3 5 5 5 3 5 5 5 5 3 5 5 5 3 5 5 3 5 5 5 5 5 5 5 5 5 5 5 5 5 5 5 5 5 5 5 3 3 5 5 5 3 5 5 5 5 3 5 5 5 5 5 3 3 5 5 5 5 5 5 5 5 5 3 5 5 5 5 5 5 5 5 5 5 5 5 5 5 5 5 5 5 5 5 5 5 5 5 5 5 5 3 5 3 3 5 5 5 5 5 5 5 5 5 5 5 5 5 5 5 5 5 5 5 5 5 5 5 5 5 5 5 3 5 5 3 5 5 3 5 5 3 5 3 5 5 5 5 5 5 5 3 5 5 5 5 5 5 5 5 5 5 5 5 3 5 3 5 3 5 5 5 5 5 3 5 5 5 5 3 5 5 3 5 5 5 5 5 5 5 5 3 5 5 5 5 5 5 3 5 5 5 5 3 5 5 5 3 5 5 5 5 5 5 5 5 5 5 5 5 5 5 5 5 5 5 3 5 3 5 5 5 3 5 5 5 5 5 5 5 5 5 5 5 5 5 5 5 5 5 5 5 3 5 5 5 3 5 5 5 3 5 5 5 5 5 5 5 5 5 5 5 5 5 5 5 3 5 5 5 5 3 5 5 3 5 5 5 5 5 5 3 5 3 5 3 3 3 5 5 5 3 3 5 5 5 5 5 5 5 3 5 5 5 3 5 3 5 5 5 5 5 5 5 5 5 3 5 5 5 5 5 5 5 5 3 5 5 5 5 3 5 5 5 5 5 5 5 5 5 5 5 5 5 5 5 5 5 5 5 5 5 3 3 5 5 5 5 5 5 5 5 3 5 5 5 5 5 5 5 5 5 5 3 5 5 5 5 5 5 3 5 5 5 5 5 3 5 3 5 5 3 3 5 5 5 5 5 5 5 5 5 5 5 5 5 5 5 5 5 5 5 5 5 5 5 5 5 5 5 5 5 5 5 5 5 5 5 5 5 5 5 5 5 5 5 5 5 5 5 5 3 3 5 5 3 5 5 5 5 5 3 3 5 5 3 3 5 5 5 5 5 5 5 5 5 5 3 5 5 5 5 5 5 5 5 5 5 5 5 5 5 5 3 5 5 5 5 5 5 5 5 5 5 5 5 5 3 5 3 3 3 5 5 5 5 5 5 5 5 3 3 5 5 5 5 3 5 5 5 5 5 5 5 5 3 5 5 5 5 5 5 5 5 5 5 5 5 5 5 5 5 5 3 5 5 5 5 5 5 3 5 5 3 5 5 5 5 5 5 5 5 5 5 5 5 5 5 5 5 5 5 3 5 5 5 3 5 5 3 5 3 3 5 5 3 5 5 5 3 5 5 3 5 3 3 5 5 5 5 3 5 5 5 5 5 5 3 5 3 5 5 5 3 5 5 5 5 3 5 3 3 5 5 5 5 5 3 5 3 5 3 5 3 3 5 5 5 5 5 5 5 3 5 3 5 5 3 5 5 3 5 5 5 5 5 5 5 5 5 5 5 5 5 5 5 5 5 5 5 5 5 5 5 5 5 5 5 5 5 5 5 3 5 5 5 5 5 5 5 5 5 5 5 5 5 5 5 5 5 5 5 5 5 5 5 3 5 5 5 5 5 3 3 5 5 5 5 5 5 5 5 5 5 5 5 5 5 5 5 5 5 5 5 5 3 5 5 5 5 5 5 5 5 5 5 5 5 5 3 5 3 5 5 5 3 5 5 5 5 5 5 5 5 3 5 3 5 5 5 5 5 3 5 5 5 5 5 5 5 5 5 5 5 3 5 5 5 5 5 5 5 5 5 5 5 3 5 5 5 5 5 5 5 5 3 5 5 5 5 5 5 5 5 5 5 5 5 5 5 5 5 5 5 5 5 5 5 5 5 5 5 3 5 5 3 5 5 5 5 5 5 5 5 5 5 5 5 5 5 5 5 5 5 5 5 5 5 5 5 5 5 5 5 3 5 3 5 3 5 5 5 5 5 3 5 5 5 5 3 5 5 5 3 5 5 5 5 5 5 5 5 5 5 5 5 5 5 5 5 5 5 3 3 3 5 5 5 5 5 5 5 5 5 5 5 5 5 3 5 5 5 5 5 5 5 5 5 5 5 5 3 5 5 3 5 5 5 5 5 5 5 5 5 5 5 5 5 5 5 5 5 5 5 5 5 3 3 5 5 5 5 5 5 5 5 5 5 5 5 5 5 3 5 5 3 5 5 5 5 3 5 5 5 5 5 5 3 5 5 5 5 5 5 5 5 5 5 5 5 5 5 5 5 5 5 3 5 5 5 5 5 3 5 5 5 5 5 5 5 5 5 5 5 5 5 5 5 5 5 5 5 5 5 5 5 5 5 5 5 5 3 5 3 5 5 5 5 3 3 5 5 5 5 5 5 5 5 5 5 5 5 5 5 5 5 5 5 5 5 5 5 5 5 5 5 5 5 5 5 5 5 5 5 5 3 5 5 5 5 3 5 5 5 5 5 5 5 5 5 5 5 3 5 5 5 5 5 5 5 5 5 5 5 5 5 5 5 5 5 3 3 5 3 5 5 5 5 5 5 5 5 5 5 3 5 5 5 5 5 5 5 5 5 5 5 5 5 5 5 5 5 3 5 5 5 5 3 5 5 5 5 5 5 5 5 5 5 5 5 5 5 5 5 5 5 5 5 5 5 5 5 5 5 5 5 5 5 5 5 5 5 5 5 5 5 5 5 5 5 5 5 5 5 5 5 5 5 5 5 5 5 5 5 5 5 5 5 5 5 5 5 5 5 5 5 5 5 5 5 5 5 5 5 5 5 5 5 5 3 5 5 5 5 5 5 5 3 5 5 3 5 5 5 5 5 5 5 5 5 5 5 5 3 5 3 5 3 5 5 5 5 5 5 5 5 3 5 5 5 5 5 5 5 5 5 3 5 5 5 5 5 5 5 5 5 5 5 5 5 5 5 5 5 5 5 5 5 3 5 5 5 5 5 5 5 5 5 5 5 5 3 5 5 5 5 5 3 5 5 3 5 5 5 5 3 3 5 5 3 5 5 5 5 5 5 5 3 3 5 5 5 5 5 5 5 5 5 5 5 5 3 5 5 5 5 3 5 5 5 5 5 5 5 5 3 5 5 5 5 3 5 5 5 5 3 5 5 5 5 5 5 5 3 5 5 5 5 5 3 5 5 5 3 5 5 5 5 5 3 5 5 5 5 5 5 5 5 5 5 5 5 5 5 3 5 5 3 5 5 5 5 5 5 5 5 5 5 5 5 5 5 5 5 5 5 5 5 5 3 5 5 3 5 5 3 5 5 5 5 5 5 5 5 5 5 5 5 5 5 5 5 5 5 5 5 5 5 5 5 5 5 5 5 5 5 3 5 5 5 5 3 5 5 3 5 3 5 5 5 5 3 5 3 5 5 3 5 3 5 3 3 5 5 3 5 3 5 3 5 5 3 5 5 5 5 5 5 3 5 3 5 5 3 3 5 5 3 5 3 5 5 3 5 5 3 5 5 3 3 3 5 3 5 5 5 5 5 5 5 5 3 5 5 5 5 5 5 5 3 5 5 5 5 5 5 5 5 5 5 5 5 5 5 3 5 5 5 5 5 5 5 5 5 5 5 5 5 5 5 5 5 5 5 3 5 5 5 5 5 5 5 5 5 5 5 5 5 5 5 5 5 5 5 5 5 5 5 5 5 5 5 5 5 5 5 3 5 5 5 3 5 3 3 5 3 5 5 5 3 5 5 5 5 3 3 3 5 5 5 5 5 5 5 5 5 5 5 5 5 5 5 5 5 3 5 5 5 5 5 5 5 5 5 3 5 5 5 3 5 5 5 5 5 5 5 5 5 5 5 5 3 5 5 3 5 5 5 5 5 5 5 5 5 5 5 5 5 5 5 5 5 5 5 5 5 5 3 5 5 5 5 5 5 5 5 5 5 5 5 5 5 5 5 5 5 3 5 5 5 5 5 5 5 3 5 5 5 5 3 5 5 5 5 5 5 5 5 5 5 5 5 5 5 5 5 5 5 5 5 5 5 5 5 5 5 5 5 5 5 5 5 5 5 5 3 3 5 5 5 5 3 5 3 5 5 5 5 5 3 5 5 5 5 5 5 5 5 3 3 5 5 5 5 3 5 5 5 5 5 5 5 5 5 5 5 5 5 5 5 5 5 5 5 5 5 3 5 5 5 5 5 5 3 5 5 3 5 5 5 5 5 5 5 5 5 3 5 5 5 5 5 5 5 5 3 5 5 5 5 5 5 5 5 5 5 5 5 5 5 5 5 5 3 5 5 3 5 5 5 5 5 5 5 5 5 5 5 5 5 5 5 5 5 5 5 5 5 5 5 5 5 5 5 5 5 3 5 3 5 5 5 5 5 5 5 5 5 5 5 5 5 5 5 5 5 5 5 5 5 5 3 5 5 5 3 5 5 5 5 5 5 5 5 5 5 5 5 3 5 5 5 3 3 5 5 3 5 5 5 5 5 5 5 5 5 3 5 5 5 5 5 5 5 5 5 5 5 5 5 3 5 3 5 5 5 5 5 5 5 5 5 5 5 5 5 5 5 5 5 5 5 5 5 5 5 5 5 5 5 5 5 3 5 5 5 5 5 5 3 5 5 5 5 5 5 5 5 5 5 5 5 5 5 5 5 3 5 3 5 5 5 5 5 5 5 3 5 5 5 3 5 5 5 5 3 5 5 5 5 5 5 3 5 5 5 5 3 5 3 5 5 5 5 5 5 5 5 3 3 5 5 5 3 3 5 5 5 5 5 5 5 3 3 5 3 3 5 5 5 5 3 5 3 5 5 5 5 5 5 3 5 5 5 5 3 5 5 5 5 3 5 5 5 5 5 3 5 5 3 5 5 5 5 3 5 5 5 5 5 5 5 5 5 3 3 5 5 5 5 5 5 5 5 5 5 5 5 5 3 5 3 5 5 5 5 5 5 5 5 5 5 5 5 5 5 5 5 5 5 5 5 5 3 5 5 5 5 5 5 5 5 5 5 5 5 5 5 5 5 5 5 5 5 5 5 5 5 5 5 3 5 5 5 5 5 5 5 5 3 5 3 5 5 5 5 5 5 3 5 5 5 5 5 5 5 5 5 5 5 5 5 5 5 5 5 5 5 5 5 5 5 5 5 5 3 5 5 5 5 5 5 5 5 3 5 5 3 5 5 3 5 5 5 5 5 3 5 5 5 5 5 5 5 5 5 3 5 5 5 5 5 5 5 5 5 5 5 5 5 5 5 3 5 5 5 5 5 5 5 5 3 5 5 5 5 5 5 5 5 5 5 5 5 5 5 5 5 5 5 3 5 3 5 3 5 5 3 3 5 5 5 5 5 5 5 5 5 5 5 5 5 5 3 5 5 5 5 5 5 3 5 5 5 3 5 5 5 5 5 5 5 5 5 5 5 5 3 5 5 5 5 3 3 3 5 5 5 5 5 5 5 3 5 5 3 5 3 5 3 5 5 5 5 5 3 5 5 5 5 5 5 5 5 5 5 5 5 5 5 5 5 5 5 5 5 3 5 5 5 3 5 3 3 3 5 5 5 5 5 3 5 5 5 5 5 5 5 5 5 5 5 5 5 5 5 5 5 5 5 5 5 5 5 5 5 5 3 5 5 3 5 5 5 5 5 5 5 5 3 5 3 5 5 5 5 5 5 5 5 3 5 5 5 5 3 5 5 3 5 5 3 5 5 5 3 5 5 5 5 5 5 5 5 5 5 5 5 5 5 5 5 5 5 5 5 3 5 5 5 5 5 5 3 5 5 5 5 5 3 5 5 5 5 5 3 5 3 3 5 5 5 5 5 5 5 5 5 5 5 5 3 5 5 5 5 3 5 3 3 5 5 5 3 5 5 5 5 5 5 5 5 5 5 5 5 5 5 5 5 5 5 5 5 5 5 3 5 3 5 5 3 5 5 3 5 5 3 5 5 5 3 3 5 5 5 5 5 5 5 3 5 5 5 5 5 5 5 5 3 5 5 5 5 5 5 5 3 5 5 5 3 5 3 3 5 5 5 3 5 5 5 5 5 5 5 5 5 5 5 5 5 5 5 5 5 5 5 5 5 5 3 5 5 3 5 5 5 3 5 5 5 5 5 5 5 3 3 5 5 3 5 5 5 5 5 5 5 5 5 5 5 5 5 5 5 5 5 5 5 5 5 5 5 5 5 5 5 5 5 5 5 5 5 5 5 3 5 5 5 5 5 5 5 3 5 5 3 5 5 3 5 5 5 5 5 5 5 5 5 5 5 5 5 5 5 5 5 5 5 3 5 5 5 5 3 5 5 5 5 5 5 5 5 5 5 3 5 5 5 5 3 5 5 5 5 3 3 5 3 5 5 5 5 5 5 5 5 5 5 5 5 5 5 3 5 5 5 5 5 5 5 5 5 3 5 5 5 5 5 5 5 5 5 5 5 5 5 5 5 5 5 5 5 5 5 5 5 5 5 5 5 5 5 5 5 5 5 5 5 5 5 5 5 5 5 3 5 5 5 5 3 5 5 3 5 5 5 5 5 5 3 3 5 5 5 5 3 5 5 5 5 5 5 5 5 5 5 5 5 5 5 5 5 5 5 5 5 5 5 5 5 5 5 5 5 5 5 5 5 5 5 5 5 5 5 5 5 5 5 5 5 5 5 5 5 5 5 5 5 5 5 5 5 5 5 5 5 5 3 5 5 5 5 5 3 5 3 5 5 5 5 5 5 5 5 5 
</DataArray>
</Cells>
<PointData Scalars="" Vectors="displacement," Tensors="">
<DataArray type="Float64" Name="displacement" NumberOfComponents="3" format="ascii">
9.8326751557223961e-08 0.02499960712485242 0 6.9476420170678981e-05 0.023938146269611944 0 1.1659313599231523e-11 0.024999612989287531 0 2.960746720453812e-10 0.024999937990392494 0 1.6225399360005206e-07 0.023677092700038076 0 2.960746720453812e-10 0.024999937990392494 0 1.6225399360005206e-07 0.023677092700038076 0 5.5328053737344701e-09 0.022074915504605604 0 6.7778439556500425e-08 0.02499964942238107 0 8.2371868835445498e-05 0.024215240908391392 0 5.1942687782126077e-05 0.024666619978275892 0 6.7778439556500425e-08 0.02499964942238107 0 7.9264606721065637e-08 0.024999438161071266 0 5.1942687782126077e-05 0.024666619978275892 0 8.2371868835445498e-05 0.024215240908391392 0 6.4004833393951769e-05 0.024505039794649491 0 5.1942687782126077e-05 0.024666619978275892 0 6.4004833393951769e-05 0.024505039794649491 0 7.9264606721065637e-08 0.024999438161071266 0 5.1942687782126077e-05 0.024666619978275892 0 0.00032968261637327868 0.024002401122023568 0 4.6365271582185484e-07 0.02499938203300291 0 0.00021998990459823082 0.024535559978211951 0 6.4004833393951769e-05 0.024505039794649491 0 7.9264606721065637e-08 0.024999438161071266 0 -2.7295716424733075e-08 0.025000052806124846 0 0.00018874625891523655 0.024227834300811123 0 -6.0589562950531671e-09 0.024999696465385607 0 0.00032968261637327868 0.024002401122023568 0 0.00021998990459823082 0.024535559978211951 0 0.00032099609982115404 0.024061556085711411 0 0.0003245250417115165 0.024349679976932482 0 0.00021998990459823082 0.024535559978211951 0 0.00032099609982115404 0.024061556085711411 0 0.0003245250417115165 0.024349679976932482 0 8.6033587040294081e-09 0.024999124448587127 0 0.00021998990459823082 0.024535559978211951 0 0.00021890755127482037 0.024603259529347176 0 1.3340076365459075e-07 0.024999807201885948 0 4.6365271582185484e-07 0.02499938203300291 0 8.6033587040294081e-09 0.024999124448587127 0 0.00021998990459823082 0.024535559978211951 0 0.00018522174827282115 0.02377208291917968 0 0.00021418959792599555 0.024386706117268682 0 5.3892429214832003e-05 0.024123075216991564 0 0.00018522174827282115 0.02377208291917968 0 -1.7509228187325072e-05 0.023800141294755502 0 5.3892429214832003e-05 0.024123075216991564 0 0.00018522174827282115 0.02377208291917968 0 0.00032099609982115404 0.024061556085711411 0 0.00025707042024424986 0.023715732872727113 0 0.00018522174827282115 0.02377208291917968 0 0.00032099609982115404 0.024061556085711411 0 0.00021418959792599555 0.024386706117268682 0 0.0003245250417115165 0.024349679976932482 0 0.00032099609982115404 0.024061556085711411 0 0.00021418959792599555 0.024386706117268682 0 0.00032968261637327868 0.024002401122023568 0 0.00032099609982115404 0.024061556085711411 0 0.00025843046319358622 0.02361369334068002 0 0.00032099609982115404 0.024061556085711411 0 0.00025707042024424986 0.023715732872727113 0 0.00025843046319358622 0.02361369334068002 0 0.00018522174827282115 0.02377208291917968 0 0.00022971220434351899 0.023147127081696514 0 6.4717271742773151e-05 0.022963549695615176 0 0.00018522174827282115 0.02377208291917968 0 0.00025707042024424986 0.023715732872727113 0 0.00022971220434351899 0.023147127081696514 0 0.00025707042024424986 0.023715732872727113 0 0.00025843046319358622 0.02361369334068002 0 0.00022971220434351899 0.023147127081696514 0 1.6225399360005206e-07 0.023677092700038076 0 5.5328053737344701e-09 0.022074915504605604 0 -6.8061551436184839e-07 0.022351014003533953 0 0.00022971220434351899 0.023147127081696514 0 0.00026901765515762913 0.022918994041080699 0 0.00026992315209075902 0.022611944888945374 0 0.00022971220434351899 0.023147127081696514 0 0.00021486185811021751 0.023384990840196875 0 0.00026901765515762913 0.022918994041080699 0 0.00025843046319358622 0.02361369334068002 0 0.00022971220434351899 0.023147127081696514 0 0.00021486185811021751 0.023384990840196875 0 0.00018874625891523655 0.024227834300811123 0 0.00021034456043387816 0.023537694958868347 0 8.2371868835445498e-05 0.024215240908391392 0 6.4004833393951769e-05 0.024505039794649491 0 0.00021486185811021751 0.023384990840196875 0 0.00032968261637327868 0.024002401122023568 0 0.00025843046319358622 0.02361369334068002 0 0.00021486185811021751 0.023384990840196875 0 6.9476420170678981e-05 0.023938146269611944 0 0.00013377010473010362 0.022781905146411416 0 8.2371868835445498e-05 0.024215240908391392 0 0.00021486185811021751 0.023384990840196875 0 0.00024691752787415859 0.023228458599935466 0 0.00021486185811021751 0.023384990840196875 0 0.00026901765515762913 0.022918994041080699 0 0.00024691752787415859 0.023228458599935466 0 5.5328053737344701e-09 0.022074915504605604 0 1.4331963096486214e-05 0.0210259163721387 0 1.91075757290187e-07 0.019829431755479379 0 0.00013377010473010362 0.022781905146411416 0 0.00013060837732847835 0.021420651629946389 0 0.00026901765515762913 0.022918994041080699 0 0.00030441980898308023 0.021911144452800627 0 0.00026992315209075902 0.022611944888945374 0 5.5328053737344701e-09 0.022074915504605604 0 -6.8061551436184839e-07 0.022351014003533953 0 1.4331963096486214e-05 0.0210259163721387 0 0.00026901765515762913 0.022918994041080699 0 0.00024691752787415859 0.023228458599935466 0 0.00030441980898308023 0.021911144452800627 0 0.00013060837732847835 0.021420651629946389 0 -5.3478659140270196e-05 0.020239051652474097 0 0.00030441980898308023 0.021911144452800627 0 0.00016064546285658762 0.021362845145242469 0 -1.4372345312876377e-05 0.019963288061967222 0 0.00030441980898308023 0.021911144452800627 0 0.00016064546285658762 0.021362845145242469 0 0.0002195011294793336 0.02229311042895115 0 0.00016064546285658762 0.021362845145242469 0 0.0002195011294793336 0.02229311042895115 0 -0.00014264185857595067 0.021264178077121082 0 0.00022971220434351899 0.023147127081696514 0 0.0002195011294793336 0.02229311042895115 0 0.00026992315209075902 0.022611944888945374 0 0.00030441980898308023 0.021911144452800627 0 0.0002195011294793336 0.02229311042895115 0 0.00026992315209075902 0.022611944888945374 0 1.91075757290187e-07 0.019829431755479379 0 -1.4372345312876377e-05 0.019963288061967222 0 -0.00016240880477629927 0.0192424453493832 0 1.4331963096486214e-05 0.0210259163721387 0 1.91075757290187e-07 0.019829431755479379 0 -1.4372345312876377e-05 0.019963288061967222 0 0.00016064546285658762 0.021362845145242469 0 -1.4372345312876377e-05 0.019963288061967222 0 -0.00014264185857595067 0.021264178077121082 0 -6.2218874042413837e-05 0.021045342643785894 0 -0.00071362123439836769 0.020387428272418517 0 -1.4372345312876377e-05 0.019963288061967222 0 -0.00014264185857595067 0.021264178077121082 0 -0.00016240880477629927 0.0192424453493832 0 -0.00014264185857595067 0.021264178077121082 0 -0.00094735638076834459 0.021841723689249727 0 -0.0014138623676164192 0.020973019342049926 0 -0.00094735638076834459 0.021841723689249727 0 5.7960453462717402e-05 0.022376804425713766 0 -0.00076091658078059489 0.022685834372625363 0 -0.00014264185857595067 0.021264178077121082 0 -0.00094735638076834459 0.021841723689249727 0 5.7960453462717402e-05 0.022376804425713766 0 5.7960453462717402e-05 0.022376804425713766 0 -3.2084153982927097e-05 0.022860827831712019 0 -0.00076091658078059489 0.022685834372625363 0 0.00037099337420138463 0.019689349050456717 0 -0.0001077480318211809 0.019528653181989312 0 0.00027793846105991901 0.019810453426224509 0 0.00022050856359473366 0.021173902070062249 0 -0.00047039725240504034 0.021380648211583857 0 0.00022971220434351899 0.023147127081696514 0 0.0002195011294793336 0.02229311042895115 0 6.4717271742773151e-05 0.022963549695615176 0 0.0002195011294793336 0.02229311042895115 0 -0.00014264185857595067 0.021264178077121082 0 5.7960453462717402e-05 0.022376804425713766 0 0.0002195011294793336 0.02229311042895115 0 5.7960453462717402e-05 0.022376804425713766 0 6.4717271742773151e-05 0.022963549695615176 0 5.7960453462717402e-05 0.022376804425713766 0 6.4717271742773151e-05 0.022963549695615176 0 0.00011830419141533832 0.022786972798162504 0 5.7960453462717402e-05 0.022376804425713766 0 -3.2084153982927097e-05 0.022860827831712019 0 0.00011830419141533832 0.022786972798162504 0 -3.2084153982927097e-05 0.022860827831712019 0 0.00011830419141533832 0.022786972798162504 0 0.00011719740744222004 0.022765827667594215 0 0.00018522174827282115 0.02377208291917968 0 6.4717271742773151e-05 0.022963549695615176 0 -1.7509228187325072e-05 0.023800141294755502 0 6.4717271742773151e-05 0.022963549695615176 0 -1.7509228187325072e-05 0.023800141294755502 0 -0.00043727840255418073 0.024306854476013998 0 6.4717271742773151e-05 0.022963549695615176 0 0.00011830419141533832 0.022786972798162504 0 0.00010583858528563723 0.02275538814230638 0 -1.3725185458312798e-05 0.023206857072775398 0 -2.0008486891050747e-06 0.023117154122186252 0 -1.7509228187325072e-05 0.023800141294755502 0 -0.0001858235793825407 0.024352015745333581 0 5.3892429214832003e-05 0.024123075216991564 0 -1.7509228187325072e-05 0.023800141294755502 0 -0.0001858235793825407 0.024352015745333581 0 -0.00043727840255418073 0.024306854476013998 0 -2.7204251255097588e-05 0.023427018213489817 0 -2.0008486891050747e-06 0.023117154122186252 0 -0.0001858235793825407 0.024352015745333581 0 -0.00028150099141205554 0.024461635889240933 0 -0.00011684548597637504 0.024554058037743992 0 -0.0001858235793825407 0.024352015745333581 0 -0.00028150099141205554 0.024461635889240933 0 -0.00028997505893475453 0.024321230758602701 0 0.0010341457586226178 0.020060622177767572 0 0.00095365976559249916 0.01986649667998646 0 0.0007805864160994355 0.020127409089252271 0 7.3931402579944649e-05 0.022700810115080558 0 5.7340661881549601e-06 0.022325115513775598 0 0.00018398660146702939 0.022715783553889046 0 0.00016476709292248055 0.022671223617541838 0 0.00018277241267141344 0.022676314025024069 0 7.3931402579944649e-05 0.022700810115080558 0 -2.0008486891050747e-06 0.023117154122186252 0 0.00011830419141533832 0.022786972798162504 0 0.00011719740744222004 0.022765827667594215 0 0.00010583858528563723 0.02275538814230638 0 5.7340661881549601e-06 0.022325115513775598 0 -2.0008486891050747e-06 0.023117154122186252 0 0.00022050856359473366 0.021173902070062249 0 5.7340661881549601e-06 0.022325115513775598 0 0.00037099337420138463 0.019689349050456717 0 0.00095365976559249916 0.01986649667998646 0 0.00060942630963144444 0.019980055503431501 0 0.00037099337420138463 0.019689349050456717 0 0.00060942630963144444 0.019980055503431501 0 0.00039883874946252767 0.01995227338550315 0 0.00060942630963144444 0.019980055503431501 0 0.0007805864160994355 0.020127409089252271 0 0.00054549989524362973 0.020272995835987656 0 0.00060942630963144444 0.019980055503431501 0 0.00054549989524362973 0.020272995835987656 0 0.00039883874946252767 0.01995227338550315 0 0.00095365976559249916 0.01986649667998646 0 0.00060942630963144444 0.019980055503431501 0 0.0007805864160994355 0.020127409089252271 0 0.00054549989524362973 0.020272995835987656 0 0.00080837939811592577 0.020371007303118735 0 0.00062252251756171205 0.020712530251203329 0 0.00054549989524362973 0.020272995835987656 0 0.00032732285243674322 0.020601007371584417 0 0.00062252251756171205 0.020712530251203329 0 0.0007805864160994355 0.020127409089252271 0 0.00054549989524362973 0.020272995835987656 0 0.00080837939811592577 0.020371007303118735 0 -0.00028150099141205554 0.024461635889240933 0 -0.00011684548597637504 0.024554058037743992 0 -8.8923023231953581e-05 0.024817366532361405 0 7.3931402579944649e-05 0.022700810115080558 0 -7.3003135703376859e-05 0.024654838187188648 0 -0.00030996035911775785 0.023451965269375374 0 -7.9073198555265945e-05 0.024066109443513364 0 -0.00029884043996659682 0.024115425639172121 0 7.3931402579944649e-05 0.022700810115080558 0 0.00040463295942707542 0.022187401937261497 0 0.0010341457586226178 0.020060622177767572 0 0.00080837939811592577 0.020371007303118735 0 0.0010537561641027983 0.020689418914848507 0 0.0010341457586226178 0.020060622177767572 0 0.0007805864160994355 0.020127409089252271 0 0.00080837939811592577 0.020371007303118735 0 -0.00017395454560860144 0.020511945292885834 0 0.00040099700257922307 0.017933195809378799 0 0.00027793846105991901 0.019810453426224509 0 4.3457230242391458e-05 0.020206317812812839 0 -0.00030630042968623995 0.020166243326077141 0 -0.00011362655386476675 0.019779715466269394 0 0.00027793846105991901 0.019810453426224509 0 -0.00022311122411594698 0.020051311242898572 0 -0.0001077480318211809 0.019528653181989312 0 -0.00011362655386476675 0.019779715466269394 0 0.00027793846105991901 0.019810453426224509 0 -0.00011362655386476675 0.019779715466269394 0 -0.00022311122411594698 0.020051311242898572 0 -0.00040025558104777703 0.019723819961372478 0 -0.0001077480318211809 0.019528653181989312 0 -0.00011362655386476675 0.019779715466269394 0 -0.00040025558104777703 0.019723819961372478 0 0.00027793846105991901 0.019810453426224509 0 0.0003099437150712756 0.020118676582194659 0 4.3457230242391458e-05 0.020206317812812839 0 0.00037099337420138463 0.019689349050456717 0 0.00027793846105991901 0.019810453426224509 0 0.00039883874946252767 0.01995227338550315 0 0.00027793846105991901 0.019810453426224509 0 0.00039883874946252767 0.01995227338550315 0 0.0003099437150712756 0.020118676582194659 0 0.00054549989524362973 0.020272995835987656 0 0.00039883874946252767 0.01995227338550315 0 0.0003099437150712756 0.020118676582194659 0 0.00014453747729701379 0.020542754977596361 0 4.3457230242391458e-05 0.020206317812812839 0 -0.00011622090934452982 0.020683631994674646 0 0.00054549989524362973 0.020272995835987656 0 0.0003099437150712756 0.020118676582194659 0 0.00027439052225634332 0.020347676745568009 0 0.00054549989524362973 0.020272995835987656 0 0.00027439052225634332 0.020347676745568009 0 0.00032732285243674322 0.020601007371584417 0 0.00027439052225634332 0.020347676745568009 0 0.00014453747729701379 0.020542754977596361 0 0.00032732285243674322 0.020601007371584417 0 0.00027439052225634332 0.020347676745568009 0 0.00014453747729701379 0.020542754977596361 0 4.3457230242391458e-05 0.020206317812812839 0 0.0003099437150712756 0.020118676582194659 0 0.00027439052225634332 0.020347676745568009 0 4.3457230242391458e-05 0.020206317812812839 0 -4.1595047912560391e-05 0.02046292552430826 0 0.00028630529765483897 0.020049378039427676 0 4.3457230242391458e-05 0.020206317812812839 0 -0.00018467754080468782 0.020372640189436561 0 -8.3526547052010855e-05 0.020565018682446312 0 4.3457230242391458e-05 0.020206317812812839 0 -0.0001900006648401798 0.020241647340923017 0 -0.00030630042968623995 0.020166243326077141 0 4.3457230242391458e-05 0.020206317812812839 0 -0.00018704945821604259 0.02031555985422271 0 -0.0001900006648401798 0.020241647340923017 0 4.3457230242391458e-05 0.020206317812812839 0 -0.00018704945821604259 0.02031555985422271 0 -0.00018467754080468782 0.020372640189436561 0 0.00043840723850040023 0.018737973202320322 0 0.00046157953449756469 0.019345783179813295 0 -0.00018704945821604259 0.02031555985422271 0 -0.00023007760256892957 0.020284228282820886 0 -0.00018438693188187866 0.020366429407256519 0 0.00093085409062946623 0.018530470690217116 0 0.00087480685868722972 0.018419720849478599 0 0.0013018971440422872 0.018176429597434277 0 0.0004232787573675475 0.019558819624835789 0 0.00046157953449756469 0.019345783179813295 0 0.00043840723850040023 0.018737973202320322 0 0.00040099700257922307 0.017933195809378799 0 -0.00023871273057202256 0.020285658973989797 0 -0.0001900006648401798 0.020241647340923017 0 -0.00030630042968623995 0.020166243326077141 0 -0.00018704945821604259 0.02031555985422271 0 -0.00023007760256892957 0.020284228282820886 0 -0.0001900006648401798 0.020241647340923017 0 0.00043840723850040023 0.018737973202320322 0 0.00019020822246771076 0.019039735776543172 0 0.00072386363510833717 0.019625682116940758 0 0.00072654402402315855 0.018764259581884182 0 0.00052274191429939787 0.019224998089129829 0 0.00052840332121196012 0.019545308617505922 0 0.00058780091613221466 0.01940675431841575 0 0.00073460862340871916 0.019688350158713019 0 0.00087480685868722972 0.018419720849478599 0 0.00087497714084053312 0.017890564109831517 0 0.0013018971440422872 0.018176429597434277 0 0.00046157953449756469 0.019345783179813295 0 0.0010768283950323405 0.01836138293116002 0 0.00046157953449756469 0.019345783179813295 0 0.00028630529765483897 0.020049378039427676 0 0.0010768283950323405 0.01836138293116002 0 0.00028630529765483897 0.020049378039427676 0 -0.00011622090934452982 0.020683631994674646 0 0.00017662243121196084 0.020863131634720467 0 0.00016898635188337076 0.021230801233208894 0 0.00028630529765483897 0.020049378039427676 0 0.0007203908509777607 0.020067055953210983 0 0.00014453747729701379 0.020542754977596361 0 0.00017662243121196084 0.020863131634720467 0 0.00032732285243674322 0.020601007371584417 0 0.00014453747729701379 0.020542754977596361 0 -0.00011622090934452982 0.020683631994674646 0 0.00017662243121196084 0.020863131634720467 0 0.00017662243121196084 0.020863131634720467 0 0.00032732285243674322 0.020601007371584417 0 0.00036482249338262008 0.020824686830089357 0 0.00032732285243674322 0.020601007371584417 0 0.00036482249338262008 0.020824686830089357 0 0.00062252251756171205 0.020712530251203329 0 0.00036482249338262008 0.020824686830089357 0 0.00028822767975508306 0.021074879824257056 0 0.00047453220714485569 0.021015539680422225 0 0.00017662243121196084 0.020863131634720467 0 0.00036482249338262008 0.020824686830089357 0 0.00028822767975508306 0.021074879824257056 0 0.00043991533608743981 0.02123602473189598 0 0.00036664342600749886 0.021227063384927053 0 0.00047453220714485569 0.021015539680422225 0 0.00036664342600749886 0.021227063384927053 0 0.00024798378684532827 0.021269070802775528 0 0.00047453220714485569 0.021015539680422225 0 0.00028822767975508306 0.021074879824257056 0 0.00022113184295069694 0.021264582566330965 0 0.00047453220714485569 0.021015539680422225 0 0.0006315728372990754 0.020240368140423286 0 0.00020858819122848287 0.021183236922670583 0 0.0006315728372990754 0.020240368140423286 0 0.0010300424080669911 0.020095867841692264 0 0.00033431133508803751 0.021355578370984455 0 0.00025151469192871207 0.021267228850705169 0 0.00032401647507521977 0.021450531578482555 0 0.00043991533608743981 0.02123602473189598 0 0.00036664342600749886 0.021227063384927053 0 0.00037518166442308267 0.021304211549651821 0 0.00043991533608743981 0.02123602473189598 0 0.00043324058945321139 0.021363707839418881 0 0.00037518166442308267 0.021304211549651821 0 0.00043324058945321139 0.021363707839418881 0 0.00037518166442308267 0.021304211549651821 0 0.00033431133508803751 0.021355578370984455 0 0.00037518166442308267 0.021304211549651821 0 0.00033431133508803751 0.021355578370984455 0 0.00029642390007716713 0.021297897154857377 0 0.00033431133508803751 0.021355578370984455 0 0.00029642390007716713 0.021297897154857377 0 0.00025151469192871207 0.021267228850705169 0 0.00064690313465603545 0.020317195584376887 0 0.0006315728372990754 0.020240368140423286 0 0.00036664342600749886 0.021227063384927053 0 0.00029642390007716713 0.021297897154857377 0 0.00024798378684532827 0.021269070802775528 0 0.00036664342600749886 0.021227063384927053 0 0.00037518166442308267 0.021304211549651821 0 0.00029642390007716713 0.021297897154857377 0 0.00093105849324460446 0.019606978089201935 0 0.00081378151980624684 0.0197265252494703 0 0.0010172864175473028 0.019848709006976412 0 0.0014295823833983428 0.018838088051874344 0 0.0013596702044291733 0.019028948736086505 0 0.00091347765742763988 0.018755561319851715 0 0.0014295823833983428 0.018838088051874344 0 0.0014991504102372262 0.018887231440764062 0 0.0013596702044291733 0.019028948736086505 0 0.0007203908509777607 0.020067055953210983 0 0.0006315728372990754 0.020240368140423286 0 0.0006315728372990754 0.020240368140423286 0 0.0013784975579290723 0.019107812299927106 0 0.00017662243121196084 0.020863131634720467 0 0.00028822767975508306 0.021074879824257056 0 0.00016898635188337076 0.021230801233208894 0 0.00028822767975508306 0.021074879824257056 0 0.00016898635188337076 0.021230801233208894 0 0.00022113184295069694 0.021264582566330965 0 0.0010768283950323405 0.01836138293116002 0 0.0007203908509777607 0.020067055953210983 0 0.0014295823833983428 0.018838088051874344 0 0.00091347765742763988 0.018755561319851715 0 0.00091202094241643464 0.0186046005630955 0 0.0009111541387342505 0.018474004817975474 0 0.0014295823833983428 0.018838088051874344 0 0.00091202094241643464 0.0186046005630955 0 0.0013784975579290723 0.019107812299927106 0 0.0019936366397717092 0.016993647312410414 0 0.0019936366397717092 0.016993647312410414 0 0.0028848202017668716 0.01566508533407605 0 0.0031447916463791508 0.015022547514208957 0 0.0031669385524262994 0.015000468007023749 0 0.0031717711291281243 0.014996882691612761 0 0.0019936366397717092 0.016993647312410414 0 0.0014937470516917287 0.017763040180481516 0 0.0010768283950323405 0.01836138293116002 0 0.0014937470516917287 0.017763040180481516 0 -0.00013247796713925305 0.024365328869298087 0 -7.9073198555265945e-05 0.024066109443513364 0 -0.00029884043996659682 0.024115425639172121 0 0.00080837939811592577 0.020371007303118735 0 0.0010537561641027983 0.020689418914848507 0 0.00062252251756171205 0.020712530251203329 0 0.0010537561641027983 0.020689418914848507 0 0.00062252251756171205 0.020712530251203329 0 0.00075899967562785878 0.021074043240090393 0 0.00062252251756171205 0.020712530251203329 0 0.00075899967562785878 0.021074043240090393 0 0.00047453220714485569 0.021015539680422225 0 0.00036482249338262008 0.020824686830089357 0 0.00062252251756171205 0.020712530251203329 0 0.00047453220714485569 0.021015539680422225 0 0.00043991533608743981 0.02123602473189598 0 0.00047453220714485569 0.021015539680422225 0 0.00055836438866982657 0.021222853757135975 0 0.00075899967562785878 0.021074043240090393 0 0.00047453220714485569 0.021015539680422225 0 0.00055836438866982657 0.021222853757135975 0 0.00043991533608743981 0.02123602473189598 0 0.00043324058945321139 0.021363707839418881 0 0.00055836438866982657 0.021222853757135975 0 0.00075899967562785878 0.021074043240090393 0 0.00055836438866982657 0.021222853757135975 0 0.00077570713020881491 0.021479929234812064 0 0.00075899967562785878 0.021074043240090393 0 0.0010808208404947098 0.021358244183515909 0 0.00077570713020881491 0.021479929234812064 0 -0.00013247796713925305 0.024365328869298087 0 -0.00023919511104090435 0.02461850233804902 0 3.8601791848807822e-05 0.024557616359282521 0 0.0010537561641027983 0.020689418914848507 0 0.00075899967562785878 0.021074043240090393 0 0.0010808208404947098 0.021358244183515909 0 0.00040463295942707542 0.022187401937261497 0 0.00041415021409809609 0.023100371322793922 0 -0.00013247796713925305 0.024365328869298087 0 -0.00029884043996659682 0.024115425639172121 0 -0.00023919511104090435 0.02461850233804902 0 -0.00023919511104090435 0.02461850233804902 0 3.8601791848807822e-05 0.024557616359282521 0 -7.5479552337712392e-05 0.024819494748716281 0 -7.3003135703376859e-05 0.024654838187188648 0 7.7084320234302101e-06 0.024690233214878014 0 -8.8923023231953581e-05 0.024817366532361405 0 1.8467847826459172e-05 0.024929384258297327 0 1.8539961698829367e-05 0.024847699885896486 0 1.8467847826459172e-05 0.024929384258297327 0 1.8539961698829367e-05 0.024847699885896486 0 5.9648735849874973e-05 0.024897030369007447 0 -0.00013247796713925305 0.024365328869298087 0 -7.9073198555265945e-05 0.024066109443513364 0 3.8601791848807822e-05 0.024557616359282521 0 1.8539961698829367e-05 0.024847699885896486 0 2.1637855856584282e-05 0.024749766538357258 0 8.0498681289522533e-05 0.02479366739853163 0 -8.8923023231953581e-05 0.024817366532361405 0 1.8539961698829367e-05 0.024847699885896486 0 2.1637855856584282e-05 0.024749766538357258 0 5.9648735849874973e-05 0.024897030369007447 0 9.2722757237300409e-05 0.02486341641919889 0 8.0498681289522533e-05 0.02479366739853163 0 1.8539961698829367e-05 0.024847699885896486 0 5.9648735849874973e-05 0.024897030369007447 0 8.0498681289522533e-05 0.02479366739853163 0 1.8467847826459172e-05 0.024929384258297327 0 5.9648735849874973e-05 0.024897030369007447 0 4.2599706488968378e-05 0.024934290325866072 0 5.9648735849874973e-05 0.024897030369007447 0 5.8772775062599976e-05 0.024934093868003035 0 4.2599706488968378e-05 0.024934290325866072 0 5.8772775062599976e-05 0.024934093868003035 0 3.5635470653290809e-05 0.024956280038210241 0 4.2599706488968378e-05 0.024934290325866072 0 5.8772775062599976e-05 0.024934093868003035 0 6.6011001548765752e-08 0.02499991486779073 0 3.5635470653290809e-05 0.024956280038210241 0 6.6011001548765752e-08 0.02499991486779073 0 6.6570098233785873e-05 0.024919697464167508 0 8.0012130941805568e-08 0.024999747876158634 0 5.8772775062599976e-05 0.024934093868003035 0 6.6011001548765752e-08 0.02499991486779073 0 6.6570098233785873e-05 0.024919697464167508 0 5.9648735849874973e-05 0.024897030369007447 0 5.8772775062599976e-05 0.024934093868003035 0 9.2722757237300409e-05 0.02486341641919889 0 5.8772775062599976e-05 0.024934093868003035 0 6.6570098233785873e-05 0.024919697464167508 0 9.2722757237300409e-05 0.02486341641919889 0 6.6570098233785873e-05 0.024919697464167508 0 9.2722757237300409e-05 0.02486341641919889 0 0.00014190522549631336 0.024772689567885062 0 6.6570098233785873e-05 0.024919697464167508 0 0.00014190522549631336 0.024772689567885062 0 8.0012130941805568e-08 0.024999747876158634 0 0.00011113267534125576 0.024830397602168982 0 4.6113354299385189e-08 0.024999946622581298 0 8.0012130941805568e-08 0.024999747876158634 0 0.00011113267534125576 0.024830397602168982 0 0.00014190522549631336 0.024772689567885062 0 8.0012130941805568e-08 0.024999747876158634 0 0.00011113267534125576 0.024830397602168982 0 0.00014190522549631336 0.024772689567885062 0 0.00021418959792599555 0.024386706117268682 0 0.00021890755127482037 0.024603259529347176 0 0.00019069178367774045 0.024435402809319728 0 0.00014190522549631336 0.024772689567885062 0 0.00021418959792599555 0.024386706117268682 0 9.7088112119963314e-05 0.024622397126624992 0 0.00021418959792599555 0.024386706117268682 0 5.3892429214832003e-05 0.024123075216991564 0 2.1715273395794279e-05 0.024443249479897174 0 -0.0001858235793825407 0.024352015745333581 0 5.3892429214832003e-05 0.024123075216991564 0 2.1715273395794279e-05 0.024443249479897174 0 -0.0001858235793825407 0.024352015745333581 0 -0.00011684548597637504 0.024554058037743992 0 2.1715273395794279e-05 0.024443249479897174 0 0.00021418959792599555 0.024386706117268682 0 2.1715273395794279e-05 0.024443249479897174 0 9.7088112119963314e-05 0.024622397126624992 0 9.7088112119963314e-05 0.024622397126624992 0 -2.3741593384432172e-05 0.02462904712106679 0 2.1637855856584282e-05 0.024749766538357258 0 -0.00011684548597637504 0.024554058037743992 0 -8.8923023231953581e-05 0.024817366532361405 0 -2.3741593384432172e-05 0.02462904712106679 0 2.1715273395794279e-05 0.024443249479897174 0 9.7088112119963314e-05 0.024622397126624992 0 -2.3741593384432172e-05 0.02462904712106679 0 -0.00011684548597637504 0.024554058037743992 0 2.1715273395794279e-05 0.024443249479897174 0 -2.3741593384432172e-05 0.02462904712106679 0 -8.8923023231953581e-05 0.024817366532361405 0 -2.3741593384432172e-05 0.02462904712106679 0 2.1637855856584282e-05 0.024749766538357258 0 9.7088112119963314e-05 0.024622397126624992 0 2.1637855856584282e-05 0.024749766538357258 0 8.0498681289522533e-05 0.02479366739853163 0 0.00014190522549631336 0.024772689567885062 0 9.7088112119963314e-05 0.024622397126624992 0 8.0498681289522533e-05 0.02479366739853163 0 9.2722757237300409e-05 0.02486341641919889 0 0.00014190522549631336 0.024772689567885062 0 8.0498681289522533e-05 0.02479366739853163 0 0.0022366385376211338 0.0098051782450245539 0 0.0018960950126405639 0.010178289207649275 0 0.0015792877521553443 0.0093655879755582816 0 0.0022366385376211338 0.0098051782450245539 0 0.0018960950126405639 0.010178289207649275 0 0.0023497151935950524 0.010358665240700362 0 0.0016418662947184056 0.010774664490777458 0 0.0022563444110826041 0.01120960059239103 0 0.0010761148724069422 0.011972238388503278 0 0.0010775973394381553 0.01193912451864123 0 0.0014288540230489293 0.012158682283837425 0 0.0010761148724069422 0.011972238388503278 0 0.0014267491074228286 0.012225565197339824 0 0.0014288540230489293 0.012158682283837425 0 0.00058932337533873719 0.01289866824730849 0 0.00078186066052495873 0.012906514520186986 0 0.0022366385376211338 0.0098051782450245539 0 0.0029261667594739026 0.010254340143748812 0 0.0023497151935950524 0.010358665240700362 0 0.00018247665664828562 0.013683993060919414 0 0.00012896047546884473 0.013723437702083429 0 0.0001832728591197634 0.013486980110050699 0 0.00018247665664828562 0.013683993060919414 0 0.00012896047546884473 0.013723437702083429 0 0.000155757381887522 0.013747373455950524 0 0.0010761148724069422 0.011972238388503278 0 0.0010775973394381553 0.01193912451864123 0 0.00073189674836280163 0.011734033372849175 0 0.0016418662947184056 0.010774664490777458 0 0.00075384582561130258 0.011757874799762338 0 0.00058932337533873719 0.01289866824730849 0 0.00075384582561130258 0.011757874799762338 0 0.00012896047546884473 0.013723437702083429 0 0.0001832728591197634 0.013486980110050699 0 -5.9329503645934962e-05 0.013581326963022085 0 0.0001832728591197634 0.013486980110050699 0 2.6986964247350239e-05 0.013021667799923956 0 -5.9329503645934962e-05 0.013581326963022085 0 0.0001832728591197634 0.013486980110050699 0 0.00010022980985404722 0.013255146303535493 0 2.6986964247350239e-05 0.013021667799923956 0 0.00010022980985404722 0.013255146303535493 0 8.3170650898046775e-08 0.012575649484655782 0 5.5426070108226192e-07 0.013975477604987159 0 0.00010022980985404722 0.013255146303535493 0 8.3170650898046775e-08 0.012575649484655782 0 2.6986964247350239e-05 0.013021667799923956 0 0.0001832728591197634 0.013486980110050699 0 5.5426070108226192e-07 0.013975477604987159 0 9.5262221297495069e-05 0.014046547762958278 0 0.0001832728591197634 0.013486980110050699 0 0.00010022980985404722 0.013255146303535493 0 5.5426070108226192e-07 0.013975477604987159 0 0.00018247665664828562 0.013683993060919414 0 0.0001832728591197634 0.013486980110050699 0 9.5262221297495069e-05 0.014046547762958278 0 0.00018247665664828562 0.013683993060919414 0 4.6040042787608824e-05 0.013821586623753412 0 9.5262221297495069e-05 0.014046547762958278 0 4.6040042787608824e-05 0.013821586623753412 0 9.5262221297495069e-05 0.014046547762958278 0 -3.7076615826918061e-05 0.014193074408293432 0 5.5426070108226192e-07 0.013975477604987159 0 -2.8401286064577968e-07 0.015376473983225378 0 -2.5213863227445881e-05 0.014841493469716218 0 5.5426070108226192e-07 0.013975477604987159 0 9.5262221297495069e-05 0.014046547762958278 0 -2.5213863227445881e-05 0.014841493469716218 0 9.5262221297495069e-05 0.014046547762958278 0 -2.5213863227445881e-05 0.014841493469716218 0 -3.7076615826918061e-05 0.014193074408293432 0 -2.5213863227445881e-05 0.014841493469716218 0 -0.00032088363038394838 0.014147071211565162 0 -0.00069373721165964027 0.014497293111359005 0 -2.5213863227445881e-05 0.014841493469716218 0 -0.00032088363038394838 0.014147071211565162 0 -3.7076615826918061e-05 0.014193074408293432 0 1.4591341576193091e-05 0.01501631642551589 0 -0.00020474427838766793 0.015140847876153869 0 -2.8401286064577968e-07 0.015376473983225378 0 -2.5213863227445881e-05 0.014841493469716218 0 5.8601476639867851e-05 0.016173997596495768 0 4.6040042787608824e-05 0.013821586623753412 0 -0.00032088363038394838 0.014147071211565162 0 -0.00053240605533028541 0.013825664467870567 0 4.6040042787608824e-05 0.013821586623753412 0 -0.00032088363038394838 0.014147071211565162 0 -3.7076615826918061e-05 0.014193074408293432 0 3.7507426484272104e-05 0.013818142127730469 0 -9.5281004131760185e-05 0.013841096604740337 0 4.6040042787608824e-05 0.013821586623753412 0 8.4463056439555524e-05 0.013832169533753148 0 0.00027250789308354756 0.013767576387739858 0 8.4463056439555524e-05 0.013832169533753148 0 0.0002655531923739594 0.014056027875796654 0 0.00027250789308354756 0.013767576387739858 0 0.00018247665664828562 0.013683993060919414 0 0.00012356276837355019 0.013756410711628071 0 0.000155757381887522 0.013747373455950524 0 0.00018247665664828562 0.013683993060919414 0 4.6040042787608824e-05 0.013821586623753412 0 0.00012356276837355019 0.013756410711628071 0 4.6040042787608824e-05 0.013821586623753412 0 8.4463056439555524e-05 0.013832169533753148 0 0.00012356276837355019 0.013756410711628071 0 8.4463056439555524e-05 0.013832169533753148 0 0.000155757381887522 0.013747373455950524 0 8.5176824114488713e-05 0.013707190439931906 0 0.0014267491074228286 0.012225565197339824 0 0.0014288540230489293 0.012158682283837425 0 0.0017880194505401129 0.012381744742702476 0 8.4463056439555524e-05 0.013832169533753148 0 0.00012356276837355019 0.013756410711628071 0 0.000155757381887522 0.013747373455950524 0 0.00078186066052495873 0.012906514520186986 0 0.00080968648104106711 0.013522192008398284 0 -7.142110784185645e-05 0.014053396420963418 0 0.00080968648104106711 0.013522192008398284 0 8.4463056439555524e-05 0.013832169533753148 0 0.0002655531923739594 0.014056027875796654 0 6.7678249376285924e-06 0.014319708274239807 0 0.0002655531923739594 0.014056027875796654 0 0.00052431382245774773 0.014110675667344341 0 0.00027250789308354756 0.013767576387739858 0 0.0002655531923739594 0.014056027875796654 0 0.00052431382245774773 0.014110675667344341 0 0.00041568175293140586 0.014328208691744311 0 0.00052431382245774773 0.014110675667344341 0 0.00071288288368076297 0.013899033033119958 0 0.00085455448160954954 0.014257920333784455 0 0.00052431382245774773 0.014110675667344341 0 0.00085455448160954954 0.014257920333784455 0 0.00063087114065651679 0.014328993573747381 0 -0.00097227955988396964 0.013836557846478113 0 -0.0010043894101134114 0.01409346148717976 0 -0.0011677958295484129 0.014037738951515787 0 -0.00097227955988396964 0.013836557846478113 0 -0.00080664204162482012 0.014118678043256392 0 -0.0010043894101134114 0.01409346148717976 0 0.00052431382245774773 0.014110675667344341 0 0.00071288288368076297 0.013899033033119958 0 0.00027250789308354756 0.013767576387739858 0 -0.00097227955988396964 0.013836557846478113 0 -0.00053240605533028541 0.013825664467870567 0 -0.00080664204162482012 0.014118678043256392 0 -0.00015141770984143429 0.013532278715307374 0 -9.5281004131760185e-05 0.013841096604740337 0 -0.00058686183235383922 0.014135079697123571 0 -0.00069373721165964027 0.014497293111359005 0 -0.00080664204162482012 0.014118678043256392 0 -0.00032088363038394838 0.014147071211565162 0 -0.00053240605533028541 0.013825664467870567 0 -0.00058686183235383922 0.014135079697123571 0 -0.00053240605533028541 0.013825664467870567 0 -0.00058686183235383922 0.014135079697123571 0 -0.00080664204162482012 0.014118678043256392 0 -0.00032088363038394838 0.014147071211565162 0 -0.00058686183235383922 0.014135079697123571 0 -0.00069373721165964027 0.014497293111359005 0 -2.8401286064577968e-07 0.015376473983225378 0 5.8601476639867851e-05 0.016173997596495768 0 5.5302174496654604e-09 0.016776206496866109 0 -0.00020474427838766793 0.015140847876153869 0 -0.0011698942098062055 0.017528783845147083 0 5.8601476639867851e-05 0.016173997596495768 0 5.5302174496654604e-09 0.016776206496866109 0 -0.00017711916196670586 0.016453502380959998 0 -1.8147050538651779e-07 0.01677768336005156 0 -0.0011698942098062055 0.017528783845147083 0 -0.0010587858711077643 0.014354942146335901 0 -0.00080664204162482012 0.014118678043256392 0 -0.0010043894101134114 0.01409346148717976 0 -0.00069373721165964027 0.014497293111359005 0 -0.0010587858711077643 0.014354942146335901 0 -0.00080664204162482012 0.014118678043256392 0 -0.0010587858711077643 0.014354942146335901 0 -0.0010043894101134114 0.01409346148717976 0 -0.0011677958295484129 0.014037738951515787 0 -1.4190784565199076e-06 0.016779707592840434 0 -0.00018026604269541564 0.017815621761245147 0 -0.00016240880477629927 0.0192424453493832 0 -0.0026540427747163073 0.02063273967285895 0 -0.0014138623676164192 0.020973019342049926 0 -0.0022163982823181221 0.021533600451675738 0 -0.0011698942098062055 0.017528783845147083 0 -0.0017895491587142647 0.017797398549774288 0 -0.0011698942098062055 0.017528783845147083 0 -0.00071362123439836769 0.020387428272418517 0 1.91075757290187e-07 0.019829431755479379 0 -1.4190784565199076e-06 0.016779707592840434 0 -0.00016240880477629927 0.0192424453493832 0 -0.00094735638076834459 0.021841723689249727 0 -0.0014138623676164192 0.020973019342049926 0 -0.0022163982823181221 0.021533600451675738 0 -0.00094735638076834459 0.021841723689249727 0 -0.0022163982823181221 0.021533600451675738 0 -0.0017583713831571704 0.022402191966395955 0 -0.00015141770984143429 0.013532278715307374 0 -0.00047033029982305915 0.017424654559721749 0 -0.00097227955988396964 0.013836557846478113 0 -0.0011677958295484129 0.014037738951515787 0 -0.0012675417287323272 0.013826626916117165 0 -0.0017895491587142647 0.017797398549774288 0 -0.00047033029982305915 0.017424654559721749 0 0.00071288288368076297 0.013899033033119958 0 0.00085455448160954954 0.014257920333784455 0 0.0011485469031148996 0.014053204219482064 0 0.00085455448160954954 0.014257920333784455 0 0.0011485469031148996 0.014053204219482064 0 0.0010911064152179383 0.014307606600631925 0 0.0011485469031148996 0.014053204219482064 0 0.0013089949876273596 0.014366007796847737 0 0.0010911064152179383 0.014307606600631925 0 -0.00047033029982305915 0.017424654559721749 0 0.00040465416580736573 0.016937215928481086 0 -0.0001077480318211809 0.019528653181989312 0 -0.00058086789878962909 0.019364856026353388 0 -0.00040025558104777703 0.019723819961372478 0 -0.00047039725240504034 0.021380648211583857 0 -0.00047033029982305915 0.017424654559721749 0 -0.00094735638076834459 0.021841723689249727 0 -0.00076091658078059489 0.022685834372625363 0 -0.0017583713831571704 0.022402191966395955 0 0.0014633169356172279 0.014686051607014647 0 0.0013089949876273596 0.014366007796847737 0 0.0010528235872333093 0.014557381775031668 0 0.00040099700257922307 0.017933195809378799 0 0.00040465416580736573 0.016937215928481086 0 0.0013089949876273596 0.014366007796847737 0 0.0010911064152179383 0.014307606600631925 0 0.0010528235872333093 0.014557381775031668 0 0.00085455448160954954 0.014257920333784455 0 0.0010528235872333093 0.014557381775031668 0 0.0007368457186059693 0.01461852399191761 0 0.00085455448160954954 0.014257920333784455 0 0.0010911064152179383 0.014307606600631925 0 0.0010528235872333093 0.014557381775031668 0 0.0014992834192535402 0.015513472749516293 0 0.00070175464952489369 0.014509906634438271 0 0.0010528235872333093 0.014557381775031668 0 0.0010939272997845032 0.014894693498225565 0 0.0007368457186059693 0.01461852399191761 0 0.0013078950534339737 0.014901620017171409 0 0.0011016549906063032 0.015023136392774873 0 0.00085003387357189173 0.014591008312624415 0 0.00044878218346129043 0.017794026149446602 0 0.001850227596901064 0.01693883271974005 0 0.0012216230993943027 0.016513222841791443 0 0.0002612215306759638 0.017427395524027008 0 0.00044878218346129043 0.017794026149446602 0 0.0012216230993943027 0.016513222841791443 0 0.0014633169356172279 0.014686051607014647 0 0.0010528235872333093 0.014557381775031668 0 0.0010939272997845032 0.014894693498225565 0 0.00040099700257922307 0.017933195809378799 0 0.0014992834192535402 0.015513472749516293 0 0.00043840723850040023 0.018737973202320322 0 0.0016249226563048312 0.016868072816741575 0 0.0020301011283010554 0.01689317351832012 0 0.0020307848070189862 0.016933236982959617 0 0.0017996136253660274 0.016831246142368889 0 0.0020301011283010554 0.01689317351832012 0 0.0018640085317379656 0.016771523434945538 0 0.0017996136253660274 0.016831246142368889 0 0.0014992834192535402 0.015513472749516293 0 0.0016249226563048312 0.016868072816741575 0 0.0019338298325933673 0.015691100425043826 0 0.002040287265548489 0.015767471218087831 0 0.0019678001287181564 0.01583492893036061 0 0.0016249226563048312 0.016868072816741575 0 0.0025496485606616008 0.015686832140923441 0 0.0010768283950323405 0.01836138293116002 0 0.0016249226563048312 0.016868072816741575 0 0.0020312728166714754 0.016980226033030697 0 0.0020307848070189862 0.016933236982959617 0 0.0017996136253660274 0.016831246142368889 0 0.0031447916463791508 0.015022547514208957 0 0.0031904020944229631 0.015059414336724079 0 0.0031669385524262994 0.015000468007023749 0 0.0032110243433551922 0.01502439718379381 0 0.0030568393237240562 0.014919663719550421 0 0.0031904020944229631 0.015059414336724079 0 0.0031669385524262994 0.015000468007023749 0 0.0032065518399727795 0.015043059327215868 0 0.0019936366397717092 0.016993647312410414 0 0.0025496485606616008 0.015686832140923441 0 0.0031669385524262994 0.015000468007023749 0 0.0031354445143176382 0.014926536823927581 0 0.0031563037344703353 0.014986001984836095 0 0.0031300250515746311 0.014963924127589338 0 0.0031354445143176382 0.014926536823927581 0 0.0031563037344703353 0.014986001984836095 0 0.0031300250515746311 0.014963924127589338 0 0.0031354445143176382 0.014926536823927581 0 0.0030794141470020758 0.014939279970684798 0 0.0032210571746449685 0.014692964677024146 0 0.0031194206016052872 0.014714252827987296 0 0.003095645367307965 0.014817398549257545 0 0.0030568393237240562 0.014919663719550421 0 0.0031037646919289297 0.014859997278257138 0 0.0032210571746449685 0.014692964677024146 0 0.0031132076089258297 0.014616443642587358 0 0.0031194206016052872 0.014714252827987296 0 0.0030568393237240562 0.014919663719550421 0 0.002675238895489024 0.014118399776087968 0 0.0025664213946359022 0.015006280344022545 0 0.002496611774959601 0.014801544073811448 0 0.0023762867347407709 0.014872273019729813 0 0.0026712656913709045 0.014908235708608301 0 0.0025664213946359022 0.015006280344022545 0 0.002496611774959601 0.014801544073811448 0 0.0025496485606616008 0.015686832140923441 0 0.0030568393237240562 0.014919663719550421 0 0.0014992834192535402 0.015513472749516293 0 0.0018443571940148663 0.014902904959711027 0 0.0025496485606616008 0.015686832140923441 0 0.0018443571940148663 0.014902904959711027 0 0.0019338298325933673 0.015691100425043826 0 0.0019678001287181564 0.01583492893036061 0 0.0018312939141877792 0.015750115914505761 0 0.0018443571940148663 0.014902904959711027 0 0.002675238895489024 0.014118399776087968 0 0.0028865231123214293 0.013277588977882636 0 0.0026329754532387574 0.013418249866945293 0 0.0026806867054660509 0.013338815460674973 0 0.002675238895489024 0.014118399776087968 0 0.0020046964570707305 0.013540607362410207 0 0.002675238895489024 0.014118399776087968 0 0.0028294196072367762 0.014298468736590219 0 0.0028865231123214293 0.013277588977882636 0 0.0026618956831880114 0.013261572328768765 0 0.0026005901623200722 0.013066958852849262 0 0.0023608801519647352 0.014216148685118989 0 0.0021471758259912366 0.014343292978838719 0 0.0016604963785875847 0.013787089784817744 0 0.0028865231123214293 0.013277588977882636 0 0.0026806867054660509 0.013338815460674973 0 0.0026618956831880114 0.013261572328768765 0 0.0031132076089258297 0.014616443642587358 0 0.0031194206016052872 0.014714252827987296 0 0.0030472163135766032 0.014730055743019704 0 0.0031132076089258297 0.014616443642587358 0 0.0030472163135766032 0.014730055743019704 0 0.0029413710769882061 0.014717050836420215 0 0.0031194206016052872 0.014714252827987296 0 0.0030472163135766032 0.014730055743019704 0 0.003095645367307965 0.014817398549257545 0 0.0030472163135766032 0.014730055743019704 0 0.0029824449220225077 0.014758962482416749 0 0.0029413710769882061 0.014717050836420215 0 0.0030472163135766032 0.014730055743019704 0 0.002995309730006382 0.014807231137872825 0 0.003095645367307965 0.014817398549257545 0 0.0030472163135766032 0.014730055743019704 0 0.002995309730006382 0.014807231137872825 0 0.0029824449220225077 0.014758962482416749 0 0.0028294196072367762 0.014298468736590219 0 0.0027759564734823423 0.014875038805211724 0 0.0029413710769882061 0.014717050836420215 0 0.0027755461567571795 0.01481691532546945 0 0.0028387344626559204 0.014805862128162204 0 0.00290828074469746 0.014784415639139244 0 0.0029413710769882061 0.014717050836420215 0 0.0028387344626559204 0.014805862128162204 0 0.00290828074469746 0.014784415639139244 0 0.0028387344626559204 0.014805862128162204 0 0.0029072416254645873 0.01483377963857647 0 0.00290828074469746 0.014784415639139244 0 0.0029422806476544312 0.014779910816248189 0 0.0029072416254645873 0.01483377963857647 0 0.002995309730006382 0.014807231137872825 0 0.0029422806476544312 0.014779910816248189 0 0.0029072416254645873 0.01483377963857647 0 0.002995309730006382 0.014807231137872825 0 0.0029824449220225077 0.014758962482416749 0 0.0029422806476544312 0.014779910816248189 0 0.00290828074469746 0.014784415639139244 0 0.0029422806476544312 0.014779910816248189 0 0.0029413710769882061 0.014717050836420215 0 0.0029824449220225077 0.014758962482416749 0 0.0029422806476544312 0.014779910816248189 0 0.0029413710769882061 0.014717050836420215 0 0.0026156205358655602 0.013384623195254703 0 0.0026329754532387574 0.013418249866945293 0 0.0026806867054660509 0.013338815460674973 0 0.0026156205358655602 0.013384623195254703 0 0.0025222862449111975 0.013402132616173614 0 0.0026030820226752107 0.013338465421773783 0 0.0026156205358655602 0.013384623195254703 0 0.0025166138706308153 0.013440204033252478 0 0.0025222862449111975 0.013402132616173614 0 0.0026156205358655602 0.013384623195254703 0 0.0026329754532387574 0.013418249866945293 0 0.0025166138706308153 0.013440204033252478 0 0.0025222862449111975 0.013402132616173614 0 0.002535725375870876 0.01334533438421534 0 0.0024439547952930089 0.013399678681486593 0 0.002535725375870876 0.01334533438421534 0 0.0025474082898471976 0.013273567539223711 0 0.0026030820226752107 0.013338465421773783 0 0.0025222862449111975 0.013402132616173614 0 0.002535725375870876 0.01334533438421534 0 0.0026030820226752107 0.013338465421773783 0 0.002535725375870876 0.01334533438421534 0 0.0025474082898471976 0.013273567539223711 0 0.0024681784610426343 0.013323402080731366 0 0.0025474082898471976 0.013273567539223711 0 0.0026030820226752107 0.013338465421773783 0 0.0026618956831880114 0.013261572328768765 0 0.0026156205358655602 0.013384623195254703 0 0.0026806867054660509 0.013338815460674973 0 0.0026030820226752107 0.013338465421773783 0 0.0026806867054660509 0.013338815460674973 0 0.0026030820226752107 0.013338465421773783 0 0.0026618956831880114 0.013261572328768765 0 0.0025474082898471976 0.013273567539223711 0 0.0026618956831880114 0.013261572328768765 0 0.0026005901623200722 0.013066958852849262 0 0.0025474082898471976 0.013273567539223711 0 0.0026005901623200722 0.013066958852849262 0 0.0024443748842611448 0.013245628482886046 0 0.0016604963785875847 0.013787089784817744 0 0.0015514223629579901 0.013922950005008537 0 0.00095768768621275506 0.013501775817593294 0 0.0021471758259912366 0.014343292978838719 0 0.0016604963785875847 0.013787089784817744 0 0.0015514223629579901 0.013922950005008537 0 0.0011016549906063032 0.015023136392774873 0 0.00049683483705757986 0.014653159261625266 0 0.00085003387357189173 0.014591008312624415 0 0.0018443571940148663 0.014902904959711027 0 0.00099590534578646202 0.01420971330507141 0 0.00049683483705757986 0.014653159261625266 0 0.00085003387357189173 0.014591008312624415 0 0.00041568175293140586 0.014328208691744311 0 0.00070175464952489369 0.014509906634438271 0 0.00048629688599374587 0.014385614103639368 0 0.0007368457186059693 0.01461852399191761 0 0.00063087114065651679 0.014328993573747381 0 0.00041568175293140586 0.014328208691744311 0 0.00085455448160954954 0.014257920333784455 0 0.0007368457186059693 0.01461852399191761 0 0.00063087114065651679 0.014328993573747381 0 0.00052431382245774773 0.014110675667344341 0 0.00063087114065651679 0.014328993573747381 0 0.00041568175293140586 0.014328208691744311 0 0.00049683483705757986 0.014653159261625266 0 0.00041568175293140586 0.014328208691744311 0 6.7678249376285924e-06 0.014319708274239807 0 0.0002655531923739594 0.014056027875796654 0 0.00041568175293140586 0.014328208691744311 0 6.7678249376285924e-06 0.014319708274239807 0 0.00099590534578646202 0.01420971330507141 0 0.00080968648104106711 0.013522192008398284 0 0.0016604963785875847 0.013787089784817744 0 0.00095768768621275506 0.013501775817593294 0 0.00096205726817079654 0.013357758213590714 0 0.0019995357742436559 0.012379150435249594 0 0.00080968648104106711 0.013522192008398284 0 0.0029261667594739026 0.010254340143748812 0 0.0036478883906272265 0.010739829990172589 0 0.0030733368162355838 0.01115624771853423 0 0.0014267491074228286 0.012225565197339824 0 0.00178533269591774 0.012482585178680741 0 0.0017880194505401129 0.012381744742702476 0 0.0022563444110826041 0.01120960059239103 0 0.0019995357742436559 0.012379150435249594 0 0.0036478883906272265 0.010739829990172589 0 0.0033715652699070706 0.011447569139856426 0 0.003634791975494614 0.011754704065653579 0 0.0036478883906272265 0.010739829990172589 0 0.0030733368162355838 0.01115624771853423 0 0.0033715652699070706 0.011447569139856426 0 0.0030733368162355838 0.01115624771853423 0 0.0032035255277736477 0.011553955543106285 0 0.0033715652699070706 0.011447569139856426 0 0.0030733368162355838 0.01115624771853423 0 0.0032035255277736477 0.011553955543106285 0 0.0029317863137985779 0.011611447180348233 0 0.0019995357742436559 0.012379150435249594 0 0.0030941453650726843 0.012215765420645789 0 0.0026005901623200722 0.013066958852849262 0 0.0023048974504253938 0.012853127295272384 0 0.0022997805547087052 0.013207859571256218 0 0.0020046964570707305 0.013540607362410207 0 0.0019995357742436559 0.012379150435249594 0 0.0026005901623200722 0.013066958852849262 0 0.0024443748842611448 0.013245628482886046 0 0.0022997805547087052 0.013207859571256218 0 0.0022997805547087052 0.013207859571256218 0 0.0023623238068282066 0.013319579339989592 0 0.0022958665045389069 0.013556281710098959 0 0.0024443748842611448 0.013245628482886046 0 0.0022997805547087052 0.013207859571256218 0 0.0023623238068282066 0.013319579339989592 0 0.0025474082898471976 0.013273567539223711 0 0.0024443748842611448 0.013245628482886046 0 0.0024681784610426343 0.013323402080731366 0 0.0024443748842611448 0.013245628482886046 0 0.0024134504213725598 0.013304185881509665 0 0.0024681784610426343 0.013323402080731366 0 0.0024443748842611448 0.013245628482886046 0 0.0023623238068282066 0.013319579339989592 0 0.0024134504213725598 0.013304185881509665 0 0.0024134504213725598 0.013304185881509665 0 0.0024681784610426343 0.013323402080731366 0 0.0023983532965323891 0.0133718744361454 0 0.0023623238068282066 0.013319579339989592 0 0.0024134504213725598 0.013304185881509665 0 0.0023983532965323891 0.0133718744361454 0 0.0024681784610426343 0.013323402080731366 0 0.0024439547952930089 0.013399678681486593 0 0.0023983532965323891 0.0133718744361454 0 0.002535725375870876 0.01334533438421534 0 0.0024681784610426343 0.013323402080731366 0 0.0024439547952930089 0.013399678681486593 0 0.0025222862449111975 0.013402132616173614 0 0.0024439547952930089 0.013399678681486593 0 0.0022958665045389069 0.013556281710098959 0 0.0025166138706308153 0.013440204033252478 0 0.0025222862449111975 0.013402132616173614 0 0.0022958665045389069 0.013556281710098959 0 0.0023623238068282066 0.013319579339989592 0 0.0023983532965323891 0.0133718744361454 0 0.0022958665045389069 0.013556281710098959 0 0.0030941453650726843 0.012215765420645789 0 0.0027624951532849926 0.013778409295325417 0 0.0026329754532387574 0.013418249866945293 0 0.0025166138706308153 0.013440204033252478 0 0.0022958665045389069 0.013556281710098959 0 0.0029505641489123782 0.0146861816038555 0 0.0027064402843428397 0.014807960312636407 0 0.0027755461567571795 0.01481691532546945 0 0.0028294196072367762 0.014298468736590219 0 0.0027624951532849926 0.013778409295325417 0 0.0024439547952930089 0.013399678681486593 0 0.0023983532965323891 0.0133718744361454 0 0.0022958665045389069 0.013556281710098959 0 0.003634791975494614 0.011754704065653579 0 0.0036028388747225814 0.012663156555185968 0 0.0033778953829491152 0.012289497047275772 0 0.0036028388747225814 0.012663156555185968 0 0.0031780221189983485 0.012545264722667947 0 0.0031113444522882223 0.012847861765991942 0 0.0036028388747225814 0.012663156555185968 0 0.0031780221189983485 0.012545264722667947 0 0.0033778953829491152 0.012289497047275772 0 0.0033778953829491152 0.012289497047275772 0 0.0031984743767907958 0.012108375088255546 0 0.0030119486540264328 0.012310546613073209 0 0.0031780221189983485 0.012545264722667947 0 0.0033778953829491152 0.012289497047275772 0 0.0030119486540264328 0.012310546613073209 0 0.0031984743767907958 0.012108375088255546 0 0.0029561138242119849 0.012096682562879888 0 0.0030119486540264328 0.012310546613073209 0 0.0031984743767907958 0.012108375088255546 0 0.0034178022461931173 0.011849677824389811 0 0.0029561138242119849 0.012096682562879888 0 0.0033778953829491152 0.012289497047275772 0 0.0031984743767907958 0.012108375088255546 0 0.0034024688445861971 0.012001083740099623 0 0.003634791975494614 0.011754704065653579 0 0.0033778953829491152 0.012289497047275772 0 0.0034024688445861971 0.012001083740099623 0 0.0031984743767907958 0.012108375088255546 0 0.0034024688445861971 0.012001083740099623 0 0.0034178022461931173 0.011849677824389811 0 0.0032035255277736477 0.011553955543106285 0 0.0033715652699070706 0.011447569139856426 0 0.0034178022461931173 0.011849677824389811 0 0.0033715652699070706 0.011447569139856426 0 0.003634791975494614 0.011754704065653579 0 0.0034178022461931173 0.011849677824389811 0 0.003634791975494614 0.011754704065653579 0 0.0034024688445861971 0.012001083740099623 0 0.0034178022461931173 0.011849677824389811 0 0.0032035255277736477 0.011553955543106285 0 0.0034178022461931173 0.011849677824389811 0 0.0029317863137985779 0.011611447180348233 0 0.0029317863137985779 0.011611447180348233 0 0.0022870211032093449 0.011811908575337152 0 0.0024689353724871247 0.011507397242339068 0 0.0034178022461931173 0.011849677824389811 0 0.0029317863137985779 0.011611447180348233 0 0.0022870211032093449 0.011811908575337152 0 0.0033681556795381005 0.011840236900260981 0 0.0024427041768724195 0.011915547665189631 0 0.0034178022461931173 0.011849677824389811 0 0.0029561138242119849 0.012096682562879888 0 0.0025373352599520624 0.011939598155768828 0 0.0029561138242119849 0.012096682562879888 0 0.0026159485047003435 0.012274221665461641 0 0.0025373352599520624 0.011939598155768828 0 0.0029561138242119849 0.012096682562879888 0 0.0030119486540264328 0.012310546613073209 0 0.0026159485047003435 0.012274221665461641 0 0.0030119486540264328 0.012310546613073209 0 0.0026159485047003435 0.012274221665461641 0 0.0028125254029181357 0.012607490059419557 0 0.0026159485047003435 0.012274221665461641 0 0.0028125254029181357 0.012607490059419557 0 0.0023728807040268923 0.012561848619885522 0 0.0031780221189983485 0.012545264722667947 0 0.0028125254029181357 0.012607490059419557 0 0.0031113444522882223 0.012847861765991942 0 0.0031780221189983485 0.012545264722667947 0 0.0030119486540264328 0.012310546613073209 0 0.0028125254029181357 0.012607490059419557 0 0.0025302300655829458 0.012785042358362614 0 0.0020818753165518615 0.012107274294820244 0 0.0017629923446453551 0.012816687276902281 0 0.0025302300655829458 0.012785042358362614 0 0.0021418423166825792 0.013238769733671139 0 0.0017629923446453551 0.012816687276902281 0 0.0026159485047003435 0.012274221665461641 0 0.0023728807040268923 0.012561848619885522 0 0.0020818753165518615 0.012107274294820244 0 0.002409251415925543 0.012622460660774576 0 0.002144842577855785 0.012188908510520348 0 0.0020818753165518615 0.012107274294820244 0 0.0025373352599520624 0.011939598155768828 0 0.0014757617980285767 0.011987832820982654 0 0.0018298914596323031 0.011674580829350512 0 0.0022870211032093449 0.011811908575337152 0 0.0024689353724871247 0.011507397242339068 0 0.0018298914596323031 0.011674580829350512 0 0.0022870211032093449 0.011811908575337152 0 0.0011979397930980914 0.011832851939037861 0 0.0018575062650061337 0.011635786758843022 0 0.0023991634912601343 0.011515151889431158 0 0.0024427041768724195 0.011915547665189631 0 0.0012588075063697892 0.011618051962293735 0 0.0026159485047003435 0.012274221665461641 0 0.0020818753165518615 0.012107274294820244 0 0.0025373352599520624 0.011939598155768828 0 0.0018698538396165088 0.01160020151738227 0 0.0020501234388080312 0.011171504844719413 0 0.0024689353724871247 0.011507397242339068 0 0.0018698538396165088 0.01160020151738227 0 0.0020501234388080312 0.011171504844719413 0 0.0014767559852032824 0.01114000686960852 0 0.0020501234388080312 0.011171504844719413 0 0.0019492831717494157 0.010684375500307378 0 0.0014767559852032824 0.01114000686960852 0 0.0020501234388080312 0.011171504844719413 0 0.0025128645798772773 0.010918422893615254 0 0.0019492831717494157 0.010684375500307378 0 0.0024689353724871247 0.011507397242339068 0 0.0027542413557217009 0.011305486480035515 0 0.0025128645798772773 0.010918422893615254 0 0.0029317863137985779 0.011611447180348233 0 0.0024689353724871247 0.011507397242339068 0 0.0027542413557217009 0.011305486480035515 0 0.0030733368162355838 0.01115624771853423 0 0.0029317863137985779 0.011611447180348233 0 0.0027542413557217009 0.011305486480035515 0 0.0030733368162355838 0.01115624771853423 0 0.0027542413557217009 0.011305486480035515 0 0.0025128645798772773 0.010918422893615254 0 0.0020501234388080312 0.011171504844719413 0 0.0024689353724871247 0.011507397242339068 0 0.0025128645798772773 0.010918422893615254 0 0.0029261667594739026 0.010254340143748812 0 0.0025128645798772773 0.010918422893615254 0 0.0023497151935950524 0.010358665240700362 0 0.0029261667594739026 0.010254340143748812 0 0.0030733368162355838 0.01115624771853423 0 0.0025128645798772773 0.010918422893615254 0 0.0018960950126405639 0.010178289207649275 0 0.0023497151935950524 0.010358665240700362 0 0.0019492831717494157 0.010684375500307378 0 0.0025128645798772773 0.010918422893615254 0 0.0023497151935950524 0.010358665240700362 0 0.0019492831717494157 0.010684375500307378 0 0.0018779944223786514 0.015072799584064109 0 0.0020210413122550069 0.015511453635828053 0 0.0016450170645569361 0.015359098877434734 0 0.0018779944223786514 0.015072799584064109 0 0.0023166023681468074 0.015359447500910131 0 0.0022408145561025879 0.014988902257810074 0 0.0018779944223786514 0.015072799584064109 0 0.0023166023681468074 0.015359447500910131 0 0.0020210413122550069 0.015511453635828053 0 0.0023166023681468074 0.015359447500910131 0 0.0022408145561025879 0.014988902257810074 0 0.0025860152317893517 0.015168370728937017 0 0.0022408145561025879 0.014988902257810074 0 0.0019231893287226527 0.014626031094308618 0 0.0023884769926915531 0.014568230513727331 0 0.0018779944223786514 0.015072799584064109 0 0.0022408145561025879 0.014988902257810074 0 0.0019231893287226527 0.014626031094308618 0 0.0018779944223786514 0.015072799584064109 0 0.0019231893287226527 0.014626031094308618 0 0.0015029165190938061 0.014601800647756605 0 0.0019231893287226527 0.014626031094308618 0 0.0016298232521683128 0.014221139686309735 0 0.0015029165190938061 0.014601800647756605 0 0.0019231893287226527 0.014626031094308618 0 0.0021222948078779592 0.014044051121536097 0 0.0016298232521683128 0.014221139686309735 0 0.0024104544672351584 0.013819219628582999 0 0.0018442763869297471 0.014029804035418238 0 0.0025302300655829458 0.012785042358362614 0 0.0021418423166825792 0.013238769733671139 0 0.0029261633120014237 0.013471501916806279 0 0.0021418423166825792 0.013238769733671139 0 0.0029261633120014237 0.013471501916806279 0 0.0020521009279406404 0.013852379650688772 0 0.002409251415925543 0.012622460660774576 0 0.0024104544672351584 0.013819219628582999 0 0.0022018280195140435 0.014539594287978685 0 0.0024031858955870337 0.014898726691785996 0 0.0024683327130586709 0.014432603307902357 0 0.0028125254029181357 0.012607490059419557 0 0.0026389847885548807 0.013040314244173129 0 0.0031113444522882223 0.012847861765991942 0 0.0024104544672351584 0.013819219628582999 0 0.002864014985319584 0.013615918267201554 0 0.0028125254029181357 0.012607490059419557 0 0.0023728807040268923 0.012561848619885522 0 0.0026389847885548807 0.013040314244173129 0 0.0024104544672351584 0.013819219628582999 0 0.0023938204161437042 0.014806441019458133 0 0.0019231893287226527 0.014626031094308618 0 0.0021222948078779592 0.014044051121536097 0 0.0023884769926915531 0.014568230513727331 0 0.0024031858955870337 0.014898726691785996 0 0.0027146676166975858 0.014733480487313341 0 0.002674458112319865 0.015122355982658058 0 0.0024031858955870337 0.014898726691785996 0 0.0024683327130586709 0.014432603307902357 0 0.0027146676166975858 0.014733480487313341 0 0.0027009829767792415 0.015037032069348009 0 0.002684848683803392 0.015038768016698387 0 0.0027364778459765021 0.014320168209169488 0 0.0024683327130586709 0.014432603307902357 0 0.0027146676166975858 0.014733480487313341 0 0.0027624951532849926 0.013778409295325417 0 0.002864014985319584 0.013615918267201554 0 0.0027624951532849926 0.013778409295325417 0 0.0027009829767792415 0.015037032069348009 0 0.0027064402843428397 0.014807960312636407 0 0.002822673527351788 0.014949411920734514 0 0.0027088457275670501 0.015005086069478249 0 0.0027755461567571795 0.01481691532546945 0 0.002822673527351788 0.014949411920734514 0 0.002845750783761061 0.014871836198730372 0 0.0027755461567571795 0.01481691532546945 0 0.0028387344626559204 0.014805862128162204 0 0.002845750783761061 0.014871836198730372 0 0.0027064402843428397 0.014807960312636407 0 0.0027755461567571795 0.01481691532546945 0 0.002822673527351788 0.014949411920734514 0 0.002822673527351788 0.014949411920734514 0 0.0027088457275670501 0.015005086069478249 0 0.0028347390892599846 0.015064800071508944 0 0.0027088457275670501 0.015005086069478249 0 0.0027492297601575946 0.015088547308271229 0 0.0028347390892599846 0.015064800071508944 0 0.0027088457275670501 0.015005086069478249 0 0.0027492297601575946 0.015088547308271229 0 0.002674458112319865 0.015122355982658058 0 0.0027943557591035215 0.015178420866207284 0 0.0027492297601575946 0.015088547308271229 0 0.0028347390892599846 0.015064800071508944 0 0.0027943557591035215 0.015178420866207284 0 0.0027492297601575946 0.015088547308271229 0 0.002674458112319865 0.015122355982658058 0 0.0027943557591035215 0.015178420866207284 0 0.002674458112319865 0.015122355982658058 0 0.0026890715743842731 0.015221532342302798 0 0.0023938204161437042 0.014806441019458133 0 0.0025660901725615523 0.01509871695615771 0 0.0024031858955870337 0.014898726691785996 0 0.002674458112319865 0.015122355982658058 0 0.0025860152317893517 0.015168370728937017 0 0.0022408145561025879 0.014988902257810074 0 0.0023884769926915531 0.014568230513727331 0 0.0025860152317893517 0.015168370728937017 0 0.002674458112319865 0.015122355982658058 0 0.0025860152317893517 0.015168370728937017 0 0.0026890715743842731 0.015221532342302798 0 0.0025860152317893517 0.015168370728937017 0 0.0026016044392921339 0.015353877748674857 0 0.0026890715743842731 0.015221532342302798 0 0.0023166023681468074 0.015359447500910131 0 0.0025860152317893517 0.015168370728937017 0 0.0026016044392921339 0.015353877748674857 0 0.0026016044392921339 0.015353877748674857 0 0.0027585701081740736 0.015320584972742369 0 0.0026999443517766951 0.01547628931695544 0 0.0027585701081740736 0.015320584972742369 0 0.0028305633505342834 0.01543719223306545 0 0.0026999443517766951 0.01547628931695544 0 0.0027585701081740736 0.015320584972742369 0 0.0029060757322814925 0.015309074867070815 0 0.0028305633505342834 0.01543719223306545 0 0.0027943557591035215 0.015178420866207284 0 0.0027585701081740736 0.015320584972742369 0 0.0029060757322814925 0.015309074867070815 0 0.0027943557591035215 0.015178420866207284 0 0.0027585701081740736 0.015320584972742369 0 0.0026890715743842731 0.015221532342302798 0 0.0026016044392921339 0.015353877748674857 0 0.0027585701081740736 0.015320584972742369 0 0.0026890715743842731 0.015221532342302798 0 0.0029060757322814925 0.015309074867070815 0 0.0029880515530160225 0.01550796286306687 0 0.0028305633505342834 0.01543719223306545 0 0.0029060757322814925 0.015309074867070815 0 0.0030438371206897887 0.01534436591219464 0 0.0029880515530160225 0.01550796286306687 0 0.0029060757322814925 0.015309074867070815 0 0.0030438371206897887 0.01534436591219464 0 0.0029562526781565296 0.015181102802409542 0 0.0030438371206897887 0.01534436591219464 0 0.0031705084636885149 0.015263211050846397 0 0.0031496958390818145 0.015509673127477284 0 0.0030438371206897887 0.01534436591219464 0 0.0030619709447042148 0.015226693941342956 0 0.0031705084636885149 0.015263211050846397 0 0.0030438371206897887 0.01534436591219464 0 0.0030619709447042148 0.015226693941342956 0 0.0029562526781565296 0.015181102802409542 0 0.0030619709447042148 0.015226693941342956 0 0.0030743103870722152 0.015119461379511548 0 0.0031705084636885149 0.015263211050846397 0 0.0029562526781565296 0.015181102802409542 0 0.0029619963441914793 0.015063775581741511 0 0.0030743103870722152 0.015119461379511548 0 0.0030619709447042148 0.015226693941342956 0 0.0029562526781565296 0.015181102802409542 0 0.0030743103870722152 0.015119461379511548 0 0.0027943557591035215 0.015178420866207284 0 0.0029562526781565296 0.015181102802409542 0 0.0028347390892599846 0.015064800071508944 0 0.0027943557591035215 0.015178420866207284 0 0.0029060757322814925 0.015309074867070815 0 0.0029562526781565296 0.015181102802409542 0 0.0029562526781565296 0.015181102802409542 0 0.0028347390892599846 0.015064800071508944 0 0.0029619963441914793 0.015063775581741511 0 0.002822673527351788 0.014949411920734514 0 0.0029619963441914793 0.015063775581741511 0 0.0029643168427503364 0.014957892125486889 0 0.002822673527351788 0.014949411920734514 0 0.0028347390892599846 0.015064800071508944 0 0.0029619963441914793 0.015063775581741511 0 0.002822673527351788 0.014949411920734514 0 0.0029643168427503364 0.014957892125486889 0 0.002845750783761061 0.014871836198730372 0 0.002995309730006382 0.014807231137872825 0 0.0029643168427503364 0.014957892125486889 0 0.0029072416254645873 0.01483377963857647 0 0.0029643168427503364 0.014957892125486889 0 0.0029072416254645873 0.01483377963857647 0 0.002845750783761061 0.014871836198730372 0 0.0028387344626559204 0.014805862128162204 0 0.0029072416254645873 0.01483377963857647 0 0.002845750783761061 0.014871836198730372 0 0.0030794141470020758 0.014939279970684798 0 0.0029643168427503364 0.014957892125486889 0 0.0030650751710853135 0.015004453923983193 0 0.0030794141470020758 0.014939279970684798 0 0.0030650751710853135 0.015004453923983193 0 0.0031175791587143586 0.014983994767685128 0 0.002995309730006382 0.014807231137872825 0 0.003095645367307965 0.014817398549257545 0 0.0029643168427503364 0.014957892125486889 0 0.0031037646919289297 0.014859997278257138 0 0.0029674690498613958 0.014965487816461426 0 0.0029619963441914793 0.015063775581741511 0 0.0029643168427503364 0.014957892125486889 0 0.0030650751710853135 0.015004453923983193 0 0.0029619963441914793 0.015063775581741511 0 0.0030650751710853135 0.015004453923983193 0 0.0030743103870722152 0.015119461379511548 0 0.0030743103870722152 0.015119461379511548 0 0.0031691968457937154 0.015129087802115916 0 0.0031584238632900146 0.015032445795807746 0 0.0031691968457937154 0.015129087802115916 0 0.0031584238632900146 0.015032445795807746 0 0.0032804743167784969 0.015108578603796516 0 0.0030898824074972551 0.015045624020524078 0 0.003137890479919434 0.015552885322358425 0 0.0031584238632900146 0.015032445795807746 0 0.0031516112272547423 0.015000747852532343 0 0.0031617020769105228 0.015025638828767757 0 0.0030650751710853135 0.015004453923983193 0 0.0030743103870722152 0.015119461379511548 0 0.0031584238632900146 0.015032445795807746 0 0.0030650751710853135 0.015004453923983193 0 0.0031584238632900146 0.015032445795807746 0 0.0031175791587143586 0.014983994767685128 0 0.0031584238632900146 0.015032445795807746 0 0.0031175791587143586 0.014983994767685128 0 0.0031516112272547423 0.015000747852532343 0 0.0031300250515746311 0.014963924127589338 0 0.0031175791587143586 0.014983994767685128 0 0.0031516112272547423 0.015000747852532343 0 0.0031300250515746311 0.014963924127589338 0 0.0031516112272547423 0.015000747852532343 0 0.0031563037344703353 0.014986001984836095 0 0.0031300250515746311 0.014963924127589338 0 0.0030794141470020758 0.014939279970684798 0 0.0031175791587143586 0.014983994767685128 0 0.0028085266369639959 0.016201444216274358 0 0.0028848202017668716 0.01566508533407605 0 0.0031639666300594892 0.015010188612836355 0 0.0031710010151693329 0.015033291221400027 0 0.0031717711291281243 0.014996882691612761 0 0.0031563037344703353 0.014986001984836095 0 0.0031639666300594892 0.015010188612836355 0 0.0031717711291281243 0.014996882691612761 0 0.0031669385524262994 0.015000468007023749 0 0.0031563037344703353 0.014986001984836095 0 0.0031717711291281243 0.014996882691612761 0 0.0031516112272547423 0.015000747852532343 0 0.0031639666300594892 0.015010188612836355 0 0.0031617020769105228 0.015025638828767757 0 0.0031516112272547423 0.015000747852532343 0 0.0031563037344703353 0.014986001984836095 0 0.0031639666300594892 0.015010188612836355 0 0.0031584238632900146 0.015032445795807746 0 0.0031617020769105228 0.015025638828767757 0 0.0031637662535827183 0.015038560324186779 0 0.0031639666300594892 0.015010188612836355 0 0.0031710010151693329 0.015033291221400027 0 0.0031617020769105228 0.015025638828767757 0 0.0031710010151693329 0.015033291221400027 0 0.0031617020769105228 0.015025638828767757 0 0.0031637662535827183 0.015038560324186779 0 0.0032677316591481907 0.015219715258194324 0 0.0032774994631717012 0.015229159474899296 0 0.0032687449751623568 0.015237817251463965 0 0.003137890479919434 0.015552885322358425 0 0.0030276595487280854 0.016144410164711943 0 0.0025167829651048493 0.017475751754807412 0 0.0025809409947471383 0.017274137616873096 0 0.0023711618286344619 0.017367333788120456 0 0.0028085266369639959 0.016201444216274358 0 0.0030276595487280854 0.016144410164711943 0 0.0028085266369639959 0.016201444216274358 0 0.003137890479919434 0.015552885322358425 0 0.0028301672378725344 0.016065802166888795 0 0.0030458707894113904 0.015845794204323582 0 0.0029284853062834524 0.015758509393063627 0 0.0032774994631717012 0.015229159474899296 0 0.0032788973978973238 0.01524784171666387 0 0.0033200150158470103 0.015263097974590547 0 0.0030276595487280854 0.016144410164711943 0 0.0025688825805593339 0.017082597359667346 0 0.0025809409947471383 0.017274137616873096 0 0.0023711618286344619 0.017367333788120456 0 0.0023327520786517318 0.017094313021845883 0 0.0031531263903147142 0.016495851039491572 0 0.0025688825805593339 0.017082597359667346 0 0.0032788973978973238 0.01524784171666387 0 0.00327088181217474 0.015276099021842657 0 0.0033200150158470103 0.015263097974590547 0 0.00327088181217474 0.015276099021842657 0 0.0032531048868278778 0.015350696997150632 0 0.0033200150158470103 0.015263097974590547 0 0.0032437379828301762 0.015281398124402211 0 0.00327088181217474 0.015276099021842657 0 0.0032531048868278778 0.015350696997150632 0 0.0032437379828301762 0.015281398124402211 0 0.00327088181217474 0.015276099021842657 0 0.003251399400476552 0.01525428872709869 0 0.0032677316591481907 0.015219715258194324 0 0.003251399400476552 0.01525428872709869 0 0.0032687449751623568 0.015237817251463965 0 0.0032788973978973238 0.01524784171666387 0 0.003251399400476552 0.01525428872709869 0 0.0032687449751623568 0.015237817251463965 0 0.0032788973978973238 0.01524784171666387 0 0.00327088181217474 0.015276099021842657 0 0.003251399400476552 0.01525428872709869 0 0.0032774994631717012 0.015229159474899296 0 0.0032788973978973238 0.01524784171666387 0 0.0032687449751623568 0.015237817251463965 0 0.003137890479919434 0.015552885322358425 0 0.0032590648036244416 0.015138718217363166 0 0.0031691968457937154 0.015129087802115916 0 0.0032804743167784969 0.015108578603796516 0 0.0031705084636885149 0.015263211050846397 0 0.0032677316591481907 0.015219715258194324 0 0.003251399400476552 0.01525428872709869 0 0.0031705084636885149 0.015263211050846397 0 0.0030743103870722152 0.015119461379511548 0 0.0031691968457937154 0.015129087802115916 0 0.0031705084636885149 0.015263211050846397 0 0.0032437379828301762 0.015281398124402211 0 0.003251399400476552 0.01525428872709869 0 0.0031705084636885149 0.015263211050846397 0 0.0031705084636885149 0.015263211050846397 0 0.0032531048868278778 0.015350696997150632 0 0.0031496958390818145 0.015509673127477284 0 0.0031531263903147142 0.016495851039491572 0 0.0030983980198092688 0.016584390235117735 0 0.0032437379828301762 0.015281398124402211 0 0.0031705084636885149 0.015263211050846397 0 0.0032531048868278778 0.015350696997150632 0 0.0027074039791296594 0.017865512525089104 0 0.0028733455450158899 0.017814657959716425 0 0.0027704586617901886 0.017691214038732122 0 0.0027074039791296594 0.017865512525089104 0 0.0028733455450158899 0.017814657959716425 0 0.0026459002313939791 0.018025305689482799 0 0.0027074039791296594 0.017865512525089104 0 0.0027704586617901886 0.017691214038732122 0 0.0025817528960255295 0.01772433227812131 0 0.0027704586617901886 0.017691214038732122 0 0.0028990485093963159 0.017606461858893103 0 0.0027759386566650382 0.017474729499284719 0 0.0028733455450158899 0.017814657959716425 0 0.0027704586617901886 0.017691214038732122 0 0.0028990485093963159 0.017606461858893103 0 0.0025369574012213312 0.017809030333893416 0 0.0018523542760052808 0.019087668741745598 0 0.0027704586617901886 0.017691214038732122 0 0.0027759386566650382 0.017474729499284719 0 0.0025817528960255295 0.01772433227812131 0 0.0028990485093963159 0.017606461858893103 0 0.0029761288120567254 0.017444632777329522 0 0.0027759386566650382 0.017474729499284719 0 0.0028733455450158899 0.017814657959716425 0 0.0028990485093963159 0.017606461858893103 0 0.0030980274264689992 0.017605412835472265 0 0.0028990485093963159 0.017606461858893103 0 0.0029761288120567254 0.017444632777329522 0 0.0030980274264689992 0.017605412835472265 0 0.0029761288120567254 0.017444632777329522 0 0.0029706939583320942 0.017230637728825347 0 0.0031208997363284404 0.017338859767117337 0 0.0029761288120567254 0.017444632777329522 0 0.0027759386566650382 0.017474729499284719 0 0.0029706939583320942 0.017230637728825347 0 0.0029761288120567254 0.017444632777329522 0 0.0031208997363284404 0.017338859767117337 0 0.0030980274264689992 0.017605412835472265 0 0.0021562870397127168 0.018392640204410993 0 0.0021849620617078792 0.017832087932463214 0 0.0026841247637872483 0.017667847293644554 0 0.0025369574012213312 0.017809030333893416 0 0.0028064401495363571 0.017468974884571806 0 0.0021562870397127168 0.018392640204410993 0 0.0021849620617078792 0.017832087932463214 0 0.0015984723657355919 0.017879659681541548 0 0.0020763211206380281 0.018311512024954436 0 0.0014596748974914908 0.019752645997313578 0 0.0021849620617078792 0.017832087932463214 0 0.0022681419212667634 0.017349375568347671 0 0.0015984723657355919 0.017879659681541548 0 0.0021849620617078792 0.017832087932463214 0 0.0022681419212667634 0.017349375568347671 0 0.0026841247637872483 0.017667847293644554 0 0.0016510116823776897 0.019625148974194664 0 0.0016861110904486808 0.019647547963050991 0 0.0016476426557113591 0.019675020073373975 0 0.002898486851363687 0.016865451374379902 0 0.0026841247637872483 0.017667847293644554 0 0.003110130470272557 0.016988327519207945 0 0.0022681419212667634 0.017349375568347671 0 0.002898486851363687 0.016865451374379902 0 0.0026841247637872483 0.017667847293644554 0 0.0020763211206380281 0.018311512024954436 0 0.0021545302227218648 0.018521482487563766 0 0.0016510116823776897 0.019625148974194664 0 0.0016188973584330677 0.019648875287385313 0 0.0016476426557113591 0.019675020073373975 0 0.0028064401495363571 0.017468974884571806 0 0.0031050902362808044 0.017016949827961238 0 0.0029706939583320942 0.017230637728825347 0 0.0031146981814766579 0.01715769611467324 0 0.003110130470272557 0.016988327519207945 0 0.0029706939583320942 0.017230637728825347 0 0.0031146981814766579 0.01715769611467324 0 0.0031208997363284404 0.017338859767117337 0 0.0032777574746391453 0.017228992400847836 0 0.0031146981814766579 0.01715769611467324 0 0.0031208997363284404 0.017338859767117337 0 0.0032777574746391453 0.017228992400847836 0 0.0032164525277883133 0.017126702155152988 0 0.003303979309464784 0.017049569837250617 0 0.0032777574746391453 0.017228992400847836 0 0.0032164525277883133 0.017126702155152988 0 0.0031146981814766579 0.01715769611467324 0 0.0032164525277883133 0.017126702155152988 0 0.0031146981814766579 0.01715769611467324 0 0.0032119672243617167 0.017069234518997289 0 0.0021545302227218648 0.018521482487563766 0 0.0035110088299462909 0.017004142377967112 0 0.002898486851363687 0.016865451374379902 0 0.0033227675787523255 0.017061233961370253 0 0.003110130470272557 0.016988327519207945 0 0.0031146981814766579 0.01715769611467324 0 0.0032119672243617167 0.017069234518997289 0 0.003110130470272557 0.016988327519207945 0 0.0032119672243617167 0.017069234518997289 0 0.0033227675787523255 0.017061233961370253 0 0.003110130470272557 0.016988327519207945 0 0.0032164525277883133 0.017126702155152988 0 0.0032119672243617167 0.017069234518997289 0 0.003303979309464784 0.017049569837250617 0 0.0032119672243617167 0.017069234518997289 0 0.003303979309464784 0.017049569837250617 0 0.0033227675787523255 0.017061233961370253 0 0.0031665650958486681 0.017061637161576659 0 0.0029752140265208154 0.017119911668432318 0 0.003148853736880319 0.017238295104245474 0 0.0033227675787523255 0.017061233961370253 0 0.0031665650958486681 0.017061637161576659 0 0.003148853736880319 0.017238295104245474 0 0.003303979309464784 0.017049569837250617 0 0.0033227675787523255 0.017061233961370253 0 0.0031665650958486681 0.017061637161576659 0 0.003303979309464784 0.017049569837250617 0 0.0031665650958486681 0.017061637161576659 0 0.0030216881750690476 0.016835404482421035 0 0.0032777574746391453 0.017228992400847836 0 0.0033281078330914954 0.017399773428631006 0 0.0035684502030319709 0.017180716311633974 0 0.0033972131538627928 0.017112585822300238 0 0.003094017927963163 0.016708753763083624 0 0.0031861333611785934 0.016546385432872956 0 0.003094017927963163 0.016708753763083624 0 0.0032777574746391453 0.017228992400847836 0 0.003303979309464784 0.017049569837250617 0 0.0035684502030319709 0.017180716311633974 0 0.0030032902957835002 0.015742529215116489 0 0.0027805244594498952 0.015662774210211793 0 0.0027930538028423839 0.01599961733333077 0 0.0033281078330914954 0.017399773428631006 0 0.0031208997363284404 0.017338859767117337 0 0.0030980274264689992 0.017605412835472265 0 0.0032777574746391453 0.017228992400847836 0 0.0033281078330914954 0.017399773428631006 0 0.0031208997363284404 0.017338859767117337 0 0.0031861333611785934 0.016546385432872956 0 0.0030983980198092688 0.016584390235117735 0 0.0030438371206897887 0.01534436591219464 0 0.0031496958390818145 0.015509673127477284 0 0.0029880515530160225 0.01550796286306687 0 0.0030032902957835002 0.015742529215116489 0 0.0031496958390818145 0.015509673127477284 0 0.0029880515530160225 0.01550796286306687 0 0.0029880515530160225 0.01550796286306687 0 0.0028305633505342834 0.01543719223306545 0 0.0027805244594498952 0.015662774210211793 0 0.0030032902957835002 0.015742529215116489 0 0.0029880515530160225 0.01550796286306687 0 0.0027805244594498952 0.015662774210211793 0 0.0026999443517766951 0.01547628931695544 0 0.0025405377852466293 0.015584820039403247 0 0.0027805244594498952 0.015662774210211793 0 0.0028305633505342834 0.01543719223306545 0 0.0026999443517766951 0.01547628931695544 0 0.0027805244594498952 0.015662774210211793 0 0.0023166023681468074 0.015359447500910131 0 0.0026016044392921339 0.015353877748674857 0 0.0025405377852466293 0.015584820039403247 0 0.0026016044392921339 0.015353877748674857 0 0.0026999443517766951 0.01547628931695544 0 0.0025405377852466293 0.015584820039403247 0 0.0023166023681468074 0.015359447500910131 0 0.0025405377852466293 0.015584820039403247 0 0.0023064419076288655 0.015615404978736513 0 0.0025405377852466293 0.015584820039403247 0 0.0025242583002122172 0.01591169497903807 0 0.0027805244594498952 0.015662774210211793 0 0.0025405377852466293 0.015584820039403247 0 0.0025242583002122172 0.01591169497903807 0 0.0023064419076288655 0.015615404978736513 0 0.0025242583002122172 0.01591169497903807 0 0.0027805244594498952 0.015662774210211793 0 0.0027930538028423839 0.01599961733333077 0 0.0025637652577910081 0.01607220946147072 0 0.003094017927963163 0.016708753763083624 0 0.0026859233413679736 0.016310763323537272 0 0.003213050756762344 0.016557154973385019 0 0.0027144491927843426 0.017010372471508134 0 0.0030216881750690476 0.016835404482421035 0 0.0029752140265208154 0.017119911668432318 0 0.0027144491927843426 0.017010372471508134 0 0.003094017927963163 0.016708753763083624 0 0.0027503304334679868 0.016992301369524506 0 0.0029752140265208154 0.017119911668432318 0 0.0027144491927843426 0.017010372471508134 0 0.0028746289095693853 0.017400394209081724 0 0.0031665650958486681 0.017061637161576659 0 0.0030216881750690476 0.016835404482421035 0 0.0029752140265208154 0.017119911668432318 0 0.0026859233413679736 0.016310763323537272 0 0.0027144491927843426 0.017010372471508134 0 0.0021634943321824792 0.016721066277252877 0 0.0026859233413679736 0.016310763323537272 0 0.0021634943321824792 0.016721066277252877 0 0.002217315003957413 0.016054540671478254 0 0.0027144491927843426 0.017010372471508134 0 0.0021634943321824792 0.016721066277252877 0 0.0023652822314686596 0.017232438366940279 0 0.0021634943321824792 0.016721066277252877 0 0.0019205923441988162 0.01717851581434568 0 0.0023652822314686596 0.017232438366940279 0 0.0021634943321824792 0.016721066277252877 0 0.0019205923441988162 0.01717851581434568 0 0.0015000723449948017 0.016903136914767074 0 0.0021634943321824792 0.016721066277252877 0 0.0016939825618330709 0.016285940542675053 0 0.0015000723449948017 0.016903136914767074 0 0.0021634943321824792 0.016721066277252877 0 0.0016939825618330709 0.016285940542675053 0 0.002217315003957413 0.016054540671478254 0 0.0016939825618330709 0.016285940542675053 0 0.002217315003957413 0.016054540671478254 0 0.001736509075222905 0.015764687702235564 0 0.0021919966975428281 0.015946457435085225 0 0.0017659701956291999 0.015771018086831314 0 0.0025637652577910081 0.01607220946147072 0 0.0021919966975428281 0.015946457435085225 0 0.0025242583002122172 0.01591169497903807 0 0.0021877074253348044 0.015843078148027882 0 0.0023064419076288655 0.015615404978736513 0 0.0021877074253348044 0.015843078148027882 0 0.0023064419076288655 0.015615404978736513 0 0.0020210413122550069 0.015511453635828053 0 0.0023166023681468074 0.015359447500910131 0 0.0023064419076288655 0.015615404978736513 0 0.0020210413122550069 0.015511453635828053 0 0.0021877074253348044 0.015843078148027882 0 0.0020210413122550069 0.015511453635828053 0 0.001736509075222905 0.015764687702235564 0 0.0020210413122550069 0.015511453635828053 0 0.001736509075222905 0.015764687702235564 0 0.0016450170645569361 0.015359098877434734 0 2.8823760543533223e-05 0.024966974953093652 0 2.9780853196000249e-05 0.024973880029856885 0 2.6280569050046558e-05 0.024971525425385225 0 2.8823760543533223e-05 0.024966974953093652 0 2.9780853196000249e-05 0.024973880029856885 0 2.7720309380570349e-05 0.024939448987669418 0 2.8823760543533223e-05 0.024966974953093652 0 2.6280569050046558e-05 0.024971525425385225 0 2.3252334930950006e-05 0.024975435438159645 0 2.8823760543533223e-05 0.024966974953093652 0 2.3252334930950006e-05 0.024975435438159645 0 3.0176681006390914e-05 0.02495971076203678 0 -6.2587743797370092e-05 0.024957253468918857 0 2.7720309380570349e-05 0.024939448987669418 0 -5.1526284024871358e-05 0.02494454391961215 0 -0.00010781075386984234 0.025152034678935245 0 6.7001723724630238e-05 0.024859356937933976 0 -6.2587743797370092e-05 0.024957253468918857 0 -5.1526284024871358e-05 0.02494454391961215 0 -6.6960754292181988e-05 0.024952360429656244 0 -0.00010781075386984234 0.025152034678935245 0 0.00034951495734588008 0.024025668188902328 0 2.9780853196000249e-05 0.024973880029856885 0 3.0771381321063715e-05 0.024960217613530612 0 4.2635404323417392e-05 0.024951652033666661 0 2.9780853196000249e-05 0.024973880029856885 0 5.8059002473892796e-05 0.02495007864925336 0 4.2635404323417392e-05 0.024951652033666661 0 3.0771381321063715e-05 0.024960217613530612 0 2.6280569050046558e-05 0.024971525425385225 0 1.6879318526004247e-05 0.024973678260859569 0 2.6280569050046558e-05 0.024971525425385225 0 1.6879318526004247e-05 0.024973678260859569 0 2.3252334930950006e-05 0.024975435438159645 0 2.9780853196000249e-05 0.024973880029856885 0 3.0771381321063715e-05 0.024960217613530612 0 2.6280569050046558e-05 0.024971525425385225 0 1.6879318526004247e-05 0.024973678260859569 0 1.1936999972579796e-05 0.024984857380808061 0 2.3252334930950006e-05 0.024975435438159645 0 1.6879318526004247e-05 0.024973678260859569 0 1.1936999972579796e-05 0.024984857380808061 0 3.5806603689362265e-06 0.024993774680385366 0 1.1936999972579796e-05 0.024984857380808061 0 3.5806603689362265e-06 0.024993774680385366 0 1.4521028582190655e-08 0.024999971411146585 0 3.5806603689362265e-06 0.024993774680385366 0 1.4521028582190655e-08 0.024999971411146585 0 3.0583531344718484e-09 0.024999982360716249 0 1.4521028582190655e-08 0.024999971411146585 0 1.5133162579346642e-05 0.024983493790875909 0 1.4045510436731911e-08 0.024999955191776738 0 1.1936999972579796e-05 0.024984857380808061 0 1.4521028582190655e-08 0.024999971411146585 0 1.5133162579346642e-05 0.024983493790875909 0 1.5133162579346642e-05 0.024983493790875909 0 2.3252334930950006e-05 0.024975435438159645 0 2.7867794057681495e-05 0.02496819571500004 0 2.3252334930950006e-05 0.024975435438159645 0 2.7867794057681495e-05 0.02496819571500004 0 3.0176681006390914e-05 0.02495971076203678 0 1.1936999972579796e-05 0.024984857380808061 0 1.5133162579346642e-05 0.024983493790875909 0 2.3252334930950006e-05 0.024975435438159645 0 2.7867794057681495e-05 0.02496819571500004 0 3.5635470653290809e-05 0.024956280038210241 0 3.6724210627529906e-05 0.02493795563355199 0 2.7867794057681495e-05 0.02496819571500004 0 3.6724210627529906e-05 0.02493795563355199 0 3.0176681006390914e-05 0.02495971076203678 0 1.5133162579346642e-05 0.024983493790875909 0 2.7867794057681495e-05 0.02496819571500004 0 1.4045510436731911e-08 0.024999955191776738 0 2.7867794057681495e-05 0.02496819571500004 0 1.4045510436731911e-08 0.024999955191776738 0 3.5635470653290809e-05 0.024956280038210241 0 6.6011001548765752e-08 0.02499991486779073 0 1.4045510436731911e-08 0.024999955191776738 0 3.5635470653290809e-05 0.024956280038210241 0 3.5635470653290809e-05 0.024956280038210241 0 4.2599706488968378e-05 0.024934290325866072 0 3.6724210627529906e-05 0.02493795563355199 0 1.8467847826459172e-05 0.024929384258297327 0 4.2599706488968378e-05 0.024934290325866072 0 4.3243184890984114e-05 0.02490356433097873 0 4.2599706488968378e-05 0.024934290325866072 0 4.3243184890984114e-05 0.02490356433097873 0 3.6724210627529906e-05 0.02493795563355199 0 3.6724210627529906e-05 0.02493795563355199 0 2.7720309380570349e-05 0.024939448987669418 0 3.0176681006390914e-05 0.02495971076203678 0 4.3243184890984114e-05 0.02490356433097873 0 2.7720309380570349e-05 0.024939448987669418 0 -8.7398477985696734e-06 0.024923385195460477 0 4.3243184890984114e-05 0.02490356433097873 0 3.6724210627529906e-05 0.02493795563355199 0 2.7720309380570349e-05 0.024939448987669418 0 2.8823760543533223e-05 0.024966974953093652 0 2.7720309380570349e-05 0.024939448987669418 0 3.0176681006390914e-05 0.02495971076203678 0 -6.5598117811594713e-05 0.024929371138798669 0 -5.1526284024871358e-05 0.02494454391961215 0 -8.661115718824689e-05 0.024930135753940343 0 -5.1526284024871358e-05 0.02494454391961215 0 -8.7398477985696734e-06 0.024923385195460477 0 -4.5179628247937413e-05 0.024923841510175123 0 -6.5598117811594713e-05 0.024929371138798669 0 -5.1526284024871358e-05 0.02494454391961215 0 -4.5179628247937413e-05 0.024923841510175123 0 -6.5598117811594713e-05 0.024929371138798669 0 -4.5179628247937413e-05 0.024923841510175123 0 -7.8149555174918827e-05 0.024914005278212352 0 2.7720309380570349e-05 0.024939448987669418 0 -5.1526284024871358e-05 0.02494454391961215 0 -8.7398477985696734e-06 0.024923385195460477 0 4.3243184890984114e-05 0.02490356433097873 0 -8.7398477985696734e-06 0.024923385195460477 0 -2.7861222503299056e-05 0.024886361347873007 0 -8.7398477985696734e-06 0.024923385195460477 0 -4.7579801493351227e-05 0.024901702836037501 0 -2.7861222503299056e-05 0.024886361347873007 0 -4.7579801493351227e-05 0.024901702836037501 0 -2.7861222503299056e-05 0.024886361347873007 0 -7.3246363641328173e-05 0.0248820179518211 0 -8.7398477985696734e-06 0.024923385195460477 0 -4.7579801493351227e-05 0.024901702836037501 0 -4.5179628247937413e-05 0.024923841510175123 0 -4.7579801493351227e-05 0.024901702836037501 0 -4.5179628247937413e-05 0.024923841510175123 0 -7.8149555174918827e-05 0.024914005278212352 0 -4.7579801493351227e-05 0.024901702836037501 0 -7.8149555174918827e-05 0.024914005278212352 0 -7.3246363641328173e-05 0.0248820179518211 0 -2.7861222503299056e-05 0.024886361347873007 0 -7.3246363641328173e-05 0.0248820179518211 0 -7.5479552337712392e-05 0.024819494748716281 0 3.8601791848807822e-05 0.024557616359282521 0 4.3243184890984114e-05 0.02490356433097873 0 -7.5479552337712392e-05 0.024819494748716281 0 7.7084320234302101e-06 0.024690233214878014 0 5.2946847017790573e-05 0.024900038364690114 0 4.3243184890984114e-05 0.02490356433097873 0 -2.7861222503299056e-05 0.024886361347873007 0 -7.5479552337712392e-05 0.024819494748716281 0 0.0010808208404947098 0.021358244183515909 0 0.00077570713020881491 0.021479929234812064 0 0.001095078911057961 0.022080088272196683 0 -0.00023919511104090435 0.02461850233804902 0 -7.5479552337712392e-05 0.024819494748716281 0 -0.00014298523939027357 0.024905921416290753 0 0.00041415021409809609 0.023100371322793922 0 0.00055027591469695026 0.023114342821087382 0 -7.3246363641328173e-05 0.0248820179518211 0 -7.5479552337712392e-05 0.024819494748716281 0 -0.00010757223058940505 0.024895819483192371 0 0.0011551979319931066 0.020888674976811475 0 0.0010300424080669911 0.020095867841692264 0 0.00077570713020881491 0.021479929234812064 0 0.00057122338931114066 0.021757546053965189 0 0.001095078911057961 0.022080088272196683 0 0.00056060205265482104 0.021327415070199383 0 0.00060714154184674071 0.021518446380007852 0 0.00043324058945321139 0.021363707839418881 0 0.00055836438866982657 0.021222853757135975 0 0.00057299761050052676 0.021597019325366333 0 0.00055836438866982657 0.021222853757135975 0 0.00077570713020881491 0.021479929234812064 0 0.00057122338931114066 0.021757546053965189 0 0.00060714154184674071 0.021518446380007852 0 0.00055027591469695026 0.023114342821087382 0 0.0010759246214558673 0.020698646068749625 0 0.0010957837109483047 0.021012945386762578 0 0.00087170283306151693 0.02057536240973409 0 0.00060714154184674071 0.021518446380007852 0 0.0010300424080669911 0.020095867841692264 0 0.00038083972149906156 0.021931165407297341 0 0.00040398747980770612 0.022334229528136827 0 0.00077938708458344657 0.022176659351705846 0 0.00060714154184674071 0.021518446380007852 0 0.0011551979319931066 0.020888674976811475 0 0.00040398747980770612 0.022334229528136827 0 0.00077938708458344657 0.022176659351705846 0 0.00078433321405159049 0.022640314883200199 0 -8.661115718824689e-05 0.024930135753940343 0 -0.00014298523939027357 0.024905921416290753 0 -6.6960754292181988e-05 0.024952360429656244 0 0.00055027591469695026 0.023114342821087382 0 0.00034026049559182956 0.024037916764980009 0 -6.5598117811594713e-05 0.024929371138798669 0 -7.8149555174918827e-05 0.024914005278212352 0 -8.661115718824689e-05 0.024930135753940343 0 -7.8149555174918827e-05 0.024914005278212352 0 -8.661115718824689e-05 0.024930135753940343 0 -0.00010231813769420644 0.024912319966000202 0 -8.661115718824689e-05 0.024930135753940343 0 -0.00010231813769420644 0.024912319966000202 0 -0.00014298523939027357 0.024905921416290753 0 -7.5479552337712392e-05 0.024819494748716281 0 -0.00010757223058940505 0.024895819483192371 0 -0.00014298523939027357 0.024905921416290753 0 -0.00010231813769420644 0.024912319966000202 0 -0.00010757223058940505 0.024895819483192371 0 -0.00014298523939027357 0.024905921416290753 0 -7.8149555174918827e-05 0.024914005278212352 0 -0.00010231813769420644 0.024912319966000202 0 -0.00010757223058940505 0.024895819483192371 0 -7.8149555174918827e-05 0.024914005278212352 0 -7.3246363641328173e-05 0.0248820179518211 0 -0.00010757223058940505 0.024895819483192371 0 0.0022753444574283546 0.017148189533299055 0 0.0022788218446110594 0.016685124220842423 0 0.0024295918425156862 0.016786211945045672 0 0.0019936366397717092 0.016993647312410414 0 0.0019357151388060378 0.018049281447176383 0 0.002558250416917237 0.016404115951486765 0 0.0022788218446110594 0.016685124220842423 0 0.0024295918425156862 0.016786211945045672 0 0.0018816791525439025 0.018028821583292998 0 0.0017656752473559855 0.017953900898268323 0 0.001767995751989322 0.0181453030480823 0 0.0013784975579290723 0.019107812299927106 0 0.0019357151388060378 0.018049281447176383 0 0.0015675334926676357 0.019182450300513444 0 0.0014265482739893014 0.019323933983477818 0 0.0015490314872593049 0.019303149203310749 0 0.0014265482739893014 0.019323933983477818 0 0.0015490314872593049 0.019303149203310749 0 0.0016095177058851144 0.019405322846568353 0 0.0015490314872593049 0.019303149203310749 0 0.0016451628241907195 0.019230069620901669 0 0.0016095177058851144 0.019405322846568353 0 0.0015675334926676357 0.019182450300513444 0 0.0015490314872593049 0.019303149203310749 0 0.0016451628241907195 0.019230069620901669 0 0.0013784975579290723 0.019107812299927106 0 0.0010300424080669911 0.020095867841692264 0 0.00043324058945321139 0.021363707839418881 0 0.00057299761050052676 0.021597019325366333 0 0.00032401647507521977 0.021450531578482555 0 0.00043324058945321139 0.021363707839418881 0 0.00033431133508803751 0.021355578370984455 0 0.00032401647507521977 0.021450531578482555 0 0.001793198569051532 0.019513889970831019 0 0.0016451628241907195 0.019230069620901669 0 0.0016095177058851144 0.019405322846568353 0 0.001793198569051532 0.019513889970831019 0 0.0016108860675883858 0.019518075094856552 0 0.00165968542339609 0.019608803624696622 0 0.001793198569051532 0.019513889970831019 0 0.0016108860675883858 0.019518075094856552 0 0.0016095177058851144 0.019405322846568353 0 0.0016108860675883858 0.019518075094856552 0 0.0016095177058851144 0.019405322846568353 0 0.0014899320032441792 0.01952577040197321 0 0.0016108860675883858 0.019518075094856552 0 0.0014899320032441792 0.01952577040197321 0 0.0015747742078269782 0.019588434854455005 0 0.0014265482739893014 0.019323933983477818 0 0.0016095177058851144 0.019405322846568353 0 0.0014899320032441792 0.01952577040197321 0 0.0022121167818166462 0.017786348686954369 0 0.0023711618286344619 0.017367333788120456 0 0.0022125152506126699 0.017207196986335088 0 0.0025167829651048493 0.017475751754807412 0 0.0022121167818166462 0.017786348686954369 0 0.0023711618286344619 0.017367333788120456 0 0.0019357151388060378 0.018049281447176383 0 0.0018451575738593624 0.018526859942901625 0 0.0014265482739893014 0.019323933983477818 0 0.0014899320032441792 0.01952577040197321 0 0.0014286171353807792 0.019581556199945106 0 0.0028085266369639959 0.016201444216274358 0 0.0019357151388060378 0.018049281447176383 0 0.0027074039791296594 0.017865512525089104 0 0.0025844533265138919 0.017981663853438367 0 0.0026459002313939791 0.018025305689482799 0 0.0021498828470776169 0.018415308013519559 0 0.0025688825805593339 0.017082597359667346 0 0.0020691926100027238 0.017868568471358974 0 0.0021011523799998448 0.017891112474406053 0 0.0020678336098966235 0.01792255759923644 0 0.0021498828470776169 0.018415308013519559 0 0.0018451575738593624 0.018526859942901625 0 0.0023711618286344619 0.017367333788120456 0 0.0023327520786517318 0.017094313021845883 0 0.0022125152506126699 0.017207196986335088 0 0.0025688825805593339 0.017082597359667346 0 0.0018451575738593624 0.018526859942901625 0 0.0014899320032441792 0.01952577040197321 0 0.0014183997567624831 0.019590024352482582 0 0.0015106348857649244 0.019625887478088674 0 0.0014899320032441792 0.01952577040197321 0 0.0015106348857649244 0.019625887478088674 0 0.0015747742078269782 0.019588434854455005 0 0.0014188989521034432 0.019687332071459021 0 0.0014183997567624831 0.019590024352482582 0 0.0015106348857649244 0.019625887478088674 0 0.0013361663385414088 0.019283354614480542 0 0.0018451575738593624 0.018526859942901625 0 0.0014188989521034432 0.019687332071459021 0 0.0015106348857649244 0.019625887478088674 0 0.0015344244416662725 0.019697905320179558 0 0.0021498828470776169 0.018415308013519559 0 0.0014822701509149706 0.019802256635272904 0 0.0014188989521034432 0.019687332071459021 0 0.0015344244416662725 0.019697905320179558 0 0.0015375006875119816 0.019783447658988595 0 0.0015676997132955427 0.019744843056016703 0 0.0016030657503523305 0.019664567247906883 0 0.001667549824976474 0.019764643708009906 0 0.0015676997132955427 0.019744843056016703 0 0.0015344244416662725 0.019697905320179558 0 0.0015375006875119816 0.019783447658988595 0 0.0015676997132955427 0.019744843056016703 0 0.0016030657503523305 0.019664567247906883 0 0.0015344244416662725 0.019697905320179558 0 0.0015106348857649244 0.019625887478088674 0 0.0016030657503523305 0.019664567247906883 0 0.0015344244416662725 0.019697905320179558 0 0.0015106348857649244 0.019625887478088674 0 0.0016030657503523305 0.019664567247906883 0 0.0015747742078269782 0.019588434854455005 0 0.0016108860675883858 0.019518075094856552 0 0.0015747742078269782 0.019588434854455005 0 0.00165968542339609 0.019608803624696622 0 0.0016030657503523305 0.019664567247906883 0 0.0015747742078269782 0.019588434854455005 0 0.00165968542339609 0.019608803624696622 0 0.0016030657503523305 0.019664567247906883 0 0.00165968542339609 0.019608803624696622 0 0.001667549824976474 0.019764643708009906 0 0.00165968542339609 0.019608803624696622 0 0.001667549824976474 0.019764643708009906 0 0.0018141237113377025 0.019762323385572787 0 0.001667549824976474 0.019764643708009906 0 0.0015329590781177408 0.01978938398576207 0 0.0018276023427578757 0.020026486228999774 0 0.0012451705741802804 0.020724626191639464 0 0.0012047567199213534 0.020698342259245488 0 0.0012194799083974301 0.020704212794354224 0 0.0014822701509149706 0.019802256635272904 0 0.0014331618365164452 0.020650979622049342 0 0.0012451705741802804 0.020724626191639464 0 0.0012424886106047685 0.020696954662746219 0 0.0012194799083974301 0.020704212794354224 0 0.0015676997132955427 0.019744843056016703 0 0.001667549824976474 0.019764643708009906 0 0.0015329590781177408 0.01978938398576207 0 0.0015104737762812841 0.019774499587562056 0 0.0014822701509149706 0.019802256635272904 0 0.0021498828470776169 0.018415308013519559 0 0.0018523542760052808 0.019087668741745598 0 0.0027074039791296594 0.017865512525089104 0 0.0025844533265138919 0.017981663853438367 0 0.0025817528960255295 0.01772433227812131 0 0.0018491447736418128 0.019009392598018836 0 0.0019380492052765335 0.019079415003827833 0 0.0018502857766393788 0.019192610393422415 0 0.0012451705741802804 0.020724626191639464 0 0.0012826795396512927 0.020697193990357722 0 0.0012424886106047685 0.020696954662746219 0 0.0014822701509149706 0.019802256635272904 0 0.0018523542760052808 0.019087668741745598 0 -5.1526284024871358e-05 0.02494454391961215 0 -8.661115718824689e-05 0.024930135753940343 0 -6.6960754292181988e-05 0.024952360429656244 0 0.001793198569051532 0.019513889970831019 0 0.00165968542339609 0.019608803624696622 0 0.0018141237113377025 0.019762323385572787 0 0.0011551979319931066 0.020888674976811475 0 0.0008927405697447987 0.021860683908157302 0 0.00040398747980770612 0.022334229528136827 0 0.00078433321405159049 0.022640314883200199 0 0.00059700620912747605 0.022719134767209104 0 0.0012329163241083941 0.021102842352492077 0 0.0012343206238006389 0.021032038983206623 0 0.0012067025532905406 0.021048755651386648 0 0.0011551979319931066 0.020888674976811475 0 0.0015389457041696949 0.020262577678472816 0 0.0012343206238006389 0.021032038983206623 0 0.0012067025532905406 0.021048755651386648 0 0.0012052239971923305 0.021010516944033518 0 0.001667549824976474 0.019764643708009906 0 0.0018141237113377025 0.019762323385572787 0 0.0018276023427578757 0.020026486228999774 0 0.0012343206238006389 0.021032038983206623 0 0.0012057155349145692 0.020974228951600789 0 0.0012311781404600341 0.020948430376245893 0 0.0015389457041696949 0.020262577678472816 0 0.0014331618365164452 0.020650979622049342 0 0.0012343206238006389 0.021032038983206623 0 0.0012052239971923305 0.021010516944033518 0 0.0012057155349145692 0.020974228951600789 0 -6.2587743797370092e-05 0.024957253468918857 0 -4.9442853217440092e-05 0.024912524190310488 0 -5.427733117334034e-05 0.024901078126731851 0 -6.2587743797370092e-05 0.024957253468918857 0 -6.6960754292181988e-05 0.024952360429656244 0 -4.9442853217440092e-05 0.024912524190310488 0 0.0012057155349145692 0.020974228951600789 0 0.0011730757082123709 0.020986950989289807 0 0.0011797998360362728 0.020940611479889633 0 0.0012052239971923305 0.021010516944033518 0 0.0012057155349145692 0.020974228951600789 0 0.0011730757082123709 0.020986950989289807 0 0.00034026049559182956 0.024037916764980009 0 0.00055445639280444624 0.023078428232703996 0 0.0012067025532905406 0.021048755651386648 0 0.0012052239971923305 0.021010516944033518 0 0.0011730757082123709 0.020986950989289807 0 0.00078433321405159049 0.022640314883200199 0 0.00059700620912747605 0.022719134767209104 0 0.00078932266719156552 0.023098402146126688 0 0.0008927405697447987 0.021860683908157302 0 0.00055445639280444624 0.023078428232703996 0 0.00055445639280444624 0.023078428232703996 0 0.00034951495734588008 0.024025668188902328 0 0.00074296903687691125 0.023168594059306654 0 0.00073655158435089938 0.023179371261167377 0 0.00077352899097802566 0.02321871270117894 0 0.00065066953354572571 0.023331887111978228 0 0.00064044567755015813 0.023307501627702763 0 0.00065445179704945358 0.023287168617559268 0 0.0011985331474135485 0.020929562141985641 0 0.0011797998360362728 0.020940611479889633 0 0.0012073438856924764 0.020903230833500003 0 0.00034951495734588008 0.024025668188902328 0 0.00086004927088038105 0.022620908508369949 0 0.00034951495734588008 0.024025668188902328 0 0.00041423379536271483 0.024077891210173639 0 0.00055445639280444624 0.023078428232703996 0 0.00086004927088038105 0.022620908508369949 0 0.0012057155349145692 0.020974228951600789 0 0.0011985331474135485 0.020929562141985641 0 0.0011797998360362728 0.020940611479889633 0 0.0012057155349145692 0.020974228951600789 0 0.0011985331474135485 0.020929562141985641 0 0.0012311781404600341 0.020948430376245893 0 0.0014331618365164452 0.020650979622049342 0 0.0012177882362223618 0.020941934139123354 0 0.0011985331474135485 0.020929562141985641 0 0.0012137017402429552 0.020939266734027906 0 0.0012073438856924764 0.020903230833500003 0 0.0012047567199213534 0.020698342259245488 0 0.0011888207490062419 0.020724660335451218 0 0.0012073438856924764 0.020903230833500003 0 0.0013228070166951401 0.020780015989341424 0 0.0014331618365164452 0.020650979622049342 0 0.0012047567199213534 0.020698342259245488 0 0.0011888207490062419 0.020724660335451218 0 0.0012194799083974301 0.020704212794354224 0 0.0011888207490062419 0.020724660335451218 0 0.0012073438856924764 0.020903230833500003 0 0.0011480854926291229 0.020842256903405326 0 0.0011797998360362728 0.020940611479889633 0 0.0012073438856924764 0.020903230833500003 0 0.0012088567635320554 0.020905018581633933 0 0.0011388512016613473 0.020881574828342998 0 0.0012088567635320554 0.020905018581633933 0 0.0010668429120247501 0.020967262215006208 0 0.0012073438856924764 0.020903230833500003 0 0.0011388512016613473 0.020881574828342998 0 0.0011480854926291229 0.020842256903405326 0 0.0012073438856924764 0.020903230833500003 0 0.0011388512016613473 0.020881574828342998 0 0.0012088567635320554 0.020905018581633933 0 0.00086004927088038105 0.022620908508369949 0 0.00071638741366585111 0.023446157911088679 0 0.00073467002897740314 0.02306694117074239 0 0.00062767183524804662 0.023258516988260772 0 0.00073424508479906503 0.023256062712973011 0 0.00073655158435089938 0.023179371261167377 0 0.00073424508479906503 0.023256062712973011 0 0.00077352899097802566 0.02321871270117894 0 0.00086004927088038105 0.022620908508369949 0 0.000969432526197494 0.021938893646322261 0 0.0021562870397127168 0.018392640204410993 0 0.0016079170968001835 0.019105627858733602 0 0.0016027531264785986 0.018491404563437796 0 0.0012826795396512927 0.020697193990357722 0 0.0012956658005217076 0.020643068540907784 0 0.0012547748286570889 0.020669469661727998 0 0.0018523542760052808 0.019087668741745598 0 0.0014586763606583958 0.01960885298571434 0 0.0012826795396512927 0.020697193990357722 0 0.0012547748286570889 0.020669469661727998 0 0.0012424886106047685 0.020696954662746219 0 0.0012956658005217076 0.020643068540907784 0 0.0012547748286570889 0.020669469661727998 0 0.0012293996491327989 0.020631349395744059 0 0.0012547748286570889 0.020669469661727998 0 0.001224317060245084 0.020687209206170308 0 0.0012293996491327989 0.020631349395744059 0 0.0012547748286570889 0.020669469661727998 0 0.0012424886106047685 0.020696954662746219 0 0.001224317060245084 0.020687209206170308 0 0.0012424886106047685 0.020696954662746219 0 0.0012194799083974301 0.020704212794354224 0 0.001224317060245084 0.020687209206170308 0 0.0011888207490062419 0.020724660335451218 0 0.0012194799083974301 0.020704212794354224 0 0.001224317060245084 0.020687209206170308 0 0.0011888207490062419 0.020724660335451218 0 0.0011480854926291229 0.020842256903405326 0 0.0010518925852739673 0.020854069143141429 0 0.0011888207490062419 0.020724660335451218 0 0.001224317060245084 0.020687209206170308 0 0.0012293996491327989 0.020631349395744059 0 0.0012348377198062044 0.020680088933846676 0 0.0010199060745582338 0.020866787588687617 0 0.0010518925852739673 0.020854069143141429 0 0.00091924304949447518 0.020945065118752101 0 0.0010668429120247501 0.020967262215006208 0 0.0011388512016613473 0.020881574828342998 0 0.0011480854926291229 0.020842256903405326 0 0.0010518925852739673 0.020854069143141429 0 0.0011388512016613473 0.020881574828342998 0 0.0010518925852739673 0.020854069143141429 0 0.0010668429120247501 0.020967262215006208 0 0.0021562870397127168 0.018392640204410993 0 0.0016027531264785986 0.018491404563437796 0 0.0015984723657355919 0.017879659681541548 0 0.0012956658005217076 0.020643068540907784 0 0.0012293996491327989 0.020631349395744059 0 0.0012991839429177586 0.020561198667791721 0 0.0014586763606583958 0.01960885298571434 0 0.0014596748974914908 0.019752645997313578 0 0.0010199060745582338 0.020866787588687617 0 0.0014596748974914908 0.019752645997313578 0 0.0014596748974914908 0.019752645997313578 0 0.0013011339307364732 0.020420041046857029 0 0.00091924304949447518 0.020945065118752101 0 0.00099388876428402806 0.021052821895736137 0 0.00091119643876212046 0.021153224907578875 0 0.0016510116823776897 0.019625148974194664 0 0.0016846543212923335 0.01959950167771228 0 0.0016861110904486808 0.019647547963050991 0 0.00091924304949447518 0.020945065118752101 0 0.00099388876428402806 0.021052821895736137 0 0.0010668429120247501 0.020967262215006208 0 0.00099388876428402806 0.021052821895736137 0 0.0010668429120247501 0.020967262215006208 0 0.0010800497659585737 0.021149349668793758 0 0.0012088567635320554 0.020905018581633933 0 0.0010668429120247501 0.020967262215006208 0 0.0010800497659585737 0.021149349668793758 0 0.00099388876428402806 0.021052821895736137 0 0.0010800497659585737 0.021149349668793758 0 0.00091119643876212046 0.021153224907578875 0 0.00055932197905574207 0.023410558844522728 0 0.000618983279107413 0.02344032793294297 0 0.00057530232430830989 0.02346915511479887 0 0.0010800497659585737 0.021149349668793758 0 0.00091119643876212046 0.021153224907578875 0 0.00093917565901528775 0.021379479602609719 0 0.00073424508479906503 0.023256062712973011 0 0.00073537055608980967 0.023356603849297334 0 0.000816087449549863 0.023285282458411931 0 0.00073424508479906503 0.023256062712973011 0 0.00073537055608980967 0.023356603849297334 0 0.00064199966618417692 0.02334980802589056 0 0.00062767183524804662 0.023258516988260772 0 0.00073424508479906503 0.023256062712973011 0 0.00064199966618417692 0.02334980802589056 0 0.000969432526197494 0.021938893646322261 0 0.0007639338475353254 0.022393665511591776 0 0.00062767183524804662 0.023258516988260772 0 0.00055932197905574207 0.023410558844522728 0 0.00064199966618417692 0.02334980802589056 0 0.00073537055608980967 0.023356603849297334 0 0.00064199966618417692 0.02334980802589056 0 0.000618983279107413 0.02344032793294297 0 0.000618983279107413 0.02344032793294297 0 0.00063836594350052652 0.023462744512311662 0 0.00061482485034680657 0.023478918783035187 0 0.00055932197905574207 0.023410558844522728 0 0.00064199966618417692 0.02334980802589056 0 0.000618983279107413 0.02344032793294297 0 0.00079618438165305185 0.023290408913271339 0 0.00057965528393264388 0.023478020910336871 0 0.00064120709654682314 0.023451873006321136 0 0.000618983279107413 0.02344032793294297 0 0.00063836594350052652 0.023462744512311662 0 0.00064120709654682314 0.023451873006321136 0 0.00063836594350052652 0.023462744512311662 0 0.00065250894481805636 0.023458072173307344 0 0.00063836594350052652 0.023462744512311662 0 0.0006583283076847592 0.02347204480516878 0 0.00065250894481805636 0.023458072173307344 0 0.00063836594350052652 0.023462744512311662 0 0.0006583283076847592 0.02347204480516878 0 0.0006485141850550919 0.023485409782609202 0 0.0006583283076847592 0.02347204480516878 0 0.00066499636610959929 0.023460306802864608 0 0.00065250894481805636 0.023458072173307344 0 0.0006583283076847592 0.02347204480516878 0 0.00067753545361390224 0.023478135595553073 0 0.00066499636610959929 0.023460306802864608 0 9.9510857764038943e-05 0.024784370133616136 0 0.00013453927344760257 0.024860673981689646 0 2.9985177192664829e-05 0.024891375707350286 0 0.00033308152867110412 0.024259443752646465 0 0.00039288384789854246 0.02415494136602846 0 0.00013453927344760257 0.024860673981689646 0 8.2747685852475344e-05 0.024931139872096535 0 2.9985177192664829e-05 0.024891375707350286 0 0.00013453927344760257 0.024860673981689646 0 8.2747685852475344e-05 0.024931139872096535 0 0.0001664292841506007 0.024929953158192335 0 0.00064120709654682314 0.023451873006321136 0 0.00065250894481805636 0.023458072173307344 0 0.00065552831059387663 0.023450477902851426 0 0.00079618438165305185 0.023290408913271339 0 0.0003734581241055395 0.024168661111001938 0 0.00066499636610959929 0.023460306802864608 0 0.00065250894481805636 0.023458072173307344 0 0.00065552831059387663 0.023450477902851426 0 0.00039288384789854246 0.02415494136602846 0 0.0003734581241055395 0.024168661111001938 0 0.00073424508479906503 0.023256062712973011 0 0.000816087449549863 0.023285282458411931 0 0.00077352899097802566 0.02321871270117894 0 0.0003734581241055395 0.024168661111001938 0 0.00041423379536271483 0.024077891210173639 0 4.4536101709187935e-05 0.024906625114579983 0 5.3029777687045366e-05 0.024931469187913096 0 3.7376751322798351e-05 0.024939982460491106 0 0.0003734581241055395 0.024168661111001938 0 -5.4394070988024393e-05 0.025110505069819468 0 4.4536101709187935e-05 0.024906625114579983 0 3.7376751322798351e-05 0.024939982460491106 0 1.6134753395638507e-05 0.024944653476866859 0 8.2747685852475344e-05 0.024931139872096535 0 0.0001664292841506007 0.024929953158192335 0 5.3073157181947279e-05 0.025001608451783588 0 3.0771381321063715e-05 0.024960217613530612 0 3.7376751322798351e-05 0.024939982460491106 0 1.6134753395638507e-05 0.024944653476866859 0 3.0771381321063715e-05 0.024960217613530612 0 1.6879318526004247e-05 0.024973678260859569 0 1.6134753395638507e-05 0.024944653476866859 0 3.0771381321063715e-05 0.024960217613530612 0 4.2635404323417392e-05 0.024951652033666661 0 3.7376751322798351e-05 0.024939982460491106 0 5.8059002473892796e-05 0.02495007864925336 0 5.3029777687045366e-05 0.024931469187913096 0 4.2635404323417392e-05 0.024951652033666661 0 5.3029777687045366e-05 0.024931469187913096 0 4.2635404323417392e-05 0.024951652033666661 0 3.7376751322798351e-05 0.024939982460491106 0 3.5806603689362265e-06 0.024993774680385366 0 1.3419287033273314e-05 0.024995159236425146 0 3.0583531344718484e-09 0.024999982360716249 0 3.5806603689362265e-06 0.024993774680385366 0 1.3419287033273314e-05 0.024995159236425146 0 5.3073157181947279e-05 0.025001608451783588 0 1.6879318526004247e-05 0.024973678260859569 0 3.5806603689362265e-06 0.024993774680385366 0 1.6134753395638507e-05 0.024944653476866859 0 5.2894066478953959e-05 0.024939433387794089 0 -5.4394070988024393e-05 0.025110505069819468 0 8.2747685852475344e-05 0.024931139872096535 0 5.3073157181947279e-05 0.025001608451783588 0 3.4948033146135567e-05 0.024959045491045388 0 1.3419287033273314e-05 0.024995159236425146 0 5.3073157181947279e-05 0.025001608451783588 0 3.4948033146135567e-05 0.024959045491045388 0 3.4948033146135567e-05 0.024959045491045388 0 2.7613775706246484e-06 0.024990632966102957 0 2.9985177192664829e-05 0.024891375707350286 0 1.3419287033273314e-05 0.024995159236425146 0 3.4948033146135567e-05 0.024959045491045388 0 2.7613775706246484e-06 0.024990632966102957 0 3.0583531344718484e-09 0.024999982360716249 0 2.7613775706246484e-06 0.024990632966102957 0 5.0158364137185944e-09 0.02499999271061663 0 1.3419287033273314e-05 0.024995159236425146 0 3.0583531344718484e-09 0.024999982360716249 0 2.7613775706246484e-06 0.024990632966102957 0 2.7613775706246484e-06 0.024990632966102957 0 5.0158364137185944e-09 0.02499999271061663 0 1.5262128145594427e-05 0.025002340615062364 0 5.0158364137185944e-09 0.02499999271061663 0 1.5262128145594427e-05 0.025002340615062364 0 1.132016572323086e-05 0.024992547041071591 0 3.6677677292683161e-05 0.024936893876427311 0 -4.7831295152122486e-05 0.025068360320134399 0 8.2747685852475344e-05 0.024931139872096535 0 3.4948033146135567e-05 0.024959045491045388 0 2.9985177192664829e-05 0.024891375707350286 0 5.4472691322331795e-05 0.02497718216059781 0 1.132016572323086e-05 0.024992547041071591 0 1.9893272451318854e-05 0.024966150345693303 0 0.00033308152867110412 0.024259443752646465 0 -4.7831295152122486e-05 0.025068360320134399 0 5.4472691322331795e-05 0.02497718216059781 0 1.5262128145594427e-05 0.025002340615062364 0 1.132016572323086e-05 0.024992547041071591 0 5.0158364137185944e-09 0.02499999271061663 0 1.132016572323086e-05 0.024992547041071591 0 -2.5414762462789429e-06 0.024993806545575925 0 5.0158364137185944e-09 0.02499999271061663 0 -2.5414762462789429e-06 0.024993806545575925 0 -3.9343330956917945e-09 0.024999976026839156 0 1.132016572323086e-05 0.024992547041071591 0 -2.5414762462789429e-06 0.024993806545575925 0 1.9893272451318854e-05 0.024966150345693303 0 5.1284997224805037e-06 0.024952838010571344 0 -2.6253318299626708e-05 0.025055326351809171 0 -2.5414762462789429e-06 0.024993806545575925 0 1.9893272451318854e-05 0.024966150345693303 0 -7.1341749624814991e-06 0.024923106021414263 0 -2.5414762462789429e-06 0.024993806545575925 0 -3.9343330956917945e-09 0.024999976026839156 0 -5.5641597241781891e-07 0.025000612432018572 0 1.9893272451318854e-05 0.024966150345693303 0 4.2606636732456012e-05 0.024923486616038982 0 -7.1341749624814991e-06 0.024923106021414263 0 5.4472691322331795e-05 0.02497718216059781 0 1.9893272451318854e-05 0.024966150345693303 0 4.2606636732456012e-05 0.024923486616038982 0 4.2606636732456012e-05 0.024923486616038982 0 -7.1341749624814991e-06 0.024923106021414263 0 1.0440513419864559e-05 0.024843163647800873 0 0.00055216455602661641 0.023610648916490951 0 0.00056217765723111314 0.023585633165891552 0 0.00054076221564524718 0.023583294641794279 0 0.00030294169687372923 0.024236161261643536 0 0.00012801666197485693 0.024476423915159303 0 -3.9343330956917945e-09 0.024999976026839156 0 -5.5641597241781891e-07 0.025000612432018572 0 -2.2375876963662389e-10 0.025000005449917075 0 -2.6253318299626708e-05 0.025055326351809171 0 0.00012801666197485693 0.024476423915159303 0 -5.5641597241781891e-07 0.025000612432018572 0 -2.2375876963662389e-10 0.025000005449917075 0 5.2021749570985167e-07 0.024997681564836435 0 0.0006583283076847592 0.02347204480516878 0 0.00067753545361390224 0.023478135595553073 0 0.00067001112341771895 0.023498883992160585 0 0.0006583283076847592 0.02347204480516878 0 0.0006485141850550919 0.023485409782609202 0 0.00067001112341771895 0.023498883992160585 0 0.0006485141850550919 0.023485409782609202 0 0.00067001112341771895 0.023498883992160585 0 0.00064071940957741592 0.023507534151250276 0 0.00057118943662913492 0.023668132165774274 0 0.00060332564296969933 0.023623246621503821 0 0.0005764746128395997 0.023606670599665331 0 0.00057118943662913492 0.023668132165774274 0 0.00055216455602661641 0.023610648916490951 0 0.0005764746128395997 0.023606670599665331 0 0.00033308152867110412 0.024259443752646465 0 0.00030294169687372923 0.024236161261643536 0 0.00033308152867110412 0.024259443752646465 0 0.00071399563836914415 0.023444854012509644 0 0.0005764746128395997 0.023606670599665331 0 0.00059694724793823734 0.023578619484112863 0 0.00056217765723111314 0.023585633165891552 0 0.00055216455602661641 0.023610648916490951 0 0.0005764746128395997 0.023606670599665331 0 0.00056217765723111314 0.023585633165891552 0 0.00060332564296969933 0.023623246621503821 0 0.0005764746128395997 0.023606670599665331 0 0.00059694724793823734 0.023578619484112863 0 0.00059694724793823734 0.023578619484112863 0 0.00063344652878326454 0.023552390077432598 0 0.00064261478436500482 0.02353821469102086 0 0.00063737983793111456 0.023569442660104609 0 0.00049824238472728104 0.023495132549108119 0 0.00060332564296969933 0.023623246621503821 0 0.00059694724793823734 0.023578619484112863 0 0.00063344652878326454 0.023552390077432598 0 0.00071399563836914415 0.023444854012509644 0 0.00060384620967665137 0.023596446109495395 0 0.00067001112341771895 0.023498883992160585 0 0.00063344652878326454 0.023552390077432598 0 0.00064071940957741592 0.023507534151250276 0 0.00059694724793823734 0.023578619484112863 0 0.00058429642417788898 0.023571507981303658 0 0.00060484689071560016 0.023575696531507411 0 -1.8566123689391687e-05 0.024583352755239124 0 0.00014290693150019975 0.024497794374031896 0 0.00014625479386623071 0.024713730062635341 0 0.0002924695983069507 0.02411590758492313 0 0.00049824238472728104 0.023495132549108119 0 0.00059694724793823734 0.023578619484112863 0 0.00058429642417788898 0.023571507981303658 0 0.00056217765723111314 0.023585633165891552 0 -1.8566123689391687e-05 0.024583352755239124 0 4.057282691953374e-05 0.024532559188967643 0 -7.9923729728130878e-06 0.024562398361346448 0 -1.8566123689391687e-05 0.024583352755239124 0 -7.9923729728130878e-06 0.024562398361346448 0 1.769512718401969e-05 0.024472670809104796 0 -1.8566123689391687e-05 0.024583352755239124 0 1.769512718401969e-05 0.024472670809104796 0 0.00014290693150019975 0.024497794374031896 0 -2.2375876963662389e-10 0.025000005449917075 0 5.2021749570985167e-07 0.024997681564836435 0 2.7251776062826481e-07 0.024999183932402896 0 0.00058429642417788898 0.023571507981303658 0 0.00056217765723111314 0.023585633165891552 0 0.00054348430383889632 0.023569306043603414 0 0.00056217765723111314 0.023585633165891552 0 0.00054076221564524718 0.023583294641794279 0 0.00054348430383889632 0.023569306043603414 0 0.00012801666197485693 0.024476423915159303 0 0.000208139660955151 0.024411572136111767 0 0.0002924695983069507 0.02411590758492313 0 0.000208139660955151 0.024411572136111767 0 -2.2375876963662389e-10 0.025000005449917075 0 2.7251776062826481e-07 0.024999183932402896 0 8.8191347210782097e-10 0.024999992703114371 0 8.912740770170752e-05 0.024503991313218777 0 5.7570466578643532e-05 0.024635408153916346 0 0.00018236893782806572 0.024688680945907038 0 0.00012801666197485693 0.024476423915159303 0 6.4158619728252648e-05 0.024903461058994276 0 4.4630901979551485e-05 0.024986895824809036 0 -2.2266144242435826e-05 0.02493405463416179 0 -1.0524496472882612e-05 0.024879151954282835 0 0.000208139660955151 0.024411572136111767 0 6.4158619728252648e-05 0.024903461058994276 0 6.4158619728252648e-05 0.024903461058994276 0 4.877938593484565e-08 0.024999891214380156 0 6.4158619728252648e-05 0.024903461058994276 0 1.4487542641999216e-08 0.024999994764305648 0 2.913801571780009e-07 0.024999713122621801 0 6.4144178100929443e-10 0.024999999245621598 0 -2.7545124138562369e-10 0.02500000007021267 0 -2.2266144242435826e-05 0.02493405463416179 0 -1.0524496472882612e-05 0.024879151954282835 0 -6.6344252024822038e-08 0.024999523819953583 0 -1.0524496472882612e-05 0.024879151954282835 0 -6.6344252024822038e-08 0.024999523819953583 0 2.7437333532484528e-06 0.024846774210419632 0 -6.6344252024822038e-08 0.024999523819953583 0 2.7437333532484528e-06 0.024846774210419632 0 4.5330605101515642e-08 0.024999788013179543 0 2.7437333532484528e-06 0.024846774210419632 0 -7.2295961703257363e-06 0.024688373884210607 0 1.127448969569796e-05 0.024905976819265971 0 2.7437333532484528e-06 0.024846774210419632 0 -7.2295961703257363e-06 0.024688373884210607 0 2.8639738513670768e-05 0.024708944606208889 0 -7.2295961703257363e-06 0.024688373884210607 0 2.8639738513670768e-05 0.024708944606208889 0 1.8308774498515707e-05 0.024557575883841498 0 0.000208139660955151 0.024411572136111767 0 -2.3344134090383774e-05 0.024869538095925368 0 4.057282691953374e-05 0.024532559188967643 0 2.8639738513670768e-05 0.024708944606208889 0 -7.9923729728130878e-06 0.024562398361346448 0 4.4630901979551485e-05 0.024986895824809036 0 -1.0524496472882612e-05 0.024879151954282835 0 2.8639738513670768e-05 0.024708944606208889 0 -1.0524496472882612e-05 0.024879151954282835 0 2.7437333532484528e-06 0.024846774210419632 0 2.8639738513670768e-05 0.024708944606208889 0 2.8639738513670768e-05 0.024708944606208889 0 -7.9923729728130878e-06 0.024562398361346448 0 1.8308774498515707e-05 0.024557575883841498 0 -7.9923729728130878e-06 0.024562398361346448 0 1.769512718401969e-05 0.024472670809104796 0 1.8308774498515707e-05 0.024557575883841498 0 1.769512718401969e-05 0.024472670809104796 0 6.4397373710052596e-05 0.024373517088814838 0 1.8308774498515707e-05 0.024557575883841498 0 1.769512718401969e-05 0.024472670809104796 0 6.4397373710052596e-05 0.024373517088814838 0 7.5409980212568268e-05 0.02408148991185325 0 6.4397373710052596e-05 0.024373517088814838 0 1.8308774498515707e-05 0.024557575883841498 0 7.6268935933025806e-05 0.024487138561608286 0 -7.2295961703257363e-06 0.024688373884210607 0 1.8308774498515707e-05 0.024557575883841498 0 7.6268935933025806e-05 0.024487138561608286 0 -7.2295961703257363e-06 0.024688373884210607 0 7.8664375144507002e-05 0.024445340829269406 0 7.6268935933025806e-05 0.024487138561608286 0 7.8664375144507002e-05 0.024445340829269406 0 7.6268935933025806e-05 0.024487138561608286 0 9.2640802771893239e-05 0.024428050847125321 0 6.4397373710052596e-05 0.024373517088814838 0 7.6268935933025806e-05 0.024487138561608286 0 9.2640802771893239e-05 0.024428050847125321 0 6.4397373710052596e-05 0.024373517088814838 0 9.2640802771893239e-05 0.024428050847125321 0 7.5409980212568268e-05 0.02408148991185325 0 3.2029119723462739e-05 0.023946790724553788 0 9.513491724130491e-05 0.023950375627031846 0 -6.7083636448644622e-05 0.023439854332381355 0 0.00014658694912500887 0.023527568420873019 0 6.3071917003129795e-05 0.023414074245860259 0 7.8664375144507002e-05 0.024445340829269406 0 9.2640802771893239e-05 0.024428050847125321 0 0.00010398917808945037 0.024346263244502862 0 7.8664375144507002e-05 0.024445340829269406 0 5.7220423189167104e-05 0.024371157675242297 0 0.00010398917808945037 0.024346263244502862 0 -1.5159794839109568e-05 0.024385689748072203 0 5.7220423189167104e-05 0.024371157675242297 0 5.5682889825231598e-05 0.024321904199304727 0 7.8664375144507002e-05 0.024445340829269406 0 -1.5159794839109568e-05 0.024385689748072203 0 5.7220423189167104e-05 0.024371157675242297 0 -2.8648297059126593e-05 0.024997201462472293 0 1.0932511207677049e-08 0.025000009767576829 0 1.127448969569796e-05 0.024905976819265971 0 1.0932511207677049e-08 0.025000009767576829 0 4.5330605101515642e-08 0.024999788013179543 0 1.127448969569796e-05 0.024905976819265971 0 2.7437333532484528e-06 0.024846774210419632 0 4.5330605101515642e-08 0.024999788013179543 0 1.127448969569796e-05 0.024905976819265971 0 -7.2295961703257363e-06 0.024688373884210607 0 7.8664375144507002e-05 0.024445340829269406 0 -1.5159794839109568e-05 0.024385689748072203 0 -7.2295961703257363e-06 0.024688373884210607 0 -2.8648297059126593e-05 0.024997201462472293 0 1.127448969569796e-05 0.024905976819265971 0 -8.5558816287639733e-06 0.024699969639119818 0 -1.0055324404740256e-05 0.024694996452943135 0 0.0010413535547638443 0.023554352160576449 0 0.0009067114568423588 0.02234785886448214 0 0.00037768351388017834 0.023299980747395126 0 0.0010413535547638443 0.023554352160576449 0 0.00037768351388017834 0.023299980747395126 0 0.0005421180896605629 0.023889276396149565 0 0.0010857246712350716 0.022382841842263249 0 0.0009578486373385685 0.02235088644703458 0 0.0011971466714874282 0.021269659660509834 0 0.0009067114568423588 0.02234785886448214 0 0.00078550531825789447 0.021649480912411177 0 0.0009067114568423588 0.02234785886448214 0 0.00037768351388017834 0.023299980747395126 0 0.00041691174003497368 0.022805132856059309 0 0.00012059566668113602 0.023284986397347981 0 0.00037768351388017834 0.023299980747395126 0 0.00041691174003497368 0.022805132856059309 0 -6.7083636448644622e-05 0.023439854332381355 0 0.00012059566668113602 0.023284986397347981 0 6.3071917003129795e-05 0.023414074245860259 0 -6.7083636448644622e-05 0.023439854332381355 0 0.00012059566668113602 0.023284986397347981 0 7.5409980212568268e-05 0.02408148991185325 0 3.2029119723462739e-05 0.023946790724553788 0 8.5660511408970852e-05 0.024089263413700671 0 0.00037768351388017834 0.023299980747395126 0 7.5409980212568268e-05 0.02408148991185325 0 0.0005421180896605629 0.023889276396149565 0 0.00012059566668113602 0.023284986397347981 0 0.00037768351388017834 0.023299980747395126 0 7.5409980212568268e-05 0.02408148991185325 0 7.5409980212568268e-05 0.02408148991185325 0 0.00041810662880807029 0.024284428584019139 0 0.0005421180896605629 0.023889276396149565 0 1.769512718401969e-05 0.024472670809104796 0 7.5409980212568268e-05 0.02408148991185325 0 0.00014290693150019975 0.024497794374031896 0 7.5409980212568268e-05 0.02408148991185325 0 0.00041810662880807029 0.024284428584019139 0 0.00014290693150019975 0.024497794374031896 0 0.00041810662880807029 0.024284428584019139 0 0.0005421180896605629 0.023889276396149565 0 0.00095244318734824269 0.024171477646981781 0 0.00041810662880807029 0.024284428584019139 0 0.00095244318734824269 0.024171477646981781 0 0.00068472850503682519 0.024415500894929609 0 0.0010413535547638443 0.023554352160576449 0 0.0005421180896605629 0.023889276396149565 0 0.00095244318734824269 0.024171477646981781 0 0.0010857246712350716 0.022382841842263249 0 0.0011023423319866063 0.022577739642132239 0 0.00095244318734824269 0.024171477646981781 0 0.00089824256372763439 0.024576176849827248 0 0.00068472850503682519 0.024415500894929609 0 0.0011023423319866063 0.022577739642132239 0 0.00085370238151295189 0.022079250662570771 0 0.00089824256372763439 0.024576176849827248 0 0.00068472850503682519 0.024415500894929609 0 0.00044901337211435794 0.024685748280740868 0 0.00041810662880807029 0.024284428584019139 0 0.00068472850503682519 0.024415500894929609 0 0.00044901337211435794 0.024685748280740868 0 0.00085370238151295189 0.022079250662570771 0 0.00047259056731362045 0.023806521934417586 0 0.00069504761595420655 0.022493287278550208 0 0.00069440255994071445 0.022521043658276743 0 0.00064865511299291747 0.022520107385631427 0 0.00069440255994071445 0.022521043658276743 0 0.00064865511299291747 0.022520107385631427 0 0.00067534934643271661 0.022538082915685372 0 0.00085370238151295189 0.022079250662570771 0 0.00086115590549586324 0.021414591829548645 0 0.0010235747292806894 0.020524064744589388 0 0.0010203381436729006 0.020429154278587137 0 0.00097069350836361673 0.020434265088516406 0 0.0010203381436729006 0.020429154278587137 0 0.00099454716388586921 0.020387254685500431 0 0.00097069350836361673 0.020434265088516406 0 0.00041810662880807029 0.024284428584019139 0 0.00014290693150019975 0.024497794374031896 0 0.00044901337211435794 0.024685748280740868 0 0.00064865511299291747 0.022520107385631427 0 0.0006021504325219554 0.022548710069181632 0 0.00064789459022923559 0.022550967879379467 0 0.00047259056731362045 0.023806521934417586 0 0.00049824238472728104 0.023495132549108119 0 0.00014290693150019975 0.024497794374031896 0 0.00044901337211435794 0.024685748280740868 0 0.00014625479386623071 0.024713730062635341 0 0.00064261478436500482 0.02353821469102086 0 0.00062919361488807525 0.023515730832350392 0 0.00059257156597180974 0.023514404952662861 0 0.00063344652878326454 0.023552390077432598 0 0.00062919361488807525 0.023515730832350392 0 0.00064071940957741592 0.023507534151250276 0 0.00063344652878326454 0.023552390077432598 0 0.00064261478436500482 0.02353821469102086 0 0.00062919361488807525 0.023515730832350392 0 0.00062919361488807525 0.023515730832350392 0 0.00059257156597180974 0.023514404952662861 0 0.00061482485034680657 0.023478918783035187 0 0.00049824238472728104 0.023495132549108119 0 0.00060549781727494583 0.023095153092434192 0 0.00059257156597180974 0.023514404952662861 0 0.00061482485034680657 0.023478918783035187 0 0.00057530232430830989 0.02346915511479887 0 0.000618983279107413 0.02344032793294297 0 0.00061482485034680657 0.023478918783035187 0 0.00057530232430830989 0.02346915511479887 0 0.00062919361488807525 0.023515730832350392 0 0.00061482485034680657 0.023478918783035187 0 0.00063299230433369255 0.023489102242364293 0 0.00063836594350052652 0.023462744512311662 0 0.00061482485034680657 0.023478918783035187 0 0.00063299230433369255 0.023489102242364293 0 0.00063836594350052652 0.023462744512311662 0 0.0006485141850550919 0.023485409782609202 0 0.00063299230433369255 0.023489102242364293 0 0.00062919361488807525 0.023515730832350392 0 0.00063299230433369255 0.023489102242364293 0 0.00064071940957741592 0.023507534151250276 0 0.0006485141850550919 0.023485409782609202 0 0.00063299230433369255 0.023489102242364293 0 0.00064071940957741592 0.023507534151250276 0 0.0010203381436729006 0.020429154278587137 0 0.0010152485701508025 0.020355160511282003 0 0.00099454716388586921 0.020387254685500431 0 0.00069440255994071445 0.022521043658276743 0 0.00069366148550531492 0.022543746222612543 0 0.00067534934643271661 0.022538082915685372 0 0.00086115590549586324 0.021414591829548645 0 0.0010254150296939738 0.021274854509189263 0 0.00069366148550531492 0.022543746222612543 0 0.00067534934643271661 0.022538082915685372 0 0.00068982172870304557 0.022550807366439149 0 0.0010238311888465196 0.020342615587242346 0 0.00099454716388586921 0.020387254685500431 0 0.00095799570957329401 0.020331752562903201 0 0.0010254150296939738 0.021274854509189263 0 0.0012105957958790973 0.020458801939282394 0 0.00060549781727494583 0.023095153092434192 0 0.00090481638899071585 0.022012215473261956 0 0.00064789459022923559 0.022550967879379467 0 0.00067534934643271661 0.022538082915685372 0 0.00068982172870304557 0.022550807366439149 0 0.00064865511299291747 0.022520107385631427 0 0.00064789459022923559 0.022550967879379467 0 0.00067534934643271661 0.022538082915685372 0 0.00059257156597180974 0.023514404952662861 0 0.00057530232430830989 0.02346915511479887 0 0.00053055265590863242 0.023477455821398138 0 0.00055932197905574207 0.023410558844522728 0 0.00057530232430830989 0.02346915511479887 0 0.00053055265590863242 0.023477455821398138 0 0.0007639338475353254 0.022393665511591776 0 0.00090481638899071585 0.022012215473261956 0 0.00091119643876212046 0.021153224907578875 0 0.00093917565901528775 0.021379479602609719 0 0.0009114008019604575 0.021367069703977136 0 0.0013011339307364732 0.020420041046857029 0 0.0011089675196495434 0.020957513737029219 0 0.0016861110904486808 0.019647547963050991 0 0.0016847135814704413 0.019704480264198129 0 0.0016476426557113591 0.019675020073373975 0 0.0012288408313757978 0.021445546296206354 0 0.0011751679599496397 0.021531405008042018 0 0.001228861030494167 0.021553123648136205 0 0.0010254150296939738 0.021274854509189263 0 0.00090481638899071585 0.022012215473261956 0 0.00090481638899071585 0.022012215473261956 0 0.0011089675196495434 0.020957513737029219 0 0.0010238311888465196 0.020342615587242346 0 0.0010237013153592198 0.020310576169056092 0 0.00095799570957329401 0.020331752562903201 0 0.0010254150296939738 0.021274854509189263 0 0.0011089675196495434 0.020957513737029219 0 0.00092974041896074552 0.020263547086839303 0 0.00095799570957329401 0.020331752562903201 0 0.00086153878980563931 0.020308400580733917 0 0.0011089675196495434 0.020957513737029219 0 0.0012056620065896194 0.019959856265941989 0 0.0010237013153592198 0.020310576169056092 0 0.00092974041896074552 0.020263547086839303 0 0.00095799570957329401 0.020331752562903201 0 0.00099454716388586921 0.020387254685500431 0 0.00095799570957329401 0.020331752562903201 0 0.00091772992529918205 0.020383014401768238 0 0.00095799570957329401 0.020331752562903201 0 0.00091772992529918205 0.020383014401768238 0 0.00086153878980563931 0.020308400580733917 0 0.00099454716388586921 0.020387254685500431 0 0.00091772992529918205 0.020383014401768238 0 0.00097069350836361673 0.020434265088516406 0 0.00091772992529918205 0.020383014401768238 0 0.00082929800563246955 0.020389191982170561 0 0.00086153878980563931 0.020308400580733917 0 0.0021545302227218648 0.018521482487563766 0 0.0012056620065896194 0.019959856265941989 0 0.00084553101033580248 0.02021788421072836 0 0.00092974041896074552 0.020263547086839303 0 0.00086153878980563931 0.020308400580733917 0 0.0036133409351163663 0.01720272945854423 0 0.0033227675787523255 0.017061233961370253 0 0.0032953903182423379 0.017496025125393791 0 0.00084553101033580248 0.02021788421072836 0 0.00086153878980563931 0.020308400580733917 0 0.00074007381915599786 0.020315731029712982 0 0.0021545302227218648 0.018521482487563766 0 0.0020225047066316057 0.018937409972727755 0 0.0033227675787523255 0.017061233961370253 0 0.0032953903182423379 0.017496025125393791 0 0.003148853736880319 0.017238295104245474 0 0.0032953903182423379 0.017496025125393791 0 0.003148853736880319 0.017238295104245474 0 0.0028746289095693853 0.017400394209081724 0 0.00074007381915599786 0.020315731029712982 0 0.00073470123126988295 0.020426096713102353 0 0.00068205987748708673 0.020400995171879578 0 0.0020225047066316057 0.018937409972727755 0 0.0018020105999530214 0.019145002908305821 0 0.00082929800563246955 0.020389191982170561 0 0.00086153878980563931 0.020308400580733917 0 0.00074007381915599786 0.020315731029712982 0 0.00082929800563246955 0.020389191982170561 0 0.00074007381915599786 0.020315731029712982 0 0.00073470123126988295 0.020426096713102353 0 0.00082929800563246955 0.020389191982170561 0 0.00073470123126988295 0.020426096713102353 0 0.00078422204897363342 0.02048964568669669 0 0.00073470123126988295 0.020426096713102353 0 0.00069216717291308689 0.020488358153588786 0 0.00068205987748708673 0.020400995171879578 0 0.00073470123126988295 0.020426096713102353 0 0.00069216717291308689 0.020488358153588786 0 0.00078422204897363342 0.02048964568669669 0 0.00069216717291308689 0.020488358153588786 0 0.00078422204897363342 0.02048964568669669 0 0.00074144036250206222 0.020656706493176542 0 0.00078422204897363342 0.02048964568669669 0 0.00085791911652420289 0.020567782603634319 0 0.00089908339905247104 0.020457560183458564 0 0.00078422204897363342 0.02048964568669669 0 0.00085791911652420289 0.020567782603634319 0 0.00074144036250206222 0.020656706493176542 0 0.0010235747292806894 0.020524064744589388 0 0.00085791911652420289 0.020567782603634319 0 0.00089908339905247104 0.020457560183458564 0 0.0012077861600034219 0.020800248107162665 0 0.0012029572424556558 0.020495758240086898 0 0.00085791911652420289 0.020567782603634319 0 0.00085370238151295189 0.022079250662570771 0 0.0010543925733800714 0.020103143233244421 0 0.0010235747292806894 0.020524064744589388 0 0.00089908339905247104 0.020457560183458564 0 0.00097069350836361673 0.020434265088516406 0 0.00091772992529918205 0.020383014401768238 0 0.00089908339905247104 0.020457560183458564 0 0.00097069350836361673 0.020434265088516406 0 0.00091772992529918205 0.020383014401768238 0 0.00082929800563246955 0.020389191982170561 0 0.00089908339905247104 0.020457560183458564 0 0.00082929800563246955 0.020389191982170561 0 0.00078422204897363342 0.02048964568669669 0 0.00089908339905247104 0.020457560183458564 0 0.0020412871271145408 0.017580932332079528 0 0.0019049998477289681 0.018117622827213891 0 0.0014637812120437579 0.017669273267488492 0 0.0019205923441988162 0.01717851581434568 0 0.0020412871271145408 0.017580932332079528 0 0.0014637812120437579 0.017669273267488492 0 0.0019205923441988162 0.01717851581434568 0 0.0023652822314686596 0.017232438366940279 0 0.0020412871271145408 0.017580932332079528 0 0.0023652822314686596 0.017232438366940279 0 0.0020412871271145408 0.017580932332079528 0 0.002496050186735706 0.017735098014576248 0 0.0020412871271145408 0.017580932332079528 0 0.002496050186735706 0.017735098014576248 0 0.0019049998477289681 0.018117622827213891 0 0.0023652822314686596 0.017232438366940279 0 0.002496050186735706 0.017735098014576248 0 0.0028746289095693853 0.017400394209081724 0 0.0027144491927843426 0.017010372471508134 0 0.0023652822314686596 0.017232438366940279 0 0.0028746289095693853 0.017400394209081724 0 0.0029752140265208154 0.017119911668432318 0 0.003148853736880319 0.017238295104245474 0 0.0028746289095693853 0.017400394209081724 0 0.002496050186735706 0.017735098014576248 0 0.0028746289095693853 0.017400394209081724 0 0.0029263483207011016 0.017896625789373531 0 0.0032953903182423379 0.017496025125393791 0 0.0028746289095693853 0.017400394209081724 0 0.0029263483207011016 0.017896625789373531 0 0.00068205987748708673 0.020400995171879578 0 0.00073179165549910744 0.020380091919904163 0 0.00067952077962259128 0.020383630979799228 0 0.00069216717291308689 0.020488358153588786 0 0.00068205987748708673 0.020400995171879578 0 0.00067952077962259128 0.020383630979799228 0 0.00073179165549910744 0.020380091919904163 0 0.00074653765308015812 0.020230725528626977 0 0.00067952077962259128 0.020383630979799228 0 0.002496050186735706 0.017735098014576248 0 0.0029263483207011016 0.017896625789373531 0 0.0024485175999542051 0.018365466108685068 0 0.0018020105999530214 0.019145002908305821 0 0.001586735754058631 0.019371885162418397 0 0.002496050186735706 0.017735098014576248 0 0.0024485175999542051 0.018365466108685068 0 0.0019049998477289681 0.018117622827213891 0 0.0024485175999542051 0.018365466108685068 0 0.0019049998477289681 0.018117622827213891 0 0.0018943790848700889 0.018864365365643003 0 0.001586735754058631 0.019371885162418397 0 0.00136758027559487 0.019482180365251525 0 0.00073179165549910744 0.020380091919904163 0 0.0008892380527484769 0.020118020338336731 0 0.00074653765308015812 0.020230725528626977 0 0.0019049998477289681 0.018117622827213891 0 0.0018943790848700889 0.018864365365643003 0 0.0013879536258378088 0.018428557494424538 0 0.0008892380527484769 0.020118020338336731 0 0.00092704376806725401 0.019673807645719531 0 0.0010985835213022141 0.019427075379874498 0 0.0008892380527484769 0.020118020338336731 0 0.00078542085298484378 0.020038717258234338 0 0.00092704376806725401 0.019673807645719531 0 0.00136758027559487 0.019482180365251525 0 0.0011199558102769458 0.019467187207895354 0 0.0008892380527484769 0.020118020338336731 0 0.00078542085298484378 0.020038717258234338 0 0.00074653765308015812 0.020230725528626977 0 0.00078542085298484378 0.020038717258234338 0 0.00074653765308015812 0.020230725528626977 0 0.00069793458337754244 0.020375486274515971 0 0.00074653765308015812 0.020230725528626977 0 0.00067952077962259128 0.020383630979799228 0 0.00069793458337754244 0.020375486274515971 0 0.00067952077962259128 0.020383630979799228 0 0.00069793458337754244 0.020375486274515971 0 0.00067774172622583819 0.020653224930592556 0 0.00069793458337754244 0.020375486274515971 0 0.00072503375093561451 0.020565286910239636 0 0.00067774172622583819 0.020653224930592556 0 0.00072503375093561451 0.020565286910239636 0 0.00076156757250692814 0.020210875991572563 0 0.00079180837695870868 0.020205270709055319 0 0.00069793458337754244 0.020375486274515971 0 0.00072503375093561451 0.020565286910239636 0 0.00076156757250692814 0.020210875991572563 0 0.00078542085298484378 0.020038717258234338 0 0.00069793458337754244 0.020375486274515971 0 0.00076156757250692814 0.020210875991572563 0 0.00078542085298484378 0.020038717258234338 0 0.00076156757250692814 0.020210875991572563 0 0.00084659771812045301 0.01987005950179422 0 0.00076156757250692814 0.020210875991572563 0 0.00084659771812045301 0.01987005950179422 0 0.00079180837695870868 0.020205270709055319 0 0.00084659771812045301 0.01987005950179422 0 0.0008186926728325194 0.019642179751735503 0 0.00086592533949089224 0.019593611992981052 0 0.00084659771812045301 0.01987005950179422 0 0.00092704376806725401 0.019673807645719531 0 0.00086592533949089224 0.019593611992981052 0 0.00078542085298484378 0.020038717258234338 0 0.00084659771812045301 0.01987005950179422 0 0.00092704376806725401 0.019673807645719531 0 0.0011971466714874282 0.021269659660509834 0 0.0012077861600034219 0.020800248107162665 0 0.00079928622512725946 0.020958020211904276 0 0.0012077861600034219 0.020800248107162665 0 0.00085791911652420289 0.020567782603634319 0 0.00079928622512725946 0.020958020211904276 0 0.00085791911652420289 0.020567782603634319 0 0.00079928622512725946 0.020958020211904276 0 0.00074144036250206222 0.020656706493176542 0 0.00069216717291308689 0.020488358153588786 0 0.00074144036250206222 0.020656706493176542 0 0.00067774172622583819 0.020653224930592556 0 0.00069216717291308689 0.020488358153588786 0 0.00067952077962259128 0.020383630979799228 0 0.00067774172622583819 0.020653224930592556 0 0.00079928622512725946 0.020958020211904276 0 0.00074144036250206222 0.020656706493176542 0 0.00067774172622583819 0.020653224930592556 0 0.00072503375093561451 0.020565286910239636 0 0.00067774172622583819 0.020653224930592556 0 0.00073373552042344295 0.021098803166071222 0 0.00072503375093561451 0.020565286910239636 0 0.00073373552042344295 0.021098803166071222 0 0.00082914825310315653 0.021083538537602118 0 0.00079928622512725946 0.020958020211904276 0 0.00067774172622583819 0.020653224930592556 0 0.00073373552042344295 0.021098803166071222 0 0.00073373552042344295 0.021098803166071222 0 0.00078550531825789447 0.021649480912411177 0 0.00079179055029144209 0.021575504745678469 0 0.00079928622512725946 0.020958020211904276 0 0.00073373552042344295 0.021098803166071222 0 0.00078550531825789447 0.021649480912411177 0 0.0011971466714874282 0.021269659660509834 0 0.00079928622512725946 0.020958020211904276 0 0.00078550531825789447 0.021649480912411177 0 0.0009067114568423588 0.02234785886448214 0 0.00078550531825789447 0.021649480912411177 0 0.00073346777522320325 0.022115911821389504 0 0.00078550531825789447 0.021649480912411177 0 0.00073346777522320325 0.022115911821389504 0 0.00079179055029144209 0.021575504745678469 0 0.00073346777522320325 0.022115911821389504 0 0.00076113995826616225 0.021837050051595565 0 0.00079179055029144209 0.021575504745678469 0 0.00073346777522320325 0.022115911821389504 0 0.00076113995826616225 0.021837050051595565 0 0.00034674776112914724 0.02229538598828815 0 0.00076113995826616225 0.021837050051595565 0 0.00065698409655993984 0.021674679507909453 0 0.00034674776112914724 0.02229538598828815 0 0.00076113995826616225 0.021837050051595565 0 0.00065698409655993984 0.021674679507909453 0 0.00082372497623284875 0.021500212735395173 0 0.00076113995826616225 0.021837050051595565 0 0.00084743449718539322 0.021487598782774685 0 0.00079179055029144209 0.021575504745678469 0 0.00084743449718539322 0.021487598782774685 0 0.00089995424629598177 0.021303505118274391 0 0.00082372497623284875 0.021500212735395173 0 0.00076113995826616225 0.021837050051595565 0 0.00084743449718539322 0.021487598782774685 0 0.00082372497623284875 0.021500212735395173 0 0.00084743449718539322 0.021487598782774685 0 0.00079179055029144209 0.021575504745678469 0 0.00082914825310315653 0.021083538537602118 0 0.00073373552042344295 0.021098803166071222 0 0.00079179055029144209 0.021575504745678469 0 0.00082914825310315653 0.021083538537602118 0 0.00082914825310315653 0.021083538537602118 0 0.00090312626638044708 0.021080203861392529 0 0.00074006876675699587 0.020519668892734249 0 0.00082914825310315653 0.021083538537602118 0 0.00089995424629598177 0.021303505118274391 0 0.00090312626638044708 0.021080203861392529 0 0.00084743449718539322 0.021487598782774685 0 0.00082914825310315653 0.021083538537602118 0 0.00089995424629598177 0.021303505118274391 0 0.00089995424629598177 0.021303505118274391 0 0.00090312626638044708 0.021080203861392529 0 0.00092428577749632216 0.021227051264735539 0 0.00090312626638044708 0.021080203861392529 0 0.00092827367736604853 0.02121891430236162 0 0.00075037711983592654 0.021152311355342762 0 0.00092827367736604853 0.02121891430236162 0 0.00092428577749632216 0.021227051264735539 0 0.00092994285653762458 0.021220739120076496 0 0.00090312626638044708 0.021080203861392529 0 0.00092827367736604853 0.02121891430236162 0 0.00092428577749632216 0.021227051264735539 0 0.00092428577749632216 0.021227051264735539 0 0.00088043995008453742 0.021282012050249686 0 0.00092994285653762458 0.021220739120076496 0 0.00088043995008453742 0.021282012050249686 0 0.00072264210737339588 0.021369584929165936 0 0.00073010896246117742 0.02120726404353147 0 0.00088043995008453742 0.021282012050249686 0 0.00072264210737339588 0.021369584929165936 0 0.00082372497623284875 0.021500212735395173 0 0.00072264210737339588 0.021369584929165936 0 0.00065698409655993984 0.021674679507909453 0 0.00082372497623284875 0.021500212735395173 0 0.00089995424629598177 0.021303505118274391 0 0.00088043995008453742 0.021282012050249686 0 0.00082372497623284875 0.021500212735395173 0 0.00089995424629598177 0.021303505118274391 0 0.00092428577749632216 0.021227051264735539 0 0.00088043995008453742 0.021282012050249686 0 0.00083706979691091277 0.019865545587392324 0 0.00080991124120843145 0.019814171367839736 0 0.00076751493195563697 0.019610909306381048 0 0.00083706979691091277 0.019865545587392324 0 0.00080991124120843145 0.019814171367839736 0 0.00087624798306045696 0.020071094108948754 0 0.00084659771812045301 0.01987005950179422 0 0.00083706979691091277 0.019865545587392324 0 0.0008186926728325194 0.019642179751735503 0 0.00084659771812045301 0.01987005950179422 0 0.00083706979691091277 0.019865545587392324 0 0.00079180837695870868 0.020205270709055319 0 0.00083706979691091277 0.019865545587392324 0 0.00079180837695870868 0.020205270709055319 0 0.00087624798306045696 0.020071094108948754 0 0.00072503375093561451 0.020565286910239636 0 0.00082914825310315653 0.021083538537602118 0 0.00074006876675699587 0.020519668892734249 0 0.00079180837695870868 0.020205270709055319 0 0.00074006876675699587 0.020519668892734249 0 0.00087624798306045696 0.020071094108948754 0 0.00072503375093561451 0.020565286910239636 0 0.00079180837695870868 0.020205270709055319 0 0.00074006876675699587 0.020519668892734249 0 0.00090312626638044708 0.021080203861392529 0 0.00074006876675699587 0.020519668892734249 0 0.00075037711983592654 0.021152311355342762 0 0.00075020901836964657 0.020530120960863228 0 0.00082978072303011073 0.020618793192615132 0 0.00089453955112579818 0.020072769094460648 0 0.00085181771048305286 0.02004914314271726 0 0.00088713697869078647 0.020228567377443721 0 0.00074006876675699587 0.020519668892734249 0 0.00089453955112579818 0.020072769094460648 0 0.00087624798306045696 0.020071094108948754 0 0.00087624798306045696 0.020071094108948754 0 0.00085181771048305286 0.02004914314271726 0 0.00082350084981878339 0.019940330831417278 0 0.00089453955112579818 0.020072769094460648 0 0.00087624798306045696 0.020071094108948754 0 0.00085181771048305286 0.02004914314271726 0 0.00085181771048305286 0.02004914314271726 0 0.00076068242827536487 0.019999597855383869 0 0.00082350084981878339 0.019940330831417278 0 0.00080991124120843145 0.019814171367839736 0 0.00087624798306045696 0.020071094108948754 0 0.00082350084981878339 0.019940330831417278 0 0.00080991124120843145 0.019814171367839736 0 0.00082350084981878339 0.019940330831417278 0 0.00072210452387333035 0.019772419486993629 0 0.00072130563524323637 0.020396746982527681 0 0.00063246555129406522 0.020505378199961063 0 0.00066928485937757152 0.020303426508053269 0 0.00072130563524323637 0.020396746982527681 0 0.00079941437487009571 0.020435037152962361 0 0.00074330998747941686 0.020564237255438898 0 0.00072130563524323637 0.020396746982527681 0 0.00076520428250926404 0.02019007132143659 0 0.00079941437487009571 0.020435037152962361 0 0.00072130563524323637 0.020396746982527681 0 0.00076520428250926404 0.02019007132143659 0 0.00066928485937757152 0.020303426508053269 0 0.00076520428250926404 0.02019007132143659 0 0.00067840768148750348 0.020123241233823756 0 0.00066928485937757152 0.020303426508053269 0 0.00085181771048305286 0.02004914314271726 0 0.00076068242827536487 0.019999597855383869 0 0.00076520428250926404 0.02019007132143659 0 0.00076068242827536487 0.019999597855383869 0 0.00076520428250926404 0.02019007132143659 0 0.00067840768148750348 0.020123241233823756 0 0.00085181771048305286 0.02004914314271726 0 0.00076520428250926404 0.02019007132143659 0 0.00088713697869078647 0.020228567377443721 0 0.00088713697869078647 0.020228567377443721 0 0.00079941437487009571 0.020435037152962361 0 0.00090264548080494424 0.020606238774149681 0 0.00076520428250926404 0.02019007132143659 0 0.00088713697869078647 0.020228567377443721 0 0.00079941437487009571 0.020435037152962361 0 0.00088713697869078647 0.020228567377443721 0 0.0011036799112388006 0.020352958955413829 0 0.00090264548080494424 0.020606238774149681 0 0.00089453955112579818 0.020072769094460648 0 0.00088713697869078647 0.020228567377443721 0 0.0011036799112388006 0.020352958955413829 0 0.00082978072303011073 0.020618793192615132 0 0.00098809103008807957 0.020810059179529664 0 0.00075037711983592654 0.021152311355342762 0 0.00089665827678179198 0.021265698275305996 0 0.0008897833928729707 0.021243420938217083 0 0.00089665827678179198 0.021265698275305996 0 0.0008897833928729707 0.021243420938217083 0 0.00090512443934729866 0.021244392241566528 0 0.0010280280152765249 0.021073169138143479 0 0.00090512443934729866 0.021244392241566528 0 0.00096765941276136605 0.021260057647168627 0 0.00089665827678179198 0.021265698275305996 0 0.0010280280152765249 0.021073169138143479 0 0.00090512443934729866 0.021244392241566528 0 0.00098809103008807957 0.020810059179529664 0 0.0010273991164098108 0.021048750006248156 0 0.0010280280152765249 0.021073169138143479 0 0.00096765941276136605 0.021260057647168627 0 0.00099342041316804542 0.021198201682125259 0 0.0010280280152765249 0.021073169138143479 0 0.00099342041316804542 0.021198201682125259 0 0.00093013644351105657 0.02110195826097274 0 0.0010280280152765249 0.021073169138143479 0 0.00089221216716458488 0.020916898756966631 0 0.00093013644351105657 0.02110195826097274 0 0.00089221216716458488 0.020916898756966631 0 0.00081605527779361026 0.020978387913069912 0 0.00093013644351105657 0.02110195826097274 0 0.0010280280152765249 0.021073169138143479 0 0.00089221216716458488 0.020916898756966631 0 0.00090264548080494424 0.020606238774149681 0 0.0011036799112388006 0.020352958955413829 0 0.0010280280152765249 0.021073169138143479 0 0.00090264548080494424 0.020606238774149681 0 0.00089221216716458488 0.020916898756966631 0 0.00090264548080494424 0.020606238774149681 0 0.00081867495129227057 0.020687526325661901 0 0.00079941437487009571 0.020435037152962361 0 0.00090264548080494424 0.020606238774149681 0 0.00081867495129227057 0.020687526325661901 0 0.00079941437487009571 0.020435037152962361 0 0.00081867495129227057 0.020687526325661901 0 0.00074330998747941686 0.020564237255438898 0 0.00081867495129227057 0.020687526325661901 0 0.00074267472754472317 0.020800800169731262 0 0.00074330998747941686 0.020564237255438898 0 0.00081867495129227057 0.020687526325661901 0 0.00081224428526465418 0.020863924641320638 0 0.00074267472754472317 0.020800800169731262 0 0.00089221216716458488 0.020916898756966631 0 0.00081867495129227057 0.020687526325661901 0 0.00081224428526465418 0.020863924641320638 0 0.00089221216716458488 0.020916898756966631 0 0.00081224428526465418 0.020863924641320638 0 0.00081605527779361026 0.020978387913069912 0 0.00081605527779361026 0.020978387913069912 0 0.00071190351480279442 0.020903474289182711 0 0.00073351804455754044 0.02099690100673109 0 0.00081605527779361026 0.020978387913069912 0 0.00076844604478526772 0.020885751330486861 0 0.00071190351480279442 0.020903474289182711 0 0.00081224428526465418 0.020863924641320638 0 0.00081605527779361026 0.020978387913069912 0 0.00076844604478526772 0.020885751330486861 0 0.00081224428526465418 0.020863924641320638 0 0.00076844604478526772 0.020885751330486861 0 0.00074267472754472317 0.020800800169731262 0 0.00076844604478526772 0.020885751330486861 0 0.00074267472754472317 0.020800800169731262 0 0.000579863261154838 0.020822307860965929 0 0.00070178275598642458 0.020830281098695079 0 0.00078633366429928502 0.020639369092434752 0 0.00076844604478526772 0.020885751330486861 0 0.00063478424322527228 0.020832908652853633 0 0.00062204154583778799 0.020725170501654198 0 0.00076844604478526772 0.020885751330486861 0 0.00071190351480279442 0.020903474289182711 0 0.00063478424322527228 0.020832908652853633 0 0.00071190351480279442 0.020903474289182711 0 0.00063478424322527228 0.020832908652853633 0 0.00073351804455754044 0.02099690100673109 0 0.00063478424322527228 0.020832908652853633 0 0.00062204154583778799 0.020725170501654198 0 0.00051649204169843411 0.020639596606472202 0 0.00074575093561260171 0.020773358066738024 0 0.00060309683620551262 0.020576467951715586 0 0.00074267472754472317 0.020800800169731262 0 0.00074330998747941686 0.020564237255438898 0 0.00063246555129406522 0.020505378199961063 0 0.00074267472754472317 0.020800800169731262 0 0.000579863261154838 0.020822307860965929 0 0.00055264665435745511 0.020628839519464391 0 0.00072130563524323637 0.020396746982527681 0 0.00074330998747941686 0.020564237255438898 0 0.00063246555129406522 0.020505378199961063 0 0.00096875865520716078 0.021203037803609815 0 0.00086205677124749115 0.021140652587586326 0 0.00088003368997755535 0.021208009386725554 0 0.00096875865520716078 0.021203037803609815 0 0.0011463194361105511 0.021261108226768802 0 0.00097947631397603957 0.021317647802158893 0 0.00093275113605910322 0.021256508761121319 0 0.00076705793289063434 0.02202869175523773 0 0.00076705793289063434 0.02202869175523773 0 0.0006305278795566702 0.021748724334521307 0 0.00047672744650188026 0.022594367412543236 0 0.00048459064949244054 0.022571526141113598 0 0.00049444664297053711 0.022578222793519915 0 0.00088043995008453742 0.021282012050249686 0 0.00073010896246117742 0.02120726404353147 0 0.00088003368997755535 0.021208009386725554 0 0.00086205677124749115 0.021140652587586326 0 0.00073010896246117742 0.02120726404353147 0 0.00088003368997755535 0.021208009386725554 0 0.00096875865520716078 0.021203037803609815 0 0.00092994285653762458 0.021220739120076496 0 0.00088003368997755535 0.021208009386725554 0 0.00088043995008453742 0.021282012050249686 0 0.00092994285653762458 0.021220739120076496 0 0.00088003368997755535 0.021208009386725554 0 0.00092827367736604853 0.02121891430236162 0 0.00092994285653762458 0.021220739120076496 0 0.00092432265911217108 0.021234944212902965 0 0.00092827367736604853 0.02121891430236162 0 0.00075037711983592654 0.021152311355342762 0 0.0008897833928729707 0.021243420938217083 0 0.00092827367736604853 0.02121891430236162 0 0.0008897833928729707 0.021243420938217083 0 0.00092432265911217108 0.021234944212902965 0 0.00092432265911217108 0.021234944212902965 0 0.00090512443934729866 0.021244392241566528 0 0.00092319673865249956 0.021310894523700104 0 0.0008897833928729707 0.021243420938217083 0 0.00092432265911217108 0.021234944212902965 0 0.00090512443934729866 0.021244392241566528 0 0.00096875865520716078 0.021203037803609815 0 0.00092432265911217108 0.021234944212902965 0 0.00097947631397603957 0.021317647802158893 0 0.00096875865520716078 0.021203037803609815 0 0.00092994285653762458 0.021220739120076496 0 0.00092432265911217108 0.021234944212902965 0 0.00092432265911217108 0.021234944212902965 0 0.00097947631397603957 0.021317647802158893 0 0.00092319673865249956 0.021310894523700104 0 0.00097947631397603957 0.021317647802158893 0 0.00092319673865249956 0.021310894523700104 0 0.0009536678103958734 0.021495641707403031 0 0.00090512443934729866 0.021244392241566528 0 0.00092319673865249956 0.021310894523700104 0 0.00096765941276136605 0.021260057647168627 0 0.00092319673865249956 0.021310894523700104 0 0.00096765941276136605 0.021260057647168627 0 0.0009536678103958734 0.021495641707403031 0 0.00096765941276136605 0.021260057647168627 0 0.0009536678103958734 0.021495641707403031 0 0.00099325709919486412 0.0213962781463727 0 0.0010546105676087028 0.021779792394498929 0 0.00094162743540535598 0.022613527914397576 0 0.00060240189368765049 0.022222926540807566 0 0.0010582578464553086 0.021833122485848809 0 0.0010110931004028989 0.022031495526646534 0 0.0009536678103958734 0.021495641707403031 0 0.0010546105676087028 0.021779792394498929 0 0.0011212603311524978 0.021432158934270126 0 0.00097947631397603957 0.021317647802158893 0 0.0009536678103958734 0.021495641707403031 0 0.0011212603311524978 0.021432158934270126 0 0.0011463194361105511 0.021261108226768802 0 0.00097947631397603957 0.021317647802158893 0 0.0011212603311524978 0.021432158934270126 0 0.00076705793289063434 0.02202869175523773 0 0.0010110931004028989 0.022031495526646534 0 0.00074026083686482285 0.023090663803847052 0 0.00050547208901425449 0.022725677333618372 0 0.00019283604574589519 0.022922844122514569 0 0.00076705793289063434 0.02202869175523773 0 0.00029848512274153251 0.023155911171145821 0 0.00074026083686482285 0.023090663803847052 0 0.00094162743540535598 0.022613527914397576 0 0.00050547208901425449 0.022725677333618372 0 0.00094162743540535598 0.022613527914397576 0 0.00050547208901425449 0.022725677333618372 0 0.00060240189368765049 0.022222926540807566 0 0.00060240189368765049 0.022222926540807566 0 0.00028659463782085189 0.022340603297425651 0 0.00017426146636889673 0.022787078112083636 0 0.00050547208901425449 0.022725677333618372 0 0.00060240189368765049 0.022222926540807566 0 0.00017426146636889673 0.022787078112083636 0 0.00028659463782085189 0.022340603297425651 0 -4.8794828315162873e-05 0.022883688173110477 0 8.0547859136857481e-05 0.021906093886682992 0 0.00028659463782085189 0.022340603297425651 0 0.00017426146636889673 0.022787078112083636 0 -4.8794828315162873e-05 0.022883688173110477 0 -4.8794828315162873e-05 0.022883688173110477 0 -0.00026820996781951186 0.023194379822693373 0 8.0547859136857481e-05 0.021906093886682992 0 -4.8794828315162873e-05 0.022883688173110477 0 -0.00025813438163067528 0.023107448014827236 0 -0.00026820996781951186 0.023194379822693373 0 0.00017232176682274302 0.023831788544562391 0 0.00014234534749948323 0.023871412852635394 0 0.00010601212886105799 0.023891078988634604 0 -6.8797585788577258e-05 0.023493319913760257 0 0.00029848512274153251 0.023155911171145821 0 -4.8794828315162873e-05 0.022883688173110477 0 -0.00025813438163067528 0.023107448014827236 0 0.00016106137744393792 0.023149713355948818 0 0.00017232176682274302 0.023831788544562391 0 0.00014234534749948323 0.023871412852635394 0 0.00013453029703864881 0.023881992590052539 0 0.00050547208901425449 0.022725677333618372 0 0.00017426146636889673 0.022787078112083636 0 0.00019283604574589519 0.022922844122514569 0 0.00017426146636889673 0.022787078112083636 0 -4.8794828315162873e-05 0.022883688173110477 0 0.00016106137744393792 0.023149713355948818 0 0.00019665076185871997 0.022800633639287967 0 0.00029848512274153251 0.023155911171145821 0 0.00029848512274153251 0.023155911171145821 0 0.00025007093016305749 0.023272673106773899 0 0.00047672744650188026 0.022594367412543236 0 0.00049695307342412004 0.022609581669857225 0 0.00049444664297053711 0.022578222793519915 0 0.00010601212886105799 0.023891078988634604 0 0.00013157223994893607 0.023872340230691222 0 1.393281079807878e-05 0.023795225395773379 0 0.00014234534749948323 0.023871412852635394 0 0.00010601212886105799 0.023891078988634604 0 0.00013157223994893607 0.023872340230691222 0 0.00014234534749948323 0.023871412852635394 0 0.00013157223994893607 0.023872340230691222 0 0.00013453029703864881 0.023881992590052539 0 1.393281079807878e-05 0.023795225395773379 0 0.00016553561617751723 0.023769115340670239 0 0.00012377302090190269 0.023536992794863321 0 0.00013157223994893607 0.023872340230691222 0 1.393281079807878e-05 0.023795225395773379 0 0.00016553561617751723 0.023769115340670239 0 0.00012253256412381931 0.023957773426268921 0 8.1813831482521193e-05 0.02413627649986988 0 0.00016459577671415376 0.023843284728600138 0 0.00013157223994893607 0.023872340230691222 0 0.00016553561617751723 0.023769115340670239 0 0.00012253256412381931 0.023957773426268921 0 0.00016553561617751723 0.023769115340670239 0 0.00012253256412381931 0.023957773426268921 0 0.00016459577671415376 0.023843284728600138 0 0.00013157223994893607 0.023872340230691222 0 0.00012253256412381931 0.023957773426268921 0 0.00013453029703864881 0.023881992590052539 0 0.00012253256412381931 0.023957773426268921 0 0.00013453029703864881 0.023881992590052539 0 9.1500058462211703e-05 0.023853405748392502 0 0.00012253256412381931 0.023957773426268921 0 2.8085979031607113e-05 0.023897990978389131 0 5.6272323455850502e-05 0.024019307805140014 0 0.00012253256412381931 0.023957773426268921 0 5.6272323455850502e-05 0.024019307805140014 0 8.1813831482521193e-05 0.02413627649986988 0 0.00012253256412381931 0.023957773426268921 0 2.8085979031607113e-05 0.023897990978389131 0 9.1500058462211703e-05 0.023853405748392502 0 2.8085979031607113e-05 0.023897990978389131 0 -3.81433002864095e-06 0.023597837020954811 0 -1.9007495823250631e-05 0.023806530350618905 0 2.8085979031607113e-05 0.023897990978389131 0 9.1500058462211703e-05 0.023853405748392502 0 -3.81433002864095e-06 0.023597837020954811 0 0.00017232176682274302 0.023831788544562391 0 9.1500058462211703e-05 0.023853405748392502 0 -3.81433002864095e-06 0.023597837020954811 0 0.00017232176682274302 0.023831788544562391 0 0.00013453029703864881 0.023881992590052539 0 9.1500058462211703e-05 0.023853405748392502 0 -0.00026820996781951186 0.023194379822693373 0 -3.81433002864095e-06 0.023597837020954811 0 -0.00011052814865628135 0.023623125319981435 0 -6.8797585788577258e-05 0.023493319913760257 0 -3.7036806511260434e-05 0.023551305075898078 0 -0.00025813438163067528 0.023107448014827236 0 -0.00026820996781951186 0.023194379822693373 0 -3.81433002864095e-06 0.023597837020954811 0 -0.00026820996781951186 0.023194379822693373 0 -0.00025543863331208336 0.023573788432380612 0 -0.00011052814865628135 0.023623125319981435 0 -3.81433002864095e-06 0.023597837020954811 0 -1.9007495823250631e-05 0.023806530350618905 0 -5.8969408414739058e-05 0.02368310369044694 0 -3.81433002864095e-06 0.023597837020954811 0 -0.00011052814865628135 0.023623125319981435 0 -5.8969408414739058e-05 0.02368310369044694 0 -1.9007495823250631e-05 0.023806530350618905 0 -7.7850998473219667e-05 0.023842040542304072 0 1.8670183677157633e-05 0.02408291918951861 0 -1.9007495823250631e-05 0.023806530350618905 0 -7.7850998473219667e-05 0.023842040542304072 0 -8.9059115784144752e-05 0.023740412954198348 0 -1.9007495823250631e-05 0.023806530350618905 0 -5.8969408414739058e-05 0.02368310369044694 0 -8.9059115784144752e-05 0.023740412954198348 0 -7.7850998473219667e-05 0.023842040542304072 0 -0.00019088375119587317 0.023961475353928195 0 -0.0001413525218244114 0.023746917508849066 0 -7.7850998473219667e-05 0.023842040542304072 0 1.8670183677157633e-05 0.02408291918951861 0 -0.00019088375119587317 0.023961475353928195 0 1.8670183677157633e-05 0.02408291918951861 0 -0.00019088375119587317 0.023961475353928195 0 -0.00010191216727014584 0.024607216639249994 0 2.8085979031607113e-05 0.023897990978389131 0 1.8670183677157633e-05 0.02408291918951861 0 5.6272323455850502e-05 0.024019307805140014 0 2.8085979031607113e-05 0.023897990978389131 0 -1.9007495823250631e-05 0.023806530350618905 0 1.8670183677157633e-05 0.02408291918951861 0 -8.774798903071865e-05 0.024958684035790987 0 1.2365423721011768e-07 0.024999632828285403 0 -6.3809284945039897e-08 0.025000090411006506 0 -0.00012710150040055144 0.024457431094431322 0 -0.00011077668412934103 0.024573810529455342 0 -8.774798903071865e-05 0.024958684035790987 0 1.2365423721011768e-07 0.024999632828285403 0 -0.00010191216727014584 0.024607216639249994 0 1.2365423721011768e-07 0.024999632828285403 0 -0.00010191216727014584 0.024607216639249994 0 -2.088815553818379e-07 0.024999662414238247 0 7.6589444818509796e-06 0.024640663193821969 0 -1.6106280471247159e-06 0.024387185773912187 0 5.1227257994519292e-05 0.024338820580898625 0 -0.00010191216727014584 0.024607216639249994 0 7.6589444818509796e-06 0.024640663193821969 0 -1.6106280471247159e-06 0.024387185773912187 0 -0.00010191216727014584 0.024607216639249994 0 7.6589444818509796e-06 0.024640663193821969 0 -2.088815553818379e-07 0.024999662414238247 0 1.8670183677157633e-05 0.02408291918951861 0 5.6272323455850502e-05 0.024019307805140014 0 8.1813831482521193e-05 0.02413627649986988 0 1.8670183677157633e-05 0.02408291918951861 0 -0.00010191216727014584 0.024607216639249994 0 -1.6106280471247159e-06 0.024387185773912187 0 1.8670183677157633e-05 0.02408291918951861 0 -1.6106280471247159e-06 0.024387185773912187 0 8.1813831482521193e-05 0.02413627649986988 0 -1.6106280471247159e-06 0.024387185773912187 0 8.1813831482521193e-05 0.02413627649986988 0 5.1227257994519292e-05 0.024338820580898625 0 8.1813831482521193e-05 0.02413627649986988 0 9.7282655015867603e-05 0.02409112455965912 0 5.1227257994519292e-05 0.024338820580898625 0 8.1813831482521193e-05 0.02413627649986988 0 9.7282655015867603e-05 0.02409112455965912 0 0.00016459577671415376 0.023843284728600138 0 9.7282655015867603e-05 0.02409112455965912 0 9.3356732629020674e-05 0.024084089494141307 0 0.00016459577671415376 0.023843284728600138 0 9.7282655015867603e-05 0.02409112455965912 0 5.1227257994519292e-05 0.024338820580898625 0 9.3356732629020674e-05 0.024084089494141307 0 5.1227257994519292e-05 0.024338820580898625 0 9.3356732629020674e-05 0.024084089494141307 0 4.1501936456580691e-05 0.024507992783161646 0 9.3356732629020674e-05 0.024084089494141307 0 0.00012664927361305135 0.023605379888274863 0 0.00016459577671415376 0.023843284728600138 0 7.6589444818509796e-06 0.024640663193821969 0 4.1501936456580691e-05 0.024507992783161646 0 6.0824304482652006e-07 0.024998262147967569 0 7.6589444818509796e-06 0.024640663193821969 0 -2.088815553818379e-07 0.024999662414238247 0 6.0824304482652006e-07 0.024998262147967569 0 7.6589444818509796e-06 0.024640663193821969 0 5.1227257994519292e-05 0.024338820580898625 0 4.1501936456580691e-05 0.024507992783161646 0 9.3356732629020674e-05 0.024084089494141307 0 4.1501936456580691e-05 0.024507992783161646 0 8.4449804356458518e-05 0.0242353898041495 0 4.1501936456580691e-05 0.024507992783161646 0 3.4523657256940003e-05 0.024519928395668269 0 8.4449804356458518e-05 0.0242353898041495 0 6.0824304482652006e-07 0.024998262147967569 0 3.4523657256940003e-05 0.024519928395668269 0 7.5881229766438759e-05 0.024295291350615755 0 4.1501936456580691e-05 0.024507992783161646 0 6.0824304482652006e-07 0.024998262147967569 0 3.4523657256940003e-05 0.024519928395668269 0 1.8219221732322812e-08 0.024999850044839591 0 1.8321185330484588e-05 0.024654225533709228 0 5.1007640558873229e-09 0.024999997829910435 0 -9.0851316306113262e-09 0.025000003447762476 0 -2.4722761763154131e-06 0.025001299605966028 0 3.4523657256940003e-05 0.024519928395668269 0 7.5881229766438759e-05 0.024295291350615755 0 8.4449804356458518e-05 0.0242353898041495 0 7.5881229766438759e-05 0.024295291350615755 0 8.4449804356458518e-05 0.0242353898041495 0 5.5682889825231598e-05 0.024321904199304727 0 8.4449804356458518e-05 0.0242353898041495 0 5.5682889825231598e-05 0.024321904199304727 0 0.00010398917808945037 0.024346263244502862 0 -1.5159794839109568e-05 0.024385689748072203 0 7.5881229766438759e-05 0.024295291350615755 0 5.5682889825231598e-05 0.024321904199304727 0 -2.8648297059126593e-05 0.024997201462472293 0 1.0932511207677049e-08 0.025000009767576829 0 -2.4722761763154131e-06 0.025001299605966028 0 1.0932511207677049e-08 0.025000009767576829 0 -9.0851316306113262e-09 0.025000003447762476 0 -2.4722761763154131e-06 0.025001299605966028 0 -1.0055324404740256e-05 0.024694996452943135 0 1.8321185330484588e-05 0.024654225533709228 0 0.00012664927361305135 0.023605379888274863 0 9.3518474706261097e-05 0.023784878595099059 0 6.3071917003129795e-05 0.023414074245860259 0 9.3356732629020674e-05 0.024084089494141307 0 0.00012664927361305135 0.023605379888274863 0 9.3518474706261097e-05 0.023784878595099059 0 9.3356732629020674e-05 0.024084089494141307 0 8.4449804356458518e-05 0.0242353898041495 0 9.3518474706261097e-05 0.023784878595099059 0 9.6004492768225188e-05 0.02417502044401338 0 9.513491724130491e-05 0.023950375627031846 0 8.4449804356458518e-05 0.0242353898041495 0 9.3518474706261097e-05 0.023784878595099059 0 0.00014658694912500887 0.023527568420873019 0 5.7220423189167104e-05 0.024371157675242297 0 5.5682889825231598e-05 0.024321904199304727 0 0.00010398917808945037 0.024346263244502862 0 9.3518474706261097e-05 0.023784878595099059 0 0.00014658694912500887 0.023527568420873019 0 6.3071917003129795e-05 0.023414074245860259 0 0.00012059566668113602 0.023284986397347981 0 6.3071917003129795e-05 0.023414074245860259 0 0.00023198231804533539 0.02307659906286175 0 0.00012664927361305135 0.023605379888274863 0 6.3071917003129795e-05 0.023414074245860259 0 0.00023198231804533539 0.02307659906286175 0 0.00012664927361305135 0.023605379888274863 0 0.00023859118212407038 0.023290414828955389 0 0.00023198231804533539 0.02307659906286175 0 0.00023859118212407038 0.023290414828955389 0 0.00023198231804533539 0.02307659906286175 0 0.00033341789936561689 0.022852923640838383 0 0.00023859118212407038 0.023290414828955389 0 0.00033341789936561689 0.022852923640838383 0 0.00028625979983817754 0.02309284889535607 0 0.00023198231804533539 0.02307659906286175 0 0.00041691174003497368 0.022805132856059309 0 0.00033341789936561689 0.022852923640838383 0 0.00012059566668113602 0.023284986397347981 0 0.00023198231804533539 0.02307659906286175 0 0.00041691174003497368 0.022805132856059309 0 0.0009067114568423588 0.02234785886448214 0 0.00041691174003497368 0.022805132856059309 0 0.00050936035245244932 0.022472371983592459 0 0.00041691174003497368 0.022805132856059309 0 0.00050936035245244932 0.022472371983592459 0 0.00033341789936561689 0.022852923640838383 0 0.0009067114568423588 0.02234785886448214 0 0.00073346777522320325 0.022115911821389504 0 0.00050936035245244932 0.022472371983592459 0 0.00073346777522320325 0.022115911821389504 0 0.00050936035245244932 0.022472371983592459 0 0.00034674776112914724 0.02229538598828815 0 0.00034674776112914724 0.02229538598828815 0 0.00022984173996787395 0.022873147135267648 0 -0.00016988672780918304 0.023434049743177015 0 0.00050936035245244932 0.022472371983592459 0 0.00034674776112914724 0.02229538598828815 0 0.00035429497405510503 0.022672934420462289 0 0.00034674776112914724 0.02229538598828815 0 0.00022984173996787395 0.022873147135267648 0 0.00035429497405510503 0.022672934420462289 0 0.00050936035245244932 0.022472371983592459 0 0.00033341789936561689 0.022852923640838383 0 0.00035429497405510503 0.022672934420462289 0 0.00022984173996787395 0.022873147135267648 0 0.00035429497405510503 0.022672934420462289 0 0.00028625979983817754 0.02309284889535607 0 0.00033341789936561689 0.022852923640838383 0 0.00035429497405510503 0.022672934420462289 0 0.00028625979983817754 0.02309284889535607 0 0.00028625979983817754 0.02309284889535607 0 0.00019356625257763911 0.023268865108930784 0 0.00021536550149010345 0.023483188926487205 0 0.00022984173996787395 0.022873147135267648 0 0.00028625979983817754 0.02309284889535607 0 0.00019356625257763911 0.023268865108930784 0 0.00019356625257763911 0.023268865108930784 0 -4.4312210584195256e-05 0.023301209626823235 0 0.00012377302090190269 0.023536992794863321 0 0.00019356625257763911 0.023268865108930784 0 0.00012377302090190269 0.023536992794863321 0 0.00021536550149010345 0.023483188926487205 0 0.00026709904751001933 0.022313295534726225 0 0.00027502202614023075 0.022590221122402294 0 0.00065698409655993984 0.021674679507909453 0 0.00034674776112914724 0.02229538598828815 0 0.00039226004465896518 0.021462573414351253 0 8.4828650148998435e-05 0.023096494863136936 0 0.00027502202614023075 0.022590221122402294 0 0.00022984173996787395 0.022873147135267648 0 0.00019356625257763911 0.023268865108930784 0 -4.4312210584195256e-05 0.023301209626823235 0 0.00072264210737339588 0.021369584929165936 0 0.00065698409655993984 0.021674679507909453 0 0.00039226004465896518 0.021462573414351253 0 0.00072264210737339588 0.021369584929165936 0 0.00073010896246117742 0.02120726404353147 0 0.00039226004465896518 0.021462573414351253 0 0.00048459064949244054 0.022571526141113598 0 0.00049444664297053711 0.022578222793519915 0 0.00048694429524113591 0.02255163884039673 0 0.00025007093016305749 0.023272673106773899 0 0.00027502202614023075 0.022590221122402294 0 1.393281079807878e-05 0.023795225395773379 0 -4.4312210584195256e-05 0.023301209626823235 0 0.00012377302090190269 0.023536992794863321 0 0.0006305278795566702 0.021748724334521307 0 0.00027502202614023075 0.022590221122402294 0 0.00016553561617751723 0.023769115340670239 0 0.00012377302090190269 0.023536992794863321 0 0.00021536550149010345 0.023483188926487205 0 0.00016553561617751723 0.023769115340670239 0 0.00016459577671415376 0.023843284728600138 0 0.00021536550149010345 0.023483188926487205 0 0.00012664927361305135 0.023605379888274863 0 0.00023859118212407038 0.023290414828955389 0 0.00016459577671415376 0.023843284728600138 0 0.00023859118212407038 0.023290414828955389 0 0.00016459577671415376 0.023843284728600138 0 0.00021536550149010345 0.023483188926487205 0 0.00023859118212407038 0.023290414828955389 0 0.00028625979983817754 0.02309284889535607 0 0.00021536550149010345 0.023483188926487205 0 -0.00016211318844491478 0.0048249495172928069 0 0.00039480313757790284 0.0046115269973021509 0 -0.00042652284611411235 0.0045399193614249897 0 -0.00016211318844491478 0.0048249495172928069 0 -0.00058940420585632891 0.0047680998286410061 0 -0.00042652284611411235 0.0045399193614249897 0 0.00096936781601030561 0.004510245565333415 0 -0.0004082759678400538 0.0047850973123321275 0 -0.00086803575223933773 0.0045735554774421015 0 -0.00058940420585632891 0.0047680998286410061 0 -0.0010377425992923108 0.0050290178218229857 0 -0.00086803575223933773 0.0045735554774421015 0 -0.00058940420585632891 0.0047680998286410061 0 -0.00042652284611411235 0.0045399193614249897 0 -0.0005637512263685098 0.0049019760309156162 0 -0.0018586011960733135 0.0038929439549223359 0 -0.0013328519727258212 0.0051899021813457116 0 -0.00058940420585632891 0.0047680998286410061 0 -0.0005637512263685098 0.0049019760309156162 0 -0.0010377425992923108 0.0050290178218229857 0 -0.00069695601407624341 0.0048076076262294296 0 -0.0014318377756850453 0.00451695659659324 0 -0.00016211318844491478 0.0048249495172928069 0 -0.00058940420585632891 0.0047680998286410061 0 -0.0005637512263685098 0.0049019760309156162 0 -0.00016211318844491478 0.0048249495172928069 0 -0.0005637512263685098 0.0049019760309156162 0 9.7304167029572955e-05 0.0053030618904704252 0 -0.0005637512263685098 0.0049019760309156162 0 9.7304167029572955e-05 0.0053030618904704252 0 -0.00031312888626336123 0.0056135903431037831 0 9.7304167029572955e-05 0.0053030618904704252 0 0.00074779791186411278 0.0053775281427893172 0 0.00077380875869158348 0.0057684752005751697 0 9.7304167029572955e-05 0.0053030618904704252 0 0.00025230874146365986 0.0050333362406373983 0 0.00074779791186411278 0.0053775281427893172 0 0.00025230874146365986 0.0050333362406373983 0 0.00074779791186411278 0.0053775281427893172 0 0.00039480313757790284 0.0046115269973021509 0 -0.00016211318844491478 0.0048249495172928069 0 9.7304167029572955e-05 0.0053030618904704252 0 0.00025230874146365986 0.0050333362406373983 0 0.00074779791186411278 0.0053775281427893172 0 0.001206477833661387 0.0054475196947962818 0 0.00039480313757790284 0.0046115269973021509 0 0.0011323445894466358 0.005637946070670561 0 0.00074779791186411278 0.0053775281427893172 0 0.001206477833661387 0.0054475196947962818 0 0.0011323445894466358 0.005637946070670561 0 0.00074779791186411278 0.0053775281427893172 0 0.00077380875869158348 0.0057684752005751697 0 0.001610203198942425 0.0054661982688183307 0 0.0010396124788838552 0.0057325135534287914 0 0.0024205061220955266 0.006415887283730483 0 0.00096936781601030561 0.004510245565333415 0 0.00021591074764200306 0.010515543762884133 0 0.001206477833661387 0.0054475196947962818 0 0.00039480313757790284 0.0046115269973021509 0 0.0015885560740676065 0.0054753371808958376 0 0.001610203198942425 0.0054661982688183307 0 0.0024205061220955266 0.006415887283730483 0 0.0020791204929379577 0.005405034983798007 0 -0.00016211318844491478 0.0048249495172928069 0 0.00025230874146365986 0.0050333362406373983 0 0.00039480313757790284 0.0046115269973021509 0 0.0010396124788838552 0.0057325135534287914 0 0.00124141296505578 0.0050501551151134116 0 0.00029872709286662063 0.0047151606355595359 0 0.00124141296505578 0.0050501551151134116 0 0.0016317049924387047 0.0045690954638247881 0 0.00029872709286662063 0.0047151606355595359 0 0.0013847975632006162 0.003982622969835317 0 0.00071185501521980757 0.0041514325018785466 0 0.00029872709286662063 0.0047151606355595359 0 0.0013379549149262553 0.0061167580229001322 0 0.00053546290836008399 0.0041645712730622644 0 0.0016585606965182984 0.0049808881305805023 0 0.0017457021319934782 0.0045312705262066447 0 0.0020791204929379577 0.005405034983798007 0 -0.0010068905135497414 0.010064285886451294 0 -0.00015119754715616968 0.011863509625188862 0 0.001610203198942425 0.0054661982688183307 0 0.0016585606965182984 0.0049808881305805023 0 0.0020791204929379577 0.005405034983798007 0 0.001610203198942425 0.0054661982688183307 0 0.0010396124788838552 0.0057325135534287914 0 0.00124141296505578 0.0050501551151134116 0 0.001610203198942425 0.0054661982688183307 0 0.00124141296505578 0.0050501551151134116 0 0.0016585606965182984 0.0049808881305805023 0 0.00124141296505578 0.0050501551151134116 0 0.0016585606965182984 0.0049808881305805023 0 0.0016317049924387047 0.0045690954638247881 0 0.0016585606965182984 0.0049808881305805023 0 0.0017457021319934782 0.0045312705262066447 0 0.0016317049924387047 0.0045690954638247881 0 -0.0010068905135497414 0.010064285886451294 0 0.0013379549149262553 0.0061167580229001322 0 0.0014318929222767967 0.0039771178954644878 0 0.0013164447276405962 0.0040396204746540034 0 0.0012920938273123859 0.0035606892251851007 0 0.0013164447276405962 0.0040396204746540034 0 0.00082329945390992093 0.0037177268185612858 0 0.0012920938273123859 0.0035606892251851007 0 -0.0010068905135497414 0.010064285886451294 0 -0.00078636748784567223 0.0070173240392092584 0 -0.00089828100701029308 0.0088508423280742096 0 -0.0010272252334428608 0.0084716939239724252 0 -0.00095915516630739846 0.0085014547825238915 0 0.0013164447276405962 0.0040396204746540034 0 0.00071185501521980757 0.0041514325018785466 0 0.00082329945390992093 0.0037177268185612858 0 0.0013379549149262553 0.0061167580229001322 0 0.00097410425225618192 0.0042930044124380833 0 0.00071185501521980757 0.0041514325018785466 0 0.00082329945390992093 0.0037177268185612858 0 0.00027886569096183088 0.0037319938530187445 0 0.00071185501521980757 0.0041514325018785466 0 0.00027886569096183088 0.0037319938530187445 0 -2.5206268365229082e-05 0.0041873441704009893 0 0.00027886569096183088 0.0037319938530187445 0 -0.00016545884236697598 0.0038224688911841454 0 -0.00018240353288393485 0.0034369803852105619 0 -0.00016545884236697598 0.0038224688911841454 0 -2.5206268365229082e-05 0.0041873441704009893 0 -0.00043941151306637564 0.0040365594798134046 0 0.00027886569096183088 0.0037319938530187445 0 -0.00016545884236697598 0.0038224688911841454 0 -2.5206268365229082e-05 0.0041873441704009893 0 0.0010396124788838552 0.0057325135534287914 0 0.00029872709286662063 0.0047151606355595359 0 -0.00042652284611411235 0.0045399193614249897 0 0.00071185501521980757 0.0041514325018785466 0 -2.5206268365229082e-05 0.0041873441704009893 0 0.00029872709286662063 0.0047151606355595359 0 -2.5206268365229082e-05 0.0041873441704009893 0 -0.00042652284611411235 0.0045399193614249897 0 -0.00043941151306637564 0.0040365594798134046 0 -2.5206268365229082e-05 0.0041873441704009893 0 0.00029872709286662063 0.0047151606355595359 0 -0.00042652284611411235 0.0045399193614249897 0 -0.00086803575223933773 0.0045735554774421015 0 -0.00042652284611411235 0.0045399193614249897 0 -0.00080050268014889893 0.0041468990184470103 0 -0.00042652284611411235 0.0045399193614249897 0 -0.00080050268014889893 0.0041468990184470103 0 -0.00043941151306637564 0.0040365594798134046 0 -0.00080050268014889893 0.0041468990184470103 0 -0.00043941151306637564 0.0040365594798134046 0 -0.00059397064613795844 0.0035887217694778482 0 -0.00016545884236697598 0.0038224688911841454 0 -0.00043941151306637564 0.0040365594798134046 0 -0.00059397064613795844 0.0035887217694778482 0 -0.00016545884236697598 0.0038224688911841454 0 -0.00059397064613795844 0.0035887217694778482 0 -0.00018240353288393485 0.0034369803852105619 0 -0.00080050268014889893 0.0041468990184470103 0 -0.00059397064613795844 0.0035887217694778482 0 -0.0010041848855295817 0.0036407374960843596 0 -0.0010041848855295817 0.0036407374960843596 0 -0.0015186332489506768 0.0036676927378427762 0 -0.0011711437294751512 0.0042057839173685208 0 -0.00080050268014889893 0.0041468990184470103 0 -0.0010041848855295817 0.0036407374960843596 0 -0.0011711437294751512 0.0042057839173685208 0 -0.0010041848855295817 0.0036407374960843596 0 -0.0015186332489506768 0.0036676927378427762 0 -0.0013369759529284577 0.0032268187320840459 0 -0.0015186332489506768 0.0036676927378427762 0 -0.0015699675362047453 0.004128009599312644 0 -0.0020980236589317231 0.003694914974343252 0 -0.0015186332489506768 0.0036676927378427762 0 -0.0020980236589317231 0.003694914974343252 0 -0.0020476267396181366 0.0031472415693983499 0 -0.0015186332489506768 0.0036676927378427762 0 -0.0015699675362047453 0.004128009599312644 0 -0.0011711437294751512 0.0042057839173685208 0 -0.0015699675362047453 0.004128009599312644 0 -0.002040526095592216 0.004495872043720245 0 -0.0016771957325601864 0.0045436367571789673 0 -0.0015699675362047453 0.004128009599312644 0 -0.001331729562926521 0.0046148491597149391 0 -0.0016771957325601864 0.0045436367571789673 0 -0.00086803575223933773 0.0045735554774421015 0 -0.0011711437294751512 0.0042057839173685208 0 -0.001331729562926521 0.0046148491597149391 0 -0.0015699675362047453 0.004128009599312644 0 -0.0011711437294751512 0.0042057839173685208 0 -0.001331729562926521 0.0046148491597149391 0 -0.00086803575223933773 0.0045735554774421015 0 -0.00080050268014889893 0.0041468990184470103 0 -0.0011711437294751512 0.0042057839173685208 0 -0.0029395415939661336 0.0016643424180367015 0 -0.0028080170649528772 0.0018953760055446425 0 -0.0030822886561271651 0.0018648552963334312 0 -0.0028918741170054448 0.0015223872441805281 0 -0.0026776359557809989 0.0031822454584647403 0 -0.0015699675362047453 0.004128009599312644 0 -0.0020980236589317231 0.003694914974343252 0 -0.0025498074653478144 0.0040568344034629276 0 -0.0028669369444638657 0.0034929697373663636 0 -0.0020980236589317231 0.003694914974343252 0 -0.0025498074653478144 0.0040568344034629276 0 -0.0015699675362047453 0.004128009599312644 0 -0.0021928808254513595 0.0041690450445761333 0 -0.0022992085471146314 0.0040551415866128702 0 -0.0014999209627258425 0.0043174871258652436 0 -0.0026776359557809989 0.0031822454584647403 0 -0.0015699675362047453 0.004128009599312644 0 -0.002040526095592216 0.004495872043720245 0 -0.0021928808254513595 0.0041690450445761333 0 -0.0027509313024054664 0.0032849130063182766 0 -0.0026776359557809989 0.0031822454584647403 0 -0.0034550989679095197 0.0020816599754745172 0 -0.0035564991277105755 0.0019494232061016037 0 -0.0035625691767220305 0.0020596221411257232 0 -0.002040526095592216 0.004495872043720245 0 -0.0021928808254513595 0.0041690450445761333 0 -0.0023051463152735222 0.0040544818106797199 0 -0.0022900505044505704 0.0037014744132479629 0 -0.0026776359557809989 0.0031822454584647403 0 -0.0026776359557809989 0.0031822454584647403 0 -0.0035367239932926442 0.0019038870632672952 0 -0.0035564991277105755 0.0019494232061016037 0 -0.0036570206519765118 0.0020365981760283535 0 -0.0037145252684716887 0.0019611866029941071 0 -0.0035564991277105755 0.0019494232061016037 0 -0.0035625691767220305 0.0020596221411257232 0 -0.0036570206519765118 0.0020365981760283535 0 -0.0036570206519765118 0.0020365981760283535 0 -0.0035827056312468025 0.0021850835968909186 0 -0.0037699943371080208 0.0020897324846045951 0 -0.0038073807291581696 0.0022825133989932992 0 -0.0037385986644591879 0.002161584998941363 0 -0.003728123538864377 0.0025156742063530599 0 -0.0038292038011596748 0.0024777563325928953 0 -0.0037699943371080208 0.0020897324846045951 0 -0.0035625691767220305 0.0020596221411257232 0 -0.0036570206519765118 0.0020365981760283535 0 -0.0035827056312468025 0.0021850835968909186 0 -0.003728123538864377 0.0025156742063530599 0 -0.0034667065657044693 0.0030818315163954439 0 -0.0032142788748268586 0.0031150339742309309 0 -0.0034550989679095197 0.0020816599754745172 0 -0.0035827056312468025 0.0021850835968909186 0 -0.003347889951417213 0.0022575963552726066 0 -0.0038073807291581696 0.0022825133989932992 0 -0.0027307399433202876 0.0034219809919060476 0 -0.0034550989679095197 0.0020816599754745172 0 -0.0035625691767220305 0.0020596221411257232 0 -0.0035827056312468025 0.0021850835968909186 0 -0.0027509313024054664 0.0032849130063182766 0 -0.0027307399433202876 0.0034219809919060476 0 -0.0034667065657044693 0.0030818315163954439 0 -0.0038292038011596748 0.0024777563325928953 0 -0.0032082954310161046 0.0037515774780732766 0 -0.0049804976371234646 0.0043028201737844076 0 -0.0032082954310161046 0.0037515774780732766 0 -0.0037492061823821074 0.0044697522863403616 0 -0.00433626180186239 0.0034244896238460739 0 -0.0031902450020958278 0.0036664625943314739 0 -0.003728123538864377 0.0025156742063530599 0 -0.0034667065657044693 0.0030818315163954439 0 -0.0038292038011596748 0.0024777563325928953 0 -0.00086803575223933773 0.0045735554774421015 0 -0.001331729562926521 0.0046148491597149391 0 -0.0010377425992923108 0.0050290178218229857 0 -0.001331729562926521 0.0046148491597149391 0 -0.0017638248187363012 0.0049453013926299512 0 -0.0010377425992923108 0.0050290178218229857 0 -0.001331729562926521 0.0046148491597149391 0 -0.0016771957325601864 0.0045436367571789673 0 -0.0017638248187363012 0.0049453013926299512 0 -0.002040526095592216 0.004495872043720245 0 -0.0016771957325601864 0.0045436367571789673 0 -0.0017638248187363012 0.0049453013926299512 0 -0.0027307399433202876 0.0034219809919060476 0 -0.0014318377756850453 0.00451695659659324 0 -0.0025012509794774783 0.0039400455829325517 0 -0.0031341373156806665 0.0034292271811875246 0 -0.0032082954310161046 0.0037515774780732766 0 -0.0033007313071511876 0.0030827277729797427 0 -0.0025012509794774783 0.0039400455829325517 0 -0.0018586011960733135 0.0038929439549223359 0 -0.0033007313071511876 0.0030827277729797427 0 -0.0025012509794774783 0.0039400455829325517 0 -0.0031341373156806665 0.0034292271811875246 0 -0.0034667065657044693 0.0030818315163954439 0 -0.0031341373156806665 0.0034292271811875246 0 -0.0032082954310161046 0.0037515774780732766 0 -0.0034667065657044693 0.0030818315163954439 0 -0.0032142788748268586 0.0031150339742309309 0 -0.0031341373156806665 0.0034292271811875246 0 -0.0027307399433202876 0.0034219809919060476 0 -0.0028929565157203869 0.0032869450229459389 0 -0.0032082954310161046 0.0037515774780732766 0 -0.0029531378973796166 0.0043172671321468859 0 -0.0037492061823821074 0.0044697522863403616 0 -0.0025012509794774783 0.0039400455829325517 0 -0.0032082954310161046 0.0037515774780732766 0 -0.0029531378973796166 0.0043172671321468859 0 -0.0025012509794774783 0.0039400455829325517 0 -0.0029531378973796166 0.0043172671321468859 0 -0.0023226544427564764 0.0047247403459710086 0 -0.0025012509794774783 0.0039400455829325517 0 -0.0018586011960733135 0.0038929439549223359 0 -0.0023226544427564764 0.0047247403459710086 0 -0.0018586011960733135 0.0038929439549223359 0 -0.0023226544427564764 0.0047247403459710086 0 -0.0013328519727258212 0.0051899021813457116 0 -0.0023226544427564764 0.0047247403459710086 0 -0.0020109457879458528 0.0057212194018528917 0 -0.0013328519727258212 0.0051899021813457116 0 -0.0023226544427564764 0.0047247403459710086 0 -0.00276404091676297 0.0052942881645479736 0 -0.0020109457879458528 0.0057212194018528917 0 -0.0023226544427564764 0.0047247403459710086 0 -0.0030386625493497967 0.0047805134911488596 0 -0.00276404091676297 0.0052942881645479736 0 -0.0029531378973796166 0.0043172671321468859 0 -0.0023226544427564764 0.0047247403459710086 0 -0.0030386625493497967 0.0047805134911488596 0 -0.0029531378973796166 0.0043172671321468859 0 -0.0030386625493497967 0.0047805134911488596 0 -0.0037492061823821074 0.0044697522863403616 0 -0.0030386625493497967 0.0047805134911488596 0 -0.0033554063690503034 0.0053674609621628825 0 -0.00276404091676297 0.0052942881645479736 0 -0.0030386625493497967 0.0047805134911488596 0 -0.0033554063690503034 0.0053674609621628825 0 -0.0036790545205945204 0.0049922068243789591 0 -0.00276404091676297 0.0052942881645479736 0 -0.0031024471671514645 0.0059379340589724196 0 -0.0020109457879458528 0.0057212194018528917 0 -0.0033554063690503034 0.0053674609621628825 0 -0.0031024471671514645 0.0059379340589724196 0 -0.0039515249535262758 0.0056314005389672683 0 -0.0033554063690503034 0.0053674609621628825 0 -0.00276404091676297 0.0052942881645479736 0 -0.0031024471671514645 0.0059379340589724196 0 -0.0031024471671514645 0.0059379340589724196 0 -0.0036254795754364867 0.0062199614731485321 0 -0.003259533077162364 0.0067860087357877255 0 -0.0031024471671514645 0.0059379340589724196 0 -0.0020109457879458528 0.0057212194018528917 0 -0.0022051895548706722 0.0065776277724168674 0 -0.0020109457879458528 0.0057212194018528917 0 -0.0022051895548706722 0.0065776277724168674 0 -0.0012378876726211903 0.006709906506460174 0 -0.0049804976371234646 0.0043028201737844076 0 -0.0045469026063366547 0.0049238422797792947 0 -0.0037492061823821074 0.0044697522863403616 0 -0.0049804976371234646 0.0043028201737844076 0 -0.0045469026063366547 0.0049238422797792947 0 -0.0053746479740341066 0.0053355488884839659 0 -0.0045469026063366547 0.0049238422797792947 0 -0.0036790545205945204 0.0049922068243789591 0 -0.0039515249535262758 0.0056314005389672683 0 -0.0045469026063366547 0.0049238422797792947 0 -0.0037492061823821074 0.0044697522863403616 0 -0.0036790545205945204 0.0049922068243789591 0 -0.0030386625493497967 0.0047805134911488596 0 -0.0037492061823821074 0.0044697522863403616 0 -0.0036790545205945204 0.0049922068243789591 0 -0.0033554063690503034 0.0053674609621628825 0 -0.0036790545205945204 0.0049922068243789591 0 -0.0039515249535262758 0.0056314005389672683 0 -0.0039515249535262758 0.0056314005389672683 0 -0.0036254795754364867 0.0062199614731485321 0 -0.0041777141687237536 0.0065158956992568563 0 -0.0039515249535262758 0.0056314005389672683 0 -0.00460284400808558 0.0058222385765367155 0 -0.0041777141687237536 0.0065158956992568563 0 -0.0045469026063366547 0.0049238422797792947 0 -0.0039515249535262758 0.0056314005389672683 0 -0.00460284400808558 0.0058222385765367155 0 -0.0031024471671514645 0.0059379340589724196 0 -0.0039515249535262758 0.0056314005389672683 0 -0.0036254795754364867 0.0062199614731485321 0 -0.0045469026063366547 0.0049238422797792947 0 -0.00460284400808558 0.0058222385765367155 0 -0.0053746479740341066 0.0053355488884839659 0 -0.00460284400808558 0.0058222385765367155 0 -0.0049404242433904351 0.0067435959648085462 0 -0.0053746479740341066 0.0053355488884839659 0 -0.00460284400808558 0.0058222385765367155 0 -0.0049404242433904351 0.0067435959648085462 0 -0.0041777141687237536 0.0065158956992568563 0 -0.0049404242433904351 0.0067435959648085462 0 -0.0041777141687237536 0.0065158956992568563 0 -0.0045564456992508752 0.0071339235094333119 0 -0.0041777141687237536 0.0065158956992568563 0 -0.0041757165995259266 0.007368631024822471 0 -0.0045564456992508752 0.0071339235094333119 0 -0.0036254795754364867 0.0062199614731485321 0 -0.0041777141687237536 0.0065158956992568563 0 -0.003259533077162364 0.0067860087357877255 0 -0.0041777141687237536 0.0065158956992568563 0 -0.0041757165995259266 0.007368631024822471 0 -0.003259533077162364 0.0067860087357877255 0 -0.0041757165995259266 0.007368631024822471 0 -0.003259533077162364 0.0067860087357877255 0 -0.0032137941976340882 0.0080746742995627327 0 -0.0041757165995259266 0.007368631024822471 0 -0.0032137941976340882 0.0080746742995627327 0 -0.0041618396341036633 0.0083520091903575688 0 -0.0041757165995259266 0.007368631024822471 0 -0.0050774401295672466 0.0082853648186526473 0 -0.0041618396341036633 0.0083520091903575688 0 -0.0047561409754837995 0.0076670340553539528 0 -0.0057628177558345615 0.0065814170495609057 0 -0.0048514634781960013 0.0078927284201957271 0 -0.0049404242433904351 0.0067435959648085462 0 -0.0047561409754837995 0.0076670340553539528 0 -0.0057628177558345615 0.0065814170495609057 0 -0.0049404242433904351 0.0067435959648085462 0 -0.0045564456992508752 0.0071339235094333119 0 -0.0047561409754837995 0.0076670340553539528 0 -0.0041757165995259266 0.007368631024822471 0 -0.0045564456992508752 0.0071339235094333119 0 -0.0047561409754837995 0.0076670340553539528 0 -0.0041757165995259266 0.007368631024822471 0 -0.0047561409754837995 0.0076670340553539528 0 -0.0047545557368638197 0.0077461667334391216 0 -0.004380020608356531 0.0075214629400252682 0 -0.0049522027188231618 0.0073185663456903525 0 -0.004939135284275838 0.007382036364745141 0 -0.0049522027188231618 0.0073185663456903525 0 -0.0022051895548706722 0.0065776277724168674 0 -0.0016117983131426609 0.0075067581505678174 0 -0.0012378876726211903 0.006709906506460174 0 -0.0022051895548706722 0.0065776277724168674 0 -0.0024845866211103021 0.0074665104368586066 0 -0.0016117983131426609 0.0075067581505678174 0 -0.0022051895548706722 0.0065776277724168674 0 -0.003259533077162364 0.0067860087357877255 0 -0.0024845866211103021 0.0074665104368586066 0 -0.0031024471671514645 0.0059379340589724196 0 -0.0022051895548706722 0.0065776277724168674 0 -0.003259533077162364 0.0067860087357877255 0 -0.0032137941976340882 0.0080746742995627327 0 -0.0021783695604348343 0.0083951302550645344 0 -0.0024845866211103021 0.0074665104368586066 0 -0.003259533077162364 0.0067860087357877255 0 -0.0032137941976340882 0.0080746742995627327 0 -0.0024845866211103021 0.0074665104368586066 0 -0.0021783695604348343 0.0083951302550645344 0 -0.0024845866211103021 0.0074665104368586066 0 -0.0016117983131426609 0.0075067581505678174 0 -0.0021783695604348343 0.0083951302550645344 0 -0.0016117983131426609 0.0075067581505678174 0 -0.001098575682013021 0.0087234149652306043 0 -0.0016117983131426609 0.0075067581505678174 0 -0.00054513227999148479 0.0072725926674767965 0 -0.001098575682013021 0.0087234149652306043 0 -0.00010422792967885169 0.0082425301954958223 0 -0.00054513227999148479 0.0072725926674767965 0 -0.001098575682013021 0.0087234149652306043 0 -0.00054513227999148479 0.0072725926674767965 0 -0.00032786730092342921 0.0063732631657002258 0 0.000321551907937293 0.0068756314366350208 0 -0.00054513227999148479 0.0072725926674767965 0 -0.0012378876726211903 0.006709906506460174 0 -0.00032786730092342921 0.0063732631657002258 0 -0.00010422792967885169 0.0082425301954958223 0 -0.00054513227999148479 0.0072725926674767965 0 0.000321551907937293 0.0068756314366350208 0 -0.0016117983131426609 0.0075067581505678174 0 -0.00054513227999148479 0.0072725926674767965 0 -0.0012378876726211903 0.006709906506460174 0 -0.0020109457879458528 0.0057212194018528917 0 -0.0012378876726211903 0.006709906506460174 0 -0.00095969272922549168 0.0059524929043552992 0 -0.0012378876726211903 0.006709906506460174 0 -0.00095969272922549168 0.0059524929043552992 0 -0.00032786730092342921 0.0063732631657002258 0 -0.00095969272922549168 0.0059524929043552992 0 -0.00032786730092342921 0.0063732631657002258 0 -0.00031312888626336123 0.0056135903431037831 0 -0.00032786730092342921 0.0063732631657002258 0 -0.00031312888626336123 0.0056135903431037831 0 0.00028738286930246539 0.0060054517486100379 0 9.7304167029572955e-05 0.0053030618904704252 0 -0.00031312888626336123 0.0056135903431037831 0 0.00028738286930246539 0.0060054517486100379 0 -0.0005637512263685098 0.0049019760309156162 0 -0.00031312888626336123 0.0056135903431037831 0 -0.0013328519727258212 0.0051899021813457116 0 -0.00095969272922549168 0.0059524929043552992 0 -0.00031312888626336123 0.0056135903431037831 0 -0.0013328519727258212 0.0051899021813457116 0 -0.0020109457879458528 0.0057212194018528917 0 -0.00095969272922549168 0.0059524929043552992 0 -0.0013328519727258212 0.0051899021813457116 0 0.00077380875869158348 0.0057684752005751697 0 0.00079519908074566267 0.0062626107173624629 0 0.0012558508554228031 0.0059298647728112221 0 0.0011323445894466358 0.005637946070670561 0 0.00077380875869158348 0.0057684752005751697 0 0.0012558508554228031 0.0059298647728112221 0 9.7304167029572955e-05 0.0053030618904704252 0 0.00077380875869158348 0.0057684752005751697 0 0.00028738286930246539 0.0060054517486100379 0 0.00077380875869158348 0.0057684752005751697 0 0.00028738286930246539 0.0060054517486100379 0 0.00079519908074566267 0.0062626107173624629 0 0.00028738286930246539 0.0060054517486100379 0 0.00079519908074566267 0.0062626107173624629 0 0.000321551907937293 0.0068756314366350208 0 -0.00032786730092342921 0.0063732631657002258 0 0.00028738286930246539 0.0060054517486100379 0 0.000321551907937293 0.0068756314366350208 0 0.0011704673711051049 0.0083183431480264441 0 0.0017299230201547179 0.0066852451844743943 0 0.00079519908074566267 0.0062626107173624629 0 0.0011642007691174425 0.0068775725343381937 0 0.0012558508554228031 0.0059298647728112221 0 0.00079519908074566267 0.0062626107173624629 0 0.0011642007691174425 0.0068775725343381937 0 0.000321551907937293 0.0068756314366350208 0 0.0013590801794191711 0.0092149848963108839 0 0.0015075315444416273 0.0096233685940443556 0 0.0013174194057393991 0.0093320397785225575 0 0.0011642007691174425 0.0068775725343381937 0 0.000321551907937293 0.0068756314366350208 0 0.00092935426416078631 0.0082206791683793953 0 0.0011704673711051049 0.0083183431480264441 0 0.00094683547936933842 0.0087355873014211098 0 -0.00010422792967885169 0.0082425301954958223 0 0.000321551907937293 0.0068756314366350208 0 0.00092935426416078631 0.0082206791683793953 0 0.0013590801794191711 0.0092149848963108839 0 0.00098197295101308405 0.009264945796474475 0 0.0013963204106434367 0.0092309837854235334 0 0.0017027927104031385 0.010643768920012587 0 0.0017778500040793782 0.010385381342230349 0 0.0019139369587007869 0.010617938022108857 0 0.0017027927104031385 0.010643768920012587 0 0.0017778500040793782 0.010385381342230349 0 0.0015890738581264368 0.010155070019132592 0 0.0015498402516433852 0.0099409878872786083 0 0.0014703358986462968 0.0097390301900865429 0 0.0013590801794191711 0.0092149848963108839 0 0.0013963204106434367 0.0092309837854235334 0 0.0013174194057393991 0.0093320397785225575 0 0.0017778500040793782 0.010385381342230349 0 0.0020477369685972711 0.010452564625035811 0 0.0017390568064809329 0.0098906731962316446 0 0.0017778500040793782 0.010385381342230349 0 0.0020477369685972711 0.010452564625035811 0 0.0019139369587007869 0.010617938022108857 0 0.0020477369685972711 0.010452564625035811 0 0.0022462893630892339 0.010931960442724251 0 0.0020389590632453945 0.010809544025104909 0 0.0017027927104031385 0.010643768920012587 0 0.0019139369587007869 0.010617938022108857 0 0.0020389590632453945 0.010809544025104909 0 0.0020477369685972711 0.010452564625035811 0 0.0019139369587007869 0.010617938022108857 0 0.0020389590632453945 0.010809544025104909 0 -0.00074429842325674834 0.020496512233905799 0 -0.00060476006478315852 0.020664204535674715 0 -0.00077201574045407341 0.020744886708659815 0 -0.0010214052844394117 0.021071844461196764 0 0.0002097358311263816 0.017026654240634886 0 -0.0011825171955215435 0.020267926712047579 0 -0.00092620279384562356 0.020399874331769392 0 -0.00096431218339444529 0.020566276642553085 0 0.00043760776518918357 0.01502004569190668 0 0.0002097358311263816 0.017026654240634886 0 -0.00074429842325674834 0.020496512233905799 0 -0.0004504588585672552 0.020507475571179764 0 -0.00060476006478315852 0.020664204535674715 0 -0.0004504588585672552 0.020507475571179764 0 -0.00060476006478315852 0.020664204535674715 0 -0.00036505876061561235 0.020761090803561217 0 -0.0004504588585672552 0.020507475571179764 0 -0.00072528935251185212 0.020161875441191909 0 -0.00019634772483763513 0.020219680848068897 0 -0.00074429842325674834 0.020496512233905799 0 -0.0004504588585672552 0.020507475571179764 0 -0.00072528935251185212 0.020161875441191909 0 -0.00072528935251185212 0.020161875441191909 0 -0.00069949090993148529 0.019998888368597319 0 -0.00019634772483763513 0.020219680848068897 0 -0.0010214052844394117 0.021071844461196764 0 -0.00067077770331924465 0.019965690156497483 0 -0.00092620279384562356 0.020399874331769392 0 -0.0009691554620823255 0.020245907017244481 0 -0.00072528935251185212 0.020161875441191909 0 -0.0011825171955215435 0.020267926712047579 0 -0.00092620279384562356 0.020399874331769392 0 -0.0009691554620823255 0.020245907017244481 0 -0.0009691554620823255 0.020245907017244481 0 -0.00072528935251185212 0.020161875441191909 0 -0.0009332750513556745 0.020057618309822899 0 -0.0011825171955215435 0.020267926712047579 0 -0.0009691554620823255 0.020245907017244481 0 -0.0009332750513556745 0.020057618309822899 0 -0.0011825171955215435 0.020267926712047579 0 -0.0009332750513556745 0.020057618309822899 0 -0.0011479755441626187 0.019830124323694274 0 -0.0009332750513556745 0.020057618309822899 0 -0.0007958747756561422 0.019781613306752738 0 -0.0011479755441626187 0.019830124323694274 0 -0.0009332750513556745 0.020057618309822899 0 -0.0007958747756561422 0.019781613306752738 0 -0.00069949090993148529 0.019998888368597319 0 -0.00072528935251185212 0.020161875441191909 0 -0.0009332750513556745 0.020057618309822899 0 -0.00069949090993148529 0.019998888368597319 0 -0.0007958747756561422 0.019781613306752738 0 -0.0011479755441626187 0.019830124323694274 0 -0.0010095923303022559 0.019650790024627617 0 -0.00069949090993148529 0.019998888368597319 0 -0.00054854462403745971 0.019745218204433583 0 -0.00023559508010690558 0.019740459573108989 0 -0.0006688098804331356 0.020012413162407108 0 -0.00014912675475151746 0.020179966919990137 0 -0.00069949090993148529 0.019998888368597319 0 -6.97349527211254e-05 0.020147656885134618 0 -0.00023559508010690558 0.019740459573108989 0 -0.0007958747756561422 0.019781613306752738 0 -0.00069949090993148529 0.019998888368597319 0 -0.00054854462403745971 0.019745218204433583 0 -0.0007958747756561422 0.019781613306752738 0 -0.00054854462403745971 0.019745218204433583 0 -0.00064179665447071485 0.019614252932329698 0 -0.0002798967154896916 0.019541578755653665 0 -0.00043800883886016486 0.01959372310644987 0 -0.00023559508010690558 0.019740459573108989 0 -0.00054854462403745971 0.019745218204433583 0 -0.00043800883886016486 0.01959372310644987 0 -0.00023559508010690558 0.019740459573108989 0 -0.0002798967154896916 0.019541578755653665 0 -0.00043800883886016486 0.01959372310644987 0 -0.00037970109859640104 0.01945689439957823 0 -0.00064179665447071485 0.019614252932329698 0 -0.00055340329097044929 0.019459918743682546 0 -0.0008357975190602234 0.019506468082673308 0 -0.00043800883886016486 0.01959372310644987 0 -0.00064179665447071485 0.019614252932329698 0 -0.00055340329097044929 0.019459918743682546 0 -0.00054854462403745971 0.019745218204433583 0 -0.00043800883886016486 0.01959372310644987 0 -0.00064179665447071485 0.019614252932329698 0 -0.00069846034285976828 0.019302860078894719 0 -0.00055340329097044929 0.019459918743682546 0 -0.00039851944962736264 0.019286146503989732 0 -0.00069846034285976828 0.019302860078894719 0 -0.00055340329097044929 0.019459918743682546 0 -0.0008357975190602234 0.019506468082673308 0 -0.00055340329097044929 0.019459918743682546 0 -0.00037970109859640104 0.01945689439957823 0 -0.00039851944962736264 0.019286146503989732 0 -0.00043800883886016486 0.01959372310644987 0 -0.00055340329097044929 0.019459918743682546 0 -0.00037970109859640104 0.01945689439957823 0 -0.00037970109859640104 0.01945689439957823 0 -0.00023713175683518254 0.01940505825177713 0 -0.00039851944962736264 0.019286146503989732 0 -0.0002798967154896916 0.019541578755653665 0 -0.00037970109859640104 0.01945689439957823 0 -0.00023713175683518254 0.01940505825177713 0 -0.0010095923303022559 0.019650790024627617 0 -0.0008357975190602234 0.019506468082673308 0 -0.0012558978486644876 0.019452533843594026 0 -0.0011479755441626187 0.019830124323694274 0 -0.0010095923303022559 0.019650790024627617 0 -0.0012558978486644876 0.019452533843594026 0 -0.0007958747756561422 0.019781613306752738 0 -0.0010095923303022559 0.019650790024627617 0 -0.0008357975190602234 0.019506468082673308 0 -0.0007958747756561422 0.019781613306752738 0 -0.00064179665447071485 0.019614252932329698 0 -0.0008357975190602234 0.019506468082673308 0 -0.00069846034285976828 0.019302860078894719 0 -0.0008357975190602234 0.019506468082673308 0 -0.0010108772168725781 0.019189584168905285 0 -0.0008357975190602234 0.019506468082673308 0 -0.0012558978486644876 0.019452533843594026 0 -0.0010108772168725781 0.019189584168905285 0 -0.0012558978486644876 0.019452533843594026 0 -0.0016289187565009268 0.019167413254940872 0 -0.0015666189041155954 0.01891228955153253 0 -0.0011479755441626187 0.019830124323694274 0 -0.0012558978486644876 0.019452533843594026 0 -0.0016359809839991341 0.019604917731329687 0 -0.0012558978486644876 0.019452533843594026 0 -0.0016359809839991341 0.019604917731329687 0 -0.0016289187565009268 0.019167413254940872 0 -0.0016359809839991341 0.019604917731329687 0 -0.0016289187565009268 0.019167413254940872 0 -0.002026647170554596 0.01871450682649951 0 6.2913536721005841e-05 0.015122783398219189 0 -5.8472985009047303e-06 0.012692838815536699 0 0.0017390568064809329 0.0098906731962316446 0 0.0015154327330778562 0.0097123492064271743 0 0.0015890738581264368 0.010155070019132592 0 0.0015154327330778562 0.0097123492064271743 0 0.0015075315444416273 0.0096233685940443556 0 0.0013174194057393991 0.0093320397785225575 0 0.0015154327330778562 0.0097123492064271743 0 0.0015075315444416273 0.0096233685940443556 0 0.0014619993387776041 0.0096706794947620713 0 0.0017390568064809329 0.0098906731962316446 0 0.0015154327330778562 0.0097123492064271743 0 0.0014619993387776041 0.0096706794947620713 0 0.0015006821208662028 0.0096952885659167317 0 0.0014703358986462968 0.0097390301900865429 0 0.0017778500040793782 0.010385381342230349 0 0.0017390568064809329 0.0098906731962316446 0 0.0015890738581264368 0.010155070019132592 0 0.00043760776518918357 0.01502004569190668 0 6.2913536721005841e-05 0.015122783398219189 0 -0.0011825171955215435 0.020267926712047579 0 -0.0011479755441626187 0.019830124323694274 0 -0.0016359809839991341 0.019604917731329687 0 0.0011650702865858725 0.020477407712508482 0 0.00097870409538223699 0.020422639238664036 0 0.00081355993660306772 0.020034723003555011 0 0.00078633366429928502 0.020639369092434752 0 0.00058491490242817057 0.020288097095894603 0 0.000579863261154838 0.020822307860965929 0 0.00055264665435745511 0.020628839519464391 0 0.0003758570500399552 0.020550387954678676 0 0.00078633366429928502 0.020639369092434752 0 0.00073733989978566638 0.020544057368013881 0 0.00063478424322527228 0.020832908652853633 0 0.00051649204169843411 0.020639596606472202 0 0.00047381167932158892 0.020821231507611712 0 0.00051649204169843411 0.020639596606472202 0 0.00047381167932158892 0.020821231507611712 0 0.00036526993843427559 0.020664368710843789 0 0.00051649204169843411 0.020639596606472202 0 0.00036526993843427559 0.020664368710843789 0 0.00018819427824275868 0.020423827449866868 0 0.00036526993843427559 0.020664368710843789 0 0.00027563319756970502 0.020766418760139984 0 0.00018819427824275868 0.020423827449866868 0 0.00047381167932158892 0.020821231507611712 0 0.00036526993843427559 0.020664368710843789 0 0.00027563319756970502 0.020766418760139984 0 0.00046610164454487078 0.020281397247809859 0 0.00049894172041837614 0.019924553242973906 0 0.00081355993660306772 0.020034723003555011 0 0.00073733989978566638 0.020544057368013881 0 0.00032285507339379596 0.020351668339072315 0 0.00097870409538223699 0.020422639238664036 0 0.00046610164454487078 0.020281397247809859 0 0.00081355993660306772 0.020034723003555011 0 0.00018819427824275868 0.020423827449866868 0 -3.3749988204011247e-05 0.02066149268600884 0 -0.00019634772483763513 0.020219680848068897 0 0.00046610164454487078 0.020281397247809859 0 -6.97349527211254e-05 0.020147656885134618 0 0.00026252376284995781 0.019863536444306225 0 0.00032285507339379596 0.020351668339072315 0 -0.00014912675475151746 0.020179966919990137 0 0.00027563319756970502 0.020766418760139984 0 0.00018819427824275868 0.020423827449866868 0 -3.3749988204011247e-05 0.02066149268600884 0 -0.0004504588585672552 0.020507475571179764 0 -3.3749988204011247e-05 0.02066149268600884 0 -0.00019634772483763513 0.020219680848068897 0 -0.0004504588585672552 0.020507475571179764 0 -3.3749988204011247e-05 0.02066149268600884 0 -0.00036505876061561235 0.020761090803561217 0 -6.97349527211254e-05 0.020147656885134618 0 -0.00023559508010690558 0.019740459573108989 0 4.117656950194321e-05 0.019668237157961847 0 -0.00023559508010690558 0.019740459573108989 0 -0.00011948613069169369 0.0195295644827203 0 4.117656950194321e-05 0.019668237157961847 0 -0.0002798967154896916 0.019541578755653665 0 -0.00023559508010690558 0.019740459573108989 0 -0.00011948613069169369 0.0195295644827203 0 -0.0002798967154896916 0.019541578755653665 0 -0.00011948613069169369 0.0195295644827203 0 -0.00023713175683518254 0.01940505825177713 0 -0.00011948613069169369 0.0195295644827203 0 -8.7447468154891296e-05 0.019373098403058321 0 -0.00023713175683518254 0.01940505825177713 0 2.7615939975723633e-05 0.019475016636657502 0 0.00012405147125189994 0.019337512879560877 0 8.0007790435387257e-06 0.019358379131394557 0 -8.7447468154891296e-05 0.019373098403058321 0 2.7615939975723633e-05 0.019475016636657502 0 8.0007790435387257e-06 0.019358379131394557 0 -0.00011948613069169369 0.0195295644827203 0 -8.7447468154891296e-05 0.019373098403058321 0 2.7615939975723633e-05 0.019475016636657502 0 -0.00011948613069169369 0.0195295644827203 0 2.7615939975723633e-05 0.019475016636657502 0 4.117656950194321e-05 0.019668237157961847 0 2.7615939975723633e-05 0.019475016636657502 0 4.117656950194321e-05 0.019668237157961847 0 0.00017939974838887077 0.019569681526526626 0 0.00048312162869801686 0.020029802191994271 0 0.00049998982076116265 0.019682543007974264 0 0.00037010926687611954 0.019775570410625092 0 4.117656950194321e-05 0.019668237157961847 0 0.00017939974838887077 0.019569681526526626 0 0.00026252376284995781 0.019863536444306225 0 2.7615939975723633e-05 0.019475016636657502 0 0.00017939974838887077 0.019569681526526626 0 0.00012405147125189994 0.019337512879560877 0 0.00017939974838887077 0.019569681526526626 0 0.00044484229151996169 0.019583337246471152 0 0.00012405147125189994 0.019337512879560877 0 0.00044092693830785238 0.019963148602232517 0 0.0004422306588158343 0.019715511531989742 0 0.00077208926867803663 0.019977223330432819 0 0.00038319182750120657 0.019664679917005812 0 0.00048546441187767597 0.019642492220123608 0 0.00044092693830785238 0.019963148602232517 0 0.00025946832346938572 0.019493695404462306 0 0.00017939974838887077 0.019569681526526626 0 0.00026252376284995781 0.019863536444306225 0 0.00044484229151996169 0.019583337246471152 0 -6.97349527211254e-05 0.020147656885134618 0 4.117656950194321e-05 0.019668237157961847 0 0.00026252376284995781 0.019863536444306225 0 0.00046610164454487078 0.020281397247809859 0 0.00026252376284995781 0.019863536444306225 0 0.00049894172041837614 0.019924553242973906 0 0.00026252376284995781 0.019863536444306225 0 0.00049894172041837614 0.019924553242973906 0 0.00044484229151996169 0.019583337246471152 0 0.00049894172041837614 0.019924553242973906 0 0.00044484229151996169 0.019583337246471152 0 0.00081355993660306772 0.020034723003555011 0 0.00044092693830785238 0.019963148602232517 0 0.00058491490242817057 0.020288097095894603 0 0.00017067264424435596 0.02028237118856293 0 0.0003758570500399552 0.020550387954678676 0 0.00036149145348744098 0.020456594339428237 0 0.00044092693830785238 0.019963148602232517 0 0.00047186225079997766 0.02037635118755456 0 0.00048312162869801686 0.020029802191994271 0 0.00060139451840033025 0.02004550451104033 0 0.00061441815635050615 0.019779456633279079 0 0.00048312162869801686 0.020029802191994271 0 0.00060139451840033025 0.02004550451104033 0 0.00057841096192759879 0.020257786877729781 0 0.00060139451840033025 0.02004550451104033 0 0.00066700497538404145 0.01995351029823161 0 0.00061441815635050615 0.019779456633279079 0 0.00060139451840033025 0.02004550451104033 0 0.00067840768148750348 0.020123241233823756 0 0.00057841096192759879 0.020257786877729781 0 0.00060139451840033025 0.02004550451104033 0 0.00066700497538404145 0.01995351029823161 0 0.00067840768148750348 0.020123241233823756 0 0.00076068242827536487 0.019999597855383869 0 0.00066700497538404145 0.01995351029823161 0 0.00067840768148750348 0.020123241233823756 0 0.00063246555129406522 0.020505378199961063 0 0.00066928485937757152 0.020303426508053269 0 0.00057841096192759879 0.020257786877729781 0 0.00055264665435745511 0.020628839519464391 0 0.0003758570500399552 0.020550387954678676 0 0.00036149145348744098 0.020456594339428237 0 0.00060309683620551262 0.020576467951715586 0 0.00047186225079997766 0.02037635118755456 0 0.00067840768148750348 0.020123241233823756 0 0.00066928485937757152 0.020303426508053269 0 0.00057841096192759879 0.020257786877729781 0 0.00072210452387333035 0.019772419486993629 0 0.00066596505154469963 0.019572992336598427 0 0.00073259234029434154 0.019627903138659013 0 0.00080991124120843145 0.019814171367839736 0 0.00072210452387333035 0.019772419486993629 0 0.00073259234029434154 0.019627903138659013 0 0.00066700497538404145 0.01995351029823161 0 0.00072210452387333035 0.019772419486993629 0 0.00061441815635050615 0.019779456633279079 0 0.00076068242827536487 0.019999597855383869 0 0.00066700497538404145 0.01995351029823161 0 0.00072210452387333035 0.019772419486993629 0 0.00076068242827536487 0.019999597855383869 0 0.00082350084981878339 0.019940330831417278 0 0.00072210452387333035 0.019772419486993629 0 0.00048312162869801686 0.020029802191994271 0 0.00061441815635050615 0.019779456633279079 0 0.00049998982076116265 0.019682543007974264 0 0.00072210452387333035 0.019772419486993629 0 0.00061441815635050615 0.019779456633279079 0 0.00066596505154469963 0.019572992336598427 0 0.00061441815635050615 0.019779456633279079 0 0.00057535670311863326 0.019443243470547378 0 0.00049998982076116265 0.019682543007974264 0 0.00057535670311863326 0.019443243470547378 0 0.00066596505154469963 0.019572992336598427 0 0.00064679580821900542 0.019401508646305035 0 0.00057535670311863326 0.019443243470547378 0 0.00055235546562192321 0.019223941638437325 0 0.00064679580821900542 0.019401508646305035 0 0.00061441815635050615 0.019779456633279079 0 0.00057535670311863326 0.019443243470547378 0 0.00066596505154469963 0.019572992336598427 0 0.00066596505154469963 0.019572992336598427 0 0.00064679580821900542 0.019401508646305035 0 0.00073259234029434154 0.019627903138659013 0 0.00057535670311863326 0.019443243470547378 0 0.00055235546562192321 0.019223941638437325 0 0.0004305160654113244 0.019188028907671639 0 0.00055235546562192321 0.019223941638437325 0 0.0004305160654113244 0.019188028907671639 0 0.0004989606749582153 0.018921618043375898 0 0.0004305160654113244 0.019188028907671639 0 0.00043678504140946009 0.019434744317781635 0 0.00018602312374262482 0.019264195609623041 0 0.00057535670311863326 0.019443243470547378 0 0.0004305160654113244 0.019188028907671639 0 0.00043678504140946009 0.019434744317781635 0 0.00057535670311863326 0.019443243470547378 0 0.00049998982076116265 0.019682543007974264 0 0.00043678504140946009 0.019434744317781635 0 0.00049998982076116265 0.019682543007974264 0 0.00038559528662117891 0.019542756054716476 0 0.00043678504140946009 0.019434744317781635 0 0.00049998982076116265 0.019682543007974264 0 0.00037010926687611954 0.019775570410625092 0 0.00038559528662117891 0.019542756054716476 0 0.00038319182750120657 0.019664679917005812 0 0.00048546441187767597 0.019642492220123608 0 0.00018602312374262482 0.019264195609623041 0 0.00037010926687611954 0.019775570410625092 0 0.00038559528662117891 0.019542756054716476 0 0.00018602312374262482 0.019264195609623041 0 0.00038559528662117891 0.019542756054716476 0 0.00043678504140946009 0.019434744317781635 0 0.00018602312374262482 0.019264195609623041 0 0.0004422306588158343 0.019715511531989742 0 0.000208043916378357 0.01935187238808192 0 0.00038319182750120657 0.019664679917005812 0 0.00018602312374262482 0.019264195609623041 0 -4.2859272270461017e-05 0.019201272361281933 0 0.00025946832346938572 0.019493695404462306 0 -1.0052549951149441e-05 0.019247519687595558 0 0.00012405147125189994 0.019337512879560877 0 -2.9999920983794557e-05 0.019293480052105447 0 -4.2859272270461017e-05 0.019201272361281933 0 0.00012405147125189994 0.019337512879560877 0 -2.9999920983794557e-05 0.019293480052105447 0 8.0007790435387257e-06 0.019358379131394557 0 -8.7447468154891296e-05 0.019373098403058321 0 -2.9999920983794557e-05 0.019293480052105447 0 8.0007790435387257e-06 0.019358379131394557 0 -8.7447468154891296e-05 0.019373098403058321 0 -0.00023713175683518254 0.01940505825177713 0 -0.00018118057682279547 0.019256989721917202 0 -8.7447468154891296e-05 0.019373098403058321 0 -2.9999920983794557e-05 0.019293480052105447 0 -0.00018118057682279547 0.019256989721917202 0 -2.9999920983794557e-05 0.019293480052105447 0 -0.00018118057682279547 0.019256989721917202 0 -4.2859272270461017e-05 0.019201272361281933 0 -0.00018118057682279547 0.019256989721917202 0 -4.2859272270461017e-05 0.019201272361281933 0 -0.00037607483876643554 0.019024817900184596 0 0.00018602312374262482 0.019264195609623041 0 -4.2859272270461017e-05 0.019201272361281933 0 9.3870859785437786e-05 0.018911838050760521 0 -4.2859272270461017e-05 0.019201272361281933 0 9.3870859785437786e-05 0.018911838050760521 0 -0.00018671005327870372 0.018944193891305867 0 0.0004305160654113244 0.019188028907671639 0 0.00018602312374262482 0.019264195609623041 0 9.3870859785437786e-05 0.018911838050760521 0 0.0004305160654113244 0.019188028907671639 0 9.3870859785437786e-05 0.018911838050760521 0 0.0004989606749582153 0.018921618043375898 0 9.3870859785437786e-05 0.018911838050760521 0 -0.00012642875174363787 0.018434659882975796 0 0.0004989606749582153 0.018921618043375898 0 0.00043825227247096932 0.018736618417778423 0 0.00041097115303757084 0.018611465770196848 0 0.0004989606749582153 0.018921618043375898 0 0.00070222276720472159 0.019196750607727152 0 0.00061616577972651535 0.019216131578040418 0 -0.00012642875174363787 0.018434659882975796 0 0.0004989606749582153 0.018921618043375898 0 -3.9031303924199561e-05 0.01750806189670738 0 0.00070222276720472159 0.019196750607727152 0 0.00067324390604170555 0.019196139271838913 0 0.00065948821329470933 0.019223427724015755 0 0.00067324390604170555 0.019196139271838913 0 0.00065948821329470933 0.019223427724015755 0 0.00065701348044230239 0.019166739111025281 0 0.00070222276720472159 0.019196750607727152 0 0.00065948821329470933 0.019223427724015755 0 0.00061616577972651535 0.019216131578040418 0 0.00065948821329470933 0.019223427724015755 0 0.00061616577972651535 0.019216131578040418 0 0.00066345827132890738 0.019258202692170996 0 0.00061616577972651535 0.019216131578040418 0 0.00066345827132890738 0.019258202692170996 0 0.00061529992197362183 0.019286971632509201 0 0.00065948821329470933 0.019223427724015755 0 0.00066345827132890738 0.019258202692170996 0 0.00071306354059604005 0.019218440784468934 0 0.00066345827132890738 0.019258202692170996 0 0.00071667968786176279 0.019309618518860577 0 0.00071306354059604005 0.019218440784468934 0 0.00066345827132890738 0.019258202692170996 0 0.00071667968786176279 0.019309618518860577 0 0.00061529992197362183 0.019286971632509201 0 0.00055235546562192321 0.019223941638437325 0 0.0004989606749582153 0.018921618043375898 0 0.00061529992197362183 0.019286971632509201 0 0.00055235546562192321 0.019223941638437325 0 0.00061529992197362183 0.019286971632509201 0 0.00064679580821900542 0.019401508646305035 0 0.0004989606749582153 0.018921618043375898 0 0.00061616577972651535 0.019216131578040418 0 0.00061529992197362183 0.019286971632509201 0 0.00064679580821900542 0.019401508646305035 0 0.00072985189415940993 0.019438061752416188 0 0.00076751493195563697 0.019610909306381048 0 0.00064679580821900542 0.019401508646305035 0 0.00076751493195563697 0.019610909306381048 0 0.00073259234029434154 0.019627903138659013 0 0.00061529992197362183 0.019286971632509201 0 0.00064679580821900542 0.019401508646305035 0 0.00072985189415940993 0.019438061752416188 0 0.00072985189415940993 0.019438061752416188 0 0.0008186926728325194 0.019642179751735503 0 0.0008081394981797193 0.019391997477479161 0 0.00071667968786176279 0.019309618518860577 0 0.00061529992197362183 0.019286971632509201 0 0.00072985189415940993 0.019438061752416188 0 0.00071667968786176279 0.019309618518860577 0 0.00072985189415940993 0.019438061752416188 0 0.0008081394981797193 0.019391997477479161 0 0.00083706979691091277 0.019865545587392324 0 0.0008186926728325194 0.019642179751735503 0 0.00076751493195563697 0.019610909306381048 0 0.00072985189415940993 0.019438061752416188 0 0.0008186926728325194 0.019642179751735503 0 0.00076751493195563697 0.019610909306381048 0 0.00080991124120843145 0.019814171367839736 0 0.00076751493195563697 0.019610909306381048 0 0.00073259234029434154 0.019627903138659013 0 -0.0016983327934422835 0.01808702928538963 0 -0.0011538442264813636 0.018062169033487171 0 -0.0019728373978282095 0.0175836041957785 0 -0.0016983327934422835 0.01808702928538963 0 -0.0023940998359267495 0.017860569552163568 0 -0.0019728373978282095 0.0175836041957785 0 -0.0018687726978654198 0.018372370574597702 0 -0.0016983327934422835 0.01808702928538963 0 -0.0023940998359267495 0.017860569552163568 0 -0.0018687726978654198 0.018372370574597702 0 -0.0016983327934422835 0.01808702928538963 0 -0.0011972486186919663 0.018623451148791322 0 -0.0023940998359267495 0.017860569552163568 0 -0.0019728373978282095 0.0175836041957785 0 -0.0025826780069039615 0.017648000427374442 0 0.00021591074764200306 0.010515543762884133 0 -0.00015119754715616968 0.011863509625188862 0 -0.0023940998359267495 0.017860569552163568 0 -0.0024122969929654568 0.017567883814786304 0 -0.0025826780069039615 0.017648000427374442 0 -0.0018687726978654198 0.018372370574597702 0 -0.0023940998359267495 0.017860569552163568 0 -0.0025975553706295233 0.01855787713830696 0 -0.0023940998359267495 0.017860569552163568 0 -0.0024993471703944744 0.017435807805535518 0 -0.0024122969929654568 0.017567883814786304 0 -0.0021767882876837486 0.018154187683697611 0 -5.8472985009047303e-06 0.012692838815536699 0 0.0011323445894466358 0.005637946070670561 0 0.0012558508554228031 0.0059298647728112221 0 0.0015948171025870895 0.0055433334998687585 0 0.0017299230201547179 0.0066852451844743943 0 -5.8472985009047303e-06 0.012692838815536699 0 -5.8472985009047303e-06 0.012692838815536699 0 0.00021591074764200306 0.010515543762884133 0 0.001206477833661387 0.0054475196947962818 0 0.0015948171025870895 0.0055433334998687585 0 0.0015885560740676065 0.0054753371808958376 0 0.0011323445894466358 0.005637946070670561 0 0.001206477833661387 0.0054475196947962818 0 0.0015948171025870895 0.0055433334998687585 0 -0.0012558978486644876 0.019452533843594026 0 -0.0015666189041155954 0.01891228955153253 0 -0.0010108772168725781 0.019189584168905285 0 -0.0016289187565009268 0.019167413254940872 0 -0.002026647170554596 0.01871450682649951 0 -0.0015666189041155954 0.01891228955153253 0 -0.0018687726978654198 0.018372370574597702 0 -0.0025975553706295233 0.01855787713830696 0 -0.0015666189041155954 0.01891228955153253 0 -5.8472985009047303e-06 0.012692838815536699 0 -0.0017109881144386685 0.018566034608143569 0 -0.0018687726978654198 0.018372370574597702 0 -0.0015666189041155954 0.01891228955153253 0 -0.0011972486186919663 0.018623451148791322 0 -0.00069846034285976828 0.019302860078894719 0 -0.0010108772168725781 0.019189584168905285 0 -0.00071552453030018792 0.019064318078633544 0 -0.0010108772168725781 0.019189584168905285 0 -0.00071552453030018792 0.019064318078633544 0 -0.0011972486186919663 0.018623451148791322 0 -0.00071552453030018792 0.019064318078633544 0 -0.00072571730147490934 0.018772748000703211 0 -0.0011972486186919663 0.018623451148791322 0 -0.0015666189041155954 0.01891228955153253 0 -0.0010108772168725781 0.019189584168905285 0 -0.0011972486186919663 0.018623451148791322 0 -0.00023713175683518254 0.01940505825177713 0 -0.00018118057682279547 0.019256989721917202 0 -0.00039851944962736264 0.019286146503989732 0 -0.00018118057682279547 0.019256989721917202 0 -0.00039851944962736264 0.019286146503989732 0 -0.00037607483876643554 0.019024817900184596 0 -0.00069846034285976828 0.019302860078894719 0 -0.00071552453030018792 0.019064318078633544 0 -0.00039851944962736264 0.019286146503989732 0 -0.00071552453030018792 0.019064318078633544 0 -0.00039851944962736264 0.019286146503989732 0 -0.00037607483876643554 0.019024817900184596 0 -0.00071552453030018792 0.019064318078633544 0 -0.00037607483876643554 0.019024817900184596 0 -0.00072571730147490934 0.018772748000703211 0 -4.2859272270461017e-05 0.019201272361281933 0 -0.00037607483876643554 0.019024817900184596 0 -0.00018671005327870372 0.018944193891305867 0 -0.00045500183881026264 0.018596149349706836 0 -0.0011538442264813636 0.018062169033487171 0 -0.00054562953487730895 0.018061909952951111 0 -0.00037607483876643554 0.019024817900184596 0 -0.00018671005327870372 0.018944193891305867 0 -0.00045500183881026264 0.018596149349706836 0 9.3870859785437786e-05 0.018911838050760521 0 -0.00018671005327870372 0.018944193891305867 0 -0.00045500183881026264 0.018596149349706836 0 -0.00037607483876643554 0.019024817900184596 0 -0.00072571730147490934 0.018772748000703211 0 -0.00045500183881026264 0.018596149349706836 0 9.3870859785437786e-05 0.018911838050760521 0 -0.00012642875174363787 0.018434659882975796 0 -0.00045500183881026264 0.018596149349706836 0 -0.00072571730147490934 0.018772748000703211 0 -0.00045500183881026264 0.018596149349706836 0 -0.0011538442264813636 0.018062169033487171 0 -0.00072571730147490934 0.018772748000703211 0 -0.0011972486186919663 0.018623451148791322 0 -0.0011538442264813636 0.018062169033487171 0 -0.0016983327934422835 0.01808702928538963 0 -0.0011972486186919663 0.018623451148791322 0 -0.0011538442264813636 0.018062169033487171 0 -0.0011538442264813636 0.018062169033487171 0 -0.00083821869051234408 0.017531642308475613 0 -0.00054562953487730895 0.018061909952951111 0 -0.0011538442264813636 0.018062169033487171 0 -0.00083821869051234408 0.017531642308475613 0 -0.0014644684300767926 0.017401274366292522 0 -3.9031303924199561e-05 0.01750806189670738 0 -0.00083821869051234408 0.017531642308475613 0 -0.00054562953487730895 0.018061909952951111 0 -0.00012642875174363787 0.018434659882975796 0 -0.00045500183881026264 0.018596149349706836 0 -0.00054562953487730895 0.018061909952951111 0 -0.00012642875174363787 0.018434659882975796 0 -3.9031303924199561e-05 0.01750806189670738 0 -0.00054562953487730895 0.018061909952951111 0 0.00041097115303757084 0.018611465770196848 0 8.0358763322680677e-05 0.016216825348353333 0 0.00070222276720472159 0.019196750607727152 0 0.00067324390604170555 0.019196139271838913 0 0.00064643167471812658 0.019166424999184719 0 -3.9031303924199561e-05 0.01750806189670738 0 -0.00083821869051234408 0.017531642308475613 0 -0.00066826467478250842 0.016678119784821931 0 -0.0014397032610678467 0.015398068596252453 0 8.0358763322680677e-05 0.016216825348353333 0 -0.0018146145801674043 0.016793223507289394 0 -0.0014644684300767926 0.017401274366292522 0 -0.00066826467478250842 0.016678119784821931 0 -0.00083821869051234408 0.017531642308475613 0 -0.0014644684300767926 0.017401274366292522 0 -0.00066826467478250842 0.016678119784821931 0 -0.0018146145801674043 0.016793223507289394 0 -0.0019728373978282095 0.0175836041957785 0 -0.0023193123914668295 0.017200993327199609 0 -0.0018146145801674043 0.016793223507289394 0 -0.0019728373978282095 0.0175836041957785 0 -0.0014644684300767926 0.017401274366292522 0 -0.0011538442264813636 0.018062169033487171 0 -0.0019728373978282095 0.0175836041957785 0 -0.0014644684300767926 0.017401274366292522 0 -0.0019728373978282095 0.0175836041957785 0 -0.0023193123914668295 0.017200993327199609 0 -0.0025826780069039615 0.017648000427374442 0 -0.0029511425924639181 0.016712347275075437 0 -0.0023193123914668295 0.017200993327199609 0 -0.0025826780069039615 0.017648000427374442 0 -0.00089828100701029308 0.0088508423280742096 0 -4.5832291416029401e-05 0.00836675072151934 0 -0.00095915516630739846 0.0085014547825238915 0 -0.0010068905135497414 0.010064285886451294 0 -0.00013390966141544689 0.010486775969425544 0 -0.0010068905135497414 0.010064285886451294 0 -0.0014397032610678467 0.015398068596252453 0 -0.0029511425924639181 0.016712347275075437 0 -0.0018146145801674043 0.016793223507289394 0 -0.0023193123914668295 0.017200993327199609 0 -0.00054768167239120679 0.012973358725508014 0 -0.00042896196572079533 0.013028127883194063 0 -0.00045565513393552257 0.012980942243765141 0 -4.5832291416029401e-05 0.00836675072151934 0 -0.00059167768520973398 0.0081024663888698452 0 -0.00095915516630739846 0.0085014547825238915 0 -4.5832291416029401e-05 0.00836675072151934 0 -0.00059167768520973398 0.0081024663888698452 0 -0.00024667105200550403 0.0077230398252225302 0 -0.00059167768520973398 0.0081024663888698452 0 -0.00024667105200550403 0.0077230398252225302 0 -0.00092532093737041868 0.0077396519590203191 0 -0.00024667105200550403 0.0077230398252225302 0 0.00051609179526487586 0.0075742253902814968 0 -0.00044161906005525713 0.0070206603104292697 0 -0.00024667105200550403 0.0077230398252225302 0 -0.00044161906005525713 0.0070206603104292697 0 -0.00092532093737041868 0.0077396519590203191 0 -4.5832291416029401e-05 0.00836675072151934 0 -0.00024667105200550403 0.0077230398252225302 0 0.00051609179526487586 0.0075742253902814968 0 -4.5832291416029401e-05 0.00836675072151934 0 0.00051609179526487586 0.0075742253902814968 0 0.00079218184301679199 0.0079192645349148629 0 -0.00042896196572079533 0.013028127883194063 0 -0.00045565513393552257 0.012980942243765141 0 -0.00033414734631064327 0.012932855241909047 0 -0.00013390966141544689 0.010486775969425544 0 0.00018329498334417055 0.012572515134103096 0 -0.00042896196572079533 0.013028127883194063 0 -0.0002627184617905046 0.013036703649865526 0 -0.00033414734631064327 0.012932855241909047 0 0.00030514209069700248 0.016324958490313148 0 -0.00036366688732143509 0.015518603719098413 0 -0.00011406262192643272 0.015377068786053168 0 8.0358763322680677e-05 0.016216825348353333 0 0.00018329498334417055 0.012572515134103096 0 0.00027287591851474219 0.015899091510353944 0 0.0009626301374736681 0.0181029792904632 0 0.00030514209069700248 0.016324958490313148 0 -0.00011406262192643272 0.015377068786053168 0 0.0013264516272924196 0.016125586314765943 0 8.0358763322680677e-05 0.016216825348353333 0 0.0009626301374736681 0.0181029792904632 0 0.00067324390604170555 0.019196139271838913 0 0.00064643167471812658 0.019166424999184719 0 0.00066971893970305303 0.019172604586082196 0 0.00090601710500658867 0.018443848021110733 0 0.0009027973792375719 0.018436524379468001 0 0.00078170348691663431 0.018865194207699661 0 0.0009027973792375719 0.018436524379468001 0 0.00089843684673731824 0.018419509480260693 0 0.00078170348691663431 0.018865194207699661 0 0.00090601710500658867 0.018443848021110733 0 0.0009027973792375719 0.018436524379468001 0 0.0011044653567338599 0.017923260487236473 0 0.00090601710500658867 0.018443848021110733 0 0.00070931420434963742 0.018485043509564026 0 0.0007901102586261627 0.018648542101999205 0 -0.00063610581329574703 0.013805407602220827 0 0.00018329498334417055 0.012572515134103096 0 -0.00073655920786792602 0.014054181439402961 0 -8.2155885457982749e-05 0.014822805118224541 0 0.00032823627494770277 0.014585863352896047 0 -0.00063610581329574703 0.013805407602220827 0 0.00027287591851474219 0.015899091510353944 0 0.00018329498334417055 0.012572515134103096 0 0.00027287591851474219 0.015899091510353944 0 0.0001202004654514758 0.016558817369607091 0 0.00027287591851474219 0.015899091510353944 0 0.0009027973792375719 0.018436524379468001 0 0.00060848955641511107 0.018702060185741422 0 0.00039671075400238699 0.018043594221018824 0 0.0009027973792375719 0.018436524379468001 0 0.00039671075400238699 0.018043594221018824 0 0.0011044653567338599 0.017923260487236473 0 -0.00069514247555399152 0.0181552187180558 0 0.00060848955641511107 0.018702060185741422 0 0.00039671075400238699 0.018043594221018824 0 -0.00069514247555399152 0.0181552187180558 0 0.00039671075400238699 0.018043594221018824 0 -0.00035907510096490195 0.016485798280646845 0 -0.00035907510096490195 0.016485798280646845 0 0.0011044653567338599 0.017923260487236473 0 0.0001262186645750496 0.01418670959067014 0 0.00039671075400238699 0.018043594221018824 0 -0.00035907510096490195 0.016485798280646845 0 0.0011044653567338599 0.017923260487236473 0 0.001127376590630492 0.017782893389955295 0 0.0013278392470662582 0.015919900463297297 0 0.0011044653567338599 0.017923260487236473 0 0.00070931420434963742 0.018485043509564026 0 0.00056910878678280593 0.018652883853081764 0 0.00090601710500658867 0.018443848021110733 0 0.0011044653567338599 0.017923260487236473 0 0.00070931420434963742 0.018485043509564026 0 0.00070931420434963742 0.018485043509564026 0 0.00056910878678280593 0.018652883853081764 0 0.00063337031039452515 0.018663795341331127 0 0.0011044653567338599 0.017923260487236473 0 0.002155882033390379 0.013185453061284783 0 0.0001262186645750496 0.01418670959067014 0 0.002155882033390379 0.013185453061284783 0 0.0001262186645750496 0.01418670959067014 0 0.00060262693619962172 0.011383288682136471 0 -0.0013926116889635275 0.014357762001810194 0 -0.0032483038956759519 0.013247258429624587 0 -0.0011583809431732954 0.012502268948006334 0 0.0001262186645750496 0.01418670959067014 0 -0.0013926116889635275 0.014357762001810194 0 -0.0011583809431732954 0.012502268948006334 0 -0.0032483038956759519 0.013247258429624587 0 -0.0031760905271174429 0.0145136511438903 0 -0.0040640121382011906 0.013052395925665405 0 -0.0013926116889635275 0.014357762001810194 0 -0.0032483038956759519 0.013247258429624587 0 -0.0022049873161713923 0.015796918158957642 0 -0.0032594871870173583 0.013412937924407195 0 -0.0020206641963357425 0.015389034178577338 0 -0.0032483038956759519 0.013247258429624587 0 -0.0031760905271174429 0.0145136511438903 0 -0.0022930675860218879 0.014325260681717612 0 -0.00063610581329574703 0.013805407602220827 0 -0.0020774131702553517 0.010783290888011381 0 -0.0013780512372221824 0.015343381959660824 0 -0.0031760905271174429 0.0145136511438903 0 -0.0022930675860218879 0.014325260681717612 0 -0.00069514247555399152 0.0181552187180558 0 -0.00035907510096490195 0.016485798280646845 0 -0.0022049873161713923 0.015796918158957642 0 -0.00063610581329574703 0.013805407602220827 0 -0.0020206641963357425 0.015389034178577338 0 -0.00035907510096490195 0.016485798280646845 0 -0.0013926116889635275 0.014357762001810194 0 -0.0022049873161713923 0.015796918158957642 0 -0.00035907510096490195 0.016485798280646845 0 0.0001262186645750496 0.01418670959067014 0 -0.0013926116889635275 0.014357762001810194 0 0.00092704376806725401 0.019673807645719531 0 0.00093652561692278977 0.019474290771936579 0 0.00086592533949089224 0.019593611992981052 0 0.0008186926728325194 0.019642179751735503 0 0.00086592533949089224 0.019593611992981052 0 0.0008081394981797193 0.019391997477479161 0 0.00093652561692278977 0.019474290771936579 0 0.00086592533949089224 0.019593611992981052 0 0.0008081394981797193 0.019391997477479161 0 0.00071667968786176279 0.019309618518860577 0 0.0008081394981797193 0.019391997477479161 0 0.00074685846405978928 0.019232443003858176 0 0.0008081394981797193 0.019391997477479161 0 0.00083208329439157824 0.019234232578953132 0 0.00077891188793935678 0.019162706720957368 0 0.00093652561692278977 0.019474290771936579 0 0.0008081394981797193 0.019391997477479161 0 0.00083208329439157824 0.019234232578953132 0 0.00093652561692278977 0.019474290771936579 0 0.00083208329439157824 0.019234232578953132 0 0.00085832610189877335 0.019107109865540647 0 0.00083208329439157824 0.019234232578953132 0 0.00076336030702404847 0.018965388353275624 0 0.00085832610189877335 0.019107109865540647 0 0.00076336030702404847 0.018965388353275624 0 0.00077891188793935678 0.019162706720957368 0 0.00075517521393700339 0.019011053595675689 0 0.00076336030702404847 0.018965388353275624 0 0.00075517521393700339 0.019011053595675689 0 0.00076629387511735069 0.018868908419963384 0 0.00083208329439157824 0.019234232578953132 0 0.00076336030702404847 0.018965388353275624 0 0.00077891188793935678 0.019162706720957368 0 0.0008081394981797193 0.019391997477479161 0 0.00077891188793935678 0.019162706720957368 0 0.00074685846405978928 0.019232443003858176 0 0.00077891188793935678 0.019162706720957368 0 0.00074685846405978928 0.019232443003858176 0 0.00074554046089220433 0.01912492655992451 0 0.00071667968786176279 0.019309618518860577 0 0.00074685846405978928 0.019232443003858176 0 0.00071306354059604005 0.019218440784468934 0 0.00065948821329470933 0.019223427724015755 0 0.0007055681507386973 0.019168674144455767 0 0.00071306354059604005 0.019218440784468934 0 0.00074685846405978928 0.019232443003858176 0 0.00071306354059604005 0.019218440784468934 0 0.00074554046089220433 0.01912492655992451 0 0.0007055681507386973 0.019168674144455767 0 0.00071306354059604005 0.019218440784468934 0 0.00074554046089220433 0.01912492655992451 0 0.0007055681507386973 0.019168674144455767 0 0.00074554046089220433 0.01912492655992451 0 0.00072636011961284405 0.019018713651421059 0 0.00077891188793935678 0.019162706720957368 0 0.00074554046089220433 0.01912492655992451 0 0.00075517521393700339 0.019011053595675689 0 0.00074554046089220433 0.01912492655992451 0 0.00075517521393700339 0.019011053595675689 0 0.00072636011961284405 0.019018713651421059 0 0.00075517521393700339 0.019011053595675689 0 0.00072636011961284405 0.019018713651421059 0 0.00076629387511735069 0.018868908419963384 0 0.00072636011961284405 0.019018713651421059 0 0.00078170348691663431 0.018865194207699661 0 0.00076629387511735069 0.018868908419963384 0 0.0007055681507386973 0.019168674144455767 0 0.00072636011961284405 0.019018713651421059 0 0.00065701348044230239 0.019166739111025281 0 0.00072636011961284405 0.019018713651421059 0 0.00065701348044230239 0.019166739111025281 0 0.00048226051252838522 0.019075344002174498 0 0.00064497924864413713 0.018547729850639013 0 0.0009626301374736681 0.0181029792904632 0 0.0009332129287840759 0.018443844404171503 0 0.0009626301374736681 0.0181029792904632 0 0.00065948821329470933 0.019223427724015755 0 0.0007055681507386973 0.019168674144455767 0 0.00065701348044230239 0.019166739111025281 0 0.00067324390604170555 0.019196139271838913 0 0.00065701348044230239 0.019166739111025281 0 0.00066971893970305303 0.019172604586082196 0 0.00078170348691663431 0.018865194207699661 0 0.00076629387511735069 0.018868908419963384 0 0.0007901102586261627 0.018648542101999205 0 0.00076336030702404847 0.018965388353275624 0 0.0007901102586261627 0.018648542101999205 0 0.00070814679494804055 0.018778117382521577 0 0.00076336030702404847 0.018965388353275624 0 0.00076629387511735069 0.018868908419963384 0 0.0007901102586261627 0.018648542101999205 0 0.00090601710500658867 0.018443848021110733 0 0.00078170348691663431 0.018865194207699661 0 0.0007901102586261627 0.018648542101999205 0 0.00070931420434963742 0.018485043509564026 0 0.0007901102586261627 0.018648542101999205 0 0.00070814679494804055 0.018778117382521577 0 0.00070931420434963742 0.018485043509564026 0 0.00070814679494804055 0.018778117382521577 0 0.00063337031039452515 0.018663795341331127 0 0.00063337031039452515 0.018663795341331127 0 0.00073761608017916308 0.018760652765216781 0 0.00062219237583089205 0.018439299667009777 0 0.00056910878678280593 0.018652883853081764 0 0.00063337031039452515 0.018663795341331127 0 0.00062219237583089205 0.018439299667009777 0 0.00070814679494804055 0.018778117382521577 0 0.00063337031039452515 0.018663795341331127 0 0.00073761608017916308 0.018760652765216781 0 0.00073761608017916308 0.018760652765216781 0 0.00085832610189877335 0.019107109865540647 0 0.00089846687259984091 0.018622115519180839 0 0.00070814679494804055 0.018778117382521577 0 0.00073761608017916308 0.018760652765216781 0 0.00085832610189877335 0.019107109865540647 0 0.00076336030702404847 0.018965388353275624 0 0.00070814679494804055 0.018778117382521577 0 0.00085832610189877335 0.019107109865540647 0 0.0010985835213022141 0.019427075379874498 0 0.0013879536258378088 0.018428557494424538 0 0.00089846687259984091 0.018622115519180839 0 0.0018943790848700889 0.018864365365643003 0 0.0010985835213022141 0.019427075379874498 0 0.0013879536258378088 0.018428557494424538 0 0.00093652561692278977 0.019474290771936579 0 0.00085832610189877335 0.019107109865540647 0 0.0010985835213022141 0.019427075379874498 0 0.00085832610189877335 0.019107109865540647 0 0.0010985835213022141 0.019427075379874498 0 0.00089846687259984091 0.018622115519180839 0 0.00092704376806725401 0.019673807645719531 0 0.00093652561692278977 0.019474290771936579 0 0.0010985835213022141 0.019427075379874498 0 0.0013879536258378088 0.018428557494424538 0 0.0010947896696002427 0.018115257352553916 0 0.0014637812120437579 0.017669273267488492 0 0.0019049998477289681 0.018117622827213891 0 0.0013879536258378088 0.018428557494424538 0 0.0014637812120437579 0.017669273267488492 0 0.0013879536258378088 0.018428557494424538 0 0.00089846687259984091 0.018622115519180839 0 0.0010947896696002427 0.018115257352553916 0 0.00089846687259984091 0.018622115519180839 0 0.0010947896696002427 0.018115257352553916 0 0.00077422366466545992 0.018141893927170302 0 0.0010947896696002427 0.018115257352553916 0 0.00077422366466545992 0.018141893927170302 0 0.00093543196906296748 0.017729522827714821 0 0.00077422366466545992 0.018141893927170302 0 0.00062219237583089205 0.018439299667009777 0 0.00050973957458183138 0.018074466739158541 0 0.00077422366466545992 0.018141893927170302 0 0.00050973957458183138 0.018074466739158541 0 0.00059371810006664185 0.017786874154804028 0 0.00089846687259984091 0.018622115519180839 0 0.00077422366466545992 0.018141893927170302 0 0.00062219237583089205 0.018439299667009777 0 0.00073761608017916308 0.018760652765216781 0 0.00089846687259984091 0.018622115519180839 0 0.00062219237583089205 0.018439299667009777 0 0.00050973957458183138 0.018074466739158541 0 0.00036364903211021739 0.017802880114973871 0 0.00024499190937557513 0.018138894353847933 0 0.00062219237583089205 0.018439299667009777 0 0.00050973957458183138 0.018074466739158541 0 0.00024499190937557513 0.018138894353847933 0 0.00050973957458183138 0.018074466739158541 0 0.00036364903211021739 0.017802880114973871 0 0.00059371810006664185 0.017786874154804028 0 0.00036364903211021739 0.017802880114973871 0 0.00043203963902229314 0.017509685998868388 0 0.00059371810006664185 0.017786874154804028 0 0.00036364903211021739 0.017802880114973871 0 0.00043203963902229314 0.017509685998868388 0 7.5097101245593211e-05 0.017394773119444557 0 0.00043203963902229314 0.017509685998868388 0 7.5097101245593211e-05 0.017394773119444557 0 0.00042660530141729199 0.017110519307492283 0 0.00043203963902229314 0.017509685998868388 0 0.00069549754259906084 0.017416555181921194 0 0.00042660530141729199 0.017110519307492283 0 0.00069549754259906084 0.017416555181921194 0 0.00073075460314757595 0.017050593536960056 0 0.00042660530141729199 0.017110519307492283 0 0.00069549754259906084 0.017416555181921194 0 0.001049995229419654 0.017257130137150047 0 0.00073075460314757595 0.017050593536960056 0 0.00069549754259906084 0.017416555181921194 0 0.00059371810006664185 0.017786874154804028 0 0.00093543196906296748 0.017729522827714821 0 0.00077422366466545992 0.018141893927170302 0 0.00059371810006664185 0.017786874154804028 0 0.00093543196906296748 0.017729522827714821 0 0.00043203963902229314 0.017509685998868388 0 0.00069549754259906084 0.017416555181921194 0 0.00059371810006664185 0.017786874154804028 0 0.0010947896696002427 0.018115257352553916 0 0.00093543196906296748 0.017729522827714821 0 0.0014637812120437579 0.017669273267488492 0 0.00093543196906296748 0.017729522827714821 0 0.001049995229419654 0.017257130137150047 0 0.0014637812120437579 0.017669273267488492 0 0.00069549754259906084 0.017416555181921194 0 0.00093543196906296748 0.017729522827714821 0 0.001049995229419654 0.017257130137150047 0 0.001049995229419654 0.017257130137150047 0 0.0014637812120437579 0.017669273267488492 0 0.0015000723449948017 0.016903136914767074 0 0.0019205923441988162 0.01717851581434568 0 0.0014637812120437579 0.017669273267488492 0 0.0015000723449948017 0.016903136914767074 0 -0.0005452063189884239 0.010345245201302825 0 -0.0015456206948992132 0.0093594330228100302 0 -0.0023628902172821843 0.010872378671803445 0 -0.0005452063189884239 0.010345245201302825 0 -0.0015456206948992132 0.0093594330228100302 0 -0.00056145224841883915 0.0087558153692163538 0 -0.0015456206948992132 0.0093594330228100302 0 -0.0027101060187095915 0.0089366250719543402 0 -0.0023628902172821843 0.010872378671803445 0 -0.0027101060187095915 0.0089366250719543402 0 -0.0023628902172821843 0.010872378671803445 0 -0.0036762234331234054 0.0098067528871501261 0 -0.0032483038956759519 0.013247258429624587 0 -0.0023628902172821843 0.010872378671803445 0 -0.0038471136436809546 0.011445289022974129 0 -0.0032483038956759519 0.013247258429624587 0 -0.0023628902172821843 0.010872378671803445 0 -0.0011583809431732954 0.012502268948006334 0 -0.0023628902172821843 0.010872378671803445 0 -0.0036762234331234054 0.0098067528871501261 0 -0.0038471136436809546 0.011445289022974129 0 -0.0005452063189884239 0.010345245201302825 0 -0.0011583809431732954 0.012502268948006334 0 0.00060262693619962172 0.011383288682136471 0 -0.0005452063189884239 0.010345245201302825 0 -0.0023628902172821843 0.010872378671803445 0 -0.0011583809431732954 0.012502268948006334 0 0.0001262186645750496 0.01418670959067014 0 -0.0011583809431732954 0.012502268948006334 0 0.00060262693619962172 0.011383288682136471 0 0.00056910878678280593 0.018652883853081764 0 0.00062219237583089205 0.018439299667009777 0 0.00024499190937557513 0.018138894353847933 0 0.0013278392470662582 0.015919900463297297 0 0.0011668783381225789 0.013962234466041086 0 0.002155882033390379 0.013185453061284783 0 0.00060262693619962172 0.011383288682136471 0 0.0021128776737848248 0.0097148147377101018 0 0.00060262693619962172 0.011383288682136471 0 0.0021128776737848248 0.0097148147377101018 0 0.00065690479311592269 0.0092935955594070502 0 -0.0005452063189884239 0.010345245201302825 0 0.00060262693619962172 0.011383288682136471 0 0.00065690479311592269 0.0092935955594070502 0 -0.0005452063189884239 0.010345245201302825 0 0.00065690479311592269 0.0092935955594070502 0 -0.00056145224841883915 0.0087558153692163538 0 0.00065690479311592269 0.0092935955594070502 0 0.00058491742945948242 0.0079824930459510383 0 0.001474414499459927 0.007928519172081365 0 0.00065690479311592269 0.0092935955594070502 0 0.00058491742945948242 0.0079824930459510383 0 -0.00056145224841883915 0.0087558153692163538 0 0.0021128776737848248 0.0097148147377101018 0 0.001474414499459927 0.007928519172081365 0 0.0017873721996827545 0.007633991769215232 0 0.00036364903211021739 0.017802880114973871 0 0.00024499190937557513 0.018138894353847933 0 7.5097101245593211e-05 0.017394773119444557 0 0.0021128776737848248 0.0097148147377101018 0 0.00065690479311592269 0.0092935955594070502 0 0.001474414499459927 0.007928519172081365 0 0.0011668783381225789 0.013962234466041086 0 0.0010353886906335681 0.012491624918291727 0 0.0014344030901183272 0.0078979463843497008 0 0.0010682445895000199 0.0071177015005898722 0 0.001474414499459927 0.007928519172081365 0 0.0017873721996827545 0.007633991769215232 0 0.0014393532019179609 0.0072320008833469882 0 0.00058491742945948242 0.0079824930459510383 0 0.00063852926670281737 0.0073774126460461852 0 0.00015917128994527243 0.0070505261838417392 0 0.001474414499459927 0.007928519172081365 0 0.00063852926670281737 0.0073774126460461852 0 0.00066375123835952761 0.0068419842150947196 0 0.0005338303857733139 0.0078623365456189295 0 -0.00026843528283427442 0.0063599622130143816 0 0.00058491742945948242 0.0079824930459510383 0 0.001474414499459927 0.007928519172081365 0 0.00063852926670281737 0.0073774126460461852 0 0.00058491742945948242 0.0079824930459510383 0 -0.0015203275767870499 0.0075905710545884249 0 -0.00072923223099663882 0.0055352208045589407 0 -0.0015203275767870499 0.0075905710545884249 0 -0.0027098404875755167 0.0059806199584284256 0 -0.00072923223099663882 0.0055352208045589407 0 -0.0015456206948992132 0.0093594330228100302 0 -0.0015203275767870499 0.0075905710545884249 0 -0.00056145224841883915 0.0087558153692163538 0 0.00058491742945948242 0.0079824930459510383 0 -0.0015203275767870499 0.0075905710545884249 0 -0.00056145224841883915 0.0087558153692163538 0 -0.0015456206948992132 0.0093594330228100302 0 -0.0027101060187095915 0.0089366250719543402 0 -0.0015203275767870499 0.0075905710545884249 0 -0.0027101060187095915 0.0089366250719543402 0 -0.0015203275767870499 0.0075905710545884249 0 -0.003026325110001169 0.0074292527772906085 0 -0.0015203275767870499 0.0075905710545884249 0 -0.003026325110001169 0.0074292527772906085 0 -0.0027098404875755167 0.0059806199584284256 0 -0.0027098404875755167 0.0059806199584284256 0 -0.0038799949208732226 0.0065624847950468855 0 -0.0040870615856900775 0.0052140319870232791 0 -0.003026325110001169 0.0074292527772906085 0 -0.0027098404875755167 0.0059806199584284256 0 -0.0038799949208732226 0.0065624847950468855 0 -0.0038799949208732226 0.0065624847950468855 0 -0.0048102663377152808 0.0060360383187284079 0 -0.0040870615856900775 0.0052140319870232791 0 -0.0048102663377152808 0.0060360383187284079 0 -0.0053096839743572832 0.0057814207013499276 0 -0.0049371978271316426 0.0051565988452015729 0 -0.0053096839743572832 0.0057814207013499276 0 -0.0053287734259410552 0.0051036302421554125 0 -0.0049371978271316426 0.0051565988452015729 0 -0.0048102663377152808 0.0060360383187284079 0 -0.0053096839743572832 0.0057814207013499276 0 -0.0052669606946405345 0.0064594300488378621 0 -0.0052669606946405345 0.0064594300488378621 0 -0.0046314520036439865 0.0069672396431849143 0 -0.005507499606485668 0.0072926692724577021 0 -0.0053096839743572832 0.0057814207013499276 0 -0.0052669606946405345 0.0064594300488378621 0 -0.0061417595719147951 0.0062574028974718941 0 -0.0052669606946405345 0.0064594300488378621 0 -0.005507499606485668 0.0072926692724577021 0 -0.0061417595719147951 0.0062574028974718941 0 -0.0048102663377152808 0.0060360383187284079 0 -0.0052669606946405345 0.0064594300488378621 0 -0.0046314520036439865 0.0069672396431849143 0 -0.0038799949208732226 0.0065624847950468855 0 -0.0048102663377152808 0.0060360383187284079 0 -0.0046314520036439865 0.0069672396431849143 0 -0.0046314520036439865 0.0069672396431849143 0 -0.005507499606485668 0.0072926692724577021 0 -0.0042728612225085751 0.0081763576127198857 0 -0.005507499606485668 0.0072926692724577021 0 -0.0042728612225085751 0.0081763576127198857 0 -0.0061373767118029542 0.008628013546851011 0 -0.0038799949208732226 0.0065624847950468855 0 -0.0046314520036439865 0.0069672396431849143 0 -0.0042728612225085751 0.0081763576127198857 0 -0.0027101060187095915 0.0089366250719543402 0 -0.003026325110001169 0.0074292527772906085 0 -0.0042728612225085751 0.0081763576127198857 0 -0.003026325110001169 0.0074292527772906085 0 -0.0038799949208732226 0.0065624847950468855 0 -0.0042728612225085751 0.0081763576127198857 0 -0.0026823297563393148 -0.0029346856970630442 0 -0.0026948824387051135 -0.0030009124918897144 0 -0.0026364956255111168 -0.0032840051567149648 0 -0.0026823297563393148 -0.0029346856970630442 0 -0.0026364956255111168 -0.0032840051567149648 0 -0.0026245645423365479 -0.0032566786050320989 0 -0.0026823297563393148 -0.0029346856970630442 0 -0.0026583676811439906 -0.0028841860819496757 0 -0.0026245645423365479 -0.0032566786050320989 0 -0.0026823297563393148 -0.0029346856970630442 0 -0.0026583676811439906 -0.0028841860819496757 0 -0.0027137372854608615 -0.0025300702150798525 0 -0.0026823297563393148 -0.0029346856970630442 0 -0.0027137372854608615 -0.0025300702150798525 0 -0.0026948824387051135 -0.0030009124918897144 0 -0.0036314402681842245 -0.0010005539796098203 0 -0.0028748590602033853 -0.001987442688411503 0 -0.0045555889516447588 0.0032571877091575416 0 -0.0031256683238116362 -0.00203544698674696 0 -0.0034591115459715357 -0.00028445316784034936 0 -0.0026583676811439906 -0.0028841860819496757 0 -0.0028748590602033853 -0.001987442688411503 0 -0.0024049434322116641 -0.0034642251942709171 0 -0.0026583676811439906 -0.0028841860819496757 0 -0.0027137372854608615 -0.0025300702150798525 0 -0.0028748590602033853 -0.001987442688411503 0 -0.0061417595719147951 0.0062574028974718941 0 -0.0053972404118496414 0.0048316904141268444 0 -0.0053287734259410552 0.0051036302421554125 0 -0.0053096839743572832 0.0057814207013499276 0 -0.0061417595719147951 0.0062574028974718941 0 -0.0053287734259410552 0.0051036302421554125 0 -0.005507499606485668 0.0072926692724577021 0 -0.0061417595719147951 0.0062574028974718941 0 -0.0061373767118029542 0.008628013546851011 0 -0.0028748590602033853 -0.001987442688411503 0 -0.0027257328778638916 -0.0023462589148973948 0 -0.002449772868902762 -0.0026244947615113247 0 -0.0028748590602033853 -0.001987442688411503 0 -0.002740969611939292 -0.0025295510913723087 0 -0.0027257328778638916 -0.0023462589148973948 0 -0.0048327860941499859 0.0028722110568667461 0 -0.0042986866241620176 0.0031268937363596039 0 -0.0036314402681842245 -0.0010005539796098203 0 -0.0028748590602033853 -0.001987442688411503 0 -0.002449772868902762 -0.0026244947615113247 0 -0.0027137372854608615 -0.0025300702150798525 0 -0.0028748590602033853 -0.001987442688411503 0 -0.002740969611939292 -0.0025295510913723087 0 -0.0026682083307691721 -0.0026962132553193345 0 -0.0027964719870443564 -0.0025634150340062916 0 -0.0026948824387051135 -0.0030009124918897144 0 -0.0027137372854608615 -0.0025300702150798525 0 -0.002740969611939292 -0.0025295510913723087 0 -0.0026682083307691721 -0.0026962132553193345 0 -0.002740969611939292 -0.0025295510913723087 0 -0.0026682083307691721 -0.0026962132553193345 0 -0.0026847285343749943 -0.0026013149322709804 0 -0.0027137372854608615 -0.0025300702150798525 0 -0.0026682083307691721 -0.0026962132553193345 0 -0.0026948824387051135 -0.0030009124918897144 0 -0.00099163641407876753 -0.00047041097957473431 0 -0.0016553786352271132 -0.00039600874652256837 0 -0.0015696771905547961 -0.00084306910979961818 0 -0.0028966612324686151 -0.0027203624238690111 0 -0.0024795993234042026 -0.0013995342357885528 0 -0.0026847285343749943 -0.0026013149322709804 0 -0.0026586508294738063 -0.0026028105864478335 0 -0.0027964719870443564 -0.0025634150340062916 0 -0.002740969611939292 -0.0025295510913723087 0 -0.0026847285343749943 -0.0026013149322709804 0 -0.0026586508294738063 -0.0026028105864478335 0 -0.0024795993234042026 -0.0013995342357885528 0 -0.0020796102692255554 -0.0016049069739294472 0 -0.0026682083307691721 -0.0026962132553193345 0 -0.0026847285343749943 -0.0026013149322709804 0 -0.0027964719870443564 -0.0025634150340062916 0 -0.002740969611939292 -0.0025295510913723087 0 -0.0027257328778638916 -0.0023462589148973948 0 -0.0033539589063011342 -0.0014838013285346588 0 -0.0027257328778638916 -0.0023462589148973948 0 -0.0026506448490598552 -0.0016924822035299307 0 -0.0033539589063011342 -0.0014838013285346588 0 -0.0027257328778638916 -0.0023462589148973948 0 -0.0026506448490598552 -0.0016924822035299307 0 -0.002449772868902762 -0.0026244947615113247 0 -0.0029335647410357246 -0.00090002028924456284 0 -0.0013552658814129357 -0.00060967979187695291 0 -0.0022487857599082471 0.0010359579082816304 0 -0.0029335647410357246 -0.00090002028924456284 0 -0.0038352532296759404 0.00018212850325420438 0 -0.0022487857599082471 0.0010359579082816304 0 -0.0026506448490598552 -0.0016924822035299307 0 -0.0029335647410357246 -0.00090002028924456284 0 -0.0013552658814129357 -0.00060967979187695291 0 -0.0026506448490598552 -0.0016924822035299307 0 -0.0029335647410357246 -0.00090002028924456284 0 -0.0033539589063011342 -0.0014838013285346588 0 -0.0029335647410357246 -0.00090002028924456284 0 -0.0037595650802544106 -0.0013810543218362361 0 -0.0038352532296759404 0.00018212850325420438 0 -0.0029316517662562463 -0.0013290638275947927 0 -0.0024795993234042026 -0.0013995342357885528 0 -0.00099163641407876753 -0.00047041097957473431 0 -0.0010127127579084719 -6.9749119632751797e-05 0 -0.0016553786352271132 -0.00039600874652256837 0 -0.00020653797641638575 0.00041143479467206954 0 -0.00092929108887344577 0.00051227005615138649 0 -0.0012773541896235895 -0.00015333643811891087 0 -0.0020272198162923668 0.0015245582688900908 0 -0.0012609295678095035 -0.00038674044985485861 0 -0.0024795993234042026 -0.0013995342357885528 0 -0.0020272198162923668 0.0015245582688900908 0 -0.0042728612225085751 0.0081763576127198857 0 -0.0036762234331234054 0.0098067528871501261 0 -0.004815862983006812 0.0099782538762075036 0 -0.0027101060187095915 0.0089366250719543402 0 -0.0042728612225085751 0.0081763576127198857 0 -0.0036762234331234054 0.0098067528871501261 0 -0.0036762234331234054 0.0098067528871501261 0 -0.004815862983006812 0.0099782538762075036 0 -0.0038471136436809546 0.011445289022974129 0 -0.0042986866241620176 0.0031268937363596039 0 -0.0037100066963649367 0.0053426919570203971 0 -0.0026506448490598552 -0.0016924822035299307 0 -0.002449772868902762 -0.0026244947615113247 0 -0.0013552658814129357 -0.00060967979187695291 0 -0.0061373767118029542 0.008628013546851011 0 -0.004815862983006812 0.0099782538762075036 0 -0.0058929586395601499 0.011098637355501444 0 -0.0042728612225085751 0.0081763576127198857 0 -0.0061373767118029542 0.008628013546851011 0 -0.004815862983006812 0.0099782538762075036 0 -0.004815862983006812 0.0099782538762075036 0 -0.0058929586395601499 0.011098637355501444 0 -0.004814965412891053 0.01213347045794198 0 -0.004815862983006812 0.0099782538762075036 0 -0.004814965412891053 0.01213347045794198 0 -0.0038471136436809546 0.011445289022974129 0 -0.004814965412891053 0.01213347045794198 0 -0.0038471136436809546 0.011445289022974129 0 -0.0040640121382011906 0.013052395925665405 0 -0.0032483038956759519 0.013247258429624587 0 -0.0038471136436809546 0.011445289022974129 0 -0.0040640121382011906 0.013052395925665405 0 -0.0031760905271174429 0.0145136511438903 0 -0.0040640121382011906 0.013052395925665405 0 -0.0053027138321358339 0.013459652663607394 0 -0.004814965412891053 0.01213347045794198 0 -0.0040640121382011906 0.013052395925665405 0 -0.0053027138321358339 0.013459652663607394 0 -0.00044161906005525713 0.0070206603104292697 0 -0.0013030750130747562 0.0068393525199712552 0 -0.0014046171757614721 0.0064688981424279703 0 -0.00044161906005525713 0.0070206603104292697 0 -0.0013030750130747562 0.0068393525199712552 0 -0.0010313838748843105 0.0072594353961449795 0 -0.0020774131702553517 0.010783290888011381 0 -0.00174099472690151 0.007112515074057902 0 -0.0015677507181469669 0.0071580256947609919 0 -0.0017708538796537712 0.0067102657015289504 0 -0.0021267940564517664 0.0071903874426483402 0 -0.0015677507181469669 0.0071580256947609919 0 -0.0013030750130747562 0.0068393525199712552 0 -0.0017708538796537712 0.0067102657015289504 0 -0.0015677507181469669 0.0071580256947609919 0 -0.0013030750130747562 0.0068393525199712552 0 -0.0010313838748843105 0.0072594353961449795 0 -0.0013030750130747562 0.0068393525199712552 0 -0.0017708538796537712 0.0067102657015289504 0 -0.0013964395108336965 0.0063886607415459037 0 -0.0015447670019622854 0.0067332373478302789 0 -0.00174099472690151 0.007112515074057902 0 -0.0058929586395601499 0.011098637355501444 0 -0.004814965412891053 0.01213347045794198 0 -0.0053027138321358339 0.013459652663607394 0 -0.0037100066963649367 0.0053426919570203971 0 -0.00174099472690151 0.007112515074057902 0 -0.0017708538796537712 0.0067102657015289504 0 -0.0013964395108336965 0.0063886607415459037 0 -0.0020256773657918504 0.0060292576543033395 0 -0.0013552658814129357 -0.00060967979187695291 0 -0.00060788500787986794 0.0019334184701796757 0 -0.0022487857599082471 0.0010359579082816304 0 -0.00174099472690151 0.007112515074057902 0 -0.0023035086626288664 0.0034838896404002884 0 -0.0017708538796537712 0.0067102657015289504 0 -0.0020256773657918504 0.0060292576543033395 0 -0.0026964671859440324 0.0067446626995641586 0 -0.002671548877344933 0.0056702687557157773 0 -0.0020256773657918504 0.0060292576543033395 0 -0.0026964671859440324 0.0067446626995641586 0 -0.0020272198162923668 0.0015245582688900908 0 -0.0023035086626288664 0.0034838896404002884 0 -0.0020272198162923668 0.0015245582688900908 0 -0.0015017938039468214 0.0046693523988137952 0 -0.00020653797641638575 0.00041143479467206954 0 -0.00077413377591679922 0.0010240424233201051 0 -0.00024921507043138518 0.0015495620059198139 0 -0.00020653797641638575 0.00041143479467206954 0 -0.00077413377591679922 0.0010240424233201051 0 -0.00092929108887344577 0.00051227005615138649 0 -0.00077413377591679922 0.0010240424233201051 0 -0.00024921507043138518 0.0015495620059198139 0 -0.0010390077025467051 0.0016147646289597448 0 -0.00024921507043138518 0.0015495620059198139 0 -0.00072920542518423723 0.0020175835647141122 0 -0.0010390077025467051 0.0016147646289597448 0 -0.0017708538796537712 0.0067102657015289504 0 -0.0026964671859440324 0.0067446626995641586 0 -0.0021267940564517664 0.0071903874426483402 0 -0.0021267940564517664 0.0071903874426483402 0 -0.0019162522864171751 0.0075985534549250959 0 -0.0027072126451122293 0.0077326132030550564 0 -0.0026964671859440324 0.0067446626995641586 0 -0.0021267940564517664 0.0071903874426483402 0 -0.0027072126451122293 0.0077326132030550564 0 -0.0019162522864171751 0.0075985534549250959 0 -0.0027072126451122293 0.0077326132030550564 0 -0.0018504864563405714 0.0081065677814458267 0 -0.00037559331056364004 0.0027939193838537615 0 -0.00095183348148221718 0.0028417874069567198 0 -0.0012444799848670145 0.002311709691985739 0 -0.00024921507043138518 0.0015495620059198139 0 -0.00072920542518423723 0.0020175835647141122 0 -0.00029550814753928758 0.0026850242150116979 0 -0.0015017938039468214 0.0046693523988137952 0 -0.00071929618145665463 0.0041156981030497962 0 -0.00071929618145665463 0.0041156981030497962 0 -0.0012992108147999583 0.0021274341263579121 0 -0.00072920542518423723 0.0020175835647141122 0 -0.00029550814753928758 0.0026850242150116979 0 -0.0013322511779934917 0.0022216383548334028 0 -0.00067639667202594065 0.0030267808830175438 0 -0.00065335945326505098 0.0032840110875484332 0 -0.00097107476444028597 0.0031489900796293122 0 -0.00037559331056364004 0.0027939193838537615 0 -0.00067639667202594065 0.0030267808830175438 0 -0.00095183348148221718 0.0028417874069567198 0 -0.00067639667202594065 0.0030267808830175438 0 -0.00097107476444028597 0.0031489900796293122 0 -0.00095183348148221718 0.0028417874069567198 0 -0.00067639667202594065 0.0030267808830175438 0 -0.00041474495433221301 0.0030967725502655942 0 -0.00065335945326505098 0.0032840110875484332 0 -0.00037559331056364004 0.0027939193838537615 0 -0.00067639667202594065 0.0030267808830175438 0 -0.00041474495433221301 0.0030967725502655942 0 -0.00071929618145665463 0.0041156981030497962 0 -0.00057126093394377201 0.0031157118632176937 0 -0.00059397064613795844 0.0035887217694778482 0 -0.00065335945326505098 0.0032840110875484332 0 -0.00018240353288393485 0.0034369803852105619 0 -0.00041474495433221301 0.0030967725502655942 0 -0.00065335945326505098 0.0032840110875484332 0 -0.00018240353288393485 0.0034369803852105619 0 -0.0010041848855295817 0.0036407374960843596 0 -0.00065335945326505098 0.0032840110875484332 0 -0.00097107476444028597 0.0031489900796293122 0 -0.00059397064613795844 0.0035887217694778482 0 -0.0010041848855295817 0.0036407374960843596 0 -0.00065335945326505098 0.0032840110875484332 0 -0.00041474495433221301 0.0030967725502655942 0 -0.00018240353288393485 0.0034369803852105619 0 0.00041024685940149795 0.0031608472407394857 0 -0.00040384127571371358 0.0028100557757883642 0 -0.00041474495433221301 0.0030967725502655942 0 0.00041024685940149795 0.0031608472407394857 0 -0.00071929618145665463 0.0041156981030497962 0 -0.00069897436176945802 0.0056518053082781359 0 0.00027886569096183088 0.0037319938530187445 0 -0.00018240353288393485 0.0034369803852105619 0 0.00041024685940149795 0.0031608472407394857 0 -0.00069897436176945802 0.0056518053082781359 0 -0.00078636748784567223 0.0070173240392092584 0 -0.0018504864563405714 0.0081065677814458267 0 -0.0013244920948467201 0.0079011168092045937 0 -0.0011178424234593364 0.0082073910463154355 0 -0.0018504864563405714 0.0081065677814458267 0 -0.0010268067843221993 0.0084609647935291327 0 -0.0011178424234593364 0.0082073910463154355 0 0.00082329945390992093 0.0037177268185612858 0 0.00041024685940149795 0.0031608472407394857 0 0.0012920938273123859 0.0035606892251851007 0 0.00082329945390992093 0.0037177268185612858 0 0.00027886569096183088 0.0037319938530187445 0 0.00041024685940149795 0.0031608472407394857 0 -0.001029872677836038 0.0084710633037901346 0 -0.00095915516630739846 0.0085014547825238915 0 -0.0009151869454514989 0.0082657869113744158 0 -0.00078636748784567223 0.0070173240392092584 0 -0.00075901442552789452 0.0070829242028044963 0 -0.00078636748784567223 0.0070173240392092584 0 -0.0007196854839400822 0.0079601295691837399 0 -0.001029872677836038 0.0084710633037901346 0 -0.0011178424234593364 0.0082073910463154355 0 -0.0009151869454514989 0.0082657869113744158 0 -0.00059167768520973398 0.0081024663888698452 0 -0.00095915516630739846 0.0085014547825238915 0 -0.0009151869454514989 0.0082657869113744158 0 -0.00059167768520973398 0.0081024663888698452 0 -0.0009151869454514989 0.0082657869113744158 0 -0.00092532093737041868 0.0077396519590203191 0 -0.0013244920948467201 0.0079011168092045937 0 -0.0011178424234593364 0.0082073910463154355 0 -0.00092532093737041868 0.0077396519590203191 0 -0.0011178424234593364 0.0082073910463154355 0 -0.0009151869454514989 0.0082657869113744158 0 -0.00092532093737041868 0.0077396519590203191 0 -0.0013244920948467201 0.0079011168092045937 0 -0.00092532093737041868 0.0077396519590203191 0 -0.0014093678626583069 0.0075529791350716418 0 -0.00044161906005525713 0.0070206603104292697 0 -0.00092532093737041868 0.0077396519590203191 0 -0.0010313838748843105 0.0072594353961449795 0 -0.00092532093737041868 0.0077396519590203191 0 -0.0010313838748843105 0.0072594353961449795 0 -0.0014093678626583069 0.0075529791350716418 0 -0.0015677507181469669 0.0071580256947609919 0 -0.0010313838748843105 0.0072594353961449795 0 -0.0014093678626583069 0.0075529791350716418 0 -0.0015677507181469669 0.0071580256947609919 0 -0.0021267940564517664 0.0071903874426483402 0 -0.0019162522864171751 0.0075985534549250959 0 -0.0015677507181469669 0.0071580256947609919 0 -0.0019162522864171751 0.0075985534549250959 0 -0.0014093678626583069 0.0075529791350716418 0 -0.0019162522864171751 0.0075985534549250959 0 -0.0018504864563405714 0.0081065677814458267 0 -0.0014093678626583069 0.0075529791350716418 0 -0.0018504864563405714 0.0081065677814458267 0 -0.0013244920948467201 0.0079011168092045937 0 -0.0014093678626583069 0.0075529791350716418 0 -0.003240547254060581 0.0025281908411264372 0 -0.0024159275339279674 0.0031233014842050343 0 -0.0020071874146830285 0.0024278649154244139 0 -0.003240547254060581 0.0025281908411264372 0 -0.0020071874146830285 0.0024278649154244139 0 -0.0023428652650193654 0.0017683957021208286 0 -0.003240547254060581 0.0025281908411264372 0 -0.0033646638935664126 0.0014929683339091762 0 -0.0038679221060109758 0.0019530789601938379 0 -0.003240547254060581 0.0025281908411264372 0 -0.0038679221060109758 0.0019530789601938379 0 -0.0041038412017385152 0.002596010432158805 0 -0.003240547254060581 0.0025281908411264372 0 -0.0037318744068951101 0.0031855015497942777 0 -0.0041038412017385152 0.002596010432158805 0 -0.0035115241070421397 0.0035637734289613852 0 -0.003240547254060581 0.0025281908411264372 0 -0.0037318744068951101 0.0031855015497942777 0 -0.0028918741170054448 0.0015223872441805281 0 -0.0033175327162691371 0.00066716527425602875 0 -0.0028918741170054448 0.0015223872441805281 0 -0.0023681948777317195 0.0033880843362638791 0 -0.0028669369444638657 0.0034929697373663636 0 -0.0020980236589317231 0.003694914974343252 0 -0.0020476267396181366 0.0031472415693983499 0 -0.0035115241070421397 0.0035637734289613852 0 -0.003240547254060581 0.0025281908411264372 0 -0.0024159275339279674 0.0031233014842050343 0 -0.0023681948777317195 0.0033880843362638791 0 -0.0012654663235417165 0.0026798988244994353 0 -0.0015186332489506768 0.0036676927378427762 0 -0.0020476267396181366 0.0031472415693983499 0 -0.0013369759529284577 0.0032268187320840459 0 -0.0020476267396181366 0.0031472415693983499 0 -0.0013369759529284577 0.0032268187320840459 0 -0.0012908318900208497 0.0027317070520664756 0 -0.0010041848855295817 0.0036407374960843596 0 -0.0013369759529284577 0.0032268187320840459 0 -0.00097107476444028597 0.0031489900796293122 0 -0.0013369759529284577 0.0032268187320840459 0 -0.001139017385808269 0.0029894499280968614 0 -0.0012908318900208497 0.0027317070520664756 0 -0.0013369759529284577 0.0032268187320840459 0 -0.001139017385808269 0.0029894499280968614 0 -0.00097107476444028597 0.0031489900796293122 0 -0.001139017385808269 0.0029894499280968614 0 -0.00097107476444028597 0.0031489900796293122 0 -0.00095183348148221718 0.0028417874069567198 0 -0.00095183348148221718 0.0028417874069567198 0 -0.0012908318900208497 0.0027317070520664756 0 -0.0012444799848670145 0.002311709691985739 0 -0.001139017385808269 0.0029894499280968614 0 -0.00095183348148221718 0.0028417874069567198 0 -0.0012908318900208497 0.0027317070520664756 0 -0.0012908318900208497 0.0027317070520664756 0 -0.0012444799848670145 0.002311709691985739 0 -0.0020071874146830285 0.0024278649154244139 0 -0.0012444799848670145 0.002311709691985739 0 -0.0020071874146830285 0.0024278649154244139 0 -0.0023428652650193654 0.0017683957021208286 0 -0.0024159275339279674 0.0031233014842050343 0 -0.0012908318900208497 0.0027317070520664756 0 -0.0020071874146830285 0.0024278649154244139 0 -0.0012992108147999583 0.0021274341263579121 0 -0.0022654578160821717 0.0018364819132402101 0 -0.0013322511779934917 0.0022216383548334028 0 -0.0023428652650193654 0.0017683957021208286 0 -0.0016530068561363472 0.0015245870663291076 0 -0.0023428652650193654 0.0017683957021208286 0 -0.0020573765429204812 0.00098511605097246937 0 -0.002759606114149583 0.00095922878131896689 0 -0.0023428652650193654 0.0017683957021208286 0 -0.0016530068561363472 0.0015245870663291076 0 -0.0020573765429204812 0.00098511605097246937 0 -0.00072920542518423723 0.0020175835647141122 0 -0.0013322511779934917 0.0022216383548334028 0 -0.0010390077025467051 0.0016147646289597448 0 -0.0013322511779934917 0.0022216383548334028 0 -0.0016530068561363472 0.0015245870663291076 0 -0.0010390077025467051 0.0016147646289597448 0 -0.0016530068561363472 0.0015245870663291076 0 -0.0010390077025467051 0.0016147646289597448 0 -0.0014463638005466929 0.0010334044064250151 0 -0.00077413377591679922 0.0010240424233201051 0 -0.0010390077025467051 0.0016147646289597448 0 -0.0014463638005466929 0.0010334044064250151 0 -0.0014463638005466929 0.0010334044064250151 0 -0.00092929108887344577 0.00051227005615138649 0 -0.0016115083989797318 0.0004237633375475161 0 -0.00077413377591679922 0.0010240424233201051 0 -0.0014463638005466929 0.0010334044064250151 0 -0.00092929108887344577 0.00051227005615138649 0 -0.0016530068561363472 0.0015245870663291076 0 -0.0014463638005466929 0.0010334044064250151 0 -0.0020573765429204812 0.00098511605097246937 0 -0.0014463638005466929 0.0010334044064250151 0 -0.0020573765429204812 0.00098511605097246937 0 -0.0016115083989797318 0.0004237633375475161 0 -0.0020573765429204812 0.00098511605097246937 0 -0.0016115083989797318 0.0004237633375475161 0 -0.0022692854740032457 0.00024792371166394229 0 -0.0020573765429204812 0.00098511605097246937 0 -0.002759606114149583 0.00095922878131896689 0 -0.0022692854740032457 0.00024792371166394229 0 -0.002759606114149583 0.00095922878131896689 0 -0.0035687010352673278 0.00060433509195802811 0 -0.003034938369936218 -5.2326711305206467e-05 0 -0.0023428652650193654 0.0017683957021208286 0 -0.002759606114149583 0.00095922878131896689 0 -0.0033646638935664126 0.0014929683339091762 0 -0.003240547254060581 0.0025281908411264372 0 -0.0023428652650193654 0.0017683957021208286 0 -0.0033646638935664126 0.0014929683339091762 0 -0.0033646638935664126 0.0014929683339091762 0 -0.0038679221060109758 0.0019530789601938379 0 -0.0041733356752344849 0.0011819951071536953 0 -0.0033646638935664126 0.0014929683339091762 0 -0.0035687010352673278 0.00060433509195802811 0 -0.0041733356752344849 0.0011819951071536953 0 -0.002759606114149583 0.00095922878131896689 0 -0.0033646638935664126 0.0014929683339091762 0 -0.0035687010352673278 0.00060433509195802811 0 -0.0035687010352673278 0.00060433509195802811 0 -0.0038281209547414768 -0.00020395496241774051 0 -0.003034938369936218 -5.2326711305206467e-05 0 -0.003034938369936218 -5.2326711305206467e-05 0 -0.0022692854740032457 0.00024792371166394229 0 -0.0023929323506905621 -0.00071539127228149261 0 -0.002759606114149583 0.00095922878131896689 0 -0.003034938369936218 -5.2326711305206467e-05 0 -0.0022692854740032457 0.00024792371166394229 0 -0.003034938369936218 -5.2326711305206467e-05 0 -0.0023929323506905621 -0.00071539127228149261 0 -0.0033752879748991239 -0.0010467883583631919 0 -0.0038281209547414768 -0.00020395496241774051 0 -0.003034938369936218 -5.2326711305206467e-05 0 -0.0033752879748991239 -0.0010467883583631919 0 -0.00092929108887344577 0.00051227005615138649 0 -0.0016115083989797318 0.0004237633375475161 0 -0.0012773541896235895 -0.00015333643811891087 0 -0.0016115083989797318 0.0004237633375475161 0 -0.0012773541896235895 -0.00015333643811891087 0 -0.0018880424673909098 -4.8207864608259948e-05 0 -0.0018880424673909098 -4.8207864608259948e-05 0 -0.0022692854740032457 0.00024792371166394229 0 -0.0023929323506905621 -0.00071539127228149261 0 -0.0016115083989797318 0.0004237633375475161 0 -0.0018880424673909098 -4.8207864608259948e-05 0 -0.0022692854740032457 0.00024792371166394229 0 -0.0012609295678095035 -0.00038674044985485861 0 -0.0024096469519772289 -0.00068299997254589191 0 -0.0012773541896235895 -0.00015333643811891087 0 -0.0018880424673909098 -4.8207864608259948e-05 0 -0.0023929323506905621 -0.00071539127228149261 0 -0.0023929323506905621 -0.00071539127228149261 0 -0.0015696771905547961 -0.00084306910979961818 0 -0.0022301985226986761 -0.0013016225806866432 0 -0.0016553786352271132 -0.00039600874652256837 0 -0.0023929323506905621 -0.00071539127228149261 0 -0.0015696771905547961 -0.00084306910979961818 0 -0.0027964719870443564 -0.0025634150340062916 0 -0.0026948824387051135 -0.0030009124918897144 0 -0.0032337982053685429 -0.0028273255916527683 0 -0.0028093224529919091 -0.0031223475842109632 0 -0.002509449252024655 -0.0029762615351163323 0 -0.0020796102692255554 -0.0016049069739294472 0 -0.002509449252024655 -0.0029762615351163323 0 -0.002525904420962983 -0.0037259270631106495 0 -0.0024938769476552814 -0.0038170970516635647 0 -0.0025761058746326488 -0.0035232235102035867 0 -0.0024938769476552814 -0.0038170970516635647 0 -0.0024750196881730218 -0.0040960101373313804 0 -0.0024974853711542616 -0.0038154935456579061 0 -0.0024938769476552814 -0.0038170970516635647 0 -0.0025761058746326488 -0.0035232235102035867 0 -0.0024974853711542616 -0.0038154935456579061 0 -0.0026948824387051135 -0.0030009124918897144 0 -0.002525904420962983 -0.0037259270631106495 0 -0.0025761058746326488 -0.0035232235102035867 0 -0.0025761058746326488 -0.0035232235102035867 0 -0.0026364956255111168 -0.0032840051567149648 0 -0.0025040043435792247 -0.0036617301034800802 0 -0.0026948824387051135 -0.0030009124918897144 0 -0.0025761058746326488 -0.0035232235102035867 0 -0.0026364956255111168 -0.0032840051567149648 0 -0.002507088329190125 -0.0038299333332423042 0 -0.0024505335203381957 -0.0040363338073227013 0 -0.002792701180239286 -0.0042119178961671404 0 -0.002509449252024655 -0.0029762615351163323 0 -0.0024903400820411566 -0.0041466454817244616 0 -0.0023929323506905621 -0.00071539127228149261 0 -0.0022301985226986761 -0.0013016225806866432 0 -0.0033752879748991239 -0.0010467883583631919 0 -0.002509449252024655 -0.0029762615351163323 0 -0.0028836398211516787 -0.0024060317378736197 0 -0.0022536057494217448 -0.0039082549724844167 0 -0.002507088329190125 -0.0038299333332423042 0 -0.0024505335203381957 -0.0040363338073227013 0 -0.0024505335203381957 -0.0040363338073227013 0 -0.002531257289169728 -0.004392999405384658 0 -0.0024750196881730218 -0.0040960101373313804 0 -0.0024938769476552814 -0.0038170970516635647 0 -0.0024505335203381957 -0.0040363338073227013 0 -0.0024750196881730218 -0.0040960101373313804 0 -0.002525904420962983 -0.0037259270631106495 0 -0.0024938769476552814 -0.0038170970516635647 0 -0.0024505335203381957 -0.0040363338073227013 0 -0.0024505335203381957 -0.0040363338073227013 0 -0.002531257289169728 -0.004392999405384658 0 -0.002792701180239286 -0.0042119178961671404 0 -0.002531257289169728 -0.004392999405384658 0 -0.0024917874373948171 -0.0045341176476706279 0 -0.0026209338637267826 -0.0048714641086123533 0 -0.002531257289169728 -0.004392999405384658 0 -0.0024750196881730218 -0.0040960101373313804 0 -0.0024917874373948171 -0.0045341176476706279 0 -0.0024750196881730218 -0.0040960101373313804 0 -0.0024917874373948171 -0.0045341176476706279 0 -0.0024387178033622677 -0.0040333741845005973 0 -0.0024917874373948171 -0.0045341176476706279 0 -0.002383029909805089 -0.0043241909587937808 0 -0.0024387178033622677 -0.0040333741845005973 0 -0.0024917874373948171 -0.0045341176476706279 0 -0.0026209338637267826 -0.0048714641086123533 0 -0.0024213103524128991 -0.0048837309109901134 0 -0.0024917874373948171 -0.0045341176476706279 0 -0.0023952173829549783 -0.0047902016263665238 0 -0.0024213103524128991 -0.0048837309109901134 0 -0.0024917874373948171 -0.0045341176476706279 0 -0.0023693758326569646 -0.0046500002505246649 0 -0.002383029909805089 -0.0043241909587937808 0 -0.0024917874373948171 -0.0045341176476706279 0 -0.0023693758326569646 -0.0046500002505246649 0 -0.0023952173829549783 -0.0047902016263665238 0 -0.0023952173829549783 -0.0047902016263665238 0 -0.0023144436589581569 -0.0049402629127929254 0 -0.0022810155551032021 -0.0048954356057107785 0 -0.0023693758326569646 -0.0046500002505246649 0 -0.0023952173829549783 -0.0047902016263665238 0 -0.0022810155551032021 -0.0048954356057107785 0 -0.0023952173829549783 -0.0047902016263665238 0 -0.0023542345214624862 -0.0049074384464915521 0 -0.0024213103524128991 -0.0048837309109901134 0 -0.0023952173829549783 -0.0047902016263665238 0 -0.0023542345214624862 -0.0049074384464915521 0 -0.0023144436589581569 -0.0049402629127929254 0 -0.0022611983889071815 -0.0027378304314072881 0 -0.002078302374303309 -0.0032593972145005539 0 -0.0024779284201901534 -0.0032412465226036372 0 -0.0022611983889071815 -0.0027378304314072881 0 -0.0024779284201901534 -0.0032412465226036372 0 -0.0026915638222543164 -0.0028617669534679517 0 -0.0024372426887326998 -0.0032977741773498439 0 -0.0022765051199254544 -0.0036639301309812299 0 -0.0021428606811525045 -0.0032479322041728269 0 -0.0022825800171917816 -0.0039165455387096572 0 -0.002220577686567735 -0.0041164440721353536 0 -0.0021746683166229807 -0.0033472973003819332 0 -0.0022825800171917816 -0.0039165455387096572 0 -0.0023693758326569646 -0.0046500002505246649 0 -0.002199249346712158 -0.0046376454463059602 0 -0.0022810155551032021 -0.0048954356057107785 0 -0.0022825800171917816 -0.0039165455387096572 0 -0.0022459621297492727 -0.0045126604255874142 0 -0.0023693758326569646 -0.0046500002505246649 0 -0.002199249346712158 -0.0046376454463059602 0 -0.002383029909805089 -0.0043241909587937808 0 -0.002078302374303309 -0.0032593972145005539 0 -0.0024779284201901534 -0.0032412465226036372 0 -0.0025071352924756355 -0.0035233936149962112 0 -0.0025071352924756355 -0.0035233936149962112 0 -0.0023779736272257703 -0.0038253015267131004 0 -0.0025984317077603482 -0.0035258588758691448 0 -0.002078302374303309 -0.0032593972145005539 0 -0.0025071352924756355 -0.0035233936149962112 0 -0.0023779736272257703 -0.0038253015267131004 0 -0.0022392430113212887 -0.004600828876884116 0 -0.0023779736272257703 -0.0038253015267131004 0 -0.002383029909805089 -0.0043241909587937808 0 -0.0022825800171917816 -0.0039165455387096572 0 -0.00231318822845705 -0.0038590002326229994 0 -0.0023779736272257703 -0.0038253015267131004 0 -0.002383029909805089 -0.0043241909587937808 0 -0.0024387178033622677 -0.0040333741845005973 0 -0.0023779736272257703 -0.0038253015267131004 0 -0.0024387178033622677 -0.0040333741845005973 0 -0.0025040043435792247 -0.0036617301034800802 0 -0.0025761058746326488 -0.0035232235102035867 0 -0.0024974853711542616 -0.0038154935456579061 0 -0.0025040043435792247 -0.0036617301034800802 0 -0.0024387178033622677 -0.0040333741845005973 0 -0.0024974853711542616 -0.0038154935456579061 0 -0.0025040043435792247 -0.0036617301034800802 0 -0.0024750196881730218 -0.0040960101373313804 0 -0.0024387178033622677 -0.0040333741845005973 0 -0.0024974853711542616 -0.0038154935456579061 0 -0.0023779736272257703 -0.0038253015267131004 0 -0.0025740429688966854 -0.0035095413867225552 0 -0.0025984317077603482 -0.0035258588758691448 0 -0.0023779736272257703 -0.0038253015267131004 0 -0.0025740429688966854 -0.0035095413867225552 0 -0.0025040043435792247 -0.0036617301034800802 0 -0.0026364956255111168 -0.0032840051567149648 0 -0.0025740429688966854 -0.0035095413867225552 0 -0.0025040043435792247 -0.0036617301034800802 0 -0.0026364956255111168 -0.0032840051567149648 0 -0.0025740429688966854 -0.0035095413867225552 0 -0.0026245645423365479 -0.0032566786050320989 0 -0.0025740429688966854 -0.0035095413867225552 0 -0.0025823988751775624 -0.0034209402173472148 0 -0.0026245645423365479 -0.0032566786050320989 0 -0.0025740429688966854 -0.0035095413867225552 0 -0.0025823988751775624 -0.0034209402173472148 0 -0.0025984317077603482 -0.0035258588758691448 0 -0.0025823988751775624 -0.0034209402173472148 0 -0.0024049434322116641 -0.0034642251942709171 0 -0.0025984317077603482 -0.0035258588758691448 0 -0.0026583676811439906 -0.0028841860819496757 0 -0.0025762841776066077 -0.0032659472846830882 0 -0.0024049434322116641 -0.0034642251942709171 0 -0.0025823988751775624 -0.0034209402173472148 0 -0.0025762841776066077 -0.0032659472846830882 0 -0.0024049434322116641 -0.0034642251942709171 0 -0.0025823988751775624 -0.0034209402173472148 0 -0.0025762841776066077 -0.0032659472846830882 0 -0.0026245645423365479 -0.0032566786050320989 0 -0.0026583676811439906 -0.0028841860819496757 0 -0.0025762841776066077 -0.0032659472846830882 0 -0.0026245645423365479 -0.0032566786050320989 0 -0.0061417595719147951 0.0062574028974718941 0 -0.0053972404118496414 0.0048316904141268444 0 -0.0051140159716328449 0.0037821728912638512 0 -0.0048327860941499859 0.0028722110568667461 0 -0.0049548088370307631 0.0039081933166935532 0 -0.0036314402681842245 -0.0010005539796098203 0 -0.0051140159716328449 0.0037821728912638512 0 -0.0045555889516447588 0.0032571877091575416 0 -0.0053972404118496414 0.0048316904141268444 0 -0.0053287734259410552 0.0051036302421554125 0 -0.0051550169957315694 0.0043667383010124452 0 -0.0053287734259410552 0.0051036302421554125 0 -0.0051550169957315694 0.0043667383010124452 0 -0.0049371978271316426 0.0051565988452015729 0 -0.0051550169957315694 0.0043667383010124452 0 -0.0051140159716328449 0.0037821728912638512 0 -0.0051096121720516554 0.0041709114281070067 0 -0.0051550169957315694 0.0043667383010124452 0 -0.0051096121720516554 0.0041709114281070067 0 -0.0048053707594514104 0.0044302610143455226 0 -0.0053972404118496414 0.0048316904141268444 0 -0.0051550169957315694 0.0043667383010124452 0 -0.0051140159716328449 0.0037821728912638512 0 -0.0051140159716328449 0.0037821728912638512 0 -0.0045555889516447588 0.0032571877091575416 0 -0.0051554093397082256 0.0040740136641293206 0 -0.0051554093397082256 0.0040740136641293206 0 -0.0051096121720516554 0.0041709114281070067 0 -0.0050052942911846879 0.0040122105043191407 0 -0.0051140159716328449 0.0037821728912638512 0 -0.0051554093397082256 0.0040740136641293206 0 -0.0051096121720516554 0.0041709114281070067 0 -0.0051554093397082256 0.0040740136641293206 0 -0.0051735634150729569 0.0042383952600432819 0 -0.0050052942911846879 0.0040122105043191407 0 -0.0051096121720516554 0.0041709114281070067 0 -0.0048053707594514104 0.0044302610143455226 0 -0.0050052942911846879 0.0040122105043191407 0 -0.0034591115459715357 -0.00028445316784034936 0 -0.0039045455935013168 0.000348813374583606 0 -0.0024049434322116641 -0.0034642251942709171 0 -0.0025984317077603482 -0.0035258588758691448 0 -0.0027018900296012669 -0.0034829792813376539 0 -0.0045555889516447588 0.0032571877091575416 0 -0.0051554093397082256 0.0040740136641293206 0 -0.0051735634150729569 0.0042383952600432819 0 -0.0025071352924756355 -0.0035233936149962112 0 -0.0025984317077603482 -0.0035258588758691448 0 -0.0027018900296012669 -0.0034829792813376539 0 -0.0027098404875755167 0.0059806199584284256 0 -0.0031594969585988847 0.0045339210341851172 0 -0.0040870615856900775 0.0052140319870232791 0 -0.0031594969585988847 0.0045339210341851172 0 -0.0040870615856900775 0.0052140319870232791 0 -0.0040708386735298883 0.0041495656440436474 0 -0.0040870615856900775 0.0052140319870232791 0 -0.0048053707594514104 0.0044302610143455226 0 -0.0040708386735298883 0.0041495656440436474 0 -0.0040870615856900775 0.0052140319870232791 0 -0.0049371978271316426 0.0051565988452015729 0 -0.0048053707594514104 0.0044302610143455226 0 -0.0048102663377152808 0.0060360383187284079 0 -0.0040870615856900775 0.0052140319870232791 0 -0.0049371978271316426 0.0051565988452015729 0 -0.0051550169957315694 0.0043667383010124452 0 -0.0049371978271316426 0.0051565988452015729 0 -0.0048053707594514104 0.0044302610143455226 0 -0.0048053707594514104 0.0044302610143455226 0 -0.0040708386735298883 0.0041495656440436474 0 -0.0048078382148823645 0.0033453675823528223 0 -0.0047822351458591183 0.0043910592211672634 0 -0.0048880553720581955 0.0037046093581905785 0 -0.0040708386735298883 0.0041495656440436474 0 -0.0037462133702000425 0.0033967133865872886 0 -0.0048078382148823645 0.0033453675823528223 0 -0.0031594969585988847 0.0045339210341851172 0 -0.0040708386735298883 0.0041495656440436474 0 -0.0037462133702000425 0.0033967133865872886 0 -0.0037462133702000425 0.0033967133865872886 0 -0.0043188650740985223 0.0026982079060812254 0 -0.0037754293743316983 0.0027940652876265099 0 -0.0037462133702000425 0.0033967133865872886 0 -0.0037754293743316983 0.0027940652876265099 0 -0.0030478725127423326 0.0027301273585368948 0 -0.0037462133702000425 0.0033967133865872886 0 -0.0043188650740985223 0.0026982079060812254 0 -0.0048078382148823645 0.0033453675823528223 0 -0.0043188650740985223 0.0026982079060812254 0 -0.0040597151993320849 0.002434319423270795 0 -0.0043104279883765173 0.0022316161416648765 0 -0.0043188650740985223 0.0026982079060812254 0 -0.0040597151993320849 0.002434319423270795 0 -0.0037754293743316983 0.0027940652876265099 0 0.00023348698600832835 0.0068619149388597107 0 0.00010520284834977678 0.006771475986791284 0 0.00010703181372870584 0.0066356452105276525 0 -0.0037664617533293815 0.0022991782918762899 0 -0.0037465017773118618 0.0019693571656813308 0 -0.0030478725127423326 0.0027301273585368948 0 -0.0027677795295083063 0.0036360447644778146 0 -0.001285693805467507 0.0049020123471751435 0 -0.0040597151993320849 0.002434319423270795 0 -0.0037754293743316983 0.0027940652876265099 0 -0.0037664617533293815 0.0022991782918762899 0 -0.0040597151993320849 0.002434319423270795 0 -0.0037664617533293815 0.0022991782918762899 0 -0.0040172156440775875 0.0022082047652493128 0 -0.0037754293743316983 0.0027940652876265099 0 -0.0037664617533293815 0.0022991782918762899 0 -0.0030478725127423326 0.0027301273585368948 0 -0.0024779284201901534 -0.0032412465226036372 0 -0.0027018900296012669 -0.0034829792813376539 0 -0.0026915638222543164 -0.0028617669534679517 0 -0.0039045455935013168 0.000348813374583606 0 -0.0041321061951218995 0.00042647718188620919 0 -0.0024779284201901534 -0.0032412465226036372 0 -0.0025071352924756355 -0.0035233936149962112 0 -0.0027018900296012669 -0.0034829792813376539 0 -0.0051735634150729569 0.0042383952600432819 0 -0.0050052942911846879 0.0040122105043191407 0 -0.0049574435858150898 0.0035513885681065661 0 -0.0043188650740985223 0.0026982079060812254 0 -0.0048078382148823645 0.0033453675823528223 0 -0.00477937644738732 0.00250046343761494 0 -0.0048880553720581955 0.0037046093581905785 0 -0.0048789335877049821 0.0030291551016211169 0 -0.0043188650740985223 0.0026982079060812254 0 -0.00477937644738732 0.00250046343761494 0 -0.0043104279883765173 0.0022316161416648765 0 -0.0051735634150729569 0.0042383952600432819 0 -0.0049574435858150898 0.0035513885681065661 0 -0.005518868131859503 0.0034802124645649107 0 -0.005518868131859503 0.0034802124645649107 0 -0.0051763202384533316 0.0026798384339414929 0 -0.005809217288040007 0.0025249211025894836 0 -0.0049574435858150898 0.0035513885681065661 0 -0.005518868131859503 0.0034802124645649107 0 -0.0051763202384533316 0.0026798384339414929 0 -0.0048789335877049821 0.0030291551016211169 0 -0.0049839880521028003 0.002324017530276474 0 -0.00477937644738732 0.00250046343761494 0 -0.0047581259015854558 0.0019575431029877563 0 -0.0045295895136205242 0.0020553244336307215 0 -0.00477937644738732 0.00250046343761494 0 -0.0045295895136205242 0.0020553244336307215 0 -0.0043104279883765173 0.0022316161416648765 0 -0.0045295895136205242 0.0020553244336307215 0 -0.0043104279883765173 0.0022316161416648765 0 -0.0043075832468859043 0.0019066257450088585 0 -0.0047581259015854558 0.0019575431029877563 0 -0.0045295895136205242 0.0020553244336307215 0 -0.0045031772167067139 0.001774632208040879 0 -0.0047581259015854558 0.0019575431029877563 0 -0.0045031772167067139 0.001774632208040879 0 -0.0046731368955432095 0.0017099777445565869 0 -0.0045295895136205242 0.0020553244336307215 0 -0.0045031772167067139 0.001774632208040879 0 -0.0043075832468859043 0.0019066257450088585 0 -0.0045031772167067139 0.001774632208040879 0 -0.0042513575125870387 0.0016369166122921143 0 -0.0045146730549152896 0.0016003538365809873 0 -0.0045031772167067139 0.001774632208040879 0 -0.0043075832468859043 0.0019066257450088585 0 -0.0042513575125870387 0.0016369166122921143 0 -0.0045031772167067139 0.001774632208040879 0 -0.0046731368955432095 0.0017099777445565869 0 -0.0045146730549152896 0.0016003538365809873 0 -0.0049839880521028003 0.002324017530276474 0 -0.0049748572044050095 0.0016745566263408637 0 -0.0051763202384533316 0.0026798384339414929 0 -0.0054832766746991893 0.0017882017594254116 0 -0.005809217288040007 0.0025249211025894836 0 -0.0047581259015854558 0.0019575431029877563 0 -0.0046731368955432095 0.0017099777445565869 0 -0.0047476127964284172 0.0015491942640612946 0 0.00023348698600832835 0.0068619149388597107 0 0.00019012276629901522 0.0070053363535408485 0 0.00011192925414525316 0.0069534349962942551 0 -0.0037664617533293815 0.0022991782918762899 0 -0.0038199975818363446 0.0021179370723044921 0 -0.0040172156440775875 0.0022082047652493128 0 -0.0031986402775472321 0.0022814257356507705 0 -0.0027677795295083063 0.0036360447644778146 0 -0.0038199975818363446 0.0021179370723044921 0 -0.0041033100133701633 0.0020421501798346033 0 -0.00407918690341629 0.0018027321054909088 0 -0.0038199975818363446 0.0021179370723044921 0 -0.0041033100133701633 0.0020421501798346033 0 -0.0040172156440775875 0.0022082047652493128 0 -0.0041033100133701633 0.0020421501798346033 0 -0.0040172156440775875 0.0022082047652493128 0 -0.0043104279883765173 0.0022316161416648765 0 -0.0040597151993320849 0.002434319423270795 0 -0.0040172156440775875 0.0022082047652493128 0 -0.0043104279883765173 0.0022316161416648765 0 -0.0041033100133701633 0.0020421501798346033 0 -0.0043104279883765173 0.0022316161416648765 0 -0.0043075832468859043 0.0019066257450088585 0 -0.00407918690341629 0.0018027321054909088 0 -0.0037778242719273868 0.0018038072785069841 0 -0.0042513575125870387 0.0016369166122921143 0 -0.0043075832468859043 0.0019066257450088585 0 -0.00407918690341629 0.0018027321054909088 0 -0.0042513575125870387 0.0016369166122921143 0 -0.0041033100133701633 0.0020421501798346033 0 -0.0043075832468859043 0.0019066257450088585 0 -0.00407918690341629 0.0018027321054909088 0 -0.0027677795295083063 0.0036360447644778146 0 -0.0043850992781958734 0.0012746715927069215 0 -0.0038255256084728309 0.0022964205492200878 0 -0.00407918690341629 0.0018027321054909088 0 -0.0037778242719273868 0.0018038072785069841 0 -0.0027677795295083063 0.0036360447644778146 0 -0.0015391742378128557 0.0051249851902107181 0 -0.0015391742378128557 0.0051249851902107181 0 0.00075018300738793626 0.0076633325072865029 0 -0.0017648694838773829 0.0053363132469021511 0 -0.002441511523709282 0.0046171849752916919 0 -0.0016256165761716361 0.0044330786425345716 0 -0.0015391742378128557 0.0051249851902107181 0 -0.00077878362467510896 0.006416115162213974 0 -0.0015391742378128557 0.0051249851902107181 0 -0.0033139218187488479 0.0028781835194422595 0 -0.0037778242719273868 0.0018038072785069841 0 -0.0042513575125870387 0.0016369166122921143 0 -0.0042560199677632669 0.0013759793839763616 0 -0.0011597302964441668 0.0049431531706207775 0 -0.0011950386934319389 0.0050377336957722115 0 -0.0010466453041396981 0.0049635133346388307 0 -0.0011597302964441668 0.0049431531706207775 0 -0.0011950386934319389 0.0050377336957722115 0 -0.0013628706068634629 0.0049163762834137648 0 -0.0033139218187488479 0.0028781835194422595 0 -0.00077878362467510896 0.006416115162213974 0 -0.0011597302964441668 0.0049431531706207775 0 -0.0010466453041396981 0.0049635133346388307 0 -0.0010606883014909981 0.0049176655464808249 0 -0.0046695080500280652 0.0015222744141540861 0 -0.0047476127964284172 0.0015491942640612946 0 -0.004605249235319556 0.001579769326827681 0 -0.0045166726512510767 0.0010291239602734914 0 -0.0042980654722412021 0.0015335212928798197 0 -0.0042522673026378199 0.0012217280340446823 0 -0.0049748572044050095 0.0016745566263408637 0 -0.0045153765957095674 0.0014386996121184834 0 -0.0044424382632580065 0.0011871931136058836 0 -0.004605249235319556 0.001579769326827681 0 -0.0042980654722412021 0.0015335212928798197 0 -0.0049748572044050095 0.0016745566263408637 0 -0.0046384263420946488 0.0014391453833854202 0 -0.0046731368955432095 0.0017099777445565869 0 -0.0047476127964284172 0.0015491942640612946 0 -0.0046695965814000295 0.0015997633101387904 0 -0.0046731368955432095 0.0017099777445565869 0 -0.0046695965814000295 0.0015997633101387904 0 -0.0045146730549152896 0.0016003538365809873 0 -0.0046695080500280652 0.0015222744141540861 0 -0.0046695965814000295 0.0015997633101387904 0 -0.0045146730549152896 0.0016003538365809873 0 -0.0046695080500280652 0.0015222744141540861 0 -0.0047476127964284172 0.0015491942640612946 0 -0.0046695965814000295 0.0015997633101387904 0 -0.0042560199677632669 0.0013759793839763616 0 -0.0046695080500280652 0.0015222744141540861 0 -0.0045146730549152896 0.0016003538365809873 0 -0.0033139218187488479 0.0028781835194422595 0 -0.005147615324984001 0.0012538242772933928 0 -0.0042513575125870387 0.0016369166122921143 0 -0.0042560199677632669 0.0013759793839763616 0 -0.0045146730549152896 0.0016003538365809873 0 -0.0050391960925532595 0.0016193709632198905 0 -0.0047037911808052004 0.0016955316159788102 0 -0.0048324427044358423 0.0019105771267263301 0 -0.0050391960925532595 0.0016193709632198905 0 -0.0046695080500280652 0.0015222744141540861 0 -0.0047037911808052004 0.0016955316159788102 0 -0.0033139218187488479 0.0028781835194422595 0 -0.0032001414606394386 0.0033624904410220844 0 -0.0047037911808052004 0.0016955316159788102 0 -0.0044685553689816282 0.0019819798051834985 0 -0.0048324427044358423 0.0019105771267263301 0 -0.0047037911808052004 0.0016955316159788102 0 -0.004436767018645209 0.0017480570797091975 0 -0.0044685553689816282 0.0019819798051834985 0 -0.0047037911808052004 0.0016955316159788102 0 -0.004605249235319556 0.001579769326827681 0 -0.004436767018645209 0.0017480570797091975 0 -0.0046695080500280652 0.0015222744141540861 0 -0.0047037911808052004 0.0016955316159788102 0 -0.004605249235319556 0.001579769326827681 0 -0.004605249235319556 0.001579769326827681 0 -0.004436767018645209 0.0017480570797091975 0 -0.0042980654722412021 0.0015335212928798197 0 -0.004436767018645209 0.0017480570797091975 0 -0.0040632943181859657 0.0019404099876527455 0 -0.0044685553689816282 0.0019819798051834985 0 -0.0023940487849472992 -0.0013677481704574789 0 -0.0014518938303150824 -0.0019230890811567228 0 -0.0032195109569891911 0.00087534738796335844 0 -0.0023940487849472992 -0.0013677481704574789 0 -0.004436767018645209 0.0017480570797091975 0 -0.0040632943181859657 0.0019404099876527455 0 -0.0042980654722412021 0.0015335212928798197 0 -0.0021822164914873684 -0.00069604817954099394 0 -0.0021083296433311084 -0.0010475220695330251 0 -0.0019930009389009904 -0.00065598843952863163 0 -0.0040632943181859657 0.0019404099876527455 0 -0.0040960584184252568 0.0014598768301512773 0 -0.0038716982290555538 0.0013383389187178491 0 -0.0040632943181859657 0.0019404099876527455 0 -0.0040960584184252568 0.0014598768301512773 0 -0.0042980654722412021 0.0015335212928798197 0 -0.0042522673026378199 0.0012217280340446823 0 -0.0039496440781790591 0.0012806686165780974 0 -0.0041475635413506006 0.0002060735337879691 0 -0.0039496440781790591 0.0012806686165780974 0 -0.0038626977550829666 0.0012703087360538779 0 -0.0041475635413506006 0.0002060735337879691 0 -0.0045166726512510767 0.0010291239602734914 0 -0.0042522673026378199 0.0012217280340446823 0 -0.0041475635413506006 0.0002060735337879691 0 -0.0040960584184252568 0.0014598768301512773 0 -0.0042980654722412021 0.0015335212928798197 0 -0.0042522673026378199 0.0012217280340446823 0 -0.0040960584184252568 0.0014598768301512773 0 -0.0042522673026378199 0.0012217280340446823 0 -0.0039496440781790591 0.0012806686165780974 0 -0.0023665757023930427 -0.002648326237691435 0 -0.0023717302223416059 -0.0026640898546396799 0 -0.0022964324830251708 -0.0027421904885397276 0 -0.0040960584184252568 0.0014598768301512773 0 -0.0038716982290555538 0.0013383389187178491 0 -0.0039496440781790591 0.0012806686165780974 0 -0.0023940487849472992 -0.0013677481704574789 0 -0.0025185076655511785 -0.0011977427278494072 0 -0.0038435869852508956 0.0013295805956735998 0 -0.0039496440781790591 0.0012806686165780974 0 -0.0038626977550829666 0.0012703087360538779 0 -0.0023940487849472992 -0.0013677481704574789 0 -0.002547546076026439 -0.001454702658483586 0 -0.002547546076026439 -0.001454702658483586 0 -0.0023556267528072636 -0.0028596884346846962 0 -0.0023717302223416059 -0.0026640898546396799 0 -0.0022964324830251708 -0.0027421904885397276 0 -0.0023536033955150531 -0.0028397496374352369 0 -0.0023665757023930427 -0.002648326237691435 0 -0.0021846170473068679 -0.002726188916848307 0 -0.0022964324830251708 -0.0027421904885397276 0 -0.0023665757023930427 -0.002648326237691435 0 -0.0021846170473068679 -0.002726188916848307 0 -0.0021345976026758882 -0.0025503676523687337 0 -0.0021846170473068679 -0.002726188916848307 0 -0.0022964324830251708 -0.0027421904885397276 0 -0.0022417439525129397 -0.0028952630521115962 0 -0.0011115108007731906 -0.0034324285461775081 0 -0.0007421907411302392 -0.0032752908413031072 0 -0.00099763996322810907 -0.0030867440735184294 0 -0.0023940487849472992 -0.0013677481704574789 0 -0.0013354367107954134 -0.0029885093260322384 0 -0.0013354367107954134 -0.0029885093260322384 0 -0.0014173306611262734 -0.0032657146688484179 0 -0.0021345976026758882 -0.0025503676523687337 0 -0.0020014512399861941 -0.0026714855635324706 0 -0.0019210607911264099 -0.0024567611074912559 0 -0.0023014297646139388 -0.0048386375455782187 0 -0.0022501958714712836 -0.004376468928405413 0 -0.001873731332497049 -0.0046066935468157275 0 -0.0022202852711299408 -0.0038010127299202118 0 -0.0014173306611262734 -0.0032657146688484179 0 -0.0023014297646139388 -0.0048386375455782187 0 -0.0020526218093439969 -0.0048599356570618217 0 -0.001873731332497049 -0.0046066935468157275 0 -0.0023014297646139388 -0.0048386375455782187 0 -0.002231557686010523 -0.0049554455826437225 0 -0.0020526218093439969 -0.0048599356570618217 0 -0.0021846170473068679 -0.002726188916848307 0 -0.0020014512399861941 -0.0026714855635324706 0 -0.0020677384656078838 -0.002912096589376325 0 -0.0021846170473068679 -0.002726188916848307 0 -0.0021345976026758882 -0.0025503676523687337 0 -0.0020014512399861941 -0.0026714855635324706 0 -0.0022202852711299408 -0.0038010127299202118 0 -0.0021762824505080023 -0.003904753673081109 0 -0.0023014297646139388 -0.0048386375455782187 0 -0.002306664056857578 -0.0049368973017603597 0 -0.002231557686010523 -0.0049554455826437225 0 -0.002306664056857578 -0.0049368973017603597 0 -0.002231557686010523 -0.0049554455826437225 0 -0.0023144436589581569 -0.0049402629127929254 0 -0.002231557686010523 -0.0049554455826437225 0 -0.0023144436589581569 -0.0049402629127929254 0 -0.0022554407551996811 -0.0049797726773348752 0 -0.0023542345214624862 -0.0049074384464915521 0 -0.0023144436589581569 -0.0049402629127929254 0 -0.0022554407551996811 -0.0049797726773348752 0 -0.002306664056857578 -0.0049368973017603597 0 -0.0023144436589581569 -0.0049402629127929254 0 -0.0022810155551032021 -0.0048954356057107785 0 -0.0021762824505080023 -0.003904753673081109 0 -0.002220577686567735 -0.0041164440721353536 0 -0.0024372426887326998 -0.0032977741773498439 0 -0.0021428606811525045 -0.0032479322041728269 0 -0.0023534152714946937 -0.0030305961016834325 0 -0.0020677384656078838 -0.002912096589376325 0 -0.0021428606811525045 -0.0032479322041728269 0 -0.0022417439525129397 -0.0028952630521115962 0 -0.0021428606811525045 -0.0032479322041728269 0 -0.0023534152714946937 -0.0030305961016834325 0 -0.0022417439525129397 -0.0028952630521115962 0 -0.0024372426887326998 -0.0032977741773498439 0 -0.0023534152714946937 -0.0030305961016834325 0 -0.0026851092681840038 -0.0028413556271725121 0 -0.0041321061951218995 0.00042647718188620919 0 -0.0037148806920235013 -0.00042817166593816256 0 -0.0021746683166229807 -0.0033472973003819332 0 -0.0037148806920235013 -0.00042817166593816256 0 -0.0022611983889071815 -0.0027378304314072881 0 -0.0026915638222543164 -0.0028617669534679517 0 -0.0025263594590389914 -0.0021299376890339017 0 -0.0023534152714946937 -0.0030305961016834325 0 -0.0026851092681840038 -0.0028413556271725121 0 -0.0024048409603423101 -0.0025777407160495632 0 -0.0049748572044050095 0.0016745566263408637 0 -0.0037148806920235013 -0.00042817166593816256 0 -0.0025008868454597794 -0.0020974362103907324 0 -0.0026851092681840038 -0.0028413556271725121 0 -0.0024048409603423101 -0.0025777407160495632 0 -0.002547546076026439 -0.001454702658483586 0 -0.0037148806920235013 -0.00042817166593816256 0 -0.0023574276848656725 -0.0029416055929627799 0 -0.0023556267528072636 -0.0028596884346846962 0 -0.0021846170473068679 -0.002726188916848307 0 -0.0020677384656078838 -0.002912096589376325 0 -0.0022417439525129397 -0.0028952630521115962 0 -0.0022964324830251708 -0.0027421904885397276 0 -0.0023536033955150531 -0.0028397496374352369 0 -0.0022417439525129397 -0.0028952630521115962 0 -0.0023534152714946937 -0.0030305961016834325 0 -0.0023536033955150531 -0.0028397496374352369 0 -0.0022417439525129397 -0.0028952630521115962 0 0.001736509075222905 0.015764687702235564 0 0.0012096513768213649 0.015550397006647747 0 0.0016450170645569361 0.015359098877434734 0 0.001736509075222905 0.015764687702235564 0 0.0012096513768213649 0.015550397006647747 0 0.0013547443165405873 0.015969036955085406 0 0.0012096513768213649 0.015550397006647747 0 0.00097406189973172177 0.015917134200491803 0 0.00066289163942083462 0.015585078081811874 0 0.0012096513768213649 0.015550397006647747 0 0.00066289163942083462 0.015585078081811874 0 0.0010083084029973951 0.015202023287690518 0 0.0012096513768213649 0.015550397006647747 0 0.00097406189973172177 0.015917134200491803 0 0.0013547443165405873 0.015969036955085406 0 0.00097406189973172177 0.015917134200491803 0 0.00117966226080932 0.016333412959297338 0 0.00060318683333618979 0.016156461063795861 0 0.00097406189973172177 0.015917134200491803 0 0.0013547443165405873 0.015969036955085406 0 0.00117966226080932 0.016333412959297338 0 0.0016939825618330709 0.016285940542675053 0 0.0013547443165405873 0.015969036955085406 0 0.00117966226080932 0.016333412959297338 0 0.0016939825618330709 0.016285940542675053 0 0.001736509075222905 0.015764687702235564 0 0.0013547443165405873 0.015969036955085406 0 0.0016939825618330709 0.016285940542675053 0 0.0015000723449948017 0.016903136914767074 0 0.00117966226080932 0.016333412959297338 0 0.001049995229419654 0.017257130137150047 0 0.0015000723449948017 0.016903136914767074 0 0.00094363515892991606 0.016739723685430013 0 0.001049995229419654 0.017257130137150047 0 0.00094363515892991606 0.016739723685430013 0 0.00073075460314757595 0.017050593536960056 0 0.00094363515892991606 0.016739723685430013 0 0.00117966226080932 0.016333412959297338 0 0.00060318683333618979 0.016156461063795861 0 0.0015000723449948017 0.016903136914767074 0 0.00094363515892991606 0.016739723685430013 0 0.00117966226080932 0.016333412959297338 0 0.00094363515892991606 0.016739723685430013 0 0.00060318683333618979 0.016156461063795861 0 0.00052665717037672579 0.016701375302846967 0 0.00094363515892991606 0.016739723685430013 0 0.00052665717037672579 0.016701375302846967 0 0.00073075460314757595 0.017050593536960056 0 0.00052665717037672579 0.016701375302846967 0 0.00073075460314757595 0.017050593536960056 0 0.00042660530141729199 0.017110519307492283 0 0.00052665717037672579 0.016701375302846967 0 0.00042660530141729199 0.017110519307492283 0 -8.7840831309596003e-05 0.016579719863478885 0 0.00088259391975558711 0.018335751655227744 0 0.00035256451447851592 0.012063476928117387 0 7.5097101245593211e-05 0.017394773119444557 0 0.00042660530141729199 0.017110519307492283 0 0.0001159001187925007 0.016599600708446509 0 0.00060318683333618979 0.016156461063795861 0 -8.7840831309596003e-05 0.016579719863478885 0 -6.4150904939363977e-05 0.015635294804328025 0 0.00035256451447851592 0.012063476928117387 0 9.273895660061413e-05 0.012200953803400619 0 0.00060318683333618979 0.016156461063795861 0 0.00052665717037672579 0.016701375302846967 0 -8.7840831309596003e-05 0.016579719863478885 0 0.00060991636652921513 0.016101985456743496 0 0.00071492083907833195 0.015296260911693204 0 0.00060318683333618979 0.016156461063795861 0 -6.4150904939363977e-05 0.015635294804328025 0 0.00078309624240980897 0.014986003424528251 0 0.00097406189973172177 0.015917134200491803 0 0.00060318683333618979 0.016156461063795861 0 0.00066289163942083462 0.015585078081811874 0 -6.4150904939363977e-05 0.015635294804328025 0 0.00078309624240980897 0.014986003424528251 0 8.873562905474541e-05 0.014515403855198797 0 9.273895660061413e-05 0.012200953803400619 0 0.00018816684708507366 0.011263060979508056 0 0.00032751468030622053 0.0084519299249130042 0 0.00013335617902783547 0.0083011231463942393 0 0.00027346573145534353 0.00804644467022461 0 0.00013335617902783547 0.0083011231463942393 0 6.9699176009933433e-05 0.0081194846137432348 0 0.00027346573145534353 0.00804644467022461 0 0.00013335617902783547 0.0083011231463942393 0 -1.9326335572940726e-05 0.0082426127847434888 0 -3.4480741716291476e-05 0.0084743810053291811 0 0.00013335617902783547 0.0083011231463942393 0 6.9699176009933433e-05 0.0081194846137432348 0 -1.9326335572940726e-05 0.0082426127847434888 0 6.9699176009933433e-05 0.0081194846137432348 0 -3.5530422919408052e-05 0.0080946293612100158 0 -1.9326335572940726e-05 0.0082426127847434888 0 -3.5530422919408052e-05 0.0080946293612100158 0 -0.0001623763525643977 0.0080533592825059695 0 -1.9326335572940726e-05 0.0082426127847434888 0 0.0003368471021000807 0.0073143162420612621 0 0.00068235080716161204 0.0069592105419651511 0 0.0003368471021000807 0.0073143162420612621 0 0.00078683660868998043 0.00660232613870831 0 -5.9355764916015351e-05 0.0067333015276534788 0 0.00018789896230810355 0.0065784550155078645 0 2.4429788665015614e-05 0.0066712008631402966 0 -0.0001623763525643977 0.0080533592825059695 0 -1.9326335572940726e-05 0.0082426127847434888 0 -3.4480741716291476e-05 0.0084743810053291811 0 0.001227156880997053 0.0065531029476160376 0 0.0013393598911032125 0.0068767105986704971 0 0.0014582686503312595 0.0068246756765266555 0 0.0013393598911032125 0.0068767105986704971 0 0.0014582686503312595 0.0068246756765266555 0 0.0014905776730427148 0.007034220310530628 0 0.00032751468030622053 0.0084519299249130042 0 0.00013335617902783547 0.0083011231463942393 0 -3.4480741716291476e-05 0.0084743810053291811 0 0.00027290705098606755 0.0090079884254698952 0 0.00032751468030622053 0.0084519299249130042 0 -3.4480741716291476e-05 0.0084743810053291811 0 0.00035256451447851592 0.012063476928117387 0 0.00068235080716161204 0.0069592105419651511 0 0.0017391075335748789 0.0071459381486037943 0 0.0014582686503312595 0.0068246756765266555 0 0.0014905776730427148 0.007034220310530628 0 0.0017391075335748789 0.0071459381486037943 0 0.0014905776730427148 0.007034220310530628 0 0.0014393532019179609 0.0072320008833469882 0 0.0010353886906335681 0.012491624918291727 0 0.00035256451447851592 0.012063476928117387 0 0.0017873721996827545 0.007633991769215232 0 0.0017391075335748789 0.0071459381486037943 0 0.0014393532019179609 0.0072320008833469882 0 0.00066375123835952761 0.0068419842150947196 0 0.00024897395801162569 0.0067233467785820086 0 0.00015917128994527243 0.0070505261838417392 0 0.00063852926670281737 0.0073774126460461852 0 0.00066375123835952761 0.0068419842150947196 0 0.00015917128994527243 0.0070505261838417392 0 0.00018789896230810355 0.0065784550155078645 0 0.00066375123835952761 0.0068419842150947196 0 0.00024897395801162569 0.0067233467785820086 0 0.0013393598911032125 0.0068767105986704971 0 0.0014905776730427148 0.007034220310530628 0 0.0014393532019179609 0.0072320008833469882 0 0.00018789896230810355 0.0065784550155078645 0 0.00024897395801162569 0.0067233467785820086 0 0.0001324873063651285 0.0066273428002692749 0 0.00078683660868998043 0.00660232613870831 0 0.0010682445895000199 0.0071177015005898722 0 0.00024897395801162569 0.0067233467785820086 0 0.0001324873063651285 0.0066273428002692749 0 3.6116405917005681e-05 0.0066370536515086166 0 0.00024897395801162569 0.0067233467785820086 0 0.00015917128994527243 0.0070505261838417392 0 3.6116405917005681e-05 0.0066370536515086166 0 -0.00072923223099663882 0.0055352208045589407 0 -0.002179095003252409 0.0049379692621032934 0 -0.002067280643806822 0.0038135973918176844 0 -0.00026843528283427442 0.0063599622130143816 0 -0.0010327576941765305 0.0052046762610502484 0 -0.0027098404875755167 0.0059806199584284256 0 -0.0031594969585988847 0.0045339210341851172 0 -0.002179095003252409 0.0049379692621032934 0 -0.0027098404875755167 0.0059806199584284256 0 -0.00072923223099663882 0.0055352208045589407 0 -0.002179095003252409 0.0049379692621032934 0 -0.0031594969585988847 0.0045339210341851172 0 -0.0037462133702000425 0.0033967133865872886 0 -0.002067280643806822 0.0038135973918176844 0 -0.0031594969585988847 0.0045339210341851172 0 -0.002179095003252409 0.0049379692621032934 0 -0.002067280643806822 0.0038135973918176844 0 3.6116405917005681e-05 0.0066370536515086166 0 6.6251434665826119e-05 0.0066271437956632864 0 0.00010703181372870584 0.0066356452105276525 0 -0.0037462133702000425 0.0033967133865872886 0 -0.002067280643806822 0.0038135973918176844 0 -0.0030478725127423326 0.0027301273585368948 0 -0.0010327576941765305 0.0052046762610502484 0 -0.001285693805467507 0.0049020123471751435 0 0.00018789896230810355 0.0065784550155078645 0 6.6251434665826119e-05 0.0066271437956632864 0 2.4429788665015614e-05 0.0066712008631402966 0 0.00018789896230810355 0.0065784550155078645 0 0.0001324873063651285 0.0066273428002692749 0 6.6251434665826119e-05 0.0066271437956632864 0 0.0001324873063651285 0.0066273428002692749 0 3.6116405917005681e-05 0.0066370536515086166 0 6.6251434665826119e-05 0.0066271437956632864 0 6.6251434665826119e-05 0.0066271437956632864 0 2.4429788665015614e-05 0.0066712008631402966 0 5.7313755281178784e-05 0.0066866314362183073 0 -5.9355764916015351e-05 0.0067333015276534788 0 2.4429788665015614e-05 0.0066712008631402966 0 9.6019311309534385e-06 0.0067860672573828726 0 2.4429788665015614e-05 0.0066712008631402966 0 5.7313755281178784e-05 0.0066866314362183073 0 9.6019311309534385e-06 0.0067860672573828726 0 6.6251434665826119e-05 0.0066271437956632864 0 0.00010703181372870584 0.0066356452105276525 0 5.7313755281178784e-05 0.0066866314362183073 0 0.00010520284834977678 0.006771475986791284 0 5.7313755281178784e-05 0.0066866314362183073 0 9.6019311309534385e-06 0.0067860672573828726 0 0.00010520284834977678 0.006771475986791284 0 0.00010703181372870584 0.0066356452105276525 0 5.7313755281178784e-05 0.0066866314362183073 0 0.00011192925414525316 0.0069534349962942551 0 9.6019311309534385e-06 0.0067860672573828726 0 -0.00012142361752026728 0.0069983487131787215 0 0.00023348698600832835 0.0068619149388597107 0 0.00010520284834977678 0.006771475986791284 0 0.00011192925414525316 0.0069534349962942551 0 0.00010520284834977678 0.006771475986791284 0 0.00011192925414525316 0.0069534349962942551 0 9.6019311309534385e-06 0.0067860672573828726 0 -0.00012797087649366216 0.0079560839908288591 0 -0.00012549576693642088 0.0078725953388245722 0 -0.00014187677356642525 0.0078054074637965553 0 0.0003368471021000807 0.0073143162420612621 0 -0.00013507963252598038 0.0073972278587428834 0 -5.9355764916015351e-05 0.0067333015276534788 0 9.6019311309534385e-06 0.0067860672573828726 0 -0.00012142361752026728 0.0069983487131787215 0 0.0003368471021000807 0.0073143162420612621 0 6.1774934557385155e-05 0.0079562405331471218 0 -0.00012549576693642088 0.0078725953388245722 0 -9.802666527757008e-05 0.0077915279807354489 0 -5.9112794473249022e-05 0.0078428418056878547 0 -0.00012549576693642088 0.0078725953388245722 0 -0.00014187677356642525 0.0078054074637965553 0 -9.802666527757008e-05 0.0077915279807354489 0 -0.00014187677356642525 0.0078054074637965553 0 -8.5446244867169667e-05 0.0076973813815558179 0 -3.919349668197878e-06 0.0075295566851051659 0 -0.00014187677356642525 0.0078054074637965553 0 -9.802666527757008e-05 0.0077915279807354489 0 -8.5446244867169667e-05 0.0076973813815558179 0 -8.5446244867169667e-05 0.0076973813815558179 0 -7.8617575294904837e-05 0.0076748537767830837 0 -7.2910326465951106e-05 0.0077427795002204276 0 -9.802666527757008e-05 0.0077915279807354489 0 -8.5446244867169667e-05 0.0076973813815558179 0 -7.2910326465951106e-05 0.0077427795002204276 0 -8.5446244867169667e-05 0.0076973813815558179 0 -3.919349668197878e-06 0.0075295566851051659 0 -7.8617575294904837e-05 0.0076748537767830837 0 0.00011192925414525316 0.0069534349962942551 0 -0.00012142361752026728 0.0069983487131787215 0 -3.919349668197878e-06 0.0075295566851051659 0 0.00032019013829099382 0.007378526972042972 0 0.00011192925414525316 0.0069534349962942551 0 -3.919349668197878e-06 0.0075295566851051659 0 -0.00013507963252598038 0.0073972278587428834 0 5.4928133589741249e-06 0.0075577327388432836 0 0.00032019013829099382 0.007378526972042972 0 0.00013350991680150678 0.0077912131079919096 0 -3.919349668197878e-06 0.0075295566851051659 0 0.00013350991680150678 0.0077912131079919096 0 -3.919349668197878e-06 0.0075295566851051659 0 -3.5435652216386654e-05 0.0076937450443096064 0 -0.0012355945050208843 0.0079057740807980496 0 -0.00068095668054473778 0.0077949781041289305 0 -0.00086112914802781524 0.0075143162289819073 0 -0.00077878362467510896 0.006416115162213974 0 -0.00035459128829544732 0.0079300264950670895 0 0.00013350991680150678 0.0077912131079919096 0 -3.5435652216386654e-05 0.0076937450443096064 0 -8.1166624175692769e-05 0.007738750710271281 0 -3.5435652216386654e-05 0.0076937450443096064 0 -8.1166624175692769e-05 0.007738750710271281 0 -7.568249255263816e-05 0.0077073788933497171 0 -7.568249255263816e-05 0.0077073788933497171 0 -7.8617575294904837e-05 0.0076748537767830837 0 -5.4300377166061958e-05 0.0077296959819101226 0 -3.5435652216386654e-05 0.0076937450443096064 0 -7.568249255263816e-05 0.0077073788933497171 0 -7.8617575294904837e-05 0.0076748537767830837 0 -3.919349668197878e-06 0.0075295566851051659 0 -3.5435652216386654e-05 0.0076937450443096064 0 -7.8617575294904837e-05 0.0076748537767830837 0 -7.8617575294904837e-05 0.0076748537767830837 0 -5.4300377166061958e-05 0.0077296959819101226 0 -7.2910326465951106e-05 0.0077427795002204276 0 -5.4300377166061958e-05 0.0077296959819101226 0 3.2282130214762367e-05 0.0077851266847169991 0 -2.4265914470197258e-05 0.0077909401608270536 0 -5.4300377166061958e-05 0.0077296959819101226 0 -1.1357928431978438e-05 0.0077385436800070373 0 3.2282130214762367e-05 0.0077851266847169991 0 -5.4300377166061958e-05 0.0077296959819101226 0 -5.8628836014005441e-05 0.0077064272911096183 0 -1.1357928431978438e-05 0.0077385436800070373 0 -7.568249255263816e-05 0.0077073788933497171 0 -5.4300377166061958e-05 0.0077296959819101226 0 -5.8628836014005441e-05 0.0077064272911096183 0 -0.00035459128829544732 0.0079300264950670895 0 -8.9374617943489674e-05 0.0076291646908459238 0 -8.1166624175692769e-05 0.007738750710271281 0 -7.568249255263816e-05 0.0077073788933497171 0 -5.8628836014005441e-05 0.0077064272911096183 0 -8.1166624175692769e-05 0.007738750710271281 0 -5.8628836014005441e-05 0.0077064272911096183 0 -7.6779588889923741e-05 0.0076575448461631964 0 -5.8628836014005441e-05 0.0077064272911096183 0 4.6109337376770382e-05 0.0076792340438950066 0 4.7166739384759855e-05 0.0077337800856684827 0 -5.8628836014005441e-05 0.0077064272911096183 0 4.6109337376770382e-05 0.0076792340438950066 0 -7.6779588889923741e-05 0.0076575448461631964 0 -5.8628836014005441e-05 0.0077064272911096183 0 4.7166739384759855e-05 0.0077337800856684827 0 -1.1357928431978438e-05 0.0077385436800070373 0 4.7166739384759855e-05 0.0077337800856684827 0 -1.1357928431978438e-05 0.0077385436800070373 0 3.2282130214762367e-05 0.0077851266847169991 0 4.7166739384759855e-05 0.0077337800856684827 0 3.2282130214762367e-05 0.0077851266847169991 0 0.00010649835827318878 0.0077875078932245472 0 3.2282130214762367e-05 0.0077851266847169991 0 0.00012405684072526525 0.007874666819482715 0 0.00010649835827318878 0.0077875078932245472 0 0.00012405684072526525 0.007874666819482715 0 3.3840412120360917e-05 0.0078682673890307919 0 9.343015171752978e-05 0.0079684359010800208 0 3.2282130214762367e-05 0.0077851266847169991 0 3.3840412120360917e-05 0.0078682673890307919 0 -2.4265914470197258e-05 0.0077909401608270536 0 3.2282130214762367e-05 0.0077851266847169991 0 0.00012405684072526525 0.007874666819482715 0 3.3840412120360917e-05 0.0078682673890307919 0 -5.4300377166061958e-05 0.0077296959819101226 0 -2.4265914470197258e-05 0.0077909401608270536 0 -7.2910326465951106e-05 0.0077427795002204276 0 -9.802666527757008e-05 0.0077915279807354489 0 -7.2910326465951106e-05 0.0077427795002204276 0 -5.9112794473249022e-05 0.0078428418056878547 0 -2.4265914470197258e-05 0.0077909401608270536 0 -7.2910326465951106e-05 0.0077427795002204276 0 -5.9112794473249022e-05 0.0078428418056878547 0 3.3840412120360917e-05 0.0078682673890307919 0 -2.4265914470197258e-05 0.0077909401608270536 0 -5.9112794473249022e-05 0.0078428418056878547 0 3.3840412120360917e-05 0.0078682673890307919 0 -5.9112794473249022e-05 0.0078428418056878547 0 -2.8315281335409548e-05 0.0079667571814764724 0 -0.00012549576693642088 0.0078725953388245722 0 -5.9112794473249022e-05 0.0078428418056878547 0 -2.8315281335409548e-05 0.0079667571814764724 0 -0.0001623763525643977 0.0080533592825059695 0 -0.00012549576693642088 0.0078725953388245722 0 -2.8315281335409548e-05 0.0079667571814764724 0 -3.5530422919408052e-05 0.0080946293612100158 0 -0.0001623763525643977 0.0080533592825059695 0 -2.8315281335409548e-05 0.0079667571814764724 0 6.9699176009933433e-05 0.0081194846137432348 0 -3.5530422919408052e-05 0.0080946293612100158 0 -2.8315281335409548e-05 0.0079667571814764724 0 6.9699176009933433e-05 0.0081194846137432348 0 -2.8315281335409548e-05 0.0079667571814764724 0 9.343015171752978e-05 0.0079684359010800208 0 6.9699176009933433e-05 0.0081194846137432348 0 9.343015171752978e-05 0.0079684359010800208 0 0.00027346573145534353 0.00804644467022461 0 3.3840412120360917e-05 0.0078682673890307919 0 -2.8315281335409548e-05 0.0079667571814764724 0 9.343015171752978e-05 0.0079684359010800208 0 0.00012405684072526525 0.007874666819482715 0 9.343015171752978e-05 0.0079684359010800208 0 0.00027346573145534353 0.00804644467022461 0 0.00066289163942083462 0.015585078081811874 0 0.00068609368809085473 0.014909354399133178 0 0.0010083084029973951 0.015202023287690518 0 0.00071492083907833195 0.015296260911693204 0 0.00076276890313919303 0.014430188524932637 0 0.00078309624240980897 0.014986003424528251 0 8.873562905474541e-05 0.014515403855198797 0 0.00084633040102702751 0.013951690075118805 0 0.00084633040102702751 0.013951690075118805 0 0.00027118303276085315 0.013603824768947601 0 0.00086261620200789118 0.013181808643253442 0 8.873562905474541e-05 0.014515403855198797 0 0.00084633040102702751 0.013951690075118805 0 0.00027118303276085315 0.013603824768947601 0 0.00018816684708507366 0.011263060979508056 0 0.00023188239172387441 0.010721615013989681 0 0.00012405684072526525 0.007874666819482715 0 0.00027346573145534353 0.00804644467022461 0 0.00018934945018135357 0.0078377744341722629 0 0.00012405684072526525 0.007874666819482715 0 0.00018934945018135357 0.0078377744341722629 0 0.00010649835827318878 0.0077875078932245472 0 0.00023188239172387441 0.010721615013989681 0 0.00028342534518105406 0.010409218061190282 0 0.00018934945018135357 0.0078377744341722629 0 0.00010649835827318878 0.0077875078932245472 0 0.00017022562054006302 0.0077180076634266294 0 4.7166739384759855e-05 0.0077337800856684827 0 0.00010649835827318878 0.0077875078932245472 0 0.00017022562054006302 0.0077180076634266294 0 4.6109337376770382e-05 0.0076792340438950066 0 4.7166739384759855e-05 0.0077337800856684827 0 0.00017022562054006302 0.0077180076634266294 0 4.6109337376770382e-05 0.0076792340438950066 0 0.00017022562054006302 0.0077180076634266294 0 0.00012605906701559978 0.0076328054667321515 0 0.00040166087472257364 0.012943886325248476 0 0.00086261620200789118 0.013181808643253442 0 0.00061788929764355742 0.012694480016417946 0 0.00076276890313919303 0.014430188524932637 0 0.00079040944970966247 0.013561281280874249 0 0.00027118303276085315 0.013603824768947601 0 0.00040166087472257364 0.012943886325248476 0 0.00086261620200789118 0.013181808643253442 0 0.0011181818889555058 0.014298876889179397 0 0.000692266747320565 0.013968328280982484 0 0.0015181562971696989 0.013509364688845463 0 0.00068609368809085473 0.014909354399133178 0 0.0011181818889555058 0.014298876889179397 0 0.000692266747320565 0.013968328280982484 0 0.00079040944970966247 0.013561281280874249 0 0.00090395945471770562 0.012691000048290232 0 0.000692266747320565 0.013968328280982484 0 0.0012702726509505402 0.013049204428151844 0 0.0015181562971696989 0.013509364688845463 0 0.000692266747320565 0.013968328280982484 0 0.0012702726509505402 0.013049204428151844 0 0.00091359245148812495 0.012629722971410027 0 0.00086261620200789118 0.013181808643253442 0 0.00091359245148812495 0.012629722971410027 0 0.00061788929764355742 0.012694480016417946 0 0.0021418423166825792 0.013238769733671139 0 0.0015181562971696989 0.013509364688845463 0 0.0017629923446453551 0.012816687276902281 0 0.0012702726509505402 0.013049204428151844 0 0.0015181562971696989 0.013509364688845463 0 0.0017629923446453551 0.012816687276902281 0 0.0021418423166825792 0.013238769733671139 0 0.0015181562971696989 0.013509364688845463 0 0.0020521009279406404 0.013852379650688772 0 0.0011181818889555058 0.014298876889179397 0 0.0015181562971696989 0.013509364688845463 0 0.0020521009279406404 0.013852379650688772 0 0.0011613900906213522 0.014290097240857341 0 0.0018442763869297471 0.014029804035418238 0 0.0011181818889555058 0.014298876889179397 0 0.0016298232521683128 0.014221139686309735 0 0.0015029165190938061 0.014601800647756605 0 0.0018779944223786514 0.015072799584064109 0 0.0015029165190938061 0.014601800647756605 0 0.0013748513802786669 0.015074634471793049 0 0.0011181818889555058 0.014298876889179397 0 0.0015029165190938061 0.014601800647756605 0 0.0011233804540430464 0.014843891865928311 0 0.0015029165190938061 0.014601800647756605 0 0.0011233804540430464 0.014843891865928311 0 0.0013748513802786669 0.015074634471793049 0 0.00068609368809085473 0.014909354399133178 0 0.0011181818889555058 0.014298876889179397 0 0.0011233804540430464 0.014843891865928311 0 0.00068609368809085473 0.014909354399133178 0 0.0011233804540430464 0.014843891865928311 0 0.0010083084029973951 0.015202023287690518 0 0.0012096513768213649 0.015550397006647747 0 0.0010083084029973951 0.015202023287690518 0 0.0013748513802786669 0.015074634471793049 0 0.0011233804540430464 0.014843891865928311 0 0.0010083084029973951 0.015202023287690518 0 0.0013748513802786669 0.015074634471793049 0 0.0012096513768213649 0.015550397006647747 0 0.0016450170645569361 0.015359098877434734 0 0.0013748513802786669 0.015074634471793049 0 0.0018779944223786514 0.015072799584064109 0 0.0016450170645569361 0.015359098877434734 0 0.0013748513802786669 0.015074634471793049 0 0.0014451118654193824 0.010617482243185263 0 0.00095263263167291127 0.010729288897186806 0 0.0014030420640136522 0.010112140461288801 0 0.0014451118654193824 0.010617482243185263 0 0.00095263263167291127 0.010729288897186806 0 0.0014767559852032824 0.01114000686960852 0 0.0019492831717494157 0.010684375500307378 0 0.0014451118654193824 0.010617482243185263 0 0.0014767559852032824 0.01114000686960852 0 0.0018960950126405639 0.010178289207649275 0 0.0019492831717494157 0.010684375500307378 0 0.0014451118654193824 0.010617482243185263 0 0.00095263263167291127 0.010729288897186806 0 0.00050921035807514295 0.01028693009170928 0 0.00093508721745319523 0.009991454345135058 0 0.00095263263167291127 0.010729288897186806 0 0.00088183143654644409 0.011261322124520278 0 0.0014767559852032824 0.01114000686960852 0 0.00095263263167291127 0.010729288897186806 0 0.00088183143654644409 0.011261322124520278 0 0.00040147583533286515 0.011014338954117809 0 0.0006192860715507274 0.010950350460903851 0 0.00045519203458343533 0.0089819439744974749 0 0.00088183143654644409 0.011261322124520278 0 0.0014767559852032824 0.01114000686960852 0 0.0012894336777241489 0.011713522950946407 0 0.0018575062650061337 0.011635786758843022 0 0.0012588075063697892 0.011618051962293735 0 0.0020818753165518615 0.012107274294820244 0 0.0014757617980285767 0.011987832820982654 0 0.0013956620011135626 0.012434383070412522 0 0.0018698538396165088 0.01160020151738227 0 0.0014767559852032824 0.01114000686960852 0 0.0012894336777241489 0.011713522950946407 0 0.0020818753165518615 0.012107274294820244 0 0.0013956620011135626 0.012434383070412522 0 0.0017629923446453551 0.012816687276902281 0 0.0012702726509505402 0.013049204428151844 0 0.0013956620011135626 0.012434383070412522 0 0.0017629923446453551 0.012816687276902281 0 0.0012702726509505402 0.013049204428151844 0 0.0013956620011135626 0.012434383070412522 0 0.00091359245148812495 0.012629722971410027 0 0.0013956620011135626 0.012434383070412522 0 0.00091359245148812495 0.012629722971410027 0 0.00085723843463800242 0.012177922173952702 0 0.00091359245148812495 0.012629722971410027 0 0.00085723843463800242 0.012177922173952702 0 0.00070429799028570305 0.012469356299356948 0 0.00088183143654644409 0.011261322124520278 0 0.0012894336777241489 0.011713522950946407 0 0.00029821490267847037 0.011699545635917285 0 0.0010359713853658168 0.010535195631838872 0 0.00077118911048779982 0.010586715353889841 0 0.00052544709468988848 0.010518508931830352 0 0.0012588075063697892 0.011618051962293735 0 0.00038801702081429885 0.0094575777761632344 0 0.0014757617980285767 0.011987832820982654 0 0.0013956620011135626 0.012434383070412522 0 0.00085723843463800242 0.012177922173952702 0 0.0012588075063697892 0.011618051962293735 0 0.00078403362385935367 0.011325073410079885 0 0.00023997249697850422 0.0074316591151593423 0 0.00019076193666357633 0.0073879148725531007 0 0.00025937831867873314 0.0073081530620718958 0 0.00038801702081429885 0.0094575777761632344 0 0.00027964151332440757 0.0095770487041533653 0 0.00077118911048779982 0.010586715353889841 0 0.00052544709468988848 0.010518508931830352 0 0.0005066695037725539 0.010639363881261313 0 0.00078403362385935367 0.011325073410079885 0 0.00027964151332440757 0.0095770487041533653 0 0.00028342534518105406 0.010409218061190282 0 0.00027964151332440757 0.0095770487041533653 0 0.00085723843463800242 0.012177922173952702 0 0.00070429799028570305 0.012469356299356948 0 0.00045864034178573645 0.012339845425169931 0 0.00070429799028570305 0.012469356299356948 0 0.00045864034178573645 0.012339845425169931 0 0.00061788929764355742 0.012694480016417946 0 0.00040166087472257364 0.012943886325248476 0 0.00045864034178573645 0.012339845425169931 0 0.00061788929764355742 0.012694480016417946 0 0.00091359245148812495 0.012629722971410027 0 0.00070429799028570305 0.012469356299356948 0 0.00061788929764355742 0.012694480016417946 0 0.00027964151332440757 0.0095770487041533653 0 0.00022013951584127066 0.0073686642294568724 0 0.00019407648857538949 0.0075735632580774979 0 0.00012605906701559978 0.0076328054667321515 0 7.7132005504055714e-05 0.0075680702467874582 0 0.00017022562054006302 0.0077180076634266294 0 0.00019407648857538949 0.0075735632580774979 0 0.00012605906701559978 0.0076328054667321515 0 4.6109337376770382e-05 0.0076792340438950066 0 0.00012605906701559978 0.0076328054667321515 0 7.7132005504055714e-05 0.0075680702467874582 0 0.0003004039654346905 0.0075238549781732706 0 7.7132005504055714e-05 0.0075680702467874582 0 0.00014137676198250403 0.007430285114713631 0 0.00038801702081429885 0.0094575777761632344 0 0.00015149604473514938 0.0076947945098673363 0 0.00031234610267022304 0.0074446714807380457 0 0.0003004039654346905 0.0075238549781732706 0 0.00014137676198250403 0.007430285114713631 0 0.00023997249697850422 0.0074316591151593423 0 0.00014137676198250403 0.007430285114713631 0 0.00019076193666357633 0.0073879148725531007 0 0.00014137676198250403 0.007430285114713631 0 0.00019076193666357633 0.0073879148725531007 0 0.00013466739606906938 0.0073378356613478203 0 0.00018781520542104059 0.0069798083853926732 0 0.00027917172374569167 0.0067296111795820826 0 0.00053337728626221003 0.0068057413182516851 0 0.00019076193666357633 0.0073879148725531007 0 0.00013466739606906938 0.0073378356613478203 0 0.00025937831867873314 0.0073081530620718958 0 0.00026151032147237938 0.0070039909935503044 0 0.00045519203458343533 0.0089819439744974749 0 0.00018781520542104059 0.0069798083853926732 0 0.00027917172374569167 0.0067296111795820826 0 3.0212482888584575e-05 0.0067821260891756411 0 0.00038801702081429885 0.0094575777761632344 0 0.00045519203458343533 0.0089819439744974749 0 0.00088183143654644409 0.011261322124520278 0 0.00029821490267847037 0.011699545635917285 0 0.00040147583533286515 0.011014338954117809 0 0.00053337728626221003 0.0068057413182516851 0 0.00037896402922710487 0.0065381242313655866 0 0.00059051454499898452 0.006394916385424566 0 0.00045519203458343533 0.0089819439744974749 0 0.00054009999920104238 0.0083981374312462401 0 0.00027917172374569167 0.0067296111795820826 0 0.00053337728626221003 0.0068057413182516851 0 0.00037896402922710487 0.0065381242313655866 0 0.00095263263167291127 0.010729288897186806 0 0.00040882069160280254 0.010986609313056143 0 0.00050921035807514295 0.01028693009170928 0 0.00037896402922710487 0.0065381242313655866 0 0.00017800232343936358 0.0065169292320448897 0 0.00031239398103158149 0.0062411609775165295 0 0.00027917172374569167 0.0067296111795820826 0 0.00017800232343936358 0.0065169292320448897 0 3.0212482888584575e-05 0.0067821260891756411 0 0.00027917172374569167 0.0067296111795820826 0 0.00037896402922710487 0.0065381242313655866 0 0.00017800232343936358 0.0065169292320448897 0 -7.6256049434568563e-05 0.0064922888000503902 0 -0.00032882937257039976 0.0065209068212349732 0 -0.0002440207597470206 0.0067964851690893871 0 -7.6256049434568563e-05 0.0064922888000503902 0 -0.0002440207597470206 0.0067964851690893871 0 3.0212482888584575e-05 0.0067821260891756411 0 0.00017800232343936358 0.0065169292320448897 0 -7.6256049434568563e-05 0.0064922888000503902 0 3.0212482888584575e-05 0.0067821260891756411 0 0.00017800232343936358 0.0065169292320448897 0 -7.6256049434568563e-05 0.0064922888000503902 0 2.2509154315556526e-05 0.006216101299530985 0 -7.6256049434568563e-05 0.0064922888000503902 0 -0.00032882937257039976 0.0065209068212349732 0 -0.00027384797737812854 0.0062473603996624338 0 -0.00032882937257039976 0.0065209068212349732 0 -0.00056719104955281203 0.0063267497834401587 0 -0.00027384797737812854 0.0062473603996624338 0 -0.00032882937257039976 0.0065209068212349732 0 -0.0002440207597470206 0.0067964851690893871 0 -0.00058085179945925798 0.0067290575675586547 0 -0.00032882937257039976 0.0065209068212349732 0 -0.00058085179945925798 0.0067290575675586547 0 -0.00056719104955281203 0.0063267497834401587 0 -0.0002440207597470206 0.0067964851690893871 0 -0.00015022431009972058 0.0071764924447657794 0 -0.00043970701556771374 0.0070597260396591801 0 -0.0002440207597470206 0.0067964851690893871 0 -0.00043970701556771374 0.0070597260396591801 0 -0.00058085179945925798 0.0067290575675586547 0 -0.0002440207597470206 0.0067964851690893871 0 3.0212482888584575e-05 0.0067821260891756411 0 -0.00015022431009972058 0.0071764924447657794 0 0.00018781520542104059 0.0069798083853926732 0 3.0212482888584575e-05 0.0067821260891756411 0 -0.00015022431009972058 0.0071764924447657794 0 0.00026151032147237938 0.0070039909935503044 0 -0.00015849845428093798 0.0072936664883240738 0 0.00014137676198250403 0.007430285114713631 0 0.00013466739606906938 0.0073378356613478203 0 -7.5756052104744887e-05 0.0073553153855674524 0 7.7132005504055714e-05 0.0075680702467874582 0 0.00014137676198250403 0.007430285114713631 0 -7.5756052104744887e-05 0.0073553153855674524 0 7.7132005504055714e-05 0.0075680702467874582 0 -7.5756052104744887e-05 0.0073553153855674524 0 -7.6779588889923741e-05 0.0076575448461631964 0 4.6109337376770382e-05 0.0076792340438950066 0 7.7132005504055714e-05 0.0075680702467874582 0 -7.6779588889923741e-05 0.0076575448461631964 0 -0.00068095668054473778 0.0077949781041289305 0 -7.6779588889923741e-05 0.0076575448461631964 0 -0.00047383997323479916 0.0074130779581140852 0 -7.5756052104744887e-05 0.0073553153855674524 0 -7.6779588889923741e-05 0.0076575448461631964 0 -0.00047383997323479916 0.0074130779581140852 0 -0.00015849845428093798 0.0072936664883240738 0 -0.0004378578112251103 0.0074046864082661073 0 -0.00015022431009972058 0.0071764924447657794 0 -0.00047383997323479916 0.0074130779581140852 0 -0.00043970701556771374 0.0070597260396591801 0 -0.00047383997323479916 0.0074130779581140852 0 -0.00043970701556771374 0.0070597260396591801 0 -0.00079145656988180554 0.0071696656868336867 0 -0.00047383997323479916 0.0074130779581140852 0 -0.00079145656988180554 0.0071696656868336867 0 -0.00086112914802781524 0.0075143162289819073 0 -0.00068095668054473778 0.0077949781041289305 0 -0.00047383997323479916 0.0074130779581140852 0 -0.00086112914802781524 0.0075143162289819073 0 -0.0012355945050208843 0.0079057740807980496 0 -0.00086112914802781524 0.0075143162289819073 0 -0.0011660514021736522 0.0073986960531381108 0 -0.0011745826562048315 0.0062055366777534812 0 -0.001124585107717564 0.0060526035584524207 0 -0.00079145656988180554 0.0071696656868336867 0 -0.0011660514021736522 0.0073986960531381108 0 -0.0011052989566304938 0.0068873346418398488 0 -0.00079145656988180554 0.0071696656868336867 0 -0.00086112914802781524 0.0075143162289819073 0 -0.0011660514021736522 0.0073986960531381108 0 -0.00043970701556771374 0.0070597260396591801 0 -0.00079145656988180554 0.0071696656868336867 0 -0.00058085179945925798 0.0067290575675586547 0 -0.00079145656988180554 0.0071696656868336867 0 -0.0011052989566304938 0.0068873346418398488 0 -0.00058085179945925798 0.0067290575675586547 0 -0.00058085179945925798 0.0067290575675586547 0 -0.0010589602908359684 0.0063842354807589858 0 -0.00056719104955281203 0.0063267497834401587 0 -0.0011052989566304938 0.0068873346418398488 0 -0.00058085179945925798 0.0067290575675586547 0 -0.0010589602908359684 0.0063842354807589858 0 -0.0011545009138635095 0.0052278991311344204 0 -0.0011307810123989913 0.0054973890827954407 0 -0.00099576876785353505 0.0054425122312556995 0 -0.001124585107717564 0.0060526035584524207 0 -0.0010854712245298571 0.0059306400698787747 0 -0.0011307810123989913 0.0054973890827954407 0 -0.00099199855637170458 0.0057858831056315568 0 -0.00099072046565710408 0.0056356401061075263 0 -0.0010589602908359684 0.0063842354807589858 0 -0.00078099653635170594 0.0060918701287769692 0 -0.00099199855637170458 0.0057858831056315568 0 -0.0010854712245298571 0.0059306400698787747 0 -0.0010099549382942856 0.0057832953888452736 0 -0.00078099653635170594 0.0060918701287769692 0 -0.00056719104955281203 0.0063267497834401587 0 -0.00055039926200080975 0.0059405805026741055 0 -0.0010589602908359684 0.0063842354807589858 0 -0.00078099653635170594 0.0060918701287769692 0 -0.00056719104955281203 0.0063267497834401587 0 -0.00078099653635170594 0.0060918701287769692 0 -0.00099199855637170458 0.0057858831056315568 0 -0.00055039926200080975 0.0059405805026741055 0 -0.00099199855637170458 0.0057858831056315568 0 -0.00074536602987708921 0.005571268918490373 0 -0.00055039926200080975 0.0059405805026741055 0 -0.00099199855637170458 0.0057858831056315568 0 -0.00074536602987708921 0.005571268918490373 0 -0.0010393133583225776 0.0057172335896706946 0 -0.00099199855637170458 0.0057858831056315568 0 -0.00099072046565710408 0.0056356401061075263 0 -0.0010393133583225776 0.0057172335896706946 0 -0.00030924134406787779 0.006281191415278907 0 -0.00052132759255601666 0.0057191796073512054 0 6.0073723401600336e-06 0.0064233485577299201 0 -1.5939684827243244e-05 0.0069468467500422224 0 -4.096605286313298e-05 0.0057775054866552834 0 6.0073723401600336e-06 0.0064233485577299201 0 1.435439004127944e-07 0.0063362038606170484 0 4.8038922550653806e-07 0.0078055758415029432 0 6.0073723401600336e-06 0.0064233485577299201 0 4.8038922550653806e-07 0.0078055758415029432 0 -1.5939684827243244e-05 0.0069468467500422224 0 -0.00030924134406787779 0.006281191415278907 0 -6.2031281098758626e-05 0.0065663893109007918 0 -0.00074536602987708921 0.005571268918490373 0 -0.00040109515065032985 0.0057229815175899408 0 -0.00014851440979940855 0.0054810713095003946 0 4.8038922550653806e-07 0.0078055758415029432 0 -1.5939684827243244e-05 0.0069468467500422224 0 5.5059910801748518e-05 0.008121848964835171 0 4.8038922550653806e-07 0.0078055758415029432 0 -1.323067403482807e-06 0.0092717657998229192 0 5.5059910801748518e-05 0.008121848964835171 0 -0.00014851440979940855 0.0054810713095003946 0 -0.00015665630045831602 0.00588467297063381 0 0.00012566658150818619 0.0056778684685564037 0 -0.00040109515065032985 0.0057229815175899408 0 -0.00014851440979940855 0.0054810713095003946 0 -0.00015665630045831602 0.00588467297063381 0 -0.00015665630045831602 0.00588467297063381 0 2.2509154315556526e-05 0.006216101299530985 0 0.00014292923709411423 0.0059171232275899918 0 -0.00015665630045831602 0.00588467297063381 0 0.00014292923709411423 0.0059171232275899918 0 0.00012566658150818619 0.0056778684685564037 0 -0.00040109515065032985 0.0057229815175899408 0 -0.00015665630045831602 0.00588467297063381 0 -0.00055039926200080975 0.0059405805026741055 0 -0.00074536602987708921 0.005571268918490373 0 -0.00040109515065032985 0.0057229815175899408 0 -0.00055039926200080975 0.0059405805026741055 0 -0.00015665630045831602 0.00588467297063381 0 -0.00055039926200080975 0.0059405805026741055 0 -0.00027384797737812854 0.0062473603996624338 0 -0.00056719104955281203 0.0063267497834401587 0 -0.00055039926200080975 0.0059405805026741055 0 -0.00027384797737812854 0.0062473603996624338 0 -0.00015665630045831602 0.00588467297063381 0 -0.00027384797737812854 0.0062473603996624338 0 2.2509154315556526e-05 0.006216101299530985 0 -7.6256049434568563e-05 0.0064922888000503902 0 -0.00027384797737812854 0.0062473603996624338 0 2.2509154315556526e-05 0.006216101299530985 0 2.2509154315556526e-05 0.006216101299530985 0 0.00031239398103158149 0.0062411609775165295 0 0.00014292923709411423 0.0059171232275899918 0 0.00017800232343936358 0.0065169292320448897 0 2.2509154315556526e-05 0.006216101299530985 0 0.00031239398103158149 0.0062411609775165295 0 0.00031239398103158149 0.0062411609775165295 0 0.00059051454499898452 0.006394916385424566 0 0.00064060079603163705 0.0059886261498848887 0 0.00037896402922710487 0.0065381242313655866 0 0.00031239398103158149 0.0062411609775165295 0 0.00059051454499898452 0.006394916385424566 0 0.00054009999920104238 0.0083981374312462401 0 0.00069998103760129558 0.0073904380641990801 0 0.00064060079603163705 0.0059886261498848887 0 0.00014292923709411423 0.0059171232275899918 0 0.00039645668142226513 0.0057086874677491125 0 0.00031239398103158149 0.0062411609775165295 0 0.00064060079603163705 0.0059886261498848887 0 0.00014292923709411423 0.0059171232275899918 0 0.00012566658150818619 0.0056778684685564037 0 0.00038207859101425029 0.0054106745230166871 0 0.00039645668142226513 0.0057086874677491125 0 -0.00014851440979940855 0.0054810713095003946 0 0.00012566658150818619 0.0056778684685564037 0 0.00038207859101425029 0.0054106745230166871 0 0.00014292923709411423 0.0059171232275899918 0 0.00012566658150818619 0.0056778684685564037 0 0.00039645668142226513 0.0057086874677491125 0 -6.2031281098758626e-05 0.0065663893109007918 0 -8.3167060191207689e-05 0.0085040932894820051 0 1.5263296887854397e-08 0.0092746995244543037 0 -8.3167060191207689e-05 0.0085040932894820051 0 -2.0287369410856442e-07 0.0092748714150370452 0 2.0389046655701851e-07 0.01022443929882421 0 -1.0616077401677346e-05 0.0103355633017815 0 -1.323067403482807e-06 0.0092717657998229192 0 5.5059910801748518e-05 0.008121848964835171 0 -0.0010307091719188775 0.0086522441997351103 0 2.0389046655701851e-07 0.01022443929882421 0 -2.119107427742515e-07 0.011173360271010777 0 1.8056727816043789e-05 0.010877451928367766 0 2.0389046655701851e-07 0.01022443929882421 0 -1.0616077401677346e-05 0.0103355633017815 0 1.8056727816043789e-05 0.010877451928367766 0 0.00012785199082247659 0.0096636787609138391 0 -0.00016685260740579826 0.0094924940116843728 0 -0.00020748588684310146 0.0097559337889911047 0 -8.3167060191207689e-05 0.0085040932894820051 0 -0.00034098137878699067 0.011325007699796927 0 0.00038207859101425029 0.0054106745230166871 0 0.00039645668142226513 0.0057086874677491125 0 0.00069018296277396939 0.0056070613716929394 0 -8.3167060191207689e-05 0.0085040932894820051 0 0.0001666984011762165 0.0091733443226752372 0 0.00064060079603163705 0.0059886261498848887 0 0.00039645668142226513 0.0057086874677491125 0 0.00069018296277396939 0.0056070613716929394 0 0.00069998103760129558 0.0073904380641990801 0 0.0001666984011762165 0.0091733443226752372 0 -0.00098179487356576554 0.013076533595521446 0 -0.00038249948741493714 0.012907515904662338 0 -5.9329503645934962e-05 0.013581326963022085 0 0.0001666984011762165 0.0091733443226752372 0 0.00075384582561130258 0.011757874799762338 0 0.0001666984011762165 0.0091733443226752372 0 -0.00034098137878699067 0.011325007699796927 0 -0.00098179487356576554 0.013076533595521446 0 -0.00097766485528235974 0.012381800169194629 0 -0.00038249948741493714 0.012907515904662338 0 -0.00097766485528235974 0.012381800169194629 0 -5.2814585383757059e-05 0.012059233553898881 0 -0.00038249948741493714 0.012907515904662338 0 -6.4302566918414186e-07 0.01117548649186869 0 -1.0578239955853447e-05 0.011233935323142293 0 -5.2814585383757059e-05 0.012059233553898881 0 -0.00034098137878699067 0.011325007699796927 0 -0.00012509860193308229 0.011927629948950736 0 -4.0356034400027499e-07 0.011174380228471996 0 -0.00034098137878699067 0.011325007699796927 0 8.3170650898046775e-08 0.012575649484655782 0 -6.4302566918414186e-07 0.01117548649186869 0 -5.2814585383757059e-05 0.012059233553898881 0 8.3170650898046775e-08 0.012575649484655782 0 -5.2814585383757059e-05 0.012059233553898881 0 2.6986964247350239e-05 0.013021667799923956 0 -5.2814585383757059e-05 0.012059233553898881 0 2.6986964247350239e-05 0.013021667799923956 0 -0.00038249948741493714 0.012907515904662338 0 2.6986964247350239e-05 0.013021667799923956 0 -0.00038249948741493714 0.012907515904662338 0 -5.9329503645934962e-05 0.013581326963022085 0 0.00061325554713866526 0.0095634896250770627 0 0.00071816532924147208 0.0088488619527180394 0 0.0015792877521553443 0.0093655879755582816 0 0.00061325554713866526 0.0095634896250770627 0 0.0015792877521553443 0.0093655879755582816 0 0.00093508721745319523 0.009991454345135058 0 0.00050921035807514295 0.01028693009170928 0 0.00061325554713866526 0.0095634896250770627 0 0.00093508721745319523 0.009991454345135058 0 0.00095263263167291127 0.010729288897186806 0 0.00093508721745319523 0.009991454345135058 0 0.0014030420640136522 0.010112140461288801 0 0.0015792877521553443 0.0093655879755582816 0 0.00093508721745319523 0.009991454345135058 0 0.0014030420640136522 0.010112140461288801 0 0.0018960950126405639 0.010178289207649275 0 0.0015792877521553443 0.0093655879755582816 0 0.0014030420640136522 0.010112140461288801 0 0.0018960950126405639 0.010178289207649275 0 0.0014451118654193824 0.010617482243185263 0 0.0014030420640136522 0.010112140461288801 0 -0.001103956874006893 -0.0018216785556588403 0 -0.000754307981051508 -0.0017029661743176749 0 -0.00086285676325211327 -0.0012160004796945264 0 -0.001103956874006893 -0.0018216785556588403 0 -0.000754307981051508 -0.0017029661743176749 0 -0.00088856609024015988 -0.0020883724165015071 0 -0.000754307981051508 -0.0017029661743176749 0 -0.00088856609024015988 -0.0020883724165015071 0 -0.00057569960863586625 -0.002118495681068441 0 -0.00088856609024015988 -0.0020883724165015071 0 -0.0011713953547124122 -0.0022426504614415513 0 -0.00092086054961457793 -0.002466939952488618 0 -0.00088856609024015988 -0.0020883724165015071 0 -0.00057569960863586625 -0.002118495681068441 0 -0.00092086054961457793 -0.002466939952488618 0 -0.001103956874006893 -0.0018216785556588403 0 -0.0011713953547124122 -0.0022426504614415513 0 -0.0014897528353939146 -0.0019592428614411362 0 -0.001103956874006893 -0.0018216785556588403 0 -0.00088856609024015988 -0.0020883724165015071 0 -0.0011713953547124122 -0.0022426504614415513 0 -0.0011713953547124122 -0.0022426504614415513 0 -0.0014897528353939146 -0.0019592428614411362 0 -0.0015416575965700619 -0.0023788860730471744 0 -0.0014897528353939146 -0.0019592428614411362 0 -0.0021553272865560873 -0.0019141930939706056 0 -0.0015416575965700619 -0.0023788860730471744 0 -0.0014897528353939146 -0.0019592428614411362 0 -0.0021553272865560873 -0.0019141930939706056 0 -0.0015389622058889609 -0.0013831452589600803 0 -0.001103956874006893 -0.0018216785556588403 0 -0.0014897528353939146 -0.0019592428614411362 0 -0.0015389622058889609 -0.0013831452589600803 0 -0.0021553272865560873 -0.0019141930939706056 0 -0.0015389622058889609 -0.0013831452589600803 0 -0.0026053380691052298 -0.00052915278924507768 0 -0.0015389622058889609 -0.0013831452589600803 0 -0.0013343565914829239 -0.00049595876990957317 0 -0.0026053380691052298 -0.00052915278924507768 0 -0.0013343565914829239 -0.00049595876990957317 0 -0.00086285676325211327 -0.0012160004796945264 0 -0.0006646555963683552 -0.00037855448535832045 0 -0.0015389622058889609 -0.0013831452589600803 0 -0.0013343565914829239 -0.00049595876990957317 0 -0.00086285676325211327 -0.0012160004796945264 0 -0.001103956874006893 -0.0018216785556588403 0 -0.0015389622058889609 -0.0013831452589600803 0 -0.00086285676325211327 -0.0012160004796945264 0 -0.000754307981051508 -0.0017029661743176749 0 -0.00086285676325211327 -0.0012160004796945264 0 -0.00042660167189656852 -0.0012681769051511567 0 -0.00086285676325211327 -0.0012160004796945264 0 -0.00042660167189656852 -0.0012681769051511567 0 -0.0006646555963683552 -0.00037855448535832045 0 -0.00042660167189656852 -0.0012681769051511567 0 -0.00018138645493619705 -0.0020500579594536451 0 -9.2179317901361851e-05 -0.0012722227181181007 0 -0.00018138645493619705 -0.0020500579594536451 0 -0.00057569960863586625 -0.002118495681068441 0 -0.00032961234488622241 -0.0025740325150653818 0 -0.00018138645493619705 -0.0020500579594536451 0 -0.00032961234488622241 -0.0025740325150653818 0 -0.00011449267599346739 -0.0026524214654522022 0 -0.00042660167189656852 -0.0012681769051511567 0 -0.00018138645493619705 -0.0020500579594536451 0 -0.00057569960863586625 -0.002118495681068441 0 -0.000754307981051508 -0.0017029661743176749 0 -0.00042660167189656852 -0.0012681769051511567 0 -0.00057569960863586625 -0.002118495681068441 0 -0.00057569960863586625 -0.002118495681068441 0 -0.00032961234488622241 -0.0025740325150653818 0 -0.00092086054961457793 -0.002466939952488618 0 -0.00032961234488622241 -0.0025740325150653818 0 -0.00094651577518857597 -0.0025401483663044697 0 -0.00092086054961457793 -0.002466939952488618 0 -0.00032961234488622241 -0.0025740325150653818 0 -0.00039362793269473033 -0.0028920706652637838 0 -0.00064610477233732842 -0.0029277580525047817 0 -0.00032961234488622241 -0.0025740325150653818 0 -0.00064610477233732842 -0.0029277580525047817 0 -0.00089641297073647338 -0.0026952153310281835 0 -0.00018339229521850581 -0.0027161284695456419 0 -0.0013922227129743213 -0.0019246912797459877 0 -0.00032961234488622241 -0.0025740325150653818 0 -0.00011449267599346739 -0.0026524214654522022 0 -0.00020713243950537806 -0.0029426217860319764 0 -0.00032961234488622241 -0.0025740325150653818 0 -0.00027165382634288258 -0.0028959783005230917 0 -0.00020713243950537806 -0.0029426217860319764 0 -0.00032961234488622241 -0.0025740325150653818 0 -0.00027165382634288258 -0.0028959783005230917 0 -0.00039362793269473033 -0.0028920706652637838 0 -0.00027165382634288258 -0.0028959783005230917 0 -0.00033297316486274664 -0.0030251136662299192 0 -0.00021301092964909934 -0.0029872147080786094 0 -0.00027165382634288258 -0.0028959783005230917 0 -0.00039362793269473033 -0.0028920706652637838 0 -0.00033297316486274664 -0.0030251136662299192 0 -0.00039362793269473033 -0.0028920706652637838 0 -0.00033297316486274664 -0.0030251136662299192 0 -0.00049379699444138526 -0.0030138574661926773 0 -0.00035830393837474014 -0.0030978579314558494 0 -0.00033297316486274664 -0.0030251136662299192 0 -0.00049379699444138526 -0.0030138574661926773 0 -0.0014173306611262734 -0.0032657146688484179 0 -0.0012144064308850545 -0.0030782447618786695 0 -0.0022501958714712836 -0.004376468928405413 0 -0.0016081651403486857 -0.0038209563955995921 0 -0.001873731332497049 -0.0046066935468157275 0 -0.0014173306611262734 -0.0032657146688484179 0 -0.00087796342728219503 -0.0034439830581238138 0 -0.00034544194923629828 -0.0030577779277869625 0 -0.00033297316486274664 -0.0030251136662299192 0 -0.00021301092964909934 -0.0029872147080786094 0 -0.0007421907411302392 -0.0032752908413031072 0 -0.00064610477233732842 -0.0029277580525047817 0 -0.00049379699444138526 -0.0030138574661926773 0 -0.0007421907411302392 -0.0032752908413031072 0 -0.00035830393837474014 -0.0030978579314558494 0 -0.00049379699444138526 -0.0030138574661926773 0 -0.00039362793269473033 -0.0028920706652637838 0 -0.00064610477233732842 -0.0029277580525047817 0 -0.00049379699444138526 -0.0030138574661926773 0 -0.0007421907411302392 -0.0032752908413031072 0 -0.00064610477233732842 -0.0029277580525047817 0 -0.00099763996322810907 -0.0030867440735184294 0 -0.00064610477233732842 -0.0029277580525047817 0 -0.00099763996322810907 -0.0030867440735184294 0 -0.00089641297073647338 -0.0026952153310281835 0 -0.0014518938303150824 -0.0019230890811567228 0 -0.0013922227129743213 -0.0019246912797459877 0 -0.00097234208094600148 -0.0026548840700314365 0 -0.0012997050652290055 -0.0025264537721076848 0 -0.00092086054961457793 -0.002466939952488618 0 -0.0011713953547124122 -0.0022426504614415513 0 -0.0012997050652290055 -0.0025264537721076848 0 -0.00092086054961457793 -0.002466939952488618 0 -0.0011713953547124122 -0.0022426504614415513 0 -0.0012997050652290055 -0.0025264537721076848 0 -0.0015416575965700619 -0.0023788860730471744 0 -0.0013922227129743213 -0.0019246912797459877 0 -0.001367652076503343 -0.0021179762426167459 0 -0.00097234208094600148 -0.0026548840700314365 0 -0.0012997050652290055 -0.0025264537721076848 0 -0.0018853297793353268 -0.0028770290310523644 0 -0.00053423072255120757 0.005178786878764963 0 -0.00050534721039932823 0.0049568707092528391 0 -0.00059038669676878463 0.0050869954510308615 0 -0.0021553272865560873 -0.0019141930939706056 0 -0.0015416575965700619 -0.0023788860730471744 0 -0.0018853297793353268 -0.0028770290310523644 0 -0.0013922227129743213 -0.0019246912797459877 0 -0.0020346556941722681 0.001241735548000972 0 -0.0012907974241083578 0.0015733765333831831 0 -0.0020346556941722681 0.001241735548000972 0 -0.0012997050652290055 -0.0025264537721076848 0 -0.0015416575965700619 -0.0023788860730471744 0 -0.0018853297793353268 -0.0028770290310523644 0 -0.0032195109569891911 0.00087534738796335844 0 -0.0020346556941722681 0.001241735548000972 0 -0.0021822164914873684 -0.00069604817954099394 0 -0.0019930009389009904 -0.00065598843952863163 0 -0.002238456605100113 -0.00034903747537629634 0 -0.0019930009389009904 -0.00065598843952863163 0 -0.0018789861287324639 -0.00028249611247960021 0 -0.002238456605100113 -0.00034903747537629634 0 -0.0040632943181859657 0.0019404099876527455 0 -0.004149914611895446 0.0024247866919660621 0 -0.0042858710821599699 0.0021774625213996247 0 -0.0040632943181859657 0.0019404099876527455 0 -0.0044685553689816282 0.0019819798051834985 0 -0.0042858710821599699 0.0021774625213996247 0 -0.004149914611895446 0.0024247866919660621 0 -0.0042858710821599699 0.0021774625213996247 0 -0.0044650206123757049 0.0023575271556444937 0 -0.0044685553689816282 0.0019819798051834985 0 -0.0042858710821599699 0.0021774625213996247 0 -0.0044650206123757049 0.0023575271556444937 0 -0.001939134418711195 0.0039465148764411314 0 -0.0032001414606394386 0.0033624904410220844 0 -0.0044685553689816282 0.0019819798051834985 0 -0.0044650206123757049 0.0023575271556444937 0 -0.0048324427044358423 0.0019105771267263301 0 -0.0015713645314755025 0.0047053382005861144 0 -0.0012779042725978951 0.0047909070944479482 0 -0.0013628706068634629 0.0049163762834137648 0 -0.001939134418711195 0.0039465148764411314 0 -0.00084962420855969371 0.0049638344901054244 0 -0.0011597302964441668 0.0049431531706207775 0 -0.0012779042725978951 0.0047909070944479482 0 -0.0013628706068634629 0.0049163762834137648 0 -0.00061975534372946356 0.0049623373700694107 0 -0.00081069274980962607 0.0049393645076140314 0 -0.00076105529633022344 0.0050440365731581832 0 -0.00081069274980962607 0.0049393645076140314 0 -0.00076105529633022344 0.0050440365731581832 0 -0.00094047031818043827 0.0049969654714684649 0 -0.00076105529633022344 0.0050440365731581832 0 -0.00091155274177957162 0.005121963796896464 0 -0.00076439155143372226 0.0051656782802201595 0 -0.00076105529633022344 0.0050440365731581832 0 -0.00068007157001446713 0.0051029032131885812 0 -0.00076439155143372226 0.0051656782802201595 0 -0.00076105529633022344 0.0050440365731581832 0 -0.00068007157001446713 0.0051029032131885812 0 -0.00064655515879092967 0.0050361599147755809 0 -0.00068007157001446713 0.0051029032131885812 0 -0.00059038669676878463 0.0050869954510308615 0 -0.00064655515879092967 0.0050361599147755809 0 -0.00061975534372946356 0.0049623373700694107 0 -0.00076105529633022344 0.0050440365731581832 0 -0.00064655515879092967 0.0050361599147755809 0 -0.00059038669676878463 0.0050869954510308615 0 -0.00058248883293817138 0.0049882983643870999 0 -0.00064655515879092967 0.0050361599147755809 0 -0.00061975534372946356 0.0049623373700694107 0 -0.00058248883293817138 0.0049882983643870999 0 -0.00064655515879092967 0.0050361599147755809 0 -0.00050534721039932823 0.0049568707092528391 0 -0.00063924694388305147 0.0049248220004932345 0 -0.00058248883293817138 0.0049882983643870999 0 -0.00050534721039932823 0.0049568707092528391 0 -0.00059038669676878463 0.0050869954510308615 0 -0.00058248883293817138 0.0049882983643870999 0 -0.0020346556941722681 0.001241735548000972 0 -0.001939134418711195 0.0039465148764411314 0 -0.001939134418711195 0.0039465148764411314 0 -0.00098108496086063012 0.0048371310735437897 0 -0.00077878362467510896 0.006416115162213974 0 -0.0011745826562048315 0.0062055366777534812 0 -0.0011192720266358811 0.0049796068340117652 0 -0.0010606883014909981 0.0049176655464808249 0 -0.0010251698167989248 0.0050750589091730644 0 -0.0010606883014909981 0.0049176655464808249 0 -0.00094047031818043827 0.0049969654714684649 0 -0.0010251698167989248 0.0050750589091730644 0 -0.0010466453041396981 0.0049635133346388307 0 -0.0011192720266358811 0.0049796068340117652 0 -0.0010606883014909981 0.0049176655464808249 0 -0.00084962420855969371 0.0049638344901054244 0 -0.001139443539394047 0.0048785695950608601 0 -0.00081069274980962607 0.0049393645076140314 0 -0.0010606883014909981 0.0049176655464808249 0 -0.00094047031818043827 0.0049969654714684649 0 -0.0011597302964441668 0.0049431531706207775 0 -0.0012779042725978951 0.0047909070944479482 0 -0.0010606883014909981 0.0049176655464808249 0 -0.00091155274177957162 0.005121963796896464 0 -0.0010251698167989248 0.0050750589091730644 0 -0.00098548113180531001 0.005258858117152914 0 -0.00076105529633022344 0.0050440365731581832 0 -0.00094047031818043827 0.0049969654714684649 0 -0.00091155274177957162 0.005121963796896464 0 -0.00094047031818043827 0.0049969654714684649 0 -0.00091155274177957162 0.005121963796896464 0 -0.0010251698167989248 0.0050750589091730644 0 -0.0011192720266358811 0.0049796068340117652 0 -0.0011545009138635095 0.0052278991311344204 0 -0.0010251698167989248 0.0050750589091730644 0 -0.0011545009138635095 0.0052278991311344204 0 -0.0010251698167989248 0.0050750589091730644 0 -0.00098548113180531001 0.005258858117152914 0 -0.0011545009138635095 0.0052278991311344204 0 -0.00098548113180531001 0.005258858117152914 0 -0.00099576876785353505 0.0054425122312556995 0 -0.00098548113180531001 0.005258858117152914 0 -0.00085952431754504806 0.005253355716579599 0 -0.00086645368133560078 0.0054019516366402573 0 -0.00091155274177957162 0.005121963796896464 0 -0.00098548113180531001 0.005258858117152914 0 -0.00085952431754504806 0.005253355716579599 0 -0.00091155274177957162 0.005121963796896464 0 -0.00085952431754504806 0.005253355716579599 0 -0.00076439155143372226 0.0051656782802201595 0 -0.00098548113180531001 0.005258858117152914 0 -0.00086645368133560078 0.0054019516366402573 0 -0.00099576876785353505 0.0054425122312556995 0 -0.00086645368133560078 0.0054019516366402573 0 -0.00099576876785353505 0.0054425122312556995 0 -0.00085492447858126562 0.0055527129062698357 0 -0.00053423072255120757 0.005178786878764963 0 -0.000646783230956427 0.0052009724941265243 0 -0.00056650615510117673 0.0053943428331247947 0 -0.00053423072255120757 0.005178786878764963 0 -0.00059038669676878463 0.0050869954510308615 0 -0.000646783230956427 0.0052009724941265243 0 -0.00068007157001446713 0.0051029032131885812 0 -0.00059038669676878463 0.0050869954510308615 0 -0.000646783230956427 0.0052009724941265243 0 -0.00068007157001446713 0.0051029032131885812 0 -0.000646783230956427 0.0052009724941265243 0 -0.00076439155143372226 0.0051656782802201595 0 -0.000646783230956427 0.0052009724941265243 0 -0.00076439155143372226 0.0051656782802201595 0 -0.00070215920805174266 0.0053171530763241048 0 -0.00085952431754504806 0.005253355716579599 0 -0.00076439155143372226 0.0051656782802201595 0 -0.00070215920805174266 0.0053171530763241048 0 -0.00086645368133560078 0.0054019516366402573 0 -0.00070215920805174266 0.0053171530763241048 0 -0.00073788005674472383 0.0054605848155675485 0 -0.00085952431754504806 0.005253355716579599 0 -0.00086645368133560078 0.0054019516366402573 0 -0.00070215920805174266 0.0053171530763241048 0 -0.00070215920805174266 0.0053171530763241048 0 -0.00066608298131757573 0.0054153935174451823 0 -0.00073788005674472383 0.0054605848155675485 0 -0.0012907974241083578 0.0015733765333831831 0 -0.001602583302112301 0.0025463779419511732 0 -0.00070215920805174266 0.0053171530763241048 0 -0.00066608298131757573 0.0054153935174451823 0 -0.00056650615510117673 0.0053943428331247947 0 -0.000646783230956427 0.0052009724941265243 0 -0.00070215920805174266 0.0053171530763241048 0 -0.00056650615510117673 0.0053943428331247947 0 -0.0026053380691052298 -0.00052915278924507768 0 -0.0030089983929486542 0.0018308523139678682 0 -0.0014373761531625722 0.0014315944147010216 0 -0.00056650615510117673 0.0053943428331247947 0 -0.00065654101585426968 0.0054872173002410108 0 -0.00060632165867852941 0.0055929496072721794 0 -0.001602583302112301 0.0025463779419511732 0 -0.0016344438605203683 0.0033391873674139304 0 -0.00065654101585426968 0.0054872173002410108 0 -0.00074086838219146478 0.0055554807241430613 0 -0.00060632165867852941 0.0055929496072721794 0 -0.00066608298131757573 0.0054153935174451823 0 -0.00056650615510117673 0.0053943428331247947 0 -0.00065654101585426968 0.0054872173002410108 0 -0.00066608298131757573 0.0054153935174451823 0 -0.00065654101585426968 0.0054872173002410108 0 -0.00073788005674472383 0.0054605848155675485 0 -0.00074086838219146478 0.0055554807241430613 0 -0.00085492447858126562 0.0055527129062698357 0 -0.00084211444271846143 0.0056761101699225429 0 -0.00065654101585426968 0.0054872173002410108 0 -0.00073788005674472383 0.0054605848155675485 0 -0.00074086838219146478 0.0055554807241430613 0 -0.00073788005674472383 0.0054605848155675485 0 -0.00074086838219146478 0.0055554807241430613 0 -0.00085492447858126562 0.0055527129062698357 0 -0.0010417799949845696 0.003739916550644872 0 -0.001288220544875924 0.0032325783851506382 0 -0.00049825254055689886 0.0047568819757098993 0 -0.0016344438605203683 0.0033391873674139304 0 -0.0004733277051412774 0.0053053948307197106 0 -0.00074086838219146478 0.0055554807241430613 0 -0.00060632165867852941 0.0055929496072721794 0 -0.00084211444271846143 0.0056761101699225429 0 -0.0010417799949845696 0.003739916550644872 0 -0.0012481377025271195 0.0031983300343304227 0 -0.0012868252988835194 0.0032448551382155302 0 -0.0010417799949845696 0.003739916550644872 0 -0.0012481377025271195 0.0031983300343304227 0 -0.0010971055023212559 0.0035420804409294015 0 -0.0012868252988835194 0.0032448551382155302 0 -0.0013572659329841022 0.0027190768344263427 0 -0.0013336700234543122 0.0031291544958068091 0 -0.0012481377025271195 0.0031983300343304227 0 -0.0012868252988835194 0.0032448551382155302 0 -0.0013572659329841022 0.0027190768344263427 0 -0.0016220980812574684 0.0033183545954232996 0 -0.0016344438605203683 0.0033391873674139304 0 -0.0010417799949845696 0.003739916550644872 0 -0.0012868252988835194 0.0032448551382155302 0 -0.001288220544875924 0.0032325783851506382 0 -0.0011307810123989913 0.0054973890827954407 0 -0.00099576876785353505 0.0054425122312556995 0 -0.00099072046565710408 0.0056356401061075263 0 -0.00099576876785353505 0.0054425122312556995 0 -0.00099072046565710408 0.0056356401061075263 0 -0.00085492447858126562 0.0055527129062698357 0 -0.00086645368133560078 0.0054019516366402573 0 -0.00073788005674472383 0.0054605848155675485 0 -0.00085492447858126562 0.0055527129062698357 0 -0.00099072046565710408 0.0056356401061075263 0 -0.00085492447858126562 0.0055527129062698357 0 -0.00084211444271846143 0.0056761101699225429 0 -0.0004733277051412774 0.0053053948307197106 0 -0.00052132759255601666 0.0057191796073512054 0 -0.00099072046565710408 0.0056356401061075263 0 -0.00084211444271846143 0.0056761101699225429 0 -0.0010393133583225776 0.0057172335896706946 0 6.0073723401600336e-06 0.0064233485577299201 0 -4.096605286313298e-05 0.0057775054866552834 0 -0.0001344654140600235 0.0052964139315520358 0 -0.00049825254055689886 0.0047568819757098993 0 -4.096605286313298e-05 0.0057775054866552834 0 -0.0001344654140600235 0.0052964139315520358 0 -0.00049825254055689886 0.0047568819757098993 0 -0.0001344654140600235 0.0052964139315520358 0 -0.00053573243827274852 0.0046427940508739479 0 -0.0001344654140600235 0.0052964139315520358 0 -1.1354436821702035e-06 0.0048691162034702412 0 -0.00053573243827274852 0.0046427940508739479 0 6.0073723401600336e-06 0.0064233485577299201 0 1.435439004127944e-07 0.0063362038606170484 0 -0.0001344654140600235 0.0052964139315520358 0 1.435439004127944e-07 0.0063362038606170484 0 -0.0001344654140600235 0.0052964139315520358 0 -1.1354436821702035e-06 0.0048691162034702412 0 -0.00086029830314720559 0.0042588151440134583 0 -0.0010971055023212559 0.0035420804409294015 0 -0.0010821681021879546 0.0030447904071783192 0 -0.0010417799949845696 0.003739916550644872 0 -0.00086029830314720559 0.0042588151440134583 0 -0.0010971055023212559 0.0035420804409294015 0 -0.00051825147509990338 0.0035429216913371686 0 -0.00067920561333135771 0.0020907208607487326 0 -0.0010417799949845696 0.003739916550644872 0 -0.00086029830314720559 0.0042588151440134583 0 -0.00053573243827274852 0.0046427940508739479 0 -0.0010417799949845696 0.003739916550644872 0 -0.00049825254055689886 0.0047568819757098993 0 -0.00053573243827274852 0.0046427940508739479 0 -7.6450835492607623e-07 0.0048670035065829969 0 -0.00026722096550718547 0.0028392122715153773 0 -2.6755522866698783e-07 0.0033880709621276132 0 -1.1354436821702035e-06 0.0048691162034702412 0 -0.00086029830314720559 0.0042588151440134583 0 -0.00053573243827274852 0.0046427940508739479 0 -1.5348588925349186e-07 0.0048676234488630081 0 -0.00051825147509990338 0.0035429216913371686 0 -0.00026722096550718547 0.0028392122715153773 0 -2.6755522866698783e-07 0.0033880709621276132 0 -9.9534099503358528e-05 0.0022316779127375323 0 -2.6755522866698783e-07 0.0033880709621276132 0 -9.9534099503358528e-05 0.0022316779127375323 0 -4.5471516999305168e-08 0.0019088662450817485 0 -9.9534099503358528e-05 0.0022316779127375323 0 -4.5471516999305168e-08 0.0019088662450817485 0 -0.00010495884683191902 0.001474565531555061 0 -4.5471516999305168e-08 0.0019088662450817485 0 -5.731688764531272e-05 0.00083241775267864414 0 -0.00010495884683191902 0.001474565531555061 0 -5.731688764531272e-05 0.00083241775267864414 0 -0.00010495884683191902 0.001474565531555061 0 -0.00024773361871105904 0.0012222294026869188 0 -0.00026722096550718547 0.0028392122715153773 0 -9.9534099503358528e-05 0.0022316779127375323 0 -0.00024773361871105904 0.0012222294026869188 0 -9.9534099503358528e-05 0.0022316779127375323 0 -0.00010495884683191902 0.001474565531555061 0 -0.00024773361871105904 0.0012222294026869188 0 -0.0012481377025271195 0.0031983300343304227 0 -0.0010971055023212559 0.0035420804409294015 0 -0.0010821681021879546 0.0030447904071783192 0 -0.0013572659329841022 0.0027190768344263427 0 -0.0010821681021879546 0.0030447904071783192 0 -0.0014373761531625722 0.0014315944147010216 0 -0.0012481377025271195 0.0031983300343304227 0 -0.0013572659329841022 0.0027190768344263427 0 -0.0010821681021879546 0.0030447904071783192 0 -0.0016344438605203683 0.0033391873674139304 0 -0.0013725296791839339 0.0019088562687207074 0 -0.0013572659329841022 0.0027190768344263427 0 -0.0013336700234543122 0.0031291544958068091 0 -0.0014373761531625722 0.0014315944147010216 0 -0.0010821681021879546 0.0030447904071783192 0 -0.0002469754047777844 0.00018489713014134069 0 -0.0014373761531625722 0.0014315944147010216 0 -0.00067920561333135771 0.0020907208607487326 0 -0.00022430187347172921 0.00046449437872622657 0 -5.731688764531272e-05 0.00083241775267864414 0 -0.00024773361871105904 0.0012222294026869188 0 -0.0002469754047777844 0.00018489713014134069 0 -0.00042660167189656852 -0.0012681769051511567 0 -0.0002469754047777844 0.00018489713014134069 0 -0.0006646555963683552 -0.00037855448535832045 0 -0.0002469754047777844 0.00018489713014134069 0 -0.0006646555963683552 -0.00037855448535832045 0 -0.0014373761531625722 0.0014315944147010216 0 -0.0013343565914829239 -0.00049595876990957317 0 -0.0006646555963683552 -0.00037855448535832045 0 -0.0014373761531625722 0.0014315944147010216 0 -0.0013343565914829239 -0.00049595876990957317 0 -0.0026053380691052298 -0.00052915278924507768 0 -0.0014373761531625722 0.0014315944147010216 0 -9.2179317901361851e-05 -0.0012722227181181007 0 -3.281154372916855e-05 -0.00027774740474952221 0 4.2024080235561335e-05 -0.0015219699575828641 0 -0.00042660167189656852 -0.0012681769051511567 0 -0.0002469754047777844 0.00018489713014134069 0 -9.2179317901361851e-05 -0.0012722227181181007 0 -0.0002469754047777844 0.00018489713014134069 0 -9.2179317901361851e-05 -0.0012722227181181007 0 -3.281154372916855e-05 -0.00027774740474952221 0 -5.731688764531272e-05 0.00083241775267864414 0 -0.0002469754047777844 0.00018489713014134069 0 -3.281154372916855e-05 -0.00027774740474952221 0 -5.731688764531272e-05 0.00083241775267864414 0 -3.281154372916855e-05 -0.00027774740474952221 0 8.6778001830317733e-08 0.00042937099540604485 0 -3.281154372916855e-05 -0.00027774740474952221 0 8.6778001830317733e-08 0.00042937099540604485 0 6.1489079491295254e-05 -0.00056832112256691473 0 -4.5471516999305168e-08 0.0019088662450817485 0 -5.731688764531272e-05 0.00083241775267864414 0 8.6778001830317733e-08 0.00042937099540604485 0 8.6778001830317733e-08 0.00042937099540604485 0 4.0839739420073622e-07 -0.0010478654692994466 0 6.1489079491295254e-05 -0.00056832112256691473 0 4.0839739420073622e-07 -0.0010478654692994466 0 9.4890406253168836e-05 -0.0011702716137927671 0 6.1489079491295254e-05 -0.00056832112256691473 0 4.0839739420073622e-07 -0.0010478654692994466 0 9.4890406253168836e-05 -0.0011702716137927671 0 0.00032070909503276136 -0.0014504454233256153 0 9.4890406253168836e-05 -0.0011702716137927671 0 0.00028523143238779055 -0.0021352623055381349 0 8.1670160111462441e-05 -0.0012249779978423254 0 9.4890406253168836e-05 -0.0011702716137927671 0 6.1489079491295254e-05 -0.00056832112256691473 0 8.1670160111462441e-05 -0.0012249779978423254 0 -3.281154372916855e-05 -0.00027774740474952221 0 6.1489079491295254e-05 -0.00056832112256691473 0 8.1670160111462441e-05 -0.0012249779978423254 0 -7.3858256155174822e-08 -0.0023764395325616547 0 6.153730892939387e-05 -0.0033718344626251073 0 -0.00014910030286578152 -0.0028455544735269665 0 -7.3858256155174822e-08 -0.0023764395325616547 0 6.153730892939387e-05 -0.0033718344626251073 0 4.0082556013181607e-07 -0.0037027582971763742 0 1.4512271464749937e-07 -0.0010499055295612127 0 0.00013972678900130053 -0.0021832704377138185 0 -5.6164210170209046e-07 -0.0010503759307408562 0 -7.3858256155174822e-08 -0.0023764395325616547 0 -0.00014910030286578152 -0.0028455544735269665 0 9.4890406253168836e-05 -0.0011702716137927671 0 0.00032070909503276136 -0.0014504454233256153 0 0.00028523143238779055 -0.0021352623055381349 0 0.00032070909503276136 -0.0014504454233256153 0 0.00028523143238779055 -0.0021352623055381349 0 0.00059684083051767694 -0.0027057008770806725 0 6.153730892939387e-05 -0.0033718344626251073 0 -0.00014910030286578152 -0.0028455544735269665 0 0.00012455646407348768 -0.0040663730291637711 0 0.00013972678900130053 -0.0021832704377138185 0 0.00031810942434198859 -0.0033622957785247971 0 0.00028523143238779055 -0.0021352623055381349 0 0.00049170448462016109 -0.0034536228410939856 0 0.00059684083051767694 -0.0027057008770806725 0 0.00028523143238779055 -0.0021352623055381349 0 0.00021546795822537261 -0.0024011108394685491 0 0.00049170448462016109 -0.0034536228410939856 0 -3.281154372916855e-05 -0.00027774740474952221 0 8.1670160111462441e-05 -0.0012249779978423254 0 4.2024080235561335e-05 -0.0015219699575828641 0 0.00028523143238779055 -0.0021352623055381349 0 0.00021546795822537261 -0.0024011108394685491 0 8.1670160111462441e-05 -0.0012249779978423254 0 0.00021546795822537261 -0.0024011108394685491 0 8.1670160111462441e-05 -0.0012249779978423254 0 4.2024080235561335e-05 -0.0015219699575828641 0 0.00021546795822537261 -0.0024011108394685491 0 4.2024080235561335e-05 -0.0015219699575828641 0 5.6494601545240071e-05 -0.0022968635017434637 0 -9.2179317901361851e-05 -0.0012722227181181007 0 4.2024080235561335e-05 -0.0015219699575828641 0 5.6494601545240071e-05 -0.0022968635017434637 0 -0.00018138645493619705 -0.0020500579594536451 0 -9.2179317901361851e-05 -0.0012722227181181007 0 5.4649000448244331e-05 -0.0023376564355456126 0 -0.00012644895812972728 -0.0014435874680792671 0 6.5171620053382665e-05 -0.0022823397944138121 0 -0.00018138645493619705 -0.0020500579594536451 0 -0.00011449267599346739 -0.0026524214654522022 0 5.4649000448244331e-05 -0.0023376564355456126 0 -0.00011449267599346739 -0.0026524214654522022 0 -6.7354387238008036e-05 -0.0030533930028802366 0 -0.00020713243950537806 -0.0029426217860319764 0 -6.7354387238008036e-05 -0.0030533930028802366 0 5.4649000448244331e-05 -0.0023376564355456126 0 0.00022500787231899679 -0.0031476761945838103 0 -0.00011449267599346739 -0.0026524214654522022 0 -6.7354387238008036e-05 -0.0030533930028802366 0 5.4649000448244331e-05 -0.0023376564355456126 0 0.00021546795822537261 -0.0024011108394685491 0 5.6494601545240071e-05 -0.0022968635017434637 0 0.00030924492852342294 -0.0032923829869483672 0 6.5171620053382665e-05 -0.0022823397944138121 0 0.00026816695713438436 -0.0032378283953623187 0 0.00021546795822537261 -0.0024011108394685491 0 0.00049170448462016109 -0.0034536228410939856 0 0.00030924492852342294 -0.0032923829869483672 0 0.00049170448462016109 -0.0034536228410939856 0 0.00030924492852342294 -0.0032923829869483672 0 0.00042711422457975153 -0.0040603689728468759 0 0.00026816695713438436 -0.0032378283953623187 0 0.00044010311326848727 -0.003923246962154704 0 0.00022500787231899679 -0.0031476761945838103 0 0.00017489633150370693 -0.0036069463284223412 0 0.00042711422457975153 -0.0040603689728468759 0 -6.7354387238008036e-05 -0.0030533930028802366 0 0.00022500787231899679 -0.0031476761945838103 0 0.00017489633150370693 -0.0036069463284223412 0 0.00017489633150370693 -0.0036069463284223412 0 0.000273249119601924 -0.0041957347797195264 0 -1.6096346260557587e-05 -0.0038922614152430359 0 0.00017489633150370693 -0.0036069463284223412 0 0.0003959837598788335 -0.0043208295937577018 0 0.00042711422457975153 -0.0040603689728468759 0 0.00017489633150370693 -0.0036069463284223412 0 0.000273249119601924 -0.0041957347797195264 0 0.0003959837598788335 -0.0043208295937577018 0 0.000273249119601924 -0.0041957347797195264 0 0.00025132423581586931 -0.0045713609454474764 0 0.00038571610559754761 -0.004607284954303857 0 0.000273249119601924 -0.0041957347797195264 0 0.0003959837598788335 -0.0043208295937577018 0 0.00038571610559754761 -0.004607284954303857 0 0.000273249119601924 -0.0041957347797195264 0 -1.6096346260557587e-05 -0.0038922614152430359 0 9.1041665259412141e-06 -0.0044023272674892245 0 0.000273249119601924 -0.0041957347797195264 0 9.1041665259412141e-06 -0.0044023272674892245 0 0.00025132423581586931 -0.0045713609454474764 0 -1.6096346260557587e-05 -0.0038922614152430359 0 -0.0005607920735587478 -0.0041301901227619106 0 9.1041665259412141e-06 -0.0044023272674892245 0 -1.6096346260557587e-05 -0.0038922614152430359 0 -0.0005607920735587478 -0.0041301901227619106 0 -0.00032088970264510755 -0.0033341542840596571 0 -0.0005607920735587478 -0.0041301901227619106 0 -0.0016081651403486857 -0.0038209563955995921 0 -0.001873731332497049 -0.0046066935468157275 0 -0.00087796342728219503 -0.0034439830581238138 0 -0.00040389187318982109 -0.0032978225368155332 0 -0.0005607920735587478 -0.0041301901227619106 0 -0.0016081651403486857 -0.0038209563955995921 0 -0.00032088970264510755 -0.0033341542840596571 0 -0.00021301092964909934 -0.0029872147080786094 0 -0.00020713243950537806 -0.0029426217860319764 0 -0.00032088970264510755 -0.0033341542840596571 0 -0.00027165382634288258 -0.0028959783005230917 0 -0.00021301092964909934 -0.0029872147080786094 0 -0.00020713243950537806 -0.0029426217860319764 0 -6.7354387238008036e-05 -0.0030533930028802366 0 0.00017489633150370693 -0.0036069463284223412 0 -0.00032088970264510755 -0.0033341542840596571 0 0.00017489633150370693 -0.0036069463284223412 0 -1.6096346260557587e-05 -0.0038922614152430359 0 -0.00032088970264510755 -0.0033341542840596571 0 -6.7354387238008036e-05 -0.0030533930028802366 0 -0.00020713243950537806 -0.0029426217860319764 0 -0.00032088970264510755 -0.0033341542840596571 0 9.1684294458096928e-05 -0.005236835818583036 0 0.0003490957013966195 -0.0047092849054756235 0 0.00016848617431622915 -0.0052594767476439519 0 9.1684294458096928e-05 -0.005236835818583036 0 0.00016848617431622915 -0.0052594767476439519 0 -0.00011678538628089052 -0.005653415139384753 0 9.1684294458096928e-05 -0.005236835818583036 0 -0.00011678538628089052 -0.005653415139384753 0 -0.00042203939094262037 -0.0055934421356060053 0 9.1684294458096928e-05 -0.005236835818583036 0 0.00023857474596447535 -0.0049322958785722841 0 0.00012666908288107826 -0.0049045479368919646 0 9.1684294458096928e-05 -0.005236835818583036 0 0.00023857474596447535 -0.0049322958785722841 0 0.0003655300118508773 -0.0047085176656554741 0 0.00023857474596447535 -0.0049322958785722841 0 0.0003655300118508773 -0.0047085176656554741 0 0.00035403697278919534 -0.0047579921555451436 0 0.0003655300118508773 -0.0047085176656554741 0 0.00038571610559754761 -0.004607284954303857 0 0.00035403697278919534 -0.0047579921555451436 0 0.0003655300118508773 -0.0047085176656554741 0 0.0003959837598788335 -0.0043208295937577018 0 0.00038571610559754761 -0.004607284954303857 0 0.0003959837598788335 -0.0043208295937577018 0 0.0003490957013966195 -0.0047092849054756235 0 0.00042711422457975153 -0.0040603689728468759 0 0.0003655300118508773 -0.0047085176656554741 0 0.0003959837598788335 -0.0043208295937577018 0 0.0003490957013966195 -0.0047092849054756235 0 9.1684294458096928e-05 -0.005236835818583036 0 0.0003655300118508773 -0.0047085176656554741 0 0.0003490957013966195 -0.0047092849054756235 0 0.0003490957013966195 -0.0047092849054756235 0 0.00042711422457975153 -0.0040603689728468759 0 0.00039238213785085718 -0.0045805649162856173 0 0.00049170448462016109 -0.0034536228410939856 0 0.00042711422457975153 -0.0040603689728468759 0 0.00039238213785085718 -0.0045805649162856173 0 0.00039238213785085718 -0.0045805649162856173 0 0.00016848617431622915 -0.0052594767476439519 0 0.00016264887564631695 -0.0055515668784522736 0 0.0003490957013966195 -0.0047092849054756235 0 0.00039238213785085718 -0.0045805649162856173 0 0.00016848617431622915 -0.0052594767476439519 0 0.00039238213785085718 -0.0045805649162856173 0 0.00016264887564631695 -0.0055515668784522736 0 0.00029842296729062218 -0.0050278845919104363 0 0.00016264887564631695 -0.0055515668784522736 0 0.00029842296729062218 -0.0050278845919104363 0 0.0001812232946562352 -0.0057217728944876445 0 0.00039238213785085718 -0.0045805649162856173 0 0.00029842296729062218 -0.0050278845919104363 0 0.00044419254283226231 -0.0043352441347482692 0 0.00029842296729062218 -0.0050278845919104363 0 0.00044419254283226231 -0.0043352441347482692 0 0.00022126025028066962 -0.005093611870573579 0 0.00029842296729062218 -0.0050278845919104363 0 0.0001812232946562352 -0.0057217728944876445 0 0.00022126025028066962 -0.005093611870573579 0 0.00049170448462016109 -0.0034536228410939856 0 0.00039238213785085718 -0.0045805649162856173 0 0.00044419254283226231 -0.0043352441347482692 0 0.00049170448462016109 -0.0034536228410939856 0 0.00044419254283226231 -0.0043352441347482692 0 0.00059684083051767694 -0.0027057008770806725 0 0.00042821224695298267 -0.0041602649225152746 0 0.00031810942434198859 -0.0033622957785247971 0 0.00044419254283226231 -0.0043352441347482692 0 0.00012455646407348768 -0.0040663730291637711 0 0.00023411500204739911 -0.0043346513892344989 0 6.153730892939387e-05 -0.0033718344626251073 0 0.00012455646407348768 -0.0040663730291637711 0 0.00023411500204739911 -0.0043346513892344989 0 0.00044419254283226231 -0.0043352441347482692 0 0.00023411500204739911 -0.0043346513892344989 0 0.00022126025028066962 -0.005093611870573579 0 0.00023411500204739911 -0.0043346513892344989 0 4.0082556013181607e-07 -0.0037027582971763742 0 4.1060264046187741e-07 -0.0050291335657011845 0 6.153730892939387e-05 -0.0033718344626251073 0 0.00023411500204739911 -0.0043346513892344989 0 4.0082556013181607e-07 -0.0037027582971763742 0 0.0001812232946562352 -0.0057217728944876445 0 0.00013449011486875594 -0.0058191150756473761 0 0.00022126025028066962 -0.005093611870573579 0 0.00023411500204739911 -0.0043346513892344989 0 0.00022126025028066962 -0.005093611870573579 0 4.1060264046187741e-07 -0.0050291335657011845 0 0.00013449011486875594 -0.0058191150756473761 0 0.00022126025028066962 -0.005093611870573579 0 4.1060264046187741e-07 -0.0050291335657011845 0 0.00013449011486875594 -0.0058191150756473761 0 4.1060264046187741e-07 -0.0050291335657011845 0 7.3378221339572509e-08 -0.0063552783681315936 0 0.00013449011486875594 -0.0058191150756473761 0 7.3378221339572509e-08 -0.0063552783681315936 0 0.00011566643297136805 -0.0065244678148932422 0 7.3378221339572509e-08 -0.0063552783681315936 0 0.00011566643297136805 -0.0065244678148932422 0 7.1551909799246215e-07 -0.0076822926874788025 0 0.0001812232946562352 -0.0057217728944876445 0 0.00013449011486875594 -0.0058191150756473761 0 0.00011566643297136805 -0.0065244678148932422 0 0.00011566643297136805 -0.0065244678148932422 0 7.1551909799246215e-07 -0.0076822926874788025 0 -9.8984442030250412e-06 -0.0069701341525343664 0 7.1551909799246215e-07 -0.0076822926874788025 0 -1.5904000047258182e-06 -0.0090055690522356339 0 -5.6368289846378628e-05 -0.0076316652705424376 0 1.5957767148509616e-08 -0.0090089228356405697 0 -0.00014314036385255222 -0.0091073369014910074 0 -1.5904000047258182e-06 -0.0090055690522356339 0 -5.6368289846378628e-05 -0.0076316652705424376 0 -0.00049789212687324682 -0.007625186499812418 0 -5.6368289846378628e-05 -0.0076316652705424376 0 -0.00026719005272160323 -0.0072834275829932581 0 -0.00049789212687324682 -0.007625186499812418 0 -5.6368289846378628e-05 -0.0076316652705424376 0 -9.8984442030250412e-06 -0.0069701341525343664 0 -0.00026719005272160323 -0.0072834275829932581 0 7.1551909799246215e-07 -0.0076822926874788025 0 -5.6368289846378628e-05 -0.0076316652705424376 0 -9.8984442030250412e-06 -0.0069701341525343664 0 -9.8984442030250412e-06 -0.0069701341525343664 0 -0.00026719005272160323 -0.0072834275829932581 0 -9.1975350511869596e-05 -0.0067473011705794375 0 -9.8984442030250412e-06 -0.0069701341525343664 0 -9.1975350511869596e-05 -0.0067473011705794375 0 8.2653029135350053e-05 -0.0062931928422078343 0 -0.00026719005272160323 -0.0072834275829932581 0 -9.1975350511869596e-05 -0.0067473011705794375 0 -9.9924446948321385e-05 -0.007280254520749028 0 -9.1975350511869596e-05 -0.0067473011705794375 0 8.2653029135350053e-05 -0.0062931928422078343 0 1.355030948390958e-05 -0.0062211424250805877 0 0.00016264887564631695 -0.0055515668784522736 0 8.2653029135350053e-05 -0.0062931928422078343 0 1.355030948390958e-05 -0.0062211424250805877 0 0.00016264887564631695 -0.0055515668784522736 0 0.0001812232946562352 -0.0057217728944876445 0 8.2653029135350053e-05 -0.0062931928422078343 0 0.0001812232946562352 -0.0057217728944876445 0 0.00011566643297136805 -0.0065244678148932422 0 8.2653029135350053e-05 -0.0062931928422078343 0 0.00011566643297136805 -0.0065244678148932422 0 -9.8984442030250412e-06 -0.0069701341525343664 0 8.2653029135350053e-05 -0.0062931928422078343 0 0.00022180984968123466 -0.011007961610275081 0 7.367389425031149e-07 -0.010594171500582691 0 1.2129039402914623e-06 -0.012750512043212599 0 0.00022180984968123466 -0.011007961610275081 0 0.00017342425926075529 -0.011088784348120995 0 1.2129039402914623e-06 -0.012750512043212599 0 0.00017342425926075529 -0.011088784348120995 0 1.2129039402914623e-06 -0.012750512043212599 0 0.00016485436340709817 -0.01182393474782875 0 -9.4863196446584453e-07 -0.0090106603721098414 0 7.367389425031149e-07 -0.010594171500582691 0 3.387402372114993e-05 -0.010518331025262551 0 0.00022180984968123466 -0.011007961610275081 0 0.00045304813896576587 -0.010905806982199956 0 0.00017342425926075529 -0.011088784348120995 0 0.00022180984968123466 -0.011007961610275081 0 3.387402372114993e-05 -0.010518331025262551 0 0.00045304813896576587 -0.010905806982199956 0 0.00022180984968123466 -0.011007961610275081 0 7.367389425031149e-07 -0.010594171500582691 0 3.387402372114993e-05 -0.010518331025262551 0 -0.00014314036385255222 -0.0091073369014910074 0 5.9813318170256138e-05 -0.0091983256000685229 0 -0.00026719005272160323 -0.0072834275829932581 0 -0.00018562401493608873 -0.0078941951713753095 0 -0.00019513889349335184 -0.0075391138651848639 0 -0.00026719005272160323 -0.0072834275829932581 0 -0.00049789212687324682 -0.007625186499812418 0 -0.00019513889349335184 -0.0075391138651848639 0 -0.00026719005272160323 -0.0072834275829932581 0 -0.00018562401493608873 -0.0078941951713753095 0 -9.9924446948321385e-05 -0.007280254520749028 0 -0.00018562401493608873 -0.0078941951713753095 0 -0.00010072366883547706 -0.007870799439203895 0 -9.9924446948321385e-05 -0.007280254520749028 0 -0.00018562401493608873 -0.0078941951713753095 0 1.8024611461479782e-05 -0.009257114602213597 0 -0.00010072366883547706 -0.007870799439203895 0 -0.00018562401493608873 -0.0078941951713753095 0 -0.00019513889349335184 -0.0075391138651848639 0 1.8024611461479782e-05 -0.009257114602213597 0 0.00045304813896576587 -0.010905806982199956 0 0.00017342425926075529 -0.011088784348120995 0 0.00013132891942908262 -0.010494328140750147 0 5.9813318170256138e-05 -0.0091983256000685229 0 -5.6591960828418372e-06 -0.0091704593951836971 0 0.00045304813896576587 -0.010905806982199956 0 0.00013132891942908262 -0.010494328140750147 0 1.8024611461479782e-05 -0.009257114602213597 0 0.00017342425926075529 -0.011088784348120995 0 8.9303305677262414e-05 -0.010545771945654472 0 0.00020764300030165909 -0.010959979097341576 0 0.00017342425926075529 -0.011088784348120995 0 8.9303305677262414e-05 -0.010545771945654472 0 0.00013132891942908262 -0.010494328140750147 0 8.9303305677262414e-05 -0.010545771945654472 0 0.00013132891942908262 -0.010494328140750147 0 -3.9469545320810451e-05 -0.0096827742107466509 0 -3.9469545320810451e-05 -0.0096827742107466509 0 1.8024611461479782e-05 -0.009257114602213597 0 -0.00059532483676519646 -0.0073989291264763245 0 0.00013132891942908262 -0.010494328140750147 0 -3.9469545320810451e-05 -0.0096827742107466509 0 1.8024611461479782e-05 -0.009257114602213597 0 -3.9469545320810451e-05 -0.0096827742107466509 0 0.00026235194993422728 -0.010385759205636533 0 0.00023748380095660402 -0.010442610739937352 0 0.00026235194993422728 -0.010385759205636533 0 0.00023748380095660402 -0.010442610739937352 0 0.00037588738472019606 -0.010679140071564071 0 8.9303305677262414e-05 -0.010545771945654472 0 -3.9469545320810451e-05 -0.0096827742107466509 0 0.00023748380095660402 -0.010442610739937352 0 8.9303305677262414e-05 -0.010545771945654472 0 0.00023748380095660402 -0.010442610739937352 0 0.00020764300030165909 -0.010959979097341576 0 0.00023748380095660402 -0.010442610739937352 0 0.00032353816436246863 -0.010813430851553264 0 0.00020764300030165909 -0.010959979097341576 0 0.00023748380095660402 -0.010442610739937352 0 0.00032353816436246863 -0.010813430851553264 0 0.00037588738472019606 -0.010679140071564071 0 0.00032353816436246863 -0.010813430851553264 0 0.00036362813414789782 -0.010921328030124132 0 0.00028795077213360015 -0.011266048790827769 0 0.00032353816436246863 -0.010813430851553264 0 0.00020764300030165909 -0.010959979097341576 0 0.00028795077213360015 -0.011266048790827769 0 0.00017342425926075529 -0.011088784348120995 0 0.00020764300030165909 -0.010959979097341576 0 0.00016485436340709817 -0.01182393474782875 0 0.00020764300030165909 -0.010959979097341576 0 0.00016485436340709817 -0.01182393474782875 0 0.00028795077213360015 -0.011266048790827769 0 0.00041033460681208202 -0.010636824257723785 0 0.00035836807619822229 -0.010495668690728203 0 0.00034498816445800869 -0.010774789202709363 0 0.00041033460681208202 -0.010636824257723785 0 0.0004031482905299414 -0.01076524109981666 0 0.00039233633498157668 -0.010738633297371524 0 0.00041033460681208202 -0.010636824257723785 0 0.0004031482905299414 -0.01076524109981666 0 0.00034498816445800869 -0.010774789202709363 0 0.0004031482905299414 -0.01076524109981666 0 0.00036362813414789782 -0.010921328030124132 0 0.00034498816445800869 -0.010774789202709363 0 0.00032353816436246863 -0.010813430851553264 0 0.00036362813414789782 -0.010921328030124132 0 0.00037588738472019606 -0.010679140071564071 0 0.0004031482905299414 -0.01076524109981666 0 0.00036362813414789782 -0.010921328030124132 0 0.00037588738472019606 -0.010679140071564071 0 0.0004031482905299414 -0.01076524109981666 0 0.00037588738472019606 -0.010679140071564071 0 0.00039233633498157668 -0.010738633297371524 0 0.00037588738472019606 -0.010679140071564071 0 0.00026352680675717683 -0.010815482928777768 0 0.00039233633498157668 -0.010738633297371524 0 -7.9068193013210553e-05 -0.0095501286571469841 0 -0.00010592146995423211 -0.0090703999257782074 0 -3.9469545320810451e-05 -0.0096827742107466509 0 0.00026235194993422728 -0.010385759205636533 0 0.00026352680675717683 -0.010815482928777768 0 0.00026235194993422728 -0.010385759205636533 0 0.00037588738472019606 -0.010679140071564071 0 0.00026352680675717683 -0.010815482928777768 0 0.00026352680675717683 -0.010815482928777768 0 0.00039233633498157668 -0.010738633297371524 0 0.00064460755284517681 -0.010551430145057255 0 0.00041033460681208202 -0.010636824257723785 0 0.00039233633498157668 -0.010738633297371524 0 0.00047078111085148015 -0.010566189729252735 0 0.00039233633498157668 -0.010738633297371524 0 0.00064460755284517681 -0.010551430145057255 0 0.00047078111085148015 -0.010566189729252735 0 -0.00010592146995423211 -0.0090703999257782074 0 7.4000905881442568e-05 -0.0087418279060833028 0 -0.00020887199987792285 -0.0070888168999638937 0 -0.00023014746775144572 -0.0067327098092312843 0 -0.00044483481971963193 -0.0068264152127748192 0 -0.00059532483676519646 -0.0073989291264763245 0 -0.00020887199987792285 -0.0070888168999638937 0 -0.00044483481971963193 -0.0068264152127748192 0 -0.00059532483676519646 -0.0073989291264763245 0 -0.00020887199987792285 -0.0070888168999638937 0 -0.00010072366883547706 -0.007870799439203895 0 1.8024611461479782e-05 -0.009257114602213597 0 -0.00059532483676519646 -0.0073989291264763245 0 -0.00010072366883547706 -0.007870799439203895 0 -0.00020887199987792285 -0.0070888168999638937 0 -0.00010072366883547706 -0.007870799439203895 0 -9.9924446948321385e-05 -0.007280254520749028 0 -0.00020887199987792285 -0.0070888168999638937 0 -0.00012926693717690225 -0.006709248788044876 0 -0.00023014746775144572 -0.0067327098092312843 0 -0.00020887199987792285 -0.0070888168999638937 0 -9.9924446948321385e-05 -0.007280254520749028 0 -0.00012926693717690225 -0.006709248788044876 0 -0.00012926693717690225 -0.006709248788044876 0 -0.00023014746775144572 -0.0067327098092312843 0 -0.00018169016677088622 -0.0066878570541283868 0 0.00013441676983986245 -0.0071824002742397145 0 -0.00018169016677088622 -0.0066878570541283868 0 -9.3529778711133396e-05 -0.0072265563807196063 0 -0.00023014746775144572 -0.0067327098092312843 0 -0.00033273635839034933 -0.0066221025361637206 0 -0.00018169016677088622 -0.0066878570541283868 0 0.00025262210743471307 -0.0080491863155817949 0 -0.00038531339365079992 -0.0064141096543357031 0 0.00013441676983986245 -0.0071824002742397145 0 8.5839194342727379e-05 -0.007580900917653656 0 -9.3529778711133396e-05 -0.0072265563807196063 0 0.00010466830002923082 -0.0079124245060389741 0 2.8109780194726351e-05 -0.0078922373190960324 0 8.5839194342727379e-05 -0.007580900917653656 0 0.00025262210743471307 -0.0080491863155817949 0 0.00016232728679324468 -0.0074974346915794325 0 0.00078377922933348977 -0.010039918962231909 0 0.00064460755284517681 -0.010551430145057255 0 0.00060632174836734883 -0.010201210044951633 0 0.00025262210743471307 -0.0080491863155817949 0 7.4000905881442568e-05 -0.0087418279060833028 0 -0.00023014746775144572 -0.0067327098092312843 0 -0.00033273635839034933 -0.0066221025361637206 0 -0.00044483481971963193 -0.0068264152127748192 0 0.00064460755284517681 -0.010551430145057255 0 0.00053311127313344811 -0.010417532351754015 0 0.00047078111085148015 -0.010566189729252735 0 0.00053311127313344811 -0.010417532351754015 0 0.00047078111085148015 -0.010566189729252735 0 0.00045110457304647444 -0.010404201425825058 0 0.00053311127313344811 -0.010417532351754015 0 0.00060632174836734883 -0.010201210044951633 0 0.00045110457304647444 -0.010404201425825058 0 0.00064460755284517681 -0.010551430145057255 0 0.00053311127313344811 -0.010417532351754015 0 0.00060632174836734883 -0.010201210044951633 0 0.00010466830002923082 -0.0079124245060389741 0 2.8109780194726351e-05 -0.0078922373190960324 0 -1.7072479493017965e-05 -0.0081087310649065603 0 0.00078377922933348977 -0.010039918962231909 0 0.00060632174836734883 -0.010201210044951633 0 0.00034528696851422177 -0.0097994107688197957 0 0.00025262210743471307 -0.0080491863155817949 0 0.00018349382047804728 -0.0090124210744887499 0 -1.7072479493017965e-05 -0.0081087310649065603 0 -1.1484719441501195e-05 -0.0082988759744587609 0 -3.8024766685311592e-05 -0.0085589585955806319 0 0.00018349382047804728 -0.0090124210744887499 0 -8.4492871755931633e-05 -0.0090186221876318098 0 0.00060632174836734883 -0.010201210044951633 0 0.00034528696851422177 -0.0097994107688197957 0 0.00011599751136096656 -0.0097306870034605409 0 0.00061471261470540399 -0.010180273312917539 0 0.00026740131727119435 -0.010007676508720196 0 0.00034528696851422177 -0.0097994107688197957 0 0.00011599751136096656 -0.0097306870034605409 0 1.5189381466894132e-05 -0.0094813703438131509 0 0.00060632174836734883 -0.010201210044951633 0 0.00036339211712581613 -0.010307372086665453 0 0.00045110457304647444 -0.010404201425825058 0 0.00036339211712581613 -0.010307372086665453 0 0.00045110457304647444 -0.010404201425825058 0 0.00035836807619822229 -0.010495668690728203 0 0.00041033460681208202 -0.010636824257723785 0 0.00045110457304647444 -0.010404201425825058 0 0.00035836807619822229 -0.010495668690728203 0 0.00041033460681208202 -0.010636824257723785 0 0.00047078111085148015 -0.010566189729252735 0 0.00045110457304647444 -0.010404201425825058 0 -8.238201458747594e-06 -0.0058549815918837889 0 -5.8636013148574364e-05 -0.0064337629555589991 0 -0.00016422256718784373 -0.0060830801326130276 0 0.00016848617431622915 -0.0052594767476439519 0 -8.238201458747594e-06 -0.0058549815918837889 0 -0.00011678538628089052 -0.005653415139384753 0 0.00016848617431622915 -0.0052594767476439519 0 0.00016264887564631695 -0.0055515668784522736 0 -8.238201458747594e-06 -0.0058549815918837889 0 0.00016264887564631695 -0.0055515668784522736 0 -8.238201458747594e-06 -0.0058549815918837889 0 1.355030948390958e-05 -0.0062211424250805877 0 -8.238201458747594e-06 -0.0058549815918837889 0 1.355030948390958e-05 -0.0062211424250805877 0 -5.8636013148574364e-05 -0.0064337629555589991 0 -9.1975350511869596e-05 -0.0067473011705794375 0 1.355030948390958e-05 -0.0062211424250805877 0 -5.8636013148574364e-05 -0.0064337629555589991 0 -9.1975350511869596e-05 -0.0067473011705794375 0 -9.9924446948321385e-05 -0.007280254520749028 0 -5.8636013148574364e-05 -0.0064337629555589991 0 -0.00012926693717690225 -0.006709248788044876 0 -5.8636013148574364e-05 -0.0064337629555589991 0 -0.00014795096657146262 -0.0064334486766925011 0 -9.9924446948321385e-05 -0.007280254520749028 0 -0.00012926693717690225 -0.006709248788044876 0 -5.8636013148574364e-05 -0.0064337629555589991 0 -5.8636013148574364e-05 -0.0064337629555589991 0 -0.00014795096657146262 -0.0064334486766925011 0 -0.00016422256718784373 -0.0060830801326130276 0 -0.00012926693717690225 -0.006709248788044876 0 -0.00014795096657146262 -0.0064334486766925011 0 -0.00018169016677088622 -0.0066878570541283868 0 -0.00014795096657146262 -0.0064334486766925011 0 -0.00018169016677088622 -0.0066878570541283868 0 -0.0002946567093243914 -0.0064741964805741818 0 -0.00014795096657146262 -0.0064334486766925011 0 -0.00016422256718784373 -0.0060830801326130276 0 -0.0002946567093243914 -0.0064741964805741818 0 -0.00028070766999986228 -0.0059922023231821124 0 -0.00016422256718784373 -0.0060830801326130276 0 -0.00011678538628089052 -0.005653415139384753 0 -0.00028070766999986228 -0.0059922023231821124 0 -0.00016422256718784373 -0.0060830801326130276 0 -0.0002946567093243914 -0.0064741964805741818 0 -8.238201458747594e-06 -0.0058549815918837889 0 -0.00016422256718784373 -0.0060830801326130276 0 -0.00011678538628089052 -0.005653415139384753 0 -0.00028070766999986228 -0.0059922023231821124 0 -0.00011678538628089052 -0.005653415139384753 0 -0.00042203939094262037 -0.0055934421356060053 0 -0.00042203939094262037 -0.0055934421356060053 0 -0.00068932119446451254 -0.0060957517086341105 0 -0.00039371495398221834 -0.0061991961022680817 0 -0.00028070766999986228 -0.0059922023231821124 0 -0.00042203939094262037 -0.0055934421356060053 0 -0.00039371495398221834 -0.0061991961022680817 0 -0.00068932119446451254 -0.0060957517086341105 0 -0.00039371495398221834 -0.0061991961022680817 0 -0.00054000092036823085 -0.0064848303824740208 0 -0.00042019058579321106 -0.0067027917927490778 0 -0.00039371495398221834 -0.0061991961022680817 0 -0.00054000092036823085 -0.0064848303824740208 0 -0.00042019058579321106 -0.0067027917927490778 0 -0.00039371495398221834 -0.0061991961022680817 0 -0.0002946567093243914 -0.0064741964805741818 0 -0.00028070766999986228 -0.0059922023231821124 0 -0.00039371495398221834 -0.0061991961022680817 0 -0.0002946567093243914 -0.0064741964805741818 0 -0.00018169016677088622 -0.0066878570541283868 0 -0.0002946567093243914 -0.0064741964805741818 0 -0.00022665233358242225 -0.0072240328816806886 0 -0.0002946567093243914 -0.0064741964805741818 0 -0.00035053290006982306 -0.0069257623302048958 0 -0.00022665233358242225 -0.0072240328816806886 0 -0.00035053290006982306 -0.0069257623302048958 0 -0.00022665233358242225 -0.0072240328816806886 0 -0.00029184015603013393 -0.0075644942380721381 0 -0.00042019058579321106 -0.0067027917927490778 0 -0.0002946567093243914 -0.0064741964805741818 0 -0.00035053290006982306 -0.0069257623302048958 0 -0.00042019058579321106 -0.0067027917927490778 0 -0.00035053290006982306 -0.0069257623302048958 0 -0.00050037721384645518 -0.0071383381854859887 0 -0.00050037721384645518 -0.0071383381854859887 0 -0.00050521452646773391 -0.0068789302401793392 0 -0.00047740527287615264 -0.0067585647617256607 0 -0.00035053290006982306 -0.0069257623302048958 0 -0.00050037721384645518 -0.0071383381854859887 0 -0.00029184015603013393 -0.0075644942380721381 0 -0.00050037721384645518 -0.0071383381854859887 0 -0.0004569690469769913 -0.0080211522647844532 0 -0.00029184015603013393 -0.0075644942380721381 0 -0.00051828454195853224 -0.007196190682744341 0 -0.00056643838091460471 -0.0074264829778850896 0 -0.00050037721384645518 -0.0071383381854859887 0 -0.0006962658816057688 -0.0068621015378135131 0 -0.00050521452646773391 -0.0068789302401793392 0 -0.00050521452646773391 -0.0068789302401793392 0 -0.00051684124770346449 -0.0068521488839741584 0 -0.0005586408155561389 -0.0067838608680441696 0 -0.00050521452646773391 -0.0068789302401793392 0 -0.0005586408155561389 -0.0067838608680441696 0 -0.00047740527287615264 -0.0067585647617256607 0 -0.00051684124770346449 -0.0068521488839741584 0 -0.0005586408155561389 -0.0067838608680441696 0 -0.0008716833304480584 -0.0068631410294195923 0 -0.0005586408155561389 -0.0067838608680441696 0 -0.000715993824769582 -0.0065227804538898655 0 -0.0008716833304480584 -0.0068631410294195923 0 -0.0005586408155561389 -0.0067838608680441696 0 -0.000715993824769582 -0.0065227804538898655 0 -0.00047740527287615264 -0.0067585647617256607 0 -0.00068932119446451254 -0.0060957517086341105 0 -0.00054000092036823085 -0.0064848303824740208 0 -0.000715993824769582 -0.0065227804538898655 0 -0.00054000092036823085 -0.0064848303824740208 0 -0.000715993824769582 -0.0065227804538898655 0 -0.00047740527287615264 -0.0067585647617256607 0 -0.00042019058579321106 -0.0067027917927490778 0 -0.00054000092036823085 -0.0064848303824740208 0 -0.00047740527287615264 -0.0067585647617256607 0 -0.00042019058579321106 -0.0067027917927490778 0 -0.00050037721384645518 -0.0071383381854859887 0 -0.00047740527287615264 -0.0067585647617256607 0 3.6860416723158661e-06 -0.0082822250823912282 0 6.1638470713132448e-05 -0.0082049528052604553 0 -7.3264038219401299e-05 -0.0084896708273116701 0 3.6860416723158661e-06 -0.0082822250823912282 0 1.9204110888464983e-05 -0.0080155635624660684 0 6.1638470713132448e-05 -0.0082049528052604553 0 3.6860416723158661e-06 -0.0082822250823912282 0 -1.1484719441501195e-05 -0.0082988759744587609 0 -4.357397360291448e-05 -0.0084864506484938988 0 -1.7072479493017965e-05 -0.0081087310649065603 0 -1.1484719441501195e-05 -0.0082988759744587609 0 1.9204110888464983e-05 -0.0080155635624660684 0 3.6860416723158661e-06 -0.0082822250823912282 0 -1.1484719441501195e-05 -0.0082988759744587609 0 1.9204110888464983e-05 -0.0080155635624660684 0 1.9204110888464983e-05 -0.0080155635624660684 0 4.8176644375871994e-07 -0.0078445773058875047 0 8.5839194342727379e-05 -0.007580900917653656 0 2.8109780194726351e-05 -0.0078922373190960324 0 1.9204110888464983e-05 -0.0080155635624660684 0 8.5839194342727379e-05 -0.007580900917653656 0 2.8109780194726351e-05 -0.0078922373190960324 0 -1.7072479493017965e-05 -0.0081087310649065603 0 1.9204110888464983e-05 -0.0080155635624660684 0 4.8176644375871994e-07 -0.0078445773058875047 0 -0.00014614455246001579 -0.0079989256984105226 0 6.1638470713132448e-05 -0.0082049528052604553 0 1.9204110888464983e-05 -0.0080155635624660684 0 4.8176644375871994e-07 -0.0078445773058875047 0 6.1638470713132448e-05 -0.0082049528052604553 0 4.8176644375871994e-07 -0.0078445773058875047 0 -7.2935820702742357e-05 -0.0075721966120733085 0 -0.00014614455246001579 -0.0079989256984105226 0 4.8176644375871994e-07 -0.0078445773058875047 0 8.5839194342727379e-05 -0.007580900917653656 0 -7.2935820702742357e-05 -0.0075721966120733085 0 8.5839194342727379e-05 -0.007580900917653656 0 -7.2935820702742357e-05 -0.0075721966120733085 0 -9.3529778711133396e-05 -0.0072265563807196063 0 -0.00018169016677088622 -0.0066878570541283868 0 -9.3529778711133396e-05 -0.0072265563807196063 0 -0.00022665233358242225 -0.0072240328816806886 0 -7.2935820702742357e-05 -0.0075721966120733085 0 -9.3529778711133396e-05 -0.0072265563807196063 0 -0.00022665233358242225 -0.0072240328816806886 0 -7.2935820702742357e-05 -0.0075721966120733085 0 -0.00022665233358242225 -0.0072240328816806886 0 -0.00014614455246001579 -0.0079989256984105226 0 -0.00022665233358242225 -0.0072240328816806886 0 -0.00029184015603013393 -0.0075644942380721381 0 -0.00014614455246001579 -0.0079989256984105226 0 -0.00029184015603013393 -0.0075644942380721381 0 -0.00026217063867082471 -0.0081029273458650044 0 -0.00014614455246001579 -0.0079989256984105226 0 -0.0004569690469769913 -0.0080211522647844532 0 -0.00029184015603013393 -0.0075644942380721381 0 -0.00026217063867082471 -0.0081029273458650044 0 -0.00026217063867082471 -0.0081029273458650044 0 -0.0004636781487320754 -0.0084376809291252328 0 -0.00036998580509131759 -0.0082978477866260062 0 -0.00026217063867082471 -0.0081029273458650044 0 -0.00014614455246001579 -0.0079989256984105226 0 -0.0004636781487320754 -0.0084376809291252328 0 -0.0001853534336691492 -0.0080808462853238124 0 -0.00031712796772036044 -0.008452223493259187 0 -0.00014614455246001579 -0.0079989256984105226 0 -0.0004636781487320754 -0.0084376809291252328 0 -0.00066149238452972183 -0.008753169230454716 0 -0.0004636781487320754 -0.0084376809291252328 0 -0.00075518515220143474 -0.0086321581292270935 0 -0.0009053793097893566 -0.0088045686033045491 0 -0.0004636781487320754 -0.0084376809291252328 0 -0.00066149238452972183 -0.008753169230454716 0 -0.0009053793097893566 -0.0088045686033045491 0 -0.00079372615939079843 -0.0081989204691393664 0 -0.00066580298855768564 -0.0083888138358571979 0 -0.0011286389484240883 -0.0088464305172115138 0 -0.00071495825894193064 -0.0082780975503624933 0 -0.00066580298855768564 -0.0083888138358571979 0 -0.00059368737592216186 -0.0082861856704230467 0 -0.00071495825894193064 -0.0082780975503624933 0 -0.00059368737592216186 -0.0082861856704230467 0 -0.00056624353949194972 -0.0081647041247931984 0 -0.0014655247397625316 -0.0088392572870783157 0 -0.0011358527800393429 -0.0086213692529847914 0 -0.0014655247397625316 -0.0088392572870783157 0 -0.0010623903628356503 -0.0087340243771314684 0 -0.00066580298855768564 -0.0083888138358571979 0 -0.00075518515220143474 -0.0086321581292270935 0 -0.0011286389484240883 -0.0088464305172115138 0 -0.00075518515220143474 -0.0086321581292270935 0 -0.0009053793097893566 -0.0088045686033045491 0 -0.0011286389484240883 -0.0088464305172115138 0 -0.00066580298855768564 -0.0083888138358571979 0 -0.00075518515220143474 -0.0086321581292270935 0 -0.00050505066760572683 -0.0084148352269464172 0 -0.0004636781487320754 -0.0084376809291252328 0 -0.00050505066760572683 -0.0084148352269464172 0 -0.00036998580509131759 -0.0082978477866260062 0 -0.0004636781487320754 -0.0084376809291252328 0 -0.00075518515220143474 -0.0086321581292270935 0 -0.00050505066760572683 -0.0084148352269464172 0 -0.00050505066760572683 -0.0084148352269464172 0 -0.00053438856048335646 -0.008347740845040896 0 -0.00039060219169217319 -0.0082950453502006367 0 -0.00050505066760572683 -0.0084148352269464172 0 -0.00039060219169217319 -0.0082950453502006367 0 -0.00036998580509131759 -0.0082978477866260062 0 -0.00050606082131120526 -0.0082643932903601492 0 -0.00039060219169217319 -0.0082950453502006367 0 -0.00044743986273309536 -0.0082103363392295962 0 -0.00053438856048335646 -0.008347740845040896 0 -0.00050606082131120526 -0.0082643932903601492 0 -0.00039060219169217319 -0.0082950453502006367 0 -0.00066580298855768564 -0.0083888138358571979 0 -0.00053438856048335646 -0.008347740845040896 0 -0.00059368737592216186 -0.0082861856704230467 0 -0.00066580298855768564 -0.0083888138358571979 0 -0.00050505066760572683 -0.0084148352269464172 0 -0.00053438856048335646 -0.008347740845040896 0 -0.00053438856048335646 -0.008347740845040896 0 -0.00059368737592216186 -0.0082861856704230467 0 -0.00050606082131120526 -0.0082643932903601492 0 -0.00059368737592216186 -0.0082861856704230467 0 -0.00050606082131120526 -0.0082643932903601492 0 -0.00056624353949194972 -0.0081647041247931984 0 -0.00039906702169482868 -0.0083211806914524154 0 -0.00048631078960249114 -0.0081531933450230878 0 -0.00037808611546474554 -0.0082756598182388251 0 -0.00039060219169217319 -0.0082950453502006367 0 -0.00040261377435204653 -0.0082677848912785529 0 -0.00037808611546474554 -0.0082756598182388251 0 -0.00039060219169217319 -0.0082950453502006367 0 -0.0003385885751436287 -0.0082317058269997887 0 -0.00026217063867082471 -0.0081029273458650044 0 -0.00036998580509131759 -0.0082978477866260062 0 -0.0003385885751436287 -0.0082317058269997887 0 -0.00039060219169217319 -0.0082950453502006367 0 -0.00036998580509131759 -0.0082978477866260062 0 -0.0003385885751436287 -0.0082317058269997887 0 -0.0004569690469769913 -0.0080211522647844532 0 -0.0003385885751436287 -0.0082317058269997887 0 -0.00038950615284362162 -0.0082764161695662603 0 -0.0004569690469769913 -0.0080211522647844532 0 -0.00026217063867082471 -0.0081029273458650044 0 -0.0003385885751436287 -0.0082317058269997887 0 -0.00037808611546474554 -0.0082756598182388251 0 -0.00038950615284362162 -0.0082764161695662603 0 -0.00038954414330849384 -0.0082571656410343128 0 -0.00037808611546474554 -0.0082756598182388251 0 -0.0003385885751436287 -0.0082317058269997887 0 -0.00038950615284362162 -0.0082764161695662603 0 -0.00070235432350260652 -0.0068073202600092636 0 -0.00069635964208474531 -0.0067882251660125311 0 -0.00067998216085674858 -0.006804968929608057 0 -0.00070235432350260652 -0.0068073202600092636 0 -0.00069635964208474531 -0.0067882251660125311 0 -0.00072352949838132307 -0.0067850080552537542 0 -0.0010427182736530119 -0.0064885796920489992 0 -0.0011721797003317596 -0.0075606000491732469 0 -0.00046440002891721222 -0.0075615457399641588 0 -0.0011721797003317596 -0.0075606000491732469 0 -0.0013182567871476815 -0.0063245140162796207 0 -0.0012463801868711759 -0.0064218885346953173 0 -0.0013238000752977036 -0.0064069210165382364 0 -0.0036003056084627167 -0.0092657572710382156 0 -0.0036058923224648728 -0.0068361957935668335 0 -0.0056226621971649359 -0.0091223346562495436 0 -0.006303916233104878 -0.0075943079885642199 0 -0.0065761771189016055 -0.0085557784680607152 0 -0.0056226621971649359 -0.0091223346562495436 0 -0.0036947297383273119 -0.008821660875592309 0 -0.006303916233104878 -0.0075943079885642199 0 -0.0012393388493621071 -0.0065082288535410517 0 -0.0012463801868711759 -0.0064218885346953173 0 -0.0013238000752977036 -0.0064069210165382364 0 -0.0031328352683825268 -0.0089079080589525052 0 -0.0011721797003317596 -0.0075606000491732469 0 -0.0012393388493621071 -0.0065082288535410517 0 -0.0012307303976410709 -0.0065006588037405475 0 -0.0012463801868711759 -0.0064218885346953173 0 -0.0038622893026175262 -0.0099680869111314612 0 -0.0036003056084627167 -0.0092657572710382156 0 -0.0038622893026175262 -0.0099680869111314612 0 -0.0031328352683825268 -0.0089079080589525052 0 -0.0037329796724440579 -0.0094288020859392731 0 -0.0033603059785868366 -0.0096225680001442923 0 -0.0035259797213502211 -0.009787910523125519 0 -0.0036003056084627167 -0.0092657572710382156 0 -0.0031328352683825268 -0.0089079080589525052 0 -0.0036021918750260302 -0.010342880582461569 0 -0.0036755594584976861 -0.010210534987722213 0 -0.0035156523773195347 -0.010221380801871583 0 -0.0036755594584976861 -0.010210534987722213 0 -0.0035156523773195347 -0.010221380801871583 0 -0.0035086552514917899 -0.010145511864466708 0 -0.0036021918750260302 -0.010342880582461569 0 -0.0035156523773195347 -0.010221380801871583 0 -0.0033631135005458119 -0.01020614264159613 0 -0.0035156523773195347 -0.010221380801871583 0 -0.0035086552514917899 -0.010145511864466708 0 -0.0034319385785804828 -0.010183509822711018 0 -0.0021413464718764712 -0.0084829307108872393 0 -0.0021465239973061023 -0.0084894252424616793 0 -0.0021268271454010245 -0.0084919372976047444 0 -0.0035086552514917899 -0.010145511864466708 0 -0.0034482942593283038 -0.01010371748266701 0 -0.0034319385785804828 -0.010183509822711018 0 -0.00041673884587563591 -0.0082475733893796633 0 -0.00038954414330849384 -0.0082571656410343128 0 -0.00041894886425651308 -0.0082508954962965484 0 -0.0031328352683825268 -0.0089079080589525052 0 -0.0022064814881597949 -0.009183070150862449 0 -0.0022064814881597949 -0.009183070150862449 0 -0.0011721797003317596 -0.0075606000491732469 0 -0.0035086552514917899 -0.010145511864466708 0 -0.0034718210514404677 -0.010008650529820421 0 -0.0034482942593283038 -0.01010371748266701 0 -0.0036755594584976861 -0.010210534987722213 0 -0.0035086552514917899 -0.010145511864466708 0 -0.0034718210514404677 -0.010008650529820421 0 -0.00037808611546474554 -0.0082756598182388251 0 -0.00038954414330849384 -0.0082571656410343128 0 -0.00040261377435204653 -0.0082677848912785529 0 -0.00038954414330849384 -0.0082571656410343128 0 -0.00040261377435204653 -0.0082677848912785529 0 -0.00041894886425651308 -0.0082508954962965484 0 -0.00048631078960249114 -0.0081531933450230878 0 -0.0019345368612654879 -0.0090099292022017396 0 -0.00044743986273309536 -0.0082103363392295962 0 -0.00056624353949194972 -0.0081647041247931984 0 -0.0004826504264737111 -0.0080879246346121751 0 -0.00050606082131120526 -0.0082643932903601492 0 -0.00044743986273309536 -0.0082103363392295962 0 -0.00056624353949194972 -0.0081647041247931984 0 -0.0027256395482214454 -0.0096436877898876412 0 -0.0027267306629055244 -0.0098964829141384419 0 -0.0025332888495550317 -0.0097328115135011939 0 -0.0027256395482214454 -0.0096436877898876412 0 -0.0029672404103451753 -0.0098863787225749906 0 -0.0027267306629055244 -0.0098964829141384419 0 -0.0016434856667752499 -0.0088969085478664174 0 -0.0019345368612654879 -0.0090099292022017396 0 -0.0029672404103451753 -0.0098863787225749906 0 -0.0029570282063773727 -0.0099589548121669126 0 -0.0027267306629055244 -0.0098964829141384419 0 -0.0019345368612654879 -0.0090099292022017396 0 -0.0026876895027552325 -0.0097245471970358235 0 -0.0023635105686675133 -0.009432743382749343 0 -0.0024437949781565059 -0.0095126370257649657 0 -0.0024658964766244135 -0.0093762068345408719 0 -0.0022064814881597949 -0.009183070150862449 0 -0.0019345368612654879 -0.0090099292022017396 0 -0.0022064814881597949 -0.009183070150862449 0 -0.0026876895027552325 -0.0097245471970358235 0 -0.0034718210514404677 -0.010008650529820421 0 -0.0033832574067721635 -0.010059160381645636 0 -0.0034482942593283038 -0.01010371748266701 0 -0.0026876895027552325 -0.0097245471970358235 0 -0.0037413594675770869 -0.011077478110342149 0 -0.0033832574067721635 -0.010059160381645636 0 -0.0034319385785804828 -0.010183509822711018 0 -0.0033621911153817819 -0.010205918391595129 0 -0.0033832574067721635 -0.010059160381645636 0 -0.0034482942593283038 -0.01010371748266701 0 -0.0034319385785804828 -0.010183509822711018 0 -0.0035156523773195347 -0.010221380801871583 0 -0.0034319385785804828 -0.010183509822711018 0 -0.0033631135005458119 -0.01020614264159613 0 -0.0050374742008177696 -0.012688148147160029 0 -0.0050156084075373636 -0.012711560094907991 0 -0.0050390788887052507 -0.012708306190067317 0 -0.0032946794866040943 -0.010907205850583121 0 -0.0033122173379898363 -0.0108062325203119 0 -0.003695620404264484 -0.010701771205303051 0 -0.0037235343847807018 -0.01104608252225317 0 -0.0037413594675770869 -0.011077478110342149 0 -0.0036021918750260302 -0.010342880582461569 0 -0.0033631135005458119 -0.01020614264159613 0 -0.0033214750533665646 -0.010496972863200222 0 -0.0037413594675770869 -0.011077478110342149 0 -0.0044362718136072218 -0.011714049844096441 0 -0.0038622893026175262 -0.0099680869111314612 0 -0.0044362718136072218 -0.011714049844096441 0 -0.0026876895027552325 -0.0097245471970358235 0 -0.0040591178313452566 -0.01156114874546652 0 -0.0037413594675770869 -0.011077478110342149 0 -0.0040591178313452566 -0.01156114874546652 0 -0.0029570282063773727 -0.0099589548121669126 0 -0.0027267306629055244 -0.0098964829141384419 0 -0.0026375638684285967 -0.010149542528511211 0 -0.0027267306629055244 -0.0098964829141384419 0 -0.0026375638684285967 -0.010149542528511211 0 -0.002463217282658926 -0.0099742879292837663 0 -0.002526419529746774 -0.010186123564628589 0 -0.002463217282658926 -0.0099742879292837663 0 -0.0020667280533814463 -0.010100150309917455 0 -0.0027267306629055244 -0.0098964829141384419 0 -0.002463217282658926 -0.0099742879292837663 0 -0.0025332888495550317 -0.0097328115135011939 0 -0.002526419529746774 -0.010186123564628589 0 -0.0026375638684285967 -0.010149542528511211 0 -0.002463217282658926 -0.0099742879292837663 0 -0.0036725817901587876 -0.01172199620012433 0 -0.0040591178313452566 -0.01156114874546652 0 -0.002463217282658926 -0.0099742879292837663 0 -0.0025332888495550317 -0.0097328115135011939 0 -0.0022715088500613544 -0.0097494679574612816 0 -0.002478307506426824 -0.0093974969361057623 0 -0.0027256395482214454 -0.0096436877898876412 0 -0.0025332888495550317 -0.0097328115135011939 0 -0.0014655247397625316 -0.0088392572870783157 0 -0.0016434856667752499 -0.0088969085478664174 0 -0.0014655247397625316 -0.0088392572870783157 0 -0.0018253960300438484 -0.0096020383643630192 0 -0.002478307506426824 -0.0093974969361057623 0 -0.0025332888495550317 -0.0097328115135011939 0 -0.0022715088500613544 -0.0097494679574612816 0 -0.0021346549805197758 -0.005809144602906575 0 -0.0021744861874055826 -0.0055691033897440076 0 -0.0013727850368609792 -0.0062310239129136687 0 -0.0004430605301317285 -0.0068820927018349142 0 -0.00071063295190750453 -0.0067540417809536677 0 -0.0013727850368609792 -0.0062310239129136687 0 -0.0040122814462675016 -0.0061174748761001832 0 -0.0046698159680072168 -0.0068820003504001222 0 -0.0021346549805197758 -0.005809144602906575 0 -0.0023628441861727671 -0.0058573113098720937 0 -0.0015247232014938068 -0.0063367842303800282 0 -0.0072068100310340322 -0.0075533494492325635 0 -0.0075447519276235237 -0.0072866628130510659 0 -0.007362044619707484 -0.0073379400234026568 0 -0.0025661544477510964 -0.0058222847281480103 0 -0.0040122814462675016 -0.0061174748761001832 0 -0.0021346549805197758 -0.005809144602906575 0 -0.0022283527029572387 -0.0057159713983355289 0 -0.0022046316179487372 -0.0056671681715602506 0 -0.0072068100310340322 -0.0075533494492325635 0 -0.007362044619707484 -0.0073379400234026568 0 -0.0072162131652387749 -0.0073541697688224803 0 -0.0072068100310340322 -0.0075533494492325635 0 -0.007003304201155738 -0.0072663675277257478 0 -0.0072162131652387749 -0.0073541697688224803 0 -0.0072068100310340322 -0.0075533494492325635 0 -0.007003304201155738 -0.0072663675277257478 0 -0.0066490306832778017 -0.0073649891099602889 0 -0.0040122814462675016 -0.0061174748761001832 0 -0.0045685147375261687 -0.0064464386766507776 0 -0.0023758210534427517 -0.0055046628463877676 0 -0.0022481263264574817 -0.0055574848992187356 0 -0.0021233943027415192 -0.00539573591524126 0 -0.0022283527029572387 -0.0057159713983355289 0 -0.0022268363058380127 -0.0055879427003777101 0 -0.0022046316179487372 -0.0056671681715602506 0 -0.0040122814462675016 -0.0061174748761001832 0 -0.002132442529462839 -0.0059636078650423321 0 -0.0022283527029572387 -0.0057159713983355289 0 -0.0022268363058380127 -0.0055879427003777101 0 -0.0022481263264574817 -0.0055574848992187356 0 -0.0022268363058380127 -0.0055879427003777101 0 -0.0022481263264574817 -0.0055574848992187356 0 -0.0022400615193145105 -0.0056253083987067012 0 -0.001330449415531586 -0.0062343340740105705 0 -0.0015424351786424522 -0.0062206056477481829 0 -0.0022268363058380127 -0.0055879427003777101 0 -0.0021744861874055826 -0.0055691033897440076 0 -0.0022046316179487372 -0.0056671681715602506 0 -0.00051684124770346449 -0.0068521488839741584 0 -0.0004430605301317285 -0.0068820927018349142 0 -0.0008716833304480584 -0.0068631410294195923 0 -0.0022268363058380127 -0.0055879427003777101 0 -0.0021744861874055826 -0.0055691033897440076 0 -0.0022400615193145105 -0.0056253083987067012 0 -0.00051684124770346449 -0.0068521488839741584 0 -0.0004430605301317285 -0.0068820927018349142 0 -0.00059701261518200187 -0.0068452846764720139 0 -0.0021346549805197758 -0.005809144602906575 0 -0.0021744861874055826 -0.0055691033897440076 0 -0.0022046316179487372 -0.0056671681715602506 0 -0.0004430605301317285 -0.0068820927018349142 0 -0.00071063295190750453 -0.0067540417809536677 0 -0.00059701261518200187 -0.0068452846764720139 0 -0.00050521452646773391 -0.0068789302401793392 0 -0.00051684124770346449 -0.0068521488839741584 0 -0.00059701261518200187 -0.0068452846764720139 0 -0.0006962658816057688 -0.0068621015378135131 0 -0.00050521452646773391 -0.0068789302401793392 0 -0.00062957409374665967 -0.0068197044930022365 0 -0.00050521452646773391 -0.0068789302401793392 0 -0.00059701261518200187 -0.0068452846764720139 0 -0.00062957409374665967 -0.0068197044930022365 0 -0.00062957409374665967 -0.0068197044930022365 0 -0.00065149680929013003 -0.0067986452480680686 0 -0.000669636303472177 -0.0068112298833049876 0 -0.00062957409374665967 -0.0068197044930022365 0 -0.00065149680929013003 -0.0067986452480680686 0 -0.00066138470277134914 -0.0067834797887814007 0 -0.00071063295190750453 -0.0067540417809536677 0 -0.00059701261518200187 -0.0068452846764720139 0 -0.00066138470277134914 -0.0067834797887814007 0 -0.00059701261518200187 -0.0068452846764720139 0 -0.00062957409374665967 -0.0068197044930022365 0 -0.00066138470277134914 -0.0067834797887814007 0 -0.0006962658816057688 -0.0068621015378135131 0 -0.00070235432350260652 -0.0068073202600092636 0 -0.000669636303472177 -0.0068112298833049876 0 -0.00056643838091460471 -0.0074264829778850896 0 -0.00046440002891721222 -0.0075615457399641588 0 -0.0006962658816057688 -0.0068621015378135131 0 -0.00062957409374665967 -0.0068197044930022365 0 -0.000669636303472177 -0.0068112298833049876 0 -0.0010427182736530119 -0.0064885796920489992 0 -0.00098484219137121476 -0.0065759454432627561 0 -0.00069635964208474531 -0.0067882251660125311 0 -0.00067998216085674858 -0.006804968929608057 0 -0.00065028645768271847 -0.0068078400348093706 0 -0.0013182567871476815 -0.0063245140162796207 0 -0.0013727850368609792 -0.0062310239129136687 0 -0.0013814281294729715 -0.0062951716834259343 0 -0.00070235432350260652 -0.0068073202600092636 0 -0.000669636303472177 -0.0068112298833049876 0 -0.00067998216085674858 -0.006804968929608057 0 -0.000669636303472177 -0.0068112298833049876 0 -0.00067998216085674858 -0.006804968929608057 0 -0.00065028645768271847 -0.0068078400348093706 0 -0.00071063295190750453 -0.0067540417809536677 0 -0.00066138470277134914 -0.0067834797887814007 0 -0.00065028645768271847 -0.0068078400348093706 0 -0.001330449415531586 -0.0062343340740105705 0 -0.001369245816277685 -0.0062202192880165628 0 -0.0021346549805197758 -0.005809144602906575 0 -0.0013727850368609792 -0.0062310239129136687 0 -0.0015247232014938068 -0.0063367842303800282 0 -0.00071063295190750453 -0.0067540417809536677 0 -0.0013727850368609792 -0.0062310239129136687 0 -0.0013814281294729715 -0.0062951716834259343 0 -0.00073941409047459394 -0.0067287056900235788 0 -0.00098484219137121476 -0.0065759454432627561 0 -0.00065149680929013003 -0.0067986452480680686 0 -0.000669636303472177 -0.0068112298833049876 0 -0.00065028645768271847 -0.0068078400348093706 0 -0.00065149680929013003 -0.0067986452480680686 0 -0.00066138470277134914 -0.0067834797887814007 0 -0.00065028645768271847 -0.0068078400348093706 0 -0.0075447519276235237 -0.0072866628130510659 0 -0.0074854557415919816 -0.0074363453003187582 0 -0.007362044619707484 -0.0073379400234026568 0 -0.0075447519276235237 -0.0072866628130510659 0 -0.0073419966561747733 -0.0075940526196612793 0 -0.0074854557415919816 -0.0074363453003187582 0 -0.0013727850368609792 -0.0062310239129136687 0 -0.0015247232014938068 -0.0063367842303800282 0 -0.0013238000752977036 -0.0064069210165382364 0 -0.0046698159680072168 -0.0068820003504001222 0 -0.0036058923224648728 -0.0068361957935668335 0 -0.0013182567871476815 -0.0063245140162796207 0 -0.0013727850368609792 -0.0062310239129136687 0 -0.0013238000752977036 -0.0064069210165382364 0 -0.0075447519276235237 -0.0072866628130510659 0 -0.0073419966561747733 -0.0075940526196612793 0 -0.006303916233104878 -0.0075943079885642199 0 -0.0074819153808946765 -0.0078999057387186388 0 -0.008010071852595552 -0.0098957198954641324 0 -0.0068649729498573052 -0.0097125061587454552 0 -0.0073419966561747733 -0.0075940526196612793 0 -0.006303916233104878 -0.0075943079885642199 0 -0.0074819153808946765 -0.0078999057387186388 0 -0.006303916233104878 -0.0075943079885642199 0 -0.0065761771189016055 -0.0085557784680607152 0 -0.0074819153808946765 -0.0078999057387186388 0 -0.0065761771189016055 -0.0085557784680607152 0 -0.0074819153808946765 -0.0078999057387186388 0 -0.0068649729498573052 -0.0097125061587454552 0 -0.0056226621971649359 -0.0091223346562495436 0 -0.0065761771189016055 -0.0085557784680607152 0 -0.0068649729498573052 -0.0097125061587454552 0 -0.0074854557415919816 -0.0074363453003187582 0 -0.0074819153808946765 -0.0078999057387186388 0 -0.0074636352555518442 -0.0071543434118060082 0 -0.0074819153808946765 -0.0078999057387186388 0 -0.0090990172423938854 -0.0090948076634000934 0 -0.008010071852595552 -0.0098957198954641324 0 -0.0073419966561747733 -0.0075940526196612793 0 -0.0074854557415919816 -0.0074363453003187582 0 -0.0074819153808946765 -0.0078999057387186388 0 -0.0075381187557544563 -0.0078244225623684428 0 -0.0083211111732437188 -0.0081955639676127689 0 -0.0074854557415919816 -0.0074363453003187582 0 -0.0072268303920252873 -0.0070537662465062836 0 -0.0072439516997859985 -0.0072418411540917382 0 -0.0074854557415919816 -0.0074363453003187582 0 -0.0074636352555518442 -0.0071543434118060082 0 -0.0072268303920252873 -0.0070537662465062836 0 -0.0074854557415919816 -0.0074363453003187582 0 -0.0072439516997859985 -0.0072418411540917382 0 -0.007362044619707484 -0.0073379400234026568 0 -0.0072439516997859985 -0.0072418411540917382 0 -0.007362044619707484 -0.0073379400234026568 0 -0.0072162131652387749 -0.0073541697688224803 0 -0.0072439516997859985 -0.0072418411540917382 0 -0.007003304201155738 -0.0072663675277257478 0 -0.0072162131652387749 -0.0073541697688224803 0 -0.0072439516997859985 -0.0072418411540917382 0 -0.007003304201155738 -0.0072663675277257478 0 -0.0070149770810284413 -0.0070422470944544908 0 -0.007003304201155738 -0.0072663675277257478 0 -0.0070149770810284413 -0.0070422470944544908 0 -0.0067169305664608082 -0.006943105914940715 0 -0.0072268303920252873 -0.0070537662465062836 0 -0.0070149770810284413 -0.0070422470944544908 0 -0.006845880573635145 -0.0067058629936580854 0 -0.0072268303920252873 -0.0070537662465062836 0 -0.0072439516997859985 -0.0072418411540917382 0 -0.0070149770810284413 -0.0070422470944544908 0 -0.0063312010958074443 -0.0065106722082518102 0 -0.0067169305664608082 -0.006943105914940715 0 -0.006845880573635145 -0.0067058629936580854 0 -0.0070149770810284413 -0.0070422470944544908 0 -0.0067169305664608082 -0.006943105914940715 0 -0.006845880573635145 -0.0067058629936580854 0 -0.0062795427215712246 -0.0061439298076181315 0 -0.0068719261233044582 -0.0058942796608403847 0 -0.0063312010958074443 -0.0065106722082518102 0 -0.0063319282353880664 -0.0069073107336483884 0 -0.0067169305664608082 -0.006943105914940715 0 -0.0063319282353880664 -0.0069073107336483884 0 -0.0066490306832778017 -0.0073649891099602889 0 -0.0058057355194049542 -0.0069553493183262052 0 -0.0063312010958074443 -0.0065106722082518102 0 -0.0063319282353880664 -0.0069073107336483884 0 -0.0055882957939954302 -0.0062060808247610703 0 -0.007003304201155738 -0.0072663675277257478 0 -0.0067169305664608082 -0.006943105914940715 0 -0.0066490306832778017 -0.0073649891099602889 0 -0.0063319282353880664 -0.0069073107336483884 0 -0.0067169305664608082 -0.006943105914940715 0 -0.0066490306832778017 -0.0073649891099602889 0 -0.0022481263264574817 -0.0055574848992187356 0 -0.0021233943027415192 -0.00539573591524126 0 -0.0021660719431808645 -0.0055242018668897018 0 -0.0045685147375261687 -0.0064464386766507776 0 -0.0038517744662042303 -0.0061323834279400809 0 -0.0021233943027415192 -0.00539573591524126 0 -0.0019867088610383871 -0.0054129419927207278 0 -0.0019558105559632408 -0.0053425732610109019 0 -0.0021233943027415192 -0.00539573591524126 0 -0.0019867088610383871 -0.0054129419927207278 0 -0.0020429908994284889 -0.0055016941111156745 0 -0.0019867088610383871 -0.0054129419927207278 0 -0.0020429908994284889 -0.0055016941111156745 0 -0.0018947724339148223 -0.0054939875155708704 0 -0.0020429908994284889 -0.0055016941111156745 0 -0.0018947724339148223 -0.0054939875155708704 0 -0.0019284546843906037 -0.0056291154859112952 0 -0.0022481263264574817 -0.0055574848992187356 0 -0.0021660719431808645 -0.0055242018668897018 0 -0.0022400615193145105 -0.0056253083987067012 0 -0.0021233943027415192 -0.00539573591524126 0 -0.0020429908994284889 -0.0055016941111156745 0 -0.0021660719431808645 -0.0055242018668897018 0 -0.0020429908994284889 -0.0055016941111156745 0 -0.0021660719431808645 -0.0055242018668897018 0 -0.0022400615193145105 -0.0056253083987067012 0 -0.0019075932414017054 -0.0054001979234352699 0 -0.0019467010501375258 -0.0053293031850837327 0 -0.001943601443936952 -0.0053228318935171102 0 -0.0019075932414017054 -0.0054001979234352699 0 -0.0019312798173841911 -0.0053906105084392635 0 -0.0019467010501375258 -0.0053293031850837327 0 -0.0019867088610383871 -0.0054129419927207278 0 -0.0018947724339148223 -0.0054939875155708704 0 -0.0019312798173841911 -0.0053906105084392635 0 -0.0019075932414017054 -0.0054001979234352699 0 -0.0018947724339148223 -0.0054939875155708704 0 -0.0019312798173841911 -0.0053906105084392635 0 -0.0019312798173841911 -0.0053906105084392635 0 -0.0019467010501375258 -0.0053293031850837327 0 -0.0019558105559632408 -0.0053425732610109019 0 -0.0019867088610383871 -0.0054129419927207278 0 -0.0019312798173841911 -0.0053906105084392635 0 -0.0019558105559632408 -0.0053425732610109019 0 -0.0019467010501375258 -0.0053293031850837327 0 -0.0019558105559632408 -0.0053425732610109019 0 -0.0020068158007477362 -0.0052914169756759647 0 -0.0038517744662042303 -0.0061323834279400809 0 -0.0033669969253562349 -0.0058241624027807653 0 -0.0058057355194049542 -0.0069553493183262052 0 -0.0055882957939954302 -0.0062060808247610703 0 -0.0046770798229892521 -0.0063533953599282126 0 -0.0063319282353880664 -0.0069073107336483884 0 -0.0058057355194049542 -0.0069553493183262052 0 -0.0055882957939954302 -0.0062060808247610703 0 -0.0063321565825349502 -0.0057201596344737954 0 -0.0055882957939954302 -0.0062060808247610703 0 -0.0055221630786124196 -0.0052447334500432367 0 -0.0062795427215712246 -0.0061439298076181315 0 -0.0056223744238769512 -0.0062427237999013938 0 -0.0055882957939954302 -0.0062060808247610703 0 -0.0047382271038978012 -0.0055169803550856227 0 -0.0046770798229892521 -0.0063533953599282126 0 -0.0055882957939954302 -0.0062060808247610703 0 -0.0047382271038978012 -0.0055169803550856227 0 -0.0055221630786124196 -0.0052447334500432367 0 -0.0047382271038978012 -0.0055169803550856227 0 -0.0035840214130776794 -0.0056787938940959818 0 -0.004237567629082218 -0.0049099554871664952 0 -0.0035840214130776794 -0.0056787938940959818 0 -0.0035379002734270137 -0.0046237741337610307 0 -0.004237567629082218 -0.0049099554871664952 0 -0.0022261593924097498 -0.0051638566090036328 0 -0.0020068158007477362 -0.0052914169756759647 0 -0.0021263295166621772 -0.0051509129093575993 0 -0.0022261593924097498 -0.0051638566090036328 0 -0.002295371163063531 -0.0050268074516796116 0 -0.0021263295166621772 -0.0051509129093575993 0 -0.0047382271038978012 -0.0055169803550856227 0 -0.0035840214130776794 -0.0056787938940959818 0 -0.0046770798229892521 -0.0063533953599282126 0 -0.002916372316927149 -0.0053978517338129283 0 -0.0033669969253562349 -0.0058241624027807653 0 -0.002531257289169728 -0.004392999405384658 0 -0.0026209338637267826 -0.0048714641086123533 0 -0.002792701180239286 -0.0042119178961671404 0 -0.002916372316927149 -0.0053978517338129283 0 -0.0026314155020705798 -0.004962915307096691 0 -0.0035840214130776794 -0.0056787938940959818 0 -0.0026209338637267826 -0.0048714641086123533 0 -0.0035379002734270137 -0.0046237741337610307 0 -0.0022261593924097498 -0.0051638566090036328 0 -0.0026209338637267826 -0.0048714641086123533 0 -0.002295371163063531 -0.0050268074516796116 0 -0.0026209338637267826 -0.0048714641086123533 0 -0.0024213103524128991 -0.0048837309109901134 0 -0.002295371163063531 -0.0050268074516796116 0 -0.002295371163063531 -0.0050268074516796116 0 -0.0022013690681480817 -0.0050614886743846821 0 -0.0021263295166621772 -0.0051509129093575993 0 -0.0024213103524128991 -0.0048837309109901134 0 -0.002295371163063531 -0.0050268074516796116 0 -0.0022013690681480817 -0.0050614886743846821 0 -0.0022013690681480817 -0.0050614886743846821 0 -0.0022765480841752308 -0.004983927742487476 0 -0.0021709402780446608 -0.005036131269742789 0 -0.0024213103524128991 -0.0048837309109901134 0 -0.0022013690681480817 -0.0050614886743846821 0 -0.0022765480841752308 -0.004983927742487476 0 -0.0023542345214624862 -0.0049074384464915521 0 -0.0024213103524128991 -0.0048837309109901134 0 -0.0022765480841752308 -0.004983927742487476 0 -0.0023542345214624862 -0.0049074384464915521 0 -0.0022765480841752308 -0.004983927742487476 0 -0.0022554407551996811 -0.0049797726773348752 0 -0.0020068158007477362 -0.0052914169756759647 0 -0.0020076890860086273 -0.0052486164269017112 0 -0.0021263295166621772 -0.0051509129093575993 0 -0.0019467010501375258 -0.0053293031850837327 0 -0.0020068158007477362 -0.0052914169756759647 0 -0.0020076890860086273 -0.0052486164269017112 0 -0.0022013690681480817 -0.0050614886743846821 0 -0.0021263295166621772 -0.0051509129093575993 0 -0.0020383592049158417 -0.0051967440357644275 0 -0.0022013690681480817 -0.0050614886743846821 0 -0.0020383592049158417 -0.0051967440357644275 0 -0.0020979337505372224 -0.0051140882688404075 0 -0.0020076890860086273 -0.0052486164269017112 0 -0.0021263295166621772 -0.0051509129093575993 0 -0.0020383592049158417 -0.0051967440357644275 0 -0.0020076890860086273 -0.0052486164269017112 0 -0.0020383592049158417 -0.0051967440357644275 0 -0.001943601443936952 -0.0053228318935171102 0 -0.0019467010501375258 -0.0053293031850837327 0 -0.0020076890860086273 -0.0052486164269017112 0 -0.001943601443936952 -0.0053228318935171102 0 -0.0020383592049158417 -0.0051967440357644275 0 -0.0020146565095092092 -0.0051736816348654383 0 -0.0019309283100008138 -0.0053141291946489921 0 -0.0020383592049158417 -0.0051967440357644275 0 -0.001943601443936952 -0.0053228318935171102 0 -0.0019309283100008138 -0.0053141291946489921 0 -0.0020383592049158417 -0.0051967440357644275 0 -0.0020979337505372224 -0.0051140882688404075 0 -0.0020146565095092092 -0.0051736816348654383 0 -0.0020979337505372224 -0.0051140882688404075 0 -0.0020146565095092092 -0.0051736816348654383 0 -0.002074538877970402 -0.0050630129689733759 0 -0.0019734821212269455 -0.0050921572956852618 0 -0.002074538877970402 -0.0050630129689733759 0 -0.0020397835200007832 -0.0049472985387281074 0 -0.0020146565095092092 -0.0051736816348654383 0 -0.0019734821212269455 -0.0050921572956852618 0 -0.0019309283100008138 -0.0053141291946489921 0 -0.0020146565095092092 -0.0051736816348654383 0 -0.0019734821212269455 -0.0050921572956852618 0 -0.002074538877970402 -0.0050630129689733759 0 -0.0019309283100008138 -0.0053141291946489921 0 -0.0018953528025803955 -0.0053006005317815389 0 -0.0018582706655421945 -0.005462337154403492 0 -0.0019734821212269455 -0.0050921572956852618 0 -0.0019309283100008138 -0.0053141291946489921 0 -0.0018953528025803955 -0.0053006005317815389 0 -0.0022765480841752308 -0.004983927742487476 0 -0.0022554407551996811 -0.0049797726773348752 0 -0.0021709402780446608 -0.005036131269742789 0 -0.0022554407551996811 -0.0049797726773348752 0 -0.0021709402780446608 -0.005036131269742789 0 -0.0021322080967085761 -0.00497518807172032 0 -0.0022013690681480817 -0.0050614886743846821 0 -0.0020979337505372224 -0.0051140882688404075 0 -0.0021709402780446608 -0.005036131269742789 0 -0.0020979337505372224 -0.0051140882688404075 0 -0.0021709402780446608 -0.005036131269742789 0 -0.002074538877970402 -0.0050630129689733759 0 -0.002074538877970402 -0.0050630129689733759 0 -0.0021322080967085761 -0.00497518807172032 0 -0.0020397835200007832 -0.0049472985387281074 0 -0.0021709402780446608 -0.005036131269742789 0 -0.002074538877970402 -0.0050630129689733759 0 -0.0021322080967085761 -0.00497518807172032 0 -0.002231557686010523 -0.0049554455826437225 0 -0.0022554407551996811 -0.0049797726773348752 0 -0.0021322080967085761 -0.00497518807172032 0 -0.002231557686010523 -0.0049554455826437225 0 -0.0021322080967085761 -0.00497518807172032 0 -0.0020526218093439969 -0.0048599356570618217 0 -0.0021322080967085761 -0.00497518807172032 0 -0.0020526218093439969 -0.0048599356570618217 0 -0.0020397835200007832 -0.0049472985387281074 0 -0.0020397835200007832 -0.0049472985387281074 0 -0.0020036543888541764 -0.0048213313287257522 0 -0.0019556960515122422 -0.0049180911210612447 0 -0.0020526218093439969 -0.0048599356570618217 0 -0.0020397835200007832 -0.0049472985387281074 0 -0.0020036543888541764 -0.0048213313287257522 0 -0.0013083940784329169 -0.004796070035240174 0 -0.00085748877850134889 -0.004856907938649342 0 -0.0005607920735587478 -0.0041301901227619106 0 -0.00049216530945782224 -0.0048327365509768967 0 9.1041665259412141e-06 -0.0044023272674892245 0 -0.0013083940784329169 -0.004796070035240174 0 -0.0018402146660112923 -0.0046157642126573662 0 -0.0020526218093439969 -0.0048599356570618217 0 -0.0020036543888541764 -0.0048213313287257522 0 -0.001873731332497049 -0.0046066935468157275 0 -0.0005607920735587478 -0.0041301901227619106 0 -0.00049216530945782224 -0.0048327365509768967 0 -0.001873731332497049 -0.0046066935468157275 0 -0.0012033233384550833 -0.0052208462869226951 0 -0.00085748877850134889 -0.004856907938649342 0 -0.0019734821212269455 -0.0050921572956852618 0 -0.0016941673781716579 -0.0050154434429731855 0 -0.0019556960515122422 -0.0049180911210612447 0 -0.0021718680935938046 -0.0051617034910067632 0 -0.0012033233384550833 -0.0052208462869226951 0 0.00032748191708855887 -0.0047728417420099308 0 0.00010563432798194484 -0.0047949402791377877 0 0.00025132423581586931 -0.0045713609454474764 0 -0.0019734821212269455 -0.0050921572956852618 0 -0.0020397835200007832 -0.0049472985387281074 0 -0.0019556960515122422 -0.0049180911210612447 0 -0.00049216530945782224 -0.0048327365509768967 0 0.00010563432798194484 -0.0047949402791377877 0 9.1041665259412141e-06 -0.0044023272674892245 0 0.00010563432798194484 -0.0047949402791377877 0 9.1041665259412141e-06 -0.0044023272674892245 0 0.00025132423581586931 -0.0045713609454474764 0 0.00032748191708855887 -0.0047728417420099308 0 0.00025132423581586931 -0.0045713609454474764 0 0.00038571610559754761 -0.004607284954303857 0 0.00038571610559754761 -0.004607284954303857 0 0.00036900073208215447 -0.0047095888147788926 0 0.00035403697278919534 -0.0047579921555451436 0 -0.0012033233384550833 -0.0052208462869226951 0 -0.00061357613998331119 -0.0051859821738113087 0 -0.001781146380401191 -0.0056769125546851078 0 -0.0017880806667391503 -0.005676524018436011 0 -0.0017976176992447596 -0.0056858439143888679 0 0.00032748191708855887 -0.0047728417420099308 0 0.00038571610559754761 -0.004607284954303857 0 0.00036900073208215447 -0.0047095888147788926 0 -0.0012033233384550833 -0.0052208462869226951 0 -0.0020214747926481326 -0.0056332026306156529 0 -0.00061357613998331119 -0.0051859821738113087 0 -0.00062203458331587644 -0.0053000827465948721 0 -0.0017880806667391503 -0.005676524018436011 0 -0.0013743865889967967 -0.0056174512258769255 0 -0.001644848773746603 -0.0058158456396795897 0 -0.0017880806667391503 -0.005676524018436011 0 -0.001644848773746603 -0.0058158456396795897 0 -0.0017976176992447596 -0.0056858439143888679 0 0.00036900073208215447 -0.0047095888147788926 0 0.00035403697278919534 -0.0047579921555451436 0 0.00012666908288107826 -0.0049045479368919646 0 0.00023857474596447535 -0.0049322958785722841 0 0.00035403697278919534 -0.0047579921555451436 0 0.00012666908288107826 -0.0049045479368919646 0 -0.00042203939094262037 -0.0055934421356060053 0 -0.00068932119446451254 -0.0060957517086341105 0 -0.0013743865889967967 -0.0056174512258769255 0 9.1684294458096928e-05 -0.005236835818583036 0 -0.00042203939094262037 -0.0055934421356060053 0 0.00012666908288107826 -0.0049045479368919646 0 -0.00043411323033902674 -0.0055020140683896815 0 -0.00062203458331587644 -0.0053000827465948721 0 -0.00068932119446451254 -0.0060957517086341105 0 -0.0013743865889967967 -0.0056174512258769255 0 -0.0012002115948216278 -0.0061026776304727703 0 -0.0013743865889967967 -0.0056174512258769255 0 -0.001644848773746603 -0.0058158456396795897 0 -0.0012002115948216278 -0.0061026776304727703 0 -0.001757550000471942 -0.0059560746581437075 0 -0.0012002115948216278 -0.0061026776304727703 0 -0.0008716833304480584 -0.0068631410294195923 0 -0.001644848773746603 -0.0058158456396795897 0 -0.001757550000471942 -0.0059560746581437075 0 -0.0012002115948216278 -0.0061026776304727703 0 -0.00068932119446451254 -0.0060957517086341105 0 -0.000715993824769582 -0.0065227804538898655 0 -0.0012002115948216278 -0.0061026776304727703 0 -0.000715993824769582 -0.0065227804538898655 0 -0.0012002115948216278 -0.0061026776304727703 0 -0.0008716833304480584 -0.0068631410294195923 0 -0.0020429908994284889 -0.0055016941111156745 0 -0.0022400615193145105 -0.0056253083987067012 0 -0.0019284546843906037 -0.0056291154859112952 0 -0.0017446116000070396 -0.0059966453592285194 0 -0.0015424351786424522 -0.0062206056477481829 0 -0.001757550000471942 -0.0059560746581437075 0 -0.0022400615193145105 -0.0056253083987067012 0 -0.0019284546843906037 -0.0056291154859112952 0 -0.0018947724339148223 -0.0054939875155708704 0 -0.0019284546843906037 -0.0056291154859112952 0 -0.0018149826112747395 -0.0056716287444484401 0 -0.001757550000471942 -0.0059560746581437075 0 -0.0019284546843906037 -0.0056291154859112952 0 -0.0018149826112747395 -0.0056716287444484401 0 -0.0019075932414017054 -0.0054001979234352699 0 -0.0018947724339148223 -0.0054939875155708704 0 -0.0018541446331729334 -0.0054964429130050681 0 -0.0018947724339148223 -0.0054939875155708704 0 -0.0018149826112747395 -0.0056716287444484401 0 -0.0018541446331729334 -0.0054964429130050681 0 -0.001943601443936952 -0.0053228318935171102 0 -0.0019309283100008138 -0.0053141291946489921 0 -0.0018541446331729334 -0.0054964429130050681 0 -0.0019075932414017054 -0.0054001979234352699 0 -0.001943601443936952 -0.0053228318935171102 0 -0.0018541446331729334 -0.0054964429130050681 0 -0.0019309283100008138 -0.0053141291946489921 0 -0.0018541446331729334 -0.0054964429130050681 0 -0.0018582706655421945 -0.005462337154403492 0 -0.0018953528025803955 -0.0053006005317815389 0 -0.0018582706655421945 -0.005462337154403492 0 -0.0017976176992447596 -0.0056858439143888679 0 -0.0018541446331729334 -0.0054964429130050681 0 -0.0018582706655421945 -0.005462337154403492 0 -0.0017976176992447596 -0.0056858439143888679 0 -0.001757550000471942 -0.0059560746581437075 0 -0.0018149826112747395 -0.0056716287444484401 0 -0.0017976176992447596 -0.0056858439143888679 0 -0.0018149826112747395 -0.0056716287444484401 0 -0.0018541446331729334 -0.0054964429130050681 0 -0.0017976176992447596 -0.0056858439143888679 0 -0.001644848773746603 -0.0058158456396795897 0 -0.001757550000471942 -0.0059560746581437075 0 -0.0017976176992447596 -0.0056858439143888679 0 -3.3019900452559165e-05 -0.024969741191549485 0 -0.00010772141242129175 -0.024927152847569641 0 -4.1121052191924022e-05 -0.024916211132707387 0 -3.3019900452559165e-05 -0.024969741191549485 0 7.5277926221259065e-08 -0.02499988882271079 0 -4.1121052191924022e-05 -0.024916211132707387 0 -3.3019900452559165e-05 -0.024969741191549485 0 7.5277926221259065e-08 -0.02499988882271079 0 -3.2222448305259225e-08 -0.025000000645098129 0 -3.3019900452559165e-05 -0.024969741191549485 0 -3.2222448305259225e-08 -0.025000000645098129 0 -2.7809990779786489e-05 -0.025016096645675594 0 -3.3019900452559165e-05 -0.024969741191549485 0 -9.4834536729724447e-05 -0.02500003669903331 0 -2.7809990779786489e-05 -0.025016096645675594 0 -3.3019900452559165e-05 -0.024969741191549485 0 -9.4834536729724447e-05 -0.02500003669903331 0 -0.00010772141242129175 -0.024927152847569641 0 -1.2410021992845433e-05 -0.025080221193144379 0 -5.0808354232702448e-05 -0.022486438806257197 0 -0.00012438970818430604 -0.024715429376951096 0 -0.00030075642876285379 -0.024573567153171872 0 -0.00020801367043334112 -0.024820392179328597 0 -9.4834536729724447e-05 -0.02500003669903331 0 -0.00018418530011436455 -0.024944889186878521 0 -0.00010772141242129175 -0.024927152847569641 0 0.00015723280535303639 -0.019412033459291395 0 0.00021507898659335758 -0.019358599829943434 0 0.00020383779400393498 -0.019270125596289777 0 -5.0808354232702448e-05 -0.022486438806257197 0 -4.6448052788496183e-05 -0.021921367124812879 0 0.00015723280535303639 -0.019412033459291395 0 0.00018066513217784052 -0.019437937938471431 0 0.00021507898659335758 -0.019358599829943434 0 -5.0808354232702448e-05 -0.022486438806257197 0 -0.00040184419913622389 -0.021758095883764379 0 -0.00018418530011436455 -0.024944889186878521 0 -0.00021059630865574391 -0.024875055353193239 0 -0.00010772141242129175 -0.024927152847569641 0 -5.0808354232702448e-05 -0.022486438806257197 0 -6.985683864195436e-05 -0.022101950670580756 0 0.00014405584325271616 -0.019418300502800356 0 0.00018066513217784052 -0.019437937938471431 0 0.00017990417108657347 -0.01958128490615188 0 -0.00021059630865574391 -0.024875055353193239 0 -0.00010772141242129175 -0.024927152847569641 0 -0.00011613181480409582 -0.024830096194378832 0 -0.00010772141242129175 -0.024927152847569641 0 -0.00011613181480409582 -0.024830096194378832 0 -4.1121052191924022e-05 -0.024916211132707387 0 -0.00021059630865574391 -0.024875055353193239 0 -0.00011613181480409582 -0.024830096194378832 0 -0.00023169598029366387 -0.024806038431493337 0 0.0001858439585458011 -0.024510495776427395 0 -1.969901219032739e-05 -0.022968685678285698 0 0.00047304144061315203 -0.023584658695551219 0 0.00050293870283313054 -0.023057005431539469 0 0.00049372620650498455 -0.023244824596417041 0 0.00035855625707480448 -0.023844293948622874 0 0.00047304144061315203 -0.023584658695551219 0 0.00049196458190782868 -0.023299666257487538 0 0.00047304144061315203 -0.023584658695551219 0 0.00049372620650498455 -0.023244824596417041 0 0.00049196458190782868 -0.023299666257487538 0 0.00035855625707480448 -0.023844293948622874 0 0.00047304144061315203 -0.023584658695551219 0 0.00016593927360243206 -0.024441863221074171 0 0.00035855625707480448 -0.023844293948622874 0 3.4962224257576466e-05 -0.02481115332479461 0 0.00016593927360243206 -0.024441863221074171 0 -0.00011613181480409582 -0.024830096194378832 0 -4.1121052191924022e-05 -0.024916211132707387 0 3.4962224257576466e-05 -0.02481115332479461 0 0.0001858439585458011 -0.024510495776427395 0 6.9611862262224967e-05 -0.02468939812339755 0 7.5277926221259065e-08 -0.02499988882271079 0 -4.1121052191924022e-05 -0.024916211132707387 0 3.4962224257576466e-05 -0.02481115332479461 0 7.5277926221259065e-08 -0.02499988882271079 0 3.4962224257576466e-05 -0.02481115332479461 0 8.6578488550396629e-08 -0.024999176370132034 0 3.4962224257576466e-05 -0.02481115332479461 0 8.6578488550396629e-08 -0.024999176370132034 0 0.00016593927360243206 -0.024441863221074171 0 8.6578488550396629e-08 -0.024999176370132034 0 0.00016593927360243206 -0.024441863221074171 0 1.0220165974193274e-07 -0.024999503488794487 0 4.1285456211924644e-07 -0.024998646703215496 0 0.00024184371639243644 -0.02266156561252658 0 1.7011404541611596e-07 -0.019686596864978343 0 0.00016593927360243206 -0.024441863221074171 0 0.00029030893864774967 -0.02420543490383905 0 1.0220165974193274e-07 -0.024999503488794487 0 0.00022369311452808462 -0.02401123073409217 0 1.0135101740890254e-07 -0.024999669573838201 0 0.0001194293319113107 -0.023826176816976553 0 4.1285456211924644e-07 -0.024998646703215496 0 0.00024184371639243644 -0.02266156561252658 0 0.0001194293319113107 -0.023826176816976553 0 -7.5459983093620573e-08 -0.024998032474698832 0 4.1285456211924644e-07 -0.024998646703215496 0 0.00022369311452808462 -0.02401123073409217 0 0.00037059957660832483 -0.022868288869968938 0 0.00047304144061315203 -0.023584658695551219 0 0.00029030893864774967 -0.02420543490383905 0 0.00054232869135128277 -0.023139583676557798 0 0.00047304144061315203 -0.023584658695551219 0 0.00016593927360243206 -0.024441863221074171 0 0.00029030893864774967 -0.02420543490383905 0 0.00047304144061315203 -0.023584658695551219 0 0.00054232869135128277 -0.023139583676557798 0 0.00050293870283313054 -0.023057005431539469 0 0.00054232869135128277 -0.023139583676557798 0 0.00050293870283313054 -0.023057005431539469 0 0.00015394873127258629 -0.021683677162053876 0 0.00022669152452392373 -0.022503675344831008 0 0.00015394873127258629 -0.021683677162053876 0 -0.00013138789931765085 -0.021641349828140782 0 0.00050293870283313054 -0.023057005431539469 0 0.00022669152452392373 -0.022503675344831008 0 0.00015394873127258629 -0.021683677162053876 0 0.00037059957660832483 -0.022868288869968938 0 0.00013946614603137006 -0.021869184827224258 0 0.00024184371639243644 -0.02266156561252658 0 0.00015394873127258629 -0.021683677162053876 0 1.7011404541611596e-07 -0.019686596864978343 0 0.00015394873127258629 -0.021683677162053876 0 1.7011404541611596e-07 -0.019686596864978343 0 -0.00014759344614559904 -0.020386038129474617 0 1.7011404541611596e-07 -0.019686596864978343 0 -0.00014759344614559904 -0.020386038129474617 0 -0.00037381414280167818 -0.019156642352642417 0 -0.00014759344614559904 -0.020386038129474617 0 -0.00066054360202433922 -0.02114237639284456 0 -0.00013138789931765085 -0.021641349828140782 0 -0.00014759344614559904 -0.020386038129474617 0 -0.00066054360202433922 -0.02114237639284456 0 -0.00037381414280167818 -0.019156642352642417 0 0.00015394873127258629 -0.021683677162053876 0 -0.00014759344614559904 -0.020386038129474617 0 -0.00013138789931765085 -0.021641349828140782 0 0.00022669152452392373 -0.022503675344831008 0 -0.00013138789931765085 -0.021641349828140782 0 2.3002998342200743e-05 -0.022709081701791839 0 -0.00013138789931765085 -0.021641349828140782 0 -0.00047244121732045431 -0.022417820122304997 0 2.3002998342200743e-05 -0.022709081701791839 0 -0.00031497017049282621 -0.019230377340685976 0 -0.00024277076905898236 -0.019316276500531124 0 -0.00034921790347239225 -0.019305655655317996 0 -0.0004449705155532244 -0.020125478282420308 0 -0.00030972978578669538 -0.021206787781858045 0 -0.00066054360202433922 -0.02114237639284456 0 -0.00013138789931765085 -0.021641349828140782 0 -0.00047244121732045431 -0.022417820122304997 0 0.0013584349179316438 -0.015939422538193866 0 -0.00067286948828358087 -0.018892939105207285 0 -0.00024277076905898236 -0.019316276500531124 0 -0.00025511801985964977 -0.019381189987226554 0 -0.00034921790347239225 -0.019305655655317996 0 -0.00024277076905898236 -0.019316276500531124 0 -0.00025511801985964977 -0.019381189987226554 0 -0.00017756615582924386 -0.019379558579079862 0 -0.00085304296500967431 -0.017264860842454748 0 -0.00088531470489014311 -0.017190734269375153 0 -0.00053071364768942134 -0.017558397651667834 0 -0.0010596631287886919 -0.01141498651960917 0 -0.00080210918028364258 -0.011154284259929183 0 -0.00057863921734647192 -0.011410342204275557 0 0.0040273741689864423 -0.013160735076860537 0 0.0038966784794197853 -0.012954572155245569 0 0.003502279798620713 -0.012910633701388495 0 0.0013584349179316438 -0.015939422538193866 0 0.00078068343563622979 -0.013475968390333101 0 0.0013584349179316438 -0.015939422538193866 0 0.00084701657652737133 -0.018916778849592045 0 0.0040273741689864423 -0.013160735076860537 0 0.003502279798620713 -0.012910633701388495 0 0.0029720217074162441 -0.013216234441347051 0 0.0038966784794197853 -0.012954572155245569 0 0.003502279798620713 -0.012910633701388495 0 0.0031118549070968922 -0.012304482688334594 0 0.003502279798620713 -0.012910633701388495 0 0.0029720217074162441 -0.013216234441347051 0 0.0031118549070968922 -0.012304482688334594 0 0.00078068343563622979 -0.013475968390333101 0 0.00322082646036073 -0.012345438421419193 0 -0.00030972978578669538 -0.021206787781858045 0 0.00084701657652737133 -0.018916778849592045 0 -0.00047244121732045431 -0.022417820122304997 0 -0.00010959476713549198 -0.023171677791164993 0 2.3002998342200743e-05 -0.022709081701791839 0 0.00022669152452392373 -0.022503675344831008 0 2.3002998342200743e-05 -0.022709081701791839 0 0.00036338171299535153 -0.022966643296367308 0 2.3002998342200743e-05 -0.022709081701791839 0 0.00036338171299535153 -0.022966643296367308 0 0.00033060762273620458 -0.023199527337164936 0 0.00050293870283313054 -0.023057005431539469 0 0.00022669152452392373 -0.022503675344831008 0 0.00036338171299535153 -0.022966643296367308 0 0.00050293870283313054 -0.023057005431539469 0 0.00036338171299535153 -0.022966643296367308 0 0.00049372620650498455 -0.023244824596417041 0 0.00036338171299535153 -0.022966643296367308 0 0.00049372620650498455 -0.023244824596417041 0 0.00033060762273620458 -0.023199527337164936 0 -1.969901219032739e-05 -0.022968685678285698 0 0.00033430763560040748 -0.021468498917157269 0 0.00022894775634480085 -0.019762570654883387 0 0.00042493653739132718 -0.01973709004359013 0 0.00031062946415185089 -0.019592833236781505 0 0.00049372620650498455 -0.023244824596417041 0 0.00050644519029809196 -0.023285459676300115 0 0.00033060762273620458 -0.023199527337164936 0 0.00020466534160580073 -0.023251572871901875 0 -1.969901219032739e-05 -0.022968685678285698 0 -6.985683864195436e-05 -0.022101950670580756 0 -1.969901219032739e-05 -0.022968685678285698 0 0.00017990417108657347 -0.01958128490615188 0 0.00022894775634480085 -0.019762570654883387 0 0.00031062946415185089 -0.019592833236781505 0 -0.00010959476713549198 -0.023171677791164993 0 2.3002998342200743e-05 -0.022709081701791839 0 0.00033060762273620458 -0.023199527337164936 0 0.00084701657652737133 -0.018916778849592045 0 0.00033430763560040748 -0.021468498917157269 0 0.00062970895888317391 -0.019714500783622656 0 0.00042493653739132718 -0.01973709004359013 0 0.00044536647211606596 -0.019443223214298904 0 0.0021931096289095602 -0.011699532016398756 0 0.0023456277252497924 -0.011627542455530746 0 0.0031118549070968922 -0.012304482688334594 0 0.00084701657652737133 -0.018916778849592045 0 0.0013560000986294635 -0.015145994582135306 0 0.00042493653739132718 -0.01973709004359013 0 0.00044536647211606596 -0.019443223214298904 0 0.00031062946415185089 -0.019592833236781505 0 0.00044536647211606596 -0.019443223214298904 0 0.00031062946415185089 -0.019592833236781505 0 0.00027564813018958955 -0.019449995376417152 0 0.00017990417108657347 -0.01958128490615188 0 0.00031062946415185089 -0.019592833236781505 0 0.00027564813018958955 -0.019449995376417152 0 0.00018066513217784052 -0.019437937938471431 0 0.00017990417108657347 -0.01958128490615188 0 0.00027564813018958955 -0.019449995376417152 0 0.0013560000986294635 -0.015145994582135306 0 0.0010497425610711299 -0.015020791224204333 0 0.00027564813018958955 -0.019449995376417152 0 0.00021507898659335758 -0.019358599829943434 0 0.00026507860952952931 -0.019246135803323551 0 0.00044536647211606596 -0.019443223214298904 0 0.00027564813018958955 -0.019449995376417152 0 0.00026507860952952931 -0.019246135803323551 0 0.00018066513217784052 -0.019437937938471431 0 0.00027564813018958955 -0.019449995376417152 0 0.00021507898659335758 -0.019358599829943434 0 0.0023456277252497924 -0.011627542455530746 0 0.0029481495295191648 -0.01162505660377742 0 0.0024563493899019038 -0.010668976409946972 0 0.0021931096289095602 -0.011699532016398756 0 0.0023456277252497924 -0.011627542455530746 0 0.0024563493899019038 -0.010668976409946972 0 0.0021931096289095602 -0.011699532016398756 0 0.0024563493899019038 -0.010668976409946972 0 0.0017097564286417759 -0.010546642601707443 0 0.0007758868825881633 -0.01099610437115176 0 0.00036299712187089786 -0.010518753953143927 0 -0.0013403247241856868 -0.010861947074122635 0 -0.0012974234165258887 -0.010442806389388706 0 -0.0015732621190322766 -0.010373825645240056 0 -0.0010478355573648979 -0.010653465786091543 0 -0.0013403247241856868 -0.010861947074122635 0 -0.0012974234165258887 -0.010442806389388706 0 -0.0010478355573648979 -0.010653465786091543 0 -0.0010961953177455463 -0.010300952776757306 0 -0.0012974234165258887 -0.010442806389388706 0 -0.0010478355573648979 -0.010653465786091543 0 -0.00071352307215302637 -0.010520235734249875 0 -0.0010961953177455463 -0.010300952776757306 0 -0.0010478355573648979 -0.010653465786091543 0 -0.0010240911724284797 -0.011003382221533724 0 -0.00080885679440173607 -0.010854984235615201 0 -0.0010478355573648979 -0.010653465786091543 0 -0.00080885679440173607 -0.010854984235615201 0 -0.00071352307215302637 -0.010520235734249875 0 -0.0010478355573648979 -0.010653465786091543 0 -0.0010240911724284797 -0.011003382221533724 0 -0.0013403247241856868 -0.010861947074122635 0 -0.0010596631287886919 -0.01141498651960917 0 -0.0010240911724284797 -0.011003382221533724 0 -0.0013403247241856868 -0.010861947074122635 0 -0.0010240911724284797 -0.011003382221533724 0 -0.00080210918028364258 -0.011154284259929183 0 -0.00080885679440173607 -0.010854984235615201 0 -0.0010596631287886919 -0.01141498651960917 0 -0.0010240911724284797 -0.011003382221533724 0 -0.00080210918028364258 -0.011154284259929183 0 0.00078068343563622979 -0.013475968390333101 0 0.0007758868825881633 -0.01099610437115176 0 0.0029720217074162441 -0.013216234441347051 0 0.0021931096289095602 -0.011699532016398756 0 0.0031118549070968922 -0.012304482688334594 0 0.0033426415868981706 -0.012384994310234572 0 0.0029007522336331709 -0.012003423152745803 0 0.0029481495295191648 -0.01162505660377742 0 0.0023456277252497924 -0.011627542455530746 0 0.0029007522336331709 -0.012003423152745803 0 0.0029481495295191648 -0.01162505660377742 0 0.0023336462453549642 -0.011635305741418656 0 0.00322082646036073 -0.012345438421419193 0 -0.00087088243309421567 -0.010461704608431349 0 -0.00086710468823282105 -0.010954173366585045 0 -0.00051121450628963539 -0.011017282750923788 0 -0.00020558554989308982 -0.010760238108289421 0 -8.4252497254561815e-06 -0.011547045020204049 0 -0.0015824734056017746 -0.0099730036261316355 0 -0.0011821282468016203 -0.01023241058471356 0 -0.0016446073130866 -0.010994139708922882 0 -0.00080210918028364258 -0.011154284259929183 0 -0.00051121450628963539 -0.011017282750923788 0 -0.00057863921734647192 -0.011410342204275557 0 -0.00080210918028364258 -0.011154284259929183 0 -0.00080885679440173607 -0.010854984235615201 0 -0.00051121450628963539 -0.011017282750923788 0 -0.00071352307215302637 -0.010520235734249875 0 -0.00020558554989308982 -0.010760238108289421 0 -0.00043679421580993839 -0.010056988993473594 0 -0.00051121450628963539 -0.011017282750923788 0 -0.00071352307215302637 -0.010520235734249875 0 -0.00020558554989308982 -0.010760238108289421 0 -0.00080885679440173607 -0.010854984235615201 0 -0.00051121450628963539 -0.011017282750923788 0 -0.00071352307215302637 -0.010520235734249875 0 -0.00063301020161565553 -0.010074286319384208 0 -0.0011821282468016203 -0.01023241058471356 0 -0.0011606870819561462 -0.0095088643177012825 0 -0.0015824734056017746 -0.0099730036261316355 0 -0.0011821282468016203 -0.01023241058471356 0 -0.0011606870819561462 -0.0095088643177012825 0 -0.00084104745397656287 -0.0098775882256193753 0 -0.0011583068994012356 -0.0095320338420591868 0 -0.001043447762125856 -0.0096578198745846909 0 -0.00096866097708474762 -0.0094282870846731544 0 -0.0011606870819561462 -0.0095088643177012825 0 -0.00063301020161565553 -0.010074286319384208 0 -0.0011821282468016203 -0.01023241058471356 0 -0.00095306493730552442 -0.010706278841070324 0 -0.00063301020161565553 -0.010074286319384208 0 -0.00095306493730552442 -0.010706278841070324 0 -0.00052924231442748543 -0.010631681794037841 0 -0.0011821282468016203 -0.01023241058471356 0 -0.00095306493730552442 -0.010706278841070324 0 -0.0016446073130866 -0.010994139708922882 0 -0.00095306493730552442 -0.010706278841070324 0 -0.0011652984591268287 -0.011393871004090249 0 -0.0016446073130866 -0.010994139708922882 0 -0.00095306493730552442 -0.010706278841070324 0 -0.00070654355287266791 -0.011322957464384503 0 -0.00052924231442748543 -0.010631681794037841 0 -0.00095306493730552442 -0.010706278841070324 0 -0.00070654355287266791 -0.011322957464384503 0 -0.0011652984591268287 -0.011393871004090249 0 -0.00070654355287266791 -0.011322957464384503 0 -0.00093649944025244738 -0.011941959426611139 0 -0.0003879277035425726 -0.011916405565700262 0 -0.00070654355287266791 -0.011322957464384503 0 -0.0011652984591268287 -0.011393871004090249 0 -0.00093649944025244738 -0.011941959426611139 0 -0.0011652984591268287 -0.011393871004090249 0 -0.0016446073130866 -0.010994139708922882 0 -0.0016145397637208239 -0.012104139524634806 0 -0.0011652984591268287 -0.011393871004090249 0 -0.0016145397637208239 -0.012104139524634806 0 -0.00093649944025244738 -0.011941959426611139 0 -0.00086710468823282105 -0.010954173366585045 0 -0.00060140836733050054 -0.013700631518172163 0 -0.00065056827651353898 -0.01502887121317123 0 -0.00060140836733050054 -0.013700631518172163 0 -8.4252497254561815e-06 -0.011547045020204049 0 -0.00048596757957333785 -0.011904252110895634 0 0.00015419554403497718 -0.012407056723693785 0 -8.4252497254561815e-06 -0.011547045020204049 0 -0.00057863921734647192 -0.011410342204275557 0 -0.00048596757957333785 -0.011904252110895634 0 -0.00051121450628963539 -0.011017282750923788 0 -8.4252497254561815e-06 -0.011547045020204049 0 -0.00057863921734647192 -0.011410342204275557 0 -0.0010596631287886919 -0.01141498651960917 0 -0.00057863921734647192 -0.011410342204275557 0 -0.00048596757957333785 -0.011904252110895634 0 0.00078068343563622979 -0.013475968390333101 0 -0.00065056827651353898 -0.01502887121317123 0 -0.00085304296500967431 -0.017264860842454748 0 -0.00053071364768942134 -0.017558397651667834 0 -0.00062510308472825469 -0.01772540138948512 0 -0.00053071364768942134 -0.017558397651667834 0 -0.00062510308472825469 -0.01772540138948512 0 -0.00046673769646001602 -0.017820179604922923 0 1.7011404541611596e-07 -0.019686596864978343 0 -2.390257146422838e-06 -0.015686620193325836 0 -0.0002908728488657345 -0.016589132355841175 0 1.7011404541611596e-07 -0.019686596864978343 0 -0.0002908728488657345 -0.016589132355841175 0 -0.00035879189044864013 -0.01745979057533141 0 -0.00067286948828358087 -0.018892939105207285 0 -0.00037768749852846854 -0.01845197640204713 0 -0.00031497017049282621 -0.019230377340685976 0 -0.00034921790347239225 -0.019305655655317996 0 -0.00046629195623572675 -0.019190291100152319 0 -0.00046673769646001602 -0.017820179604922923 0 -0.00040550857058228748 -0.017969533794963712 0 -0.00036722337340499618 -0.017844310865211536 0 -0.00053071364768942134 -0.017558397651667834 0 -0.00046673769646001602 -0.017820179604922923 0 -0.00036722337340499618 -0.017844310865211536 0 -0.00062510308472825469 -0.01772540138948512 0 -0.00046673769646001602 -0.017820179604922923 0 -0.00040550857058228748 -0.017969533794963712 0 -0.0004449705155532244 -0.020125478282420308 0 -0.00041700483618503642 -0.019386918782066873 0 -0.00031497017049282621 -0.019230377340685976 0 -0.00046629195623572675 -0.019190291100152319 0 -0.00037381414280167818 -0.019156642352642417 0 1.7011404541611596e-07 -0.019686596864978343 0 -0.00037381414280167818 -0.019156642352642417 0 -0.00035879189044864013 -0.01745979057533141 0 -0.00046629195623572675 -0.019190291100152319 0 -0.00037381414280167818 -0.019156642352642417 0 -0.00035879189044864013 -0.01745979057533141 0 -0.00037768749852846854 -0.01845197640204713 0 -0.00041263638006621393 -0.017642283333133852 0 -2.390257146422838e-06 -0.015686620193325836 0 -0.0002908728488657345 -0.016589132355841175 0 -0.00046343887052996955 -0.014793088312593263 0 -0.0002908728488657345 -0.016589132355841175 0 -0.00035879189044864013 -0.01745979057533141 0 -0.00054307786023357447 -0.01792211886225089 0 -0.0002908728488657345 -0.016589132355841175 0 -0.00046343887052996955 -0.014793088312593263 0 -0.0017956177391007658 -0.013740184674121123 0 -0.00040550857058228748 -0.017969533794963712 0 -0.00035879189044864013 -0.01745979057533141 0 -0.00054307786023357447 -0.01792211886225089 0 -0.00046728457216901545 -0.016442182904829281 0 -0.0011141738846188881 -0.016051569705541648 0 -2.390257146422838e-06 -0.015686620193325836 0 -0.00046343887052996955 -0.014793088312593263 0 -0.00017497476982612263 -0.013874701890957344 0 -0.00046343887052996955 -0.014793088312593263 0 -0.00077025373528497455 -0.013498288744486766 0 -0.0017956177391007658 -0.013740184674121123 0 -0.00046343887052996955 -0.014793088312593263 0 -0.00077025373528497455 -0.013498288744486766 0 -0.00017497476982612263 -0.013874701890957344 0 -0.00077025373528497455 -0.013498288744486766 0 -0.00053775178904150406 -0.012702570258319093 0 -0.00017497476982612263 -0.013874701890957344 0 -0.00077025373528497455 -0.013498288744486766 0 -0.0011452604711584915 -0.012592540335390177 0 -0.00053775178904150406 -0.012702570258319093 0 -0.0011141738846188881 -0.016051569705541648 0 -0.00060140836733050054 -0.013700631518172163 0 -0.00040550857058228748 -0.017969533794963712 0 -0.00054307786023357447 -0.01792211886225089 0 -0.00036722337340499618 -0.017844310865211536 0 -0.0011452604711584915 -0.012592540335390177 0 -0.0017956177391007658 -0.013740184674121123 0 -0.00210620794307522 -0.011899204892421246 0 -0.00077025373528497455 -0.013498288744486766 0 -0.0011452604711584915 -0.012592540335390177 0 -0.0017956177391007658 -0.013740184674121123 0 -0.0011452604711584915 -0.012592540335390177 0 -0.0016145397637208239 -0.012104139524634806 0 -0.00093649944025244738 -0.011941959426611139 0 -0.0017401031077433674 -0.01218070545993543 0 -0.00060140836733050054 -0.013700631518172163 0 -0.00053775178904150406 -0.012702570258319093 0 -0.00093649944025244738 -0.011941959426611139 0 -0.0003879277035425726 -0.011916405565700262 0 -0.0011452604711584915 -0.012592540335390177 0 -0.00053775178904150406 -0.012702570258319093 0 -0.00093649944025244738 -0.011941959426611139 0 -0.0003879277035425726 -0.011916405565700262 0 -2.0222573829098967e-05 -0.011912219934669795 0 -5.9590173680714027e-05 -0.012629327953438163 0 -0.00053775178904150406 -0.012702570258319093 0 -0.0003879277035425726 -0.011916405565700262 0 -5.9590173680714027e-05 -0.012629327953438163 0 -2.0222573829098967e-05 -0.011912219934669795 0 -5.9590173680714027e-05 -0.012629327953438163 0 0.00012297723297626439 -0.012201240258162461 0 -5.9590173680714027e-05 -0.012629327953438163 0 0.00014150865484746999 -0.013011684637847245 0 0.00012297723297626439 -0.012201240258162461 0 -0.00053775178904150406 -0.012702570258319093 0 -5.9590173680714027e-05 -0.012629327953438163 0 -0.00017497476982612263 -0.013874701890957344 0 -2.390257146422838e-06 -0.015686620193325836 0 -0.00017497476982612263 -0.013874701890957344 0 0.00014150865484746999 -0.013011684637847245 0 -2.390257146422838e-06 -0.015686620193325836 0 1.2129039402914623e-06 -0.012750512043212599 0 0.00014150865484746999 -0.013011684637847245 0 -5.9590173680714027e-05 -0.012629327953438163 0 -0.00017497476982612263 -0.013874701890957344 0 0.00014150865484746999 -0.013011684637847245 0 1.2129039402914623e-06 -0.012750512043212599 0 0.00014150865484746999 -0.013011684637847245 0 0.00016485436340709817 -0.01182393474782875 0 0.00016485436340709817 -0.01182393474782875 0 0.00019612049022945454 -0.012011900296687649 0 0.00028795077213360015 -0.011266048790827769 0 0.00014150865484746999 -0.013011684637847245 0 0.00019612049022945454 -0.012011900296687649 0 0.00012297723297626439 -0.012201240258162461 0 0.00014150865484746999 -0.013011684637847245 0 0.00016485436340709817 -0.01182393474782875 0 0.00019612049022945454 -0.012011900296687649 0 -2.0222573829098967e-05 -0.011912219934669795 0 0.00012297723297626439 -0.012201240258162461 0 0.00020666071272626833 -0.011444044320980165 0 0.00019612049022945454 -0.012011900296687649 0 0.00012297723297626439 -0.012201240258162461 0 0.00020666071272626833 -0.011444044320980165 0 0.00020666071272626833 -0.011444044320980165 0 0.00028795077213360015 -0.011266048790827769 0 0.00028211438590626569 -0.011039580614260166 0 0.00019612049022945454 -0.012011900296687649 0 0.00020666071272626833 -0.011444044320980165 0 0.00028795077213360015 -0.011266048790827769 0 0.00036362813414789782 -0.010921328030124132 0 0.00028211438590626569 -0.011039580614260166 0 0.00034498816445800869 -0.010774789202709363 0 0.00036362813414789782 -0.010921328030124132 0 0.00028795077213360015 -0.011266048790827769 0 0.00028211438590626569 -0.011039580614260166 0 0.00034498816445800869 -0.010774789202709363 0 0.00012650868543821444 -0.010900584294867285 0 0.00021566712333846624 -0.010441481593289935 0 0.00028211438590626569 -0.011039580614260166 0 0.00034498816445800869 -0.010774789202709363 0 0.00012650868543821444 -0.010900584294867285 0 0.00020666071272626833 -0.011444044320980165 0 0.00028211438590626569 -0.011039580614260166 0 0.00012650868543821444 -0.010900584294867285 0 0.00020666071272626833 -0.011444044320980165 0 0.00012650868543821444 -0.010900584294867285 0 -0.00011469417205870372 -0.011274843407169444 0 -0.0003879277035425726 -0.011916405565700262 0 -2.0222573829098967e-05 -0.011912219934669795 0 -0.00011469417205870372 -0.011274843407169444 0 -2.0222573829098967e-05 -0.011912219934669795 0 0.00020666071272626833 -0.011444044320980165 0 -0.00011469417205870372 -0.011274843407169444 0 -0.00070654355287266791 -0.011322957464384503 0 -0.0003879277035425726 -0.011916405565700262 0 -0.00011469417205870372 -0.011274843407169444 0 -0.00070654355287266791 -0.011322957464384503 0 -0.00011469417205870372 -0.011274843407169444 0 -0.00037989054879938779 -0.011021051241735311 0 -0.00037989054879938779 -0.011021051241735311 0 -0.00011755759042173333 -0.01064377051677144 0 -0.00052924231442748543 -0.010631681794037841 0 -0.00011469417205870372 -0.011274843407169444 0 -0.00037989054879938779 -0.011021051241735311 0 -0.00011755759042173333 -0.01064377051677144 0 -0.00070654355287266791 -0.011322957464384503 0 -0.00037989054879938779 -0.011021051241735311 0 -0.00052924231442748543 -0.010631681794037841 0 0.00012650868543821444 -0.010900584294867285 0 -0.00011469417205870372 -0.011274843407169444 0 -0.00011755759042173333 -0.01064377051677144 0 0.00010357655640192464 -0.010873858027220946 0 -0.00031449852557384147 -0.010495055688468853 0 -0.00053762835141894316 -0.010365854374147686 0 -0.00032301138726178736 -0.010072427638552791 0 -0.000731517116124204 -0.009577978941365627 0 0.00012650868543821444 -0.010900584294867285 0 -0.00053762835141894316 -0.010365854374147686 0 -8.4098604804259226e-05 -0.010326534553493239 0 -0.00053762835141894316 -0.010365854374147686 0 -0.00032301138726178736 -0.010072427638552791 0 -8.4098604804259226e-05 -0.010326534553493239 0 -0.00063301020161565553 -0.010074286319384208 0 -0.00011755759042173333 -0.01064377051677144 0 -0.00052924231442748543 -0.010631681794037841 0 -0.00084104745397656287 -0.0098775882256193753 0 -0.00031449852557384147 -0.010495055688468853 0 -0.001043447762125856 -0.0096578198745846909 0 -0.00053762835141894316 -0.010365854374147686 0 -0.000731517116124204 -0.009577978941365627 0 -0.000731517116124204 -0.009577978941365627 0 -0.00053210567389806631 -0.0092623086864235104 0 -0.00075361632152737799 -0.0092813652816020331 0 -0.000731517116124204 -0.009577978941365627 0 -0.00075361632152737799 -0.0092813652816020331 0 -0.00096866097708474762 -0.0094282870846731544 0 -0.001043447762125856 -0.0096578198745846909 0 -0.000731517116124204 -0.009577978941365627 0 -0.00096866097708474762 -0.0094282870846731544 0 -0.00032301138726178736 -0.010072427638552791 0 -0.000731517116124204 -0.009577978941365627 0 1.2782076188688905e-05 -0.010028344130450137 0 -0.000731517116124204 -0.009577978941365627 0 -0.00028190263979725641 -0.0093255504138593445 0 -0.00053210567389806631 -0.0092623086864235104 0 -0.00073404192121602919 -0.0095784842696578464 0 -0.00016519981545520159 -0.0096985160103684812 0 -0.00028895954345220011 -0.0091311379487775037 0 -0.00028190263979725641 -0.0093255504138593445 0 -0.00053210567389806631 -0.0092623086864235104 0 -0.00028895954345220011 -0.0091311379487775037 0 -0.00028190263979725641 -0.0093255504138593445 0 1.5189381466894132e-05 -0.0094813703438131509 0 0.00011599751136096656 -0.0097306870034605409 0 -0.00028190263979725641 -0.0093255504138593445 0 1.5189381466894132e-05 -0.0094813703438131509 0 -0.00031228257212772301 -0.009090371899825353 0 -8.4492871755931633e-05 -0.0090186221876318098 0 0.00036339211712581613 -0.010307372086665453 0 1.2782076188688905e-05 -0.010028344130450137 0 0.00021566712333846624 -0.010441481593289935 0 0.00026740131727119435 -0.010007676508720196 0 -0.00016519981545520159 -0.0096985160103684812 0 0.00035836807619822229 -0.010495668690728203 0 0.00034498816445800869 -0.010774789202709363 0 0.00021566712333846624 -0.010441481593289935 0 0.00036339211712581613 -0.010307372086665453 0 0.00035836807619822229 -0.010495668690728203 0 0.00021566712333846624 -0.010441481593289935 0 1.2782076188688905e-05 -0.010028344130450137 0 0.00021566712333846624 -0.010441481593289935 0 -8.4098604804259226e-05 -0.010326534553493239 0 0.00012650868543821444 -0.010900584294867285 0 0.00021566712333846624 -0.010441481593289935 0 -8.4098604804259226e-05 -0.010326534553493239 0 -0.00032301138726178736 -0.010072427638552791 0 1.2782076188688905e-05 -0.010028344130450137 0 -8.4098604804259226e-05 -0.010326534553493239 0 -7.3264038219401299e-05 -0.0084896708273116701 0 -0.00035022535811644477 -0.0088237302732239141 0 -0.00020405481971732866 -0.0084513778666745146 0 6.1638470713132448e-05 -0.0082049528052604553 0 -7.3264038219401299e-05 -0.0084896708273116701 0 -0.00020405481971732866 -0.0084513778666745146 0 -0.00028895954345220011 -0.0091311379487775037 0 -3.8024766685311592e-05 -0.0085589585955806319 0 -0.00013269805459315955 -0.008725030893769279 0 -7.3264038219401299e-05 -0.0084896708273116701 0 -4.357397360291448e-05 -0.0084864506484938988 0 -0.00013269805459315955 -0.008725030893769279 0 3.6860416723158661e-06 -0.0082822250823912282 0 -7.3264038219401299e-05 -0.0084896708273116701 0 -4.357397360291448e-05 -0.0084864506484938988 0 -1.1484719441501195e-05 -0.0082988759744587609 0 -3.8024766685311592e-05 -0.0085589585955806319 0 -4.357397360291448e-05 -0.0084864506484938988 0 -3.8024766685311592e-05 -0.0085589585955806319 0 -4.357397360291448e-05 -0.0084864506484938988 0 -0.00013269805459315955 -0.008725030893769279 0 -7.3264038219401299e-05 -0.0084896708273116701 0 -0.00013269805459315955 -0.008725030893769279 0 -0.00035022535811644477 -0.0088237302732239141 0 -0.00028895954345220011 -0.0091311379487775037 0 -0.00013269805459315955 -0.008725030893769279 0 -0.00035022535811644477 -0.0088237302732239141 0 -0.00028895954345220011 -0.0091311379487775037 0 -0.00035022535811644477 -0.0088237302732239141 0 -0.00053210567389806631 -0.0092623086864235104 0 -0.00035022535811644477 -0.0088237302732239141 0 -0.00053210567389806631 -0.0092623086864235104 0 -0.00065243448512745212 -0.0090521147525442231 0 -0.00053210567389806631 -0.0092623086864235104 0 -0.00065243448512745212 -0.0090521147525442231 0 -0.00075361632152737799 -0.0092813652816020331 0 -0.00065243448512745212 -0.0090521147525442231 0 -0.00075361632152737799 -0.0092813652816020331 0 -0.00094001883335862802 -0.0091954628903621171 0 -0.00075361632152737799 -0.0092813652816020331 0 -0.00094001883335862802 -0.0091954628903621171 0 -0.00096866097708474762 -0.0094282870846731544 0 -0.00065243448512745212 -0.0090521147525442231 0 -0.00069037854588410805 -0.0087753496220251224 0 -0.00094001883335862802 -0.0091954628903621171 0 -0.00069037854588410805 -0.0087753496220251224 0 -0.0010646562469732422 -0.0092251375271411428 0 -0.00094001883335862802 -0.0091954628903621171 0 -0.00035022535811644477 -0.0088237302732239141 0 -0.00069037854588410805 -0.0087753496220251224 0 -0.00020405481971732866 -0.0084513778666745146 0 -0.00035022535811644477 -0.0088237302732239141 0 -0.00065243448512745212 -0.0090521147525442231 0 -0.00069037854588410805 -0.0087753496220251224 0 -0.00092551096771649249 -0.0090031376780377072 0 -0.00062932084575602375 -0.0087601948802775286 0 -0.0011973538589110458 -0.0092224656179215013 0 -0.0011674106793931255 -0.009501762773275281 0 -0.0010646562469732422 -0.0092251375271411428 0 -0.00092551096771649249 -0.0090031376780377072 0 -0.001035867735589257 -0.0091890355508966581 0 -0.0011973538589110458 -0.0092224656179215013 0 -0.0011667548219649543 -0.0092924200363740644 0 -0.0011674106793931255 -0.009501762773275281 0 -0.0011973538589110458 -0.0092224656179215013 0 -0.0011667548219649543 -0.0092924200363740644 0 -0.0011277210454305904 -0.0090839500480770271 0 -0.0011973538589110458 -0.0092224656179215013 0 -0.0011277210454305904 -0.0090839500480770271 0 -0.0010626987938818311 -0.0090696155714813497 0 -0.00031712796772036044 -0.008452223493259187 0 -0.00062932084575602375 -0.0087601948802775286 0 -0.00066149238452972183 -0.008753169230454716 0 -0.0010626987938818311 -0.0090696155714813497 0 -0.0009053793097893566 -0.0088045686033045491 0 -0.0011277210454305904 -0.0090839500480770271 0 -0.0010626987938818311 -0.0090696155714813497 0 -0.0009053793097893566 -0.0088045686033045491 0 -0.0011277210454305904 -0.0090839500480770271 0 -0.0009053793097893566 -0.0088045686033045491 0 -0.0011286389484240883 -0.0088464305172115138 0 -0.0011277210454305904 -0.0090839500480770271 0 -0.0011286389484240883 -0.0088464305172115138 0 -0.0011273325868797152 -0.0091986101179805553 0 -0.0011277210454305904 -0.0090839500480770271 0 -0.0011273325868797152 -0.0091986101179805553 0 -0.0011586072264164748 -0.0094257795483145123 0 -0.0011273325868797152 -0.0091986101179805553 0 -0.0011862317564039014 -0.0093092500959208249 0 -0.0011350641317267017 -0.0094797250194018755 0 -0.0011273325868797152 -0.0091986101179805553 0 -0.0011350641317267017 -0.0094797250194018755 0 -0.0011586072264164748 -0.0094257795483145123 0 -0.0011286389484240883 -0.0088464305172115138 0 -0.0011273325868797152 -0.0091986101179805553 0 -0.0011862317564039014 -0.0093092500959208249 0 -0.0015510423683411136 -0.0092415379509727114 0 -0.0011286389484240883 -0.0088464305172115138 0 -0.0011862317564039014 -0.0093092500959208249 0 -0.0015510423683411136 -0.0092415379509727114 0 -0.0011862317564039014 -0.0093092500959208249 0 -0.0013615078756625608 -0.0095420863209011407 0 -0.0011862317564039014 -0.0093092500959208249 0 -0.0013615078756625608 -0.0095420863209011407 0 -0.0011937444815388529 -0.0095523061910170494 0 -0.0011862317564039014 -0.0093092500959208249 0 -0.0011937444815388529 -0.0095523061910170494 0 -0.0011350641317267017 -0.0094797250194018755 0 -0.0011937444815388529 -0.0095523061910170494 0 -0.0011350641317267017 -0.0094797250194018755 0 -0.0011304544205431805 -0.0097010087173531236 0 -0.0030220238663522746 -0.011121668402614228 0 -0.0028717435952745974 -0.01100861368949092 0 -0.0011937444815388529 -0.0095523061910170494 0 -0.0012612149615676823 -0.0096822493661585726 0 -0.0011304544205431805 -0.0097010087173531236 0 -0.0050779056677359886 -0.012408559784749289 0 -0.0045045017019795198 -0.012291010530793681 0 -0.0049130121416497002 -0.012703389142265807 0 -0.0036725817901587876 -0.01172199620012433 0 -0.0030220238663522746 -0.011121668402614228 0 -0.0013615078756625608 -0.0095420863209011407 0 -0.0011937444815388529 -0.0095523061910170494 0 -0.0012612149615676823 -0.0096822493661585726 0 -0.002463217282658926 -0.0099742879292837663 0 -0.0022715088500613544 -0.0097494679574612816 0 -0.0020667280533814463 -0.010100150309917455 0 -0.0018253960300438484 -0.0096020383643630192 0 -0.0030220238663522746 -0.011121668402614228 0 -0.0028717435952745974 -0.01100861368949092 0 -0.0023253437161057677 -0.011000448007116631 0 -0.0043257814338966477 -0.012518541271902817 0 -0.0037431035759330953 -0.012268200816517609 0 -0.0038495984948372776 -0.01213867309503614 0 -0.0069389071821360261 -0.014096678905476452 0 -0.0052778920324719229 -0.013260484246349725 0 -0.0043257814338966477 -0.012518541271902817 0 -0.0045045017019795198 -0.012291010530793681 0 -0.0038495984948372776 -0.01213867309503614 0 -0.0090496061011925526 -0.015420320784232984 0 -0.0065961900916333433 -0.014149047228687031 0 -0.006905343237183446 -0.016183108199627098 0 -0.0043257814338966477 -0.012518541271902817 0 -0.0045045017019795198 -0.012291010530793681 0 -0.0048337309991468343 -0.012730725175240841 0 -0.0011350641317267017 -0.0094797250194018755 0 -0.0011304544205431805 -0.0097010087173531236 0 -0.0011425159382139531 -0.0097080001507578381 0 -0.0011425159382139531 -0.0097080001507578381 0 -0.0011626724076801837 -0.0098589065734391423 0 -0.0011433817338067495 -0.010004756330664916 0 -0.0011304544205431805 -0.0097010087173531236 0 -0.0011425159382139531 -0.0097080001507578381 0 -0.0011433817338067495 -0.010004756330664916 0 -0.0011425159382139531 -0.0097080001507578381 0 -0.0011586072264164748 -0.0094257795483145123 0 -0.0011626724076801837 -0.0098589065734391423 0 -0.0011350641317267017 -0.0094797250194018755 0 -0.0011425159382139531 -0.0097080001507578381 0 -0.0011586072264164748 -0.0094257795483145123 0 -0.0011667548219649543 -0.0092924200363740644 0 -0.0011277210454305904 -0.0090839500480770271 0 -0.0011586072264164748 -0.0094257795483145123 0 -0.0011586072264164748 -0.0094257795483145123 0 -0.0011626724076801837 -0.0098589065734391423 0 -0.0011674106793931255 -0.009501762773275281 0 -0.0011667548219649543 -0.0092924200363740644 0 -0.0011586072264164748 -0.0094257795483145123 0 -0.0011674106793931255 -0.009501762773275281 0 -0.0010975159685914903 -0.009958479999431542 0 -0.0011626724076801837 -0.0098589065734391423 0 -0.0011674106793931255 -0.009501762773275281 0 -0.0010975159685914903 -0.009958479999431542 0 -0.0010352732147327142 -0.0095740816644771902 0 -0.0011674106793931255 -0.009501762773275281 0 -0.0010975159685914903 -0.009958479999431542 0 -0.00076421589685762414 -0.0097042975903158784 0 -0.0010352732147327142 -0.0095740816644771902 0 -0.0010975159685914903 -0.009958479999431542 0 -0.0010977728717558679 -0.010421647459932697 0 -0.00088802249066498935 -0.01056871985506423 0 -0.0010977728717558679 -0.010421647459932697 0 -0.0009866729279938717 -0.010860744782034566 0 -0.00088802249066498935 -0.01056871985506423 0 -0.0010975159685914903 -0.009958479999431542 0 -0.0011626724076801837 -0.0098589065734391423 0 -0.0010977728717558679 -0.010421647459932697 0 -0.002625010332933947 -0.011820692637546162 0 -0.0023253437161057677 -0.011000448007116631 0 -0.0011626724076801837 -0.0098589065734391423 0 -0.0010977728717558679 -0.010421647459932697 0 -0.0011433817338067495 -0.010004756330664916 0 -0.0010977728717558679 -0.010421647459932697 0 -0.0010671285339950267 -0.010620978144475195 0 -0.0011433817338067495 -0.010004756330664916 0 -0.0010977728717558679 -0.010421647459932697 0 -0.0010671285339950267 -0.010620978144475195 0 -0.0009866729279938717 -0.010860744782034566 0 -0.0038485856515748668 -0.012654456824824864 0 -0.0044123357048295965 -0.01538955250085971 0 -0.0021364837173879869 -0.013943276640090147 0 -0.0038485856515748668 -0.012654456824824864 0 -0.0044123357048295965 -0.01538955250085971 0 -0.0065961900916333433 -0.014149047228687031 0 -0.002625010332933947 -0.011820692637546162 0 -0.0052778920324719229 -0.013260484246349725 0 -0.0030884749256772093 -0.01196205696225594 0 -0.0037431035759330953 -0.012268200816517609 0 -0.0038495984948372776 -0.01213867309503614 0 -0.0044123357048295965 -0.01538955250085971 0 -0.0065961900916333433 -0.014149047228687031 0 -0.006905343237183446 -0.016183108199627098 0 0.00035084452161284255 -0.014081156517540527 0 -0.0021364837173879869 -0.013943276640090147 0 -0.0018723253440429076 -0.016067741608438879 0 0.00035084452161284255 -0.014081156517540527 0 -0.0021364837173879869 -0.013943276640090147 0 -0.00078741728659492455 -0.011796578336014687 0 -0.0044123357048295965 -0.01538955250085971 0 -0.0021364837173879869 -0.013943276640090147 0 -0.0018723253440429076 -0.016067741608438879 0 -0.0010671285339950267 -0.010620978144475195 0 -0.0009866729279938717 -0.010860744782034566 0 -0.00078741728659492455 -0.011796578336014687 0 -0.0038485856515748668 -0.012654456824824864 0 -0.0021364837173879869 -0.013943276640090147 0 -0.00078741728659492455 -0.011796578336014687 0 -0.002625010332933947 -0.011820692637546162 0 -0.00074787948750305855 -0.011645878508426149 0 -0.0009866729279938717 -0.010860744782034566 0 -0.00078741728659492455 -0.011796578336014687 0 -0.00088802249066498935 -0.01056871985506423 0 0.00035084452161284255 -0.014081156517540527 0 -0.00078741728659492455 -0.011796578336014687 0 0.0010675955340456521 -0.011944892618288849 0 -0.00078741728659492455 -0.011796578336014687 0 0.00016856429177792385 -0.010665815445356804 0 0.0010675955340456521 -0.011944892618288849 0 -0.00078741728659492455 -0.011796578336014687 0 0.00016856429177792385 -0.010665815445356804 0 -0.00088802249066498935 -0.01056871985506423 0 0.00016856429177792385 -0.010665815445356804 0 -0.00088802249066498935 -0.01056871985506423 0 -0.00076421589685762414 -0.0097042975903158784 0 -0.0010975159685914903 -0.009958479999431542 0 -0.00088802249066498935 -0.01056871985506423 0 -0.00076421589685762414 -0.0097042975903158784 0 0.00016856429177792385 -0.010665815445356804 0 -0.00076421589685762414 -0.0097042975903158784 0 0.0007405955798610532 -0.0099303181845735167 0 -0.00076123625221862022 -0.0097097361779102491 0 -9.0450712637671601e-05 -0.0094239073945796819 0 -0.00076421589685762414 -0.0097042975903158784 0 -0.00081775242545964379 -0.0094386482879719891 0 -0.00076257916170975474 -0.0094648497123898702 0 -0.00076421589685762414 -0.0097042975903158784 0 0.00064819912976756856 -0.0093508543050451805 0 0.0007405955798610532 -0.0099303181845735167 0 -0.00081775242545964379 -0.0094386482879719891 0 -0.00076257916170975474 -0.0094648497123898702 0 -0.00089181503443887516 -0.0097544498949285845 0 -0.00076257916170975474 -0.0094648497123898702 0 -0.001034907646922235 -0.0093147280350894361 0 -0.00093802280989457257 -0.0094474148974265388 0 -0.00076421589685762414 -0.0097042975903158784 0 -0.00076257916170975474 -0.0094648497123898702 0 -0.00093802280989457257 -0.0094474148974265388 0 -0.00076421589685762414 -0.0097042975903158784 0 -0.00093802280989457257 -0.0094474148974265388 0 -0.0010352732147327142 -0.0095740816644771902 0 -0.00093802280989457257 -0.0094474148974265388 0 -0.0010352732147327142 -0.0095740816644771902 0 -0.0010646562469732422 -0.0092251375271411428 0 -0.0010352732147327142 -0.0095740816644771902 0 -0.0011674106793931255 -0.009501762773275281 0 -0.0010646562469732422 -0.0092251375271411428 0 -0.001034907646922235 -0.0093147280350894361 0 -0.00093802280989457257 -0.0094474148974265388 0 -0.0010646562469732422 -0.0092251375271411428 0 -0.001034907646922235 -0.0093147280350894361 0 -0.0010646562469732422 -0.0092251375271411428 0 -0.0010822081244449117 -0.0092809946991754683 0 -0.0010646562469732422 -0.0092251375271411428 0 -0.0010822081244449117 -0.0092809946991754683 0 -0.00094001883335862802 -0.0091954628903621171 0 -0.00094001883335862802 -0.0091954628903621171 0 -0.00096866097708474762 -0.0094282870846731544 0 -0.0011606870819561462 -0.0095088643177012825 0 -0.0010822081244449117 -0.0092809946991754683 0 -0.00094001883335862802 -0.0091954628903621171 0 -0.0011606870819561462 -0.0095088643177012825 0 -0.0010822081244449117 -0.0092809946991754683 0 -0.0011606870819561462 -0.0095088643177012825 0 -0.0012247849869910759 -0.0093030237759075471 0 -0.0015824734056017746 -0.0099730036261316355 0 -0.0011606870819561462 -0.0095088643177012825 0 -0.0012247849869910759 -0.0093030237759075471 0 -0.00087088243309421567 -0.010461704608431349 0 -0.00083245079011864346 -0.0096981784928157049 0 -0.00071352307215302637 -0.010520235734249875 0 -0.00043679421580993839 -0.010056988993473594 0 -0.0008577574679867301 -0.010118750562844137 0 -0.00043679421580993839 -0.010056988993473594 0 -0.00089181503443887516 -0.0097544498949285845 0 -0.0008577574679867301 -0.010118750562844137 0 -0.00076257916170975474 -0.0094648497123898702 0 -0.00043679421580993839 -0.010056988993473594 0 -0.00089181503443887516 -0.0097544498949285845 0 -0.00076983090535716781 -0.0095072764019709897 0 -0.00083245079011864346 -0.0096981784928157049 0 -0.001034907646922235 -0.0093147280350894361 0 -0.0010822081244449117 -0.0092809946991754683 0 -0.0012247849869910759 -0.0093030237759075471 0 -0.00076257916170975474 -0.0094648497123898702 0 -0.001034907646922235 -0.0093147280350894361 0 -0.0012247849869910759 -0.0093030237759075471 0 -0.0014148357527212481 -0.010063009934447807 0 -0.001131188363697342 -0.0099861542287880359 0 -0.0013009214240108805 -0.0096527573619825807 0 -0.00089181503443887516 -0.0097544498949285845 0 -0.001131188363697342 -0.0099861542287880359 0 -0.0008577574679867301 -0.010118750562844137 0 -0.00089181503443887516 -0.0097544498949285845 0 -0.001131188363697342 -0.0099861542287880359 0 -0.0013009214240108805 -0.0096527573619825807 0 -0.00071352307215302637 -0.010520235734249875 0 -0.0008577574679867301 -0.010118750562844137 0 -0.0010961953177455463 -0.010300952776757306 0 -0.001131188363697342 -0.0099861542287880359 0 -0.0008577574679867301 -0.010118750562844137 0 -0.0010961953177455463 -0.010300952776757306 0 -0.0014148357527212481 -0.010063009934447807 0 -0.001131188363697342 -0.0099861542287880359 0 -0.0010961953177455463 -0.010300952776757306 0 -0.0014148357527212481 -0.010063009934447807 0 -0.0010961953177455463 -0.010300952776757306 0 -0.0012974234165258887 -0.010442806389388706 0 -0.0014148357527212481 -0.010063009934447807 0 -0.0012974234165258887 -0.010442806389388706 0 -0.0015732621190322766 -0.010373825645240056 0 0.0024563493899019038 -0.010668976409946972 0 0.0017097564286417759 -0.010546642601707443 0 0.0020075957324961215 -0.0098791570177535273 0 0.00036299712187089786 -0.010518753953143927 0 0.00081755124474908755 -0.0099908370962191462 0 -0.0014148357527212481 -0.010063009934447807 0 -0.0015732621190322766 -0.010373825645240056 0 -0.0018029471984484214 -0.0099502226314145664 0 0.0017097564286417759 -0.010546642601707443 0 0.0018646754059669043 -0.0099783119132340285 0 0.0020075957324961215 -0.0098791570177535273 0 0.00021507898659335758 -0.019358599829943434 0 0.00026507860952952931 -0.019246135803323551 0 0.00020383779400393498 -0.019270125596289777 0 0.0017097564286417759 -0.010546642601707443 0 0.0017807631532214133 -0.009846383368704999 0 0.0017108008658252496 -0.0097351360092106601 0 0.0017712973201004149 -0.0096402584990988478 0 0.0018170886859542287 -0.0097094803997535492 0 0.0017307704924939557 -0.0097020137555641189 0 0.0017097564286417759 -0.010546642601707443 0 0.0018646754059669043 -0.0099783119132340285 0 0.0017807631532214133 -0.009846383368704999 0 0.0010497425610711299 -0.015020791224204333 0 0.00081923444718686508 -0.014392599629883188 0 0.0018646754059669043 -0.0099783119132340285 0 0.0019927749390770888 -0.0098921935298022165 0 0.0018547314807762277 -0.0098466742115771461 0 0.0018646754059669043 -0.0099783119132340285 0 0.0018547314807762277 -0.0098466742115771461 0 0.0017807631532214133 -0.009846383368704999 0 0.0013715254188991232 -0.0097939913805855736 0 0.00081755124474908755 -0.0099908370962191462 0 0.0019927749390770888 -0.0098921935298022165 0 0.0018170886859542287 -0.0097094803997535492 0 0.0018547314807762277 -0.0098466742115771461 0 0.00081755124474908755 -0.0099908370962191462 0 0.0012520071551159655 -0.010040118001307512 0 0.0018170886859542287 -0.0097094803997535492 0 0.0018547314807762277 -0.0098466742115771461 0 0.0017807631532214133 -0.009846383368704999 0 0.0018170886859542287 -0.0097094803997535492 0 0.0017807631532214133 -0.009846383368704999 0 0.0017925250650660581 -0.0097284926104051171 0 0.0017807631532214133 -0.009846383368704999 0 0.0017925250650660581 -0.0097284926104051171 0 0.0017108008658252496 -0.0097351360092106601 0 0.00081755124474908755 -0.0099908370962191462 0 -0.00011233918814088247 -0.0095732206087808368 0 -0.0014148357527212481 -0.010063009934447807 0 -0.0018029471984484214 -0.0099502226314145664 0 -0.0013009214240108805 -0.0096527573619825807 0 0.0017712973201004149 -0.0096402584990988478 0 0.0017307704924939557 -0.0097020137555641189 0 0.0014441705661570544 -0.0094767536460777669 0 0.0017307704924939557 -0.0097020137555641189 0 0.0015604299285718252 -0.0097791358889181747 0 0.0014441705661570544 -0.0094767536460777669 0 0.0018170886859542287 -0.0097094803997535492 0 0.0017307704924939557 -0.0097020137555641189 0 0.0017925250650660581 -0.0097284926104051171 0 0.0017307704924939557 -0.0097020137555641189 0 0.0017925250650660581 -0.0097284926104051171 0 0.0018471685141059776 -0.0097913271047744815 0 0.0018471685141059776 -0.0097913271047744815 0 0.0017297191220547777 -0.0099233353742125812 0 0.0019851979881171143 -0.010058755940327978 0 0.0017307704924939557 -0.0097020137555641189 0 0.0018471685141059776 -0.0097913271047744815 0 0.0017297191220547777 -0.0099233353742125812 0 0.0017297191220547777 -0.0099233353742125812 0 0.0015604299285718252 -0.0097791358889181747 0 0.0014987848680801112 -0.01007392777457569 0 0.0017307704924939557 -0.0097020137555641189 0 0.0017297191220547777 -0.0099233353742125812 0 0.0015604299285718252 -0.0097791358889181747 0 0.0015604299285718252 -0.0097791358889181747 0 0.0013773836886195442 -0.009783260022134567 0 0.0014987848680801112 -0.01007392777457569 0 0.0015604299285718252 -0.0097791358889181747 0 0.0013773836886195442 -0.009783260022134567 0 0.0014441705661570544 -0.0094767536460777669 0 -9.0450712637671601e-05 -0.0094239073945796819 0 -0.00011233918814088247 -0.0095732206087808368 0 -0.00081775242545964379 -0.0094386482879719891 0 -0.00089181503443887516 -0.0097544498949285845 0 -0.0013009214240108805 -0.0096527573619825807 0 0.00064819912976756856 -0.0093508543050451805 0 0.0013773836886195442 -0.009783260022134567 0 0.0014441705661570544 -0.0094767536460777669 0 0.00064819912976756856 -0.0093508543050451805 0 0.0013773836886195442 -0.009783260022134567 0 0.0007405955798610532 -0.0099303181845735167 0 0.0013773836886195442 -0.009783260022134567 0 0.0007405955798610532 -0.0099303181845735167 0 0.0022652509134918012 -0.010823051114992648 0 0.0013773836886195442 -0.009783260022134567 0 0.0012263945253438162 -0.010396545113931208 0 0.0014987848680801112 -0.01007392777457569 0 0.0014336518588384131 -0.0098119383877535542 0 0.001770954296907144 -0.0108160932995901 0 0.00016856429177792385 -0.010665815445356804 0 0.0022652509134918012 -0.010823051114992648 0 0.0010675955340456521 -0.011944892618288849 0 0.00016856429177792385 -0.010665815445356804 0 0.0007405955798610532 -0.0099303181845735167 0 0.0022652509134918012 -0.010823051114992648 0 0.00035084452161284255 -0.014081156517540527 0 0.0010675955340456521 -0.011944892618288849 0 0.0033570630840804362 -0.013251007457887118 0 0.001770954296907144 -0.0108160932995901 0 0.0022593950569514613 -0.011508535729423799 0 0.0022652509134918012 -0.010823051114992648 0 0.0010675955340456521 -0.011944892618288849 0 0.0033570630840804362 -0.013251007457887118 0 0.0012241432950845256 -0.011015307595498609 0 0.0014536148006104304 -0.011684755114168704 0 0.001277462825405453 -0.011766119887452447 0 0.0033570630840804362 -0.013251007457887118 0 0.0020858115332280463 -0.015607475654601995 0 0.004170065900797968 -0.016584042660527758 0 0.0022593950569514613 -0.011508535729423799 0 0.0024596187586509674 -0.017349857319389105 0 0.00035084452161284255 -0.014081156517540527 0 0.0020858115332280463 -0.015607475654601995 0 0.00041332653920989114 -0.016453079253709497 0 0.00035084452161284255 -0.014081156517540527 0 0.0033570630840804362 -0.013251007457887118 0 0.0020858115332280463 -0.015607475654601995 0 0.0014529978782845871 -0.017708985065022734 0 0.0015518582240248765 -0.017833650170614519 0 0.0013074222284599427 -0.017914112503499044 0 0.0014529978782845871 -0.017708985065022734 0 0.0015518582240248765 -0.017833650170614519 0 0.0015809695714219577 -0.017665445045447124 0 0.0012241432950845256 -0.011015307595498609 0 0.0018631763580441243 -0.011027402755655998 0 0.0014536148006104304 -0.011684755114168704 0 0.0016277722414042295 -0.0139313454220472 0 0.0022059926842914871 -0.017671827894172723 0 0.0012241432950845256 -0.011015307595498609 0 0.0018631763580441243 -0.011027402755655998 0 0.0017191582197653987 -0.010350225754284641 0 0.0016277722414042295 -0.0139313454220472 0 0.0019271712766635563 -0.013808802098198706 0 0.0018631763580441243 -0.011027402755655998 0 0.0017191582197653987 -0.010350225754284641 0 0.0020989756281519709 -0.010502646539614314 0 0.0014529978782845871 -0.017708985065022734 0 0.0016291857231085693 -0.017435212474666506 0 0.0015809695714219577 -0.017665445045447124 0 0.0017191582197653987 -0.010350225754284641 0 0.0019851979881171143 -0.010058755940327978 0 0.0020989756281519709 -0.010502646539614314 0 0.0012263945253438162 -0.010396545113931208 0 0.0012241432950845256 -0.011015307595498609 0 0.0017191582197653987 -0.010350225754284641 0 0.0012263945253438162 -0.010396545113931208 0 0.0017191582197653987 -0.010350225754284641 0 0.0014987848680801112 -0.01007392777457569 0 0.0017297191220547777 -0.0099233353742125812 0 0.0017191582197653987 -0.010350225754284641 0 0.0014987848680801112 -0.01007392777457569 0 0.0017297191220547777 -0.0099233353742125812 0 0.0017191582197653987 -0.010350225754284641 0 0.0019851979881171143 -0.010058755940327978 0 0.0019851979881171143 -0.010058755940327978 0 0.0022684077179830195 -0.010152007886900745 0 0.0020989756281519709 -0.010502646539614314 0 0.0019484386165139547 -0.014965571795877781 0 0.0014251447706505036 -0.018945181951230156 0 0.00050863551602578223 -0.018033166378899512 0 0.0011505160321483028 -0.01950568392392046 0 0.0010926022815797589 -0.017862764535333919 0 0.00061914159414200721 -0.01982820491448713 0 0.00056415820432947374 -0.019154155514129845 0 0.00050863551602578223 -0.018033166378899512 0 0.0010926022815797589 -0.017862764535333919 0 0.00095225145096354134 -0.017503545798440268 0 0.00019418912876506295 -0.021210654839584002 0 0.00018710668328907626 -0.020106233080866329 0 -0.00010091604912810975 -0.020453075293065111 0 0.0019484386165139547 -0.014965571795877781 0 0.00056415820432947374 -0.019154155514129845 0 0.0018795392346548697 -0.017093689161856673 0 0.0017768457786745588 -0.017338199196634853 0 0.0016291857231085693 -0.017435212474666506 0 0.0019484386165139547 -0.014965571795877781 0 0.0019271712766635563 -0.013808802098198706 0 0.0018795392346548697 -0.017093689161856673 0 0.0017768457786745588 -0.017338199196634853 0 0.0020067402140792985 -0.017387538957178161 0 0.0018485584559442545 -0.017519934888382018 0 0.0014251447706505036 -0.018945181951230156 0 0.0017768457786745588 -0.017338199196634853 0 0.0018177055105765671 -0.017557082214470273 0 0.0019731447026191773 -0.017407494475759691 0 0.0017768457786745588 -0.017338199196634853 0 0.0016291857231085693 -0.017435212474666506 0 0.0018177055105765671 -0.017557082214470273 0 0.0016291857231085693 -0.017435212474666506 0 0.0016861353541284731 -0.01766550604754424 0 0.0018177055105765671 -0.017557082214470273 0 0.0016291857231085693 -0.017435212474666506 0 0.0015809695714219577 -0.017665445045447124 0 0.0016861353541284731 -0.01766550604754424 0 0.0016861353541284731 -0.01766550604754424 0 0.0018177055105765671 -0.017557082214470273 0 0.0018887498522801656 -0.017748038889328913 0 0.0018177055105765671 -0.017557082214470273 0 0.0018887498522801656 -0.017748038889328913 0 0.0020645635490184259 -0.017666269442396566 0 0.0018177055105765671 -0.017557082214470273 0 0.0020645635490184259 -0.017666269442396566 0 0.0019731447026191773 -0.017407494475759691 0 0.00012438846939488843 -0.024478019297271482 0 -3.2949165156779772e-05 -0.024276987717062062 0 0.00033051098982013 -0.024114080367698909 0 0.0010591861099916451 -0.024489946039483922 0 0.00012438846939488843 -0.024478019297271482 0 -0.00010964171791739899 -0.024511606872237475 0 0.00012438846939488843 -0.024478019297271482 0 3.5910594689115789e-05 -0.024445167734607212 0 -3.2949165156779772e-05 -0.024276987717062062 0 -0.00014258231248338391 -0.023119704079207323 0 0.00091689355716967824 -0.021875853027427707 0 0.0010591861099916451 -0.024489946039483922 0 0.00012438846939488843 -0.024478019297271482 0 0.00033051098982013 -0.024114080367698909 0 0.0012803122031076085 -0.021510300846201556 0 0.00091689355716967824 -0.021875853027427707 0 0.0015518582240248765 -0.017833650170614519 0 0.0016861353541284731 -0.01766550604754424 0 0.0018887498522801656 -0.017748038889328913 0 0.0015518582240248765 -0.017833650170614519 0 0.0015809695714219577 -0.017665445045447124 0 0.0016861353541284731 -0.01766550604754424 0 -2.0689464615410542e-05 -0.024762174438230766 0 -0.00011322139615342485 -0.02463087740252614 0 -2.9806644451197484e-05 -0.024899940663841141 0 -6.2181363782060495e-06 -0.024997261084029068 0 1.235637656214147e-08 -0.024999967949922888 0 -5.0738619611935705e-09 -0.025000010286623207 0 7.4972514468356899e-05 -0.024961034931606764 0 0.00048414585772050287 -0.023660100304928638 0 -6.2181363782060495e-06 -0.024997261084029068 0 1.235637656214147e-08 -0.024999967949922888 0 -6.204502960204557e-06 -0.024983006147998511 0 3.5910594689115789e-05 -0.024445167734607212 0 -3.2949165156779772e-05 -0.024276987717062062 0 -0.00010308404615287154 -0.024428864732613912 0 -3.2949165156779772e-05 -0.024276987717062062 0 -0.00010308404615287154 -0.024428864732613912 0 -0.00010520565581790552 -0.024185046034924093 0 0.00073831482370243797 -0.02309735580162264 0 -0.00014435496449345122 -0.024810340645323611 0 0.0010146504748619967 -0.021112715136368039 0 0.0014251447706505036 -0.018945181951230156 0 -2.0689464615410542e-05 -0.024762174438230766 0 -0.00011322139615342485 -0.02463087740252614 0 -6.1208978701099602e-05 -0.024610066666773397 0 0.0011611909152793997 -0.021508665960486024 0 0.0015088343628080669 -0.021319034935099231 0 0.0011490678010557074 -0.020370020295651846 0 0.0013384688639353725 -0.02182975350823093 0 0.0015555096466473625 -0.022321644586692786 0 0.00075979594845810726 -0.022383118955692553 0 0.0010146504748619967 -0.021112715136368039 0 0.00057237816601933317 -0.02250950943675524 0 0.0015555096466473625 -0.022321644586692786 0 0.00075979594845810726 -0.022383118955692553 0 0.00022372987837665357 -0.023054137921327721 0 0.00073831482370243797 -0.02309735580162264 0 0.0010146504748619967 -0.021112715136368039 0 0.00073831482370243797 -0.02309735580162264 0 0.00048414585772050287 -0.023660100304928638 0 0.00075979594845810726 -0.022383118955692553 0 -4.3702209767986763e-05 -0.022359921137047604 0 0.00022372987837665357 -0.023054137921327721 0 0.0013384688639353725 -0.02182975350823093 0 0.00075979594845810726 -0.022383118955692553 0 -4.3702209767986763e-05 -0.022359921137047604 0 0.00048414585772050287 -0.023660100304928638 0 0.00057237816601933317 -0.02250950943675524 0 0.00091689355716967824 -0.021875853027427707 0 0.0010146504748619967 -0.021112715136368039 0 0.0011912260217514029 -0.022017687208513027 0 0.00049196081929762307 -0.022286068672726464 0 0.00053335612399512062 -0.022379341477991452 0 0.00091689355716967824 -0.021875853027427707 0 0.00073831482370243797 -0.02309735580162264 0 0.00057237816601933317 -0.02250950943675524 0 0.00095860221961667567 -0.021088989999899957 0 7.0855782503569032e-11 -0.02499999853715722 0 8.0259341296142769e-07 -0.024998090748276098 0 1.2042727017833347e-09 -0.024999995639351017 0 0.00064787254275345163 -0.022795655306581161 0 0.00088181689449347972 -0.022668814479087869 0 0.000689222229728342 -0.022363668590754112 0 0.00016063283305705188 -0.023677409035120688 0 0.0001736433348773939 -0.02438769540877395 0 0.00048414585772050287 -0.023660100304928638 0 0.0001736433348773939 -0.02438769540877395 0 0.00070083783868202015 -0.02324280559290352 0 0.00079687647601507465 -0.023491826147056763 0 0.00015365455111854574 -0.023846744161061299 0 0.00070083783868202015 -0.02324280559290352 0 0.00015365455111854574 -0.023846744161061299 0 -4.9588615604079642e-05 -0.02353211296206012 0 0.00057237816601933317 -0.02250950943675524 0 0.00016063283305705188 -0.023677409035120688 0 -1.7288506174656292e-05 -0.024969282666020238 0 -2.2568912479572642e-06 -0.024965067747265628 0 -6.204502960204557e-06 -0.024983006147998511 0 -6.2181363782060495e-06 -0.024997261084029068 0 -1.7288506174656292e-05 -0.024969282666020238 0 -6.204502960204557e-06 -0.024983006147998511 0 1.9475138076629699e-07 -0.025000254692096519 0 0.0001736433348773939 -0.02438769540877395 0 1.235637656214147e-08 -0.024999967949922888 0 -2.2568912479572642e-06 -0.024965067747265628 0 -6.204502960204557e-06 -0.024983006147998511 0 0.0001736433348773939 -0.02438769540877395 0 -1.956516249872413e-07 -0.024999685252212168 0 -9.0408859049752441e-05 -0.024991326146881335 0 6.3344089809335713e-08 -0.024999951949044166 0 -5.8424554064095836e-08 -0.024944894282562892 0 -9.0408859049752441e-05 -0.024991326146881335 0 -7.305006944372677e-05 -0.025018280500112063 0 6.3344089809335713e-08 -0.024999951949044166 0 0.00016063283305705188 -0.023677409035120688 0 -5.199625583778029e-05 -0.02409512631290343 0 -1.8243460390950549e-08 -0.024944886857430355 0 5.8041420114906126e-06 -0.024962291548757815 0 -4.118443022887424e-10 -0.024999939457215615 0 0.00022335815834948863 -0.023563882141051821 0 7.588129398727528e-05 -0.023646307872136823 0 0.00030383248092168868 -0.023685893693071374 0 -5.199625583778029e-05 -0.02409512631290343 0 0.0005037246810686522 -0.023167033099873689 0 -1.8243460390950549e-08 -0.024944886857430355 0 5.8041420114906126e-06 -0.024962291548757815 0 1.6286483847519569e-05 -0.024950093680449325 0 0.00016063283305705188 -0.023677409035120688 0 0.0005037246810686522 -0.023167033099873689 0 5.8041420114906126e-06 -0.024962291548757815 0 1.6286483847519569e-05 -0.024950093680449325 0 7.7511663295320965e-06 -0.024973660999487311 0 0.0017684934472843973 -0.019629569646784757 0 0.0011505160321483028 -0.01950568392392046 0 0.0010926022815797589 -0.017862764535333919 0 0.0011611909152793997 -0.021508665960486024 0 0.0011490678010557074 -0.020370020295651846 0 0.00062170128185912242 -0.020264899732250791 0 0.00095860221961667567 -0.021088989999899957 0 0.0014251447706505036 -0.018945181951230156 0 0.00064787254275345163 -0.022795655306581161 0 0.00046754568136747653 -0.022318139764735432 0 0.000689222229728342 -0.022363668590754112 0 0.00095860221961667567 -0.021088989999899957 0 0.0005037246810686522 -0.023167033099873689 0 1.6286483847519569e-05 -0.024950093680449325 0 1.4569568959952029e-05 -0.024963497654476002 0 7.7511663295320965e-06 -0.024973660999487311 0 0.00059808459321659339 -0.022407982008197068 0 0.00050761623093291929 -0.022391968371367539 0 0.00064853724054422205 -0.02261376187316156 0 0.0005037246810686522 -0.023167033099873689 0 0.00076038716941283929 -0.022752242623045357 0 0.00095860221961667567 -0.021088989999899957 0 0.00076038716941283929 -0.022752242623045357 0 1.4569568959952029e-05 -0.024963497654476002 0 -2.2950302893057845e-06 -0.024987024964837366 0 9.934062699401706e-06 -0.02497161257494953 0 1.4569568959952029e-05 -0.024963497654476002 0 7.7511663295320965e-06 -0.024973660999487311 0 -2.2950302893057845e-06 -0.024987024964837366 0 0.00098188147429373296 -0.021494245225481254 0 0.00083373266300521714 -0.020981470706578499 0 0.0006554131309243988 -0.020721414869431295 0 0.00095860221961667567 -0.021088989999899957 0 0.00061914159414200721 -0.01982820491448713 0 0.00076038716941283929 -0.022752242623045357 0 -0.00014710075252635142 -0.02232074388932161 0 0.00099605166851062551 -0.022446626032510887 0 0.00019418912876506295 -0.021210654839584002 0 0.00018710668328907626 -0.020106233080866329 0 0.00076038716941283929 -0.022752242623045357 0 0.00061914159414200721 -0.01982820491448713 0 7.7511663295320965e-06 -0.024973660999487311 0 -4.118443022887424e-10 -0.024999939457215615 0 -2.2950302893057845e-06 -0.024987024964837366 0 5.8041420114906126e-06 -0.024962291548757815 0 7.7511663295320965e-06 -0.024973660999487311 0 -4.118443022887424e-10 -0.024999939457215615 0 -2.2950302893057845e-06 -0.024987024964837366 0 -1.9554410097273573e-05 -0.024982726685540718 0 -3.1396453525683034e-08 -0.025000040267876888 0 -4.118443022887424e-10 -0.024999939457215615 0 -2.2950302893057845e-06 -0.024987024964837366 0 -3.1396453525683034e-08 -0.025000040267876888 0 -1.9554410097273573e-05 -0.024982726685540718 0 -3.1396453525683034e-08 -0.025000040267876888 0 6.4901535599324106e-08 -0.024999771223235955 0 -1.9554410097273573e-05 -0.024982726685540718 0 -0.00011090067321157469 -0.02495212964339704 0 -5.0365409231357924e-05 -0.02493270268566691 0 -1.9554410097273573e-05 -0.024982726685540718 0 -7.2690303609553768e-05 -0.024989932242901847 0 -0.00011090067321157469 -0.02495212964339704 0 -2.2950302893057845e-06 -0.024987024964837366 0 -1.9554410097273573e-05 -0.024982726685540718 0 9.934062699401706e-06 -0.02497161257494953 0 -0.00025865034854246315 -0.025839343143356324 0 -0.00014710075252635142 -0.02232074388932161 0 0.00047066381813940368 -0.019966699655228119 0 0.00043620181274688422 -0.020008221966239827 0 0.00027097113499747718 -0.019580765383058189 0 5.5705705446749704e-05 -0.018913625084642022 0 0.00013741991700437478 -0.019061054847915988 0 0.00010073436574492653 -0.019093552244006894 0 -0.00014710075252635142 -0.02232074388932161 0 0.00056415820432947374 -0.019154155514129845 0 0.0019484386165139547 -0.014965571795877781 0 0.0013121949432814747 -0.011827367727683519 0 0.0014339943418247346 -0.016394801100495592 0 0.0017298813835145181 -0.016041541462838246 0 0.00092317279381721226 -0.015243369369010598 0 0.00056415820432947374 -0.019154155514129845 0 0.00062531896585037486 -0.017180569405819617 0 0.0017298813835145181 -0.016041541462838246 0 0.00092317279381721226 -0.015243369369010598 0 0.0010522076302803577 -0.015090505773804367 0 0.00056415820432947374 -0.019154155514129845 0 0.00017575442984109484 -0.019384356549367654 0 -0.00014710075252635142 -0.02232074388932161 0 0.00014118628867842802 -0.02228028560712797 0 0.0019851979881171143 -0.010058755940327978 0 0.0022684077179830195 -0.010152007886900745 0 0.0020428298445129447 -0.0098422248717514645 0 0.0018471685141059776 -0.0097913271047744815 0 0.0019851979881171143 -0.010058755940327978 0 0.0020428298445129447 -0.0098422248717514645 0 0.0018471685141059776 -0.0097913271047744815 0 0.0020428298445129447 -0.0098422248717514645 0 0.0017108008658252496 -0.0097351360092106601 0 0.0013121949432814747 -0.011827367727683519 0 0.00081923444718686508 -0.014392599629883188 0 0.00013741991700437478 -0.019061054847915988 0 0.00010073436574492653 -0.019093552244006894 0 0.00020266512038183383 -0.019235431401133776 0 0.0017925250650660581 -0.0097284926104051171 0 0.0018471685141059776 -0.0097913271047744815 0 0.0017108008658252496 -0.0097351360092106601 0 0.00062531896585037486 -0.017180569405819617 0 0.00081923444718686508 -0.014392599629883188 0 0.00092317279381721226 -0.015243369369010598 0 0.0010522076302803577 -0.015090505773804367 0 0.00043155777103465447 -0.014143713050984582 0 0.00047066381813940368 -0.019966699655228119 0 0.00027097113499747718 -0.019580765383058189 0 0.00029349920035391875 -0.019475378121543836 0 0.00027097113499747718 -0.019580765383058189 0 0.00029349920035391875 -0.019475378121543836 0 0.00017547058625497176 -0.019288227674443683 0 0.00029349920035391875 -0.019475378121543836 0 0.00017547058625497176 -0.019288227674443683 0 0.00015910157651754671 -0.019238978355732371 0 -0.00011090067321157469 -0.02495212964339704 0 -0.00010304266447696764 -0.024867133400938869 0 -0.00020801367043334112 -0.024820392179328597 0 -0.00011090067321157469 -0.02495212964339704 0 -0.00010304266447696764 -0.024867133400938869 0 -5.0365409231357924e-05 -0.02493270268566691 0 0.00017575442984109484 -0.019384356549367654 0 0.0001732529596399805 -0.019277414233707647 0 0.00014118628867842802 -0.02228028560712797 0 -4.6448052788496183e-05 -0.021921367124812879 0 0.00017547058625497176 -0.019288227674443683 0 0.00020266512038183383 -0.019235431401133776 0 0.00015910157651754671 -0.019238978355732371 0 0.00010073436574492653 -0.019093552244006894 0 0.00017547058625497176 -0.019288227674443683 0 0.00020266512038183383 -0.019235431401133776 0 0.00015723280535303639 -0.019412033459291395 0 0.00015910157651754671 -0.019238978355732371 0 0.00020383779400393498 -0.019270125596289777 0 0.00020266512038183383 -0.019235431401133776 0 0.00015910157651754671 -0.019238978355732371 0 0.00020383779400393498 -0.019270125596289777 0 0.00026507860952952931 -0.019246135803323551 0 0.00020266512038183383 -0.019235431401133776 0 0.00020383779400393498 -0.019270125596289777 0 -0.00012438970818430604 -0.024715429376951096 0 -0.00010304266447696764 -0.024867133400938869 0 -0.00020801367043334112 -0.024820392179328597 0 -0.00012438970818430604 -0.024715429376951096 0 -0.00010304266447696764 -0.024867133400938869 0 -2.8306342990820997e-05 -0.024859822039585321 0 -1.2410021992845433e-05 -0.025080221193144379 0 -6.6474782642311664e-05 -0.024905452972809394 0 -6.6474782642311664e-05 -0.024905452972809394 0 1.983468469690949e-08 -0.024999993296114947 0 -3.2222448305259225e-08 -0.025000000645098129 0 -2.7809990779786489e-05 -0.025016096645675594 0 -5.2083954946083293e-11 -0.025000038504911604 0 -1.9554410097273573e-05 -0.024982726685540718 0 6.4901535599324106e-08 -0.024999771223235955 0 -5.0365409231357924e-05 -0.02493270268566691 0 -2.8306342990820997e-05 -0.024859822039585321 0 6.4901535599324106e-08 -0.024999771223235955 0 -5.0365409231357924e-05 -0.02493270268566691 0 -0.00010304266447696764 -0.024867133400938869 0 -2.8306342990820997e-05 -0.024859822039585321 0 -5.0365409231357924e-05 -0.02493270268566691 0 -9.5548541208510706e-05 -0.025096104794840715 0 0.00075859960227818663 -0.021832823390989464 0 -0.00052829973867285474 -0.024477576435308734 0 -0.00031107615977556092 -0.024583159083553668 0 -0.00036846855572081691 -0.024731500815319586 0 9.4370542100748025e-10 -0.024999967444891771 0 1.3221244993508419e-05 -0.024964333156282926 0 1.7243612812654094e-08 -0.024999967288358332 0 9.4370542100748025e-10 -0.024999967444891771 0 4.8602993577311266e-06 -0.024983705182044555 0 1.3221244993508419e-05 -0.024964333156282926 0 1.4055282736569383e-07 -0.024999947376411921 0 -9.5548541208510706e-05 -0.025096104794840715 0 1.7683607464541831e-08 -0.025000239871138374 0 2.8202214024795423e-05 -0.025026305050147218 0 9.6064947436356821e-09 -0.024999649175671552 0 -0.00052829973867285474 -0.024477576435308734 0 -0.00032492063590882714 -0.024345055396224165 0 -0.00031107615977556092 -0.024583159083553668 0 -9.5548541208510706e-05 -0.025096104794840715 0 -0.00031646151903867974 -0.024258423556469365 0 -0.00021222822843355524 -0.024539641008926815 0 -0.00032492063590882714 -0.024345055396224165 0 -0.00031107615977556092 -0.024583159083553668 0 -0.00021222822843355524 -0.024539641008926815 0 -3.6255445263357531e-06 -0.024605718996808898 0 -0.00033016963157546467 -0.024026301834304421 0 0.0022183572938212774 -0.016730476420612334 0 0.0025169825650458982 -0.01535439306580285 0 0.0018463681837411535 -0.015966267879300479 0 -0.00021222822843355524 -0.024539641008926815 0 -3.6255445263357531e-06 -0.024605718996808898 0 -0.00015403731461386476 -0.024707892648978724 0 0.0025169825650458982 -0.01535439306580285 0 0.0018463681837411535 -0.015966267879300479 0 0.0014018175323057035 -0.01538984737035615 0 0.0011250734677151794 -0.021032857696683394 0 0.00090739148540221746 -0.018208778987397645 0 -0.00021222822843355524 -0.024539641008926815 0 -0.00031107615977556092 -0.024583159083553668 0 -0.00015403731461386476 -0.024707892648978724 0 -0.00031107615977556092 -0.024583159083553668 0 -0.00015403731461386476 -0.024707892648978724 0 -0.00036846855572081691 -0.024731500815319586 0 0.00090739148540221746 -0.018208778987397645 0 0.00075859960227818663 -0.021832823390989464 0 0.0024093078818949276 -0.015151216339256467 0 0.0017949701598699666 -0.015183690503910094 0 0.0024989798147080811 -0.015371471618756695 0 0.0017493670081367776 -0.015367620120972664 0 0.0017949701598699666 -0.015183690503910094 0 0.0024989798147080811 -0.015371471618756695 0 0.0024093078818949276 -0.015151216339256467 0 0.0017949701598699666 -0.015183690503910094 0 0.0016117096981222592 -0.014778182789565797 0 0.0011789159631029776 -0.017781504974931167 0 0.0019455141682075427 -0.014697128761535935 0 0.00090739148540221746 -0.018208778987397645 0 0.0014595291545254445 -0.01521685040568644 0 0.0014281887518056346 -0.015111730964198006 0 0.0017559967354400948 -0.015352682693032766 0 0.0010037944650119989 -0.015375765720435749 0 0.0014281887518056346 -0.015111730964198006 0 0.0017559967354400948 -0.015352682693032766 0 0.0017949701598699666 -0.015183690503910094 0 0.00090739148540221746 -0.018208778987397645 0 0.0013820428743437701 -0.016395157417172367 0 0.0014281887518056346 -0.015111730964198006 0 0.0017949701598699666 -0.015183690503910094 0 0.0016117096981222592 -0.014778182789565797 0 0.0014281887518056346 -0.015111730964198006 0 0.0016117096981222592 -0.014778182789565797 0 0.0010517037361210198 -0.01489698323682203 0 0.0018776545927884714 -0.015076104288973808 0 0.0025000666138995458 -0.014643822316964348 0 0.0013675305587638339 -0.014204045842047918 0 0.00024004633637702728 -0.018627913956683229 0 0.0016588792247682197 -0.016956615209927566 0 -0.00045933694629367782 -0.019872133350645325 0 -0.0014073262885642135 -0.019650981430095919 0 -0.00083519485823525569 -0.020639826856228855 0 0.0028435904651070753 -0.015454885337232611 0 0.0018776545927884714 -0.015076104288973808 0 0.0025000666138995458 -0.014643822316964348 0 1.5629844372319696e-05 -0.020318615338341364 0 -0.0002262116573207738 -0.019781196769476667 0 0.00021554480537621572 -0.019933656458457301 0 0.0011789159631029776 -0.017781504974931167 0 0.00024004633637702728 -0.018627913956683229 0 0.00024004633637702728 -0.018627913956683229 0 -0.00079811531737996992 -0.019751433447060318 0 -0.0014073262885642135 -0.019650981430095919 0 -0.0022390549392265623 -0.019419563277645737 0 -0.0015873323751650818 -0.020382296495222621 0 0.00021554480537621572 -0.019933656458457301 0 0.00038885469324871196 -0.020165762515767655 0 0.00064942566578219567 -0.020091944389532754 0 -0.00079811531737996992 -0.019751433447060318 0 -0.00043567467980508174 -0.02245582669304198 0 0.0002730980957944171 -0.020413191925317934 0 0.000100472323096108 -0.020482395852535629 0 0.00089019309963404988 -0.020442577828416464 0 1.5629844372319696e-05 -0.020318615338341364 0 0.00021554480537621572 -0.019933656458457301 0 0.00038885469324871196 -0.020165762515767655 0 1.5629844372319696e-05 -0.020318615338341364 0 0.00038885469324871196 -0.020165762515767655 0 0.0002730980957944171 -0.020413191925317934 0 3.3581632423344958e-05 -0.020314578264310629 0 0.0002730980957944171 -0.020413191925317934 0 0.000100472323096108 -0.020482395852535629 0 0.0011789159631029776 -0.017781504974931167 0 0.00057777137275718236 -0.01923424467657486 0 0.0011789159631029776 -0.017781504974931167 0 0.00075859960227818663 -0.021832823390989464 0 0.00038885469324871196 -0.020165762515767655 0 0.0002730980957944171 -0.020413191925317934 0 0.00089019309963404988 -0.020442577828416464 0 0.00038885469324871196 -0.020165762515767655 0 0.00089019309963404988 -0.020442577828416464 0 0.00064942566578219567 -0.020091944389532754 0 0.00075859960227818663 -0.021832823390989464 0 0.00043642203540514637 -0.022568520836903919 0 5.9443419189868122e-07 -0.024998312165762905 0 -0.00043567467980508174 -0.02245582669304198 0 7.2438851236179619e-09 -0.025000020770941933 0 -1.6806659232314489e-08 -0.024999950725213341 0 -1.0960707900882941e-05 -0.02498561110412123 0 0.00043642203540514637 -0.022568520836903919 0 -0.00043567467980508174 -0.02245582669304198 0 -0.00043567467980508174 -0.02245582669304198 0 -0.00093350678642334958 -0.022571387566776142 0 2.8243172261090364e-08 -0.024999839936393067 0 -1.7971830360988747e-05 -0.025000424918235953 0 -1.7084114828826665e-05 -0.024972167359662421 0 -1.7971830360988747e-05 -0.025000424918235953 0 -1.7084114828826665e-05 -0.024972167359662421 0 -9.4037611260571857e-05 -0.024931392290682631 0 2.8243172261090364e-08 -0.024999839936393067 0 -1.7084114828826665e-05 -0.024972167359662421 0 -8.3538961326439863e-08 -0.025000273413153758 0 -1.7084114828826665e-05 -0.024972167359662421 0 -2.4180165709759451e-05 -0.02491540374102685 0 -8.3538961326439863e-08 -0.025000273413153758 0 -2.4180165709759451e-05 -0.02491540374102685 0 -8.3538961326439863e-08 -0.025000273413153758 0 -2.4145880917641919e-05 -0.024728788771945429 0 -1.7084114828826665e-05 -0.024972167359662421 0 -2.4180165709759451e-05 -0.02491540374102685 0 -9.4037611260571857e-05 -0.024931392290682631 0 -0.00093350678642334958 -0.022571387566776142 0 -0.00046772873154362249 -0.023060316892489593 0 -0.0015873323751650818 -0.020382296495222621 0 -0.00090538475609590839 -0.021555464101745268 0 -0.00083519485823525569 -0.020639826856228855 0 -2.4180165709759451e-05 -0.02491540374102685 0 -9.4037611260571857e-05 -0.024931392290682631 0 -2.4145880917641919e-05 -0.024728788771945429 0 -0.0014073262885642135 -0.019650981430095919 0 -0.0015873323751650818 -0.020382296495222621 0 -0.00083519485823525569 -0.020639826856228855 0 -9.4037611260571857e-05 -0.024931392290682631 0 -2.4145880917641919e-05 -0.024728788771945429 0 -0.00020465801484993105 -0.024480850768644181 0 -2.4145880917641919e-05 -0.024728788771945429 0 -7.8344926798776078e-05 -0.024349822511580355 0 -0.00020465801484993105 -0.024480850768644181 0 -7.8344926798776078e-05 -0.024349822511580355 0 -9.0083305910856174e-05 -0.023966670988980969 0 -0.00020465801484993105 -0.024480850768644181 0 -8.3538961326439863e-08 -0.025000273413153758 0 -2.4145880917641919e-05 -0.024728788771945429 0 4.3282944508133675e-07 -0.024997865602848741 0 -2.4145880917641919e-05 -0.024728788771945429 0 4.3282944508133675e-07 -0.024997865602848741 0 -7.8344926798776078e-05 -0.024349822511580355 0 6.5911733480578872e-08 -0.025000593058971548 0 -5.9395833151118375e-08 -0.024999384620266487 0 -2.9806644451197484e-05 -0.024899940663841141 0 4.3282944508133675e-07 -0.024997865602848741 0 -7.8344926798776078e-05 -0.024349822511580355 0 -0.00010520565581790552 -0.024185046034924093 0 -6.6412920357315133e-08 -0.02499950022372157 0 -0.00014435496449345122 -0.024810340645323611 0 6.2423664081968585e-09 -0.025000003502244433 0 -1.0662056229230436e-05 -0.024939647896510653 0 -7.8344926798776078e-05 -0.024349822511580355 0 -0.00011831183104548719 -0.024006681095852744 0 -9.0083305910856174e-05 -0.023966670988980969 0 -7.8344926798776078e-05 -0.024349822511580355 0 -0.00010520565581790552 -0.024185046034924093 0 -0.00011831183104548719 -0.024006681095852744 0 -3.2949165156779772e-05 -0.024276987717062062 0 -0.00010520565581790552 -0.024185046034924093 0 -0.00011831183104548719 -0.024006681095852744 0 -5.9395833151118375e-08 -0.024999384620266487 0 -2.9806644451197484e-05 -0.024899940663841141 0 -6.8336032615978943e-06 -0.024923806781365937 0 -2.0689464615410542e-05 -0.024762174438230766 0 -2.9806644451197484e-05 -0.024899940663841141 0 -6.8336032615978943e-06 -0.024923806781365937 0 2.3822508528358146e-09 -0.024999995507931597 0 -5.0738619611935705e-09 -0.025000010286623207 0 -1.15789631497832e-06 -0.025000079955462457 0 -6.2181363782060495e-06 -0.024997261084029068 0 -5.0738619611935705e-09 -0.025000010286623207 0 -1.15789631497832e-06 -0.025000079955462457 0 7.4972514468356899e-05 -0.024961034931606764 0 -1.0662056229230436e-05 -0.024939647896510653 0 0.0010591861099916451 -0.024489946039483922 0 0.00033051098982013 -0.024114080367698909 0 0.0011301452112008738 -0.023415530041233337 0 0.00033051098982013 -0.024114080367698909 0 7.3390539756735957e-05 -0.023314799849127869 0 0.0011301452112008738 -0.023415530041233337 0 0.00033051098982013 -0.024114080367698909 0 -0.00011831183104548719 -0.024006681095852744 0 7.3390539756735957e-05 -0.023314799849127869 0 -3.2949165156779772e-05 -0.024276987717062062 0 0.00033051098982013 -0.024114080367698909 0 -0.00011831183104548719 -0.024006681095852744 0 -9.0083305910856174e-05 -0.023966670988980969 0 7.3390539756735957e-05 -0.023314799849127869 0 -0.00020465801484993105 -0.024480850768644181 0 -0.00011831183104548719 -0.024006681095852744 0 -9.0083305910856174e-05 -0.023966670988980969 0 7.3390539756735957e-05 -0.023314799849127869 0 7.3390539756735957e-05 -0.023314799849127869 0 0.0014306026389218438 -0.022311607889818504 0 0.0011301452112008738 -0.023415530041233337 0 7.3390539756735957e-05 -0.023314799849127869 0 0.00047759578735100312 -0.021502306645473309 0 0.0014306026389218438 -0.022311607889818504 0 7.3390539756735957e-05 -0.023314799849127869 0 0.00047759578735100312 -0.021502306645473309 0 -0.00090538475609590839 -0.021555464101745268 0 9.8774819293841157e-06 -0.023377352828609463 0 -0.00046772873154362249 -0.023060316892489593 0 0.00047759578735100312 -0.021502306645473309 0 -0.00090538475609590839 -0.021555464101745268 0 -0.00083519485823525569 -0.020639826856228855 0 -0.00045933694629367782 -0.019872133350645325 0 0.00047759578735100312 -0.021502306645473309 0 -0.00083519485823525569 -0.020639826856228855 0 0.00024004633637702728 -0.018627913956683229 0 0.00029605437018884206 -0.02179485561335218 0 -0.00045404047758914478 -0.019409837938674086 0 0.00047759578735100312 -0.021502306645473309 0 0.0017214613980924005 -0.020101074060915936 0 0.00047759578735100312 -0.021502306645473309 0 0.0017214613980924005 -0.020101074060915936 0 0.0023609897127735619 -0.021179914565683734 0 0.0016588792247682197 -0.016956615209927566 0 0.0015836081700307913 -0.017339919576867563 0 0.0013675305587638339 -0.014204045842047918 0 0.00011408040019573577 -0.013676178787069612 0 0.00085777965130245839 -0.014681831352576939 0 0.00011408040019573577 -0.013676178787069612 0 -0.00026511267507962324 -0.014220554465075261 0 0.00085777965130245839 -0.014681831352576939 0 0.0017214613980924005 -0.020101074060915936 0 0.0032560315967331646 -0.020967807824569664 0 0.0023609897127735619 -0.021179914565683734 0 0.0032560315967331646 -0.020967807824569664 0 0.0034221860792890838 -0.020859437917630872 0 0.0023609897127735619 -0.021179914565683734 0 0.0034221860792890838 -0.020859437917630872 0 0.0023609897127735619 -0.021179914565683734 0 0.0024400700545107001 -0.021783253809641127 0 0.00047759578735100312 -0.021502306645473309 0 0.0023609897127735619 -0.021179914565683734 0 0.0014306026389218438 -0.022311607889818504 0 0.0023609897127735619 -0.021179914565683734 0 0.0014306026389218438 -0.022311607889818504 0 0.0024400700545107001 -0.021783253809641127 0 0.0014306026389218438 -0.022311607889818504 0 0.0019947931019059727 -0.022585396757075247 0 0.0011301452112008738 -0.023415530041233337 0 0.0019947931019059727 -0.022585396757075247 0 0.0011301452112008738 -0.023415530041233337 0 0.0021827405565080413 -0.023373249979313868 0 0.0014306026389218438 -0.022311607889818504 0 0.0019947931019059727 -0.022585396757075247 0 0.0024400700545107001 -0.021783253809641127 0 0.0034221860792890838 -0.020859437917630872 0 0.0029393379809064934 -0.022416544498039172 0 0.0039645967857138619 -0.023693177293154021 0 0.0019947931019059727 -0.022585396757075247 0 0.0024400700545107001 -0.021783253809641127 0 0.0029393379809064934 -0.022416544498039172 0 0.0034221860792890838 -0.020859437917630872 0 0.0024400700545107001 -0.021783253809641127 0 0.0029393379809064934 -0.022416544498039172 0 0.0019947931019059727 -0.022585396757075247 0 0.0029393379809064934 -0.022416544498039172 0 0.0021827405565080413 -0.023373249979313868 0 0.0029393379809064934 -0.022416544498039172 0 0.0031205999315421411 -0.0234210698331942 0 0.0021827405565080413 -0.023373249979313868 0 0.0031205999315421411 -0.0234210698331942 0 0.0032726140402255452 -0.023851637453223697 0 0.0021827405565080413 -0.023373249979313868 0 0.0029393379809064934 -0.022416544498039172 0 0.0031205999315421411 -0.0234210698331942 0 0.0039645967857138619 -0.023693177293154021 0 0.0031205999315421411 -0.0234210698331942 0 0.0032726140402255452 -0.023851637453223697 0 0.0039645967857138619 -0.023693177293154021 0 0.0022059926842914871 -0.017671827894172723 0 0.0024596187586509674 -0.017349857319389105 0 0.0012803122031076085 -0.021510300846201556 0 0.0022059926842914871 -0.017671827894172723 0 0.0010591861099916451 -0.024489946039483922 0 0.0011301452112008738 -0.023415530041233337 0 0.0021827405565080413 -0.023373249979313868 0 0.0010591861099916451 -0.024489946039483922 0 0.0032726140402255452 -0.023851637453223697 0 0.0021827405565080413 -0.023373249979313868 0 0.0015242278794759506 -0.01789036179636783 0 5.1453430808377914e-05 -0.0185324466315075 0 0.00041332653920989114 -0.016453079253709497 0 0.0020858115332280463 -0.015607475654601995 0 0.0015242278794759506 -0.01789036179636783 0 0.00041332653920989114 -0.016453079253709497 0 0.0024596187586509674 -0.017349857319389105 0 0.0021995320265229996 -0.017650240444108112 0 0.0020858115332280463 -0.015607475654601995 0 0.004170065900797968 -0.016584042660527758 0 0.0015242278794759506 -0.01789036179636783 0 0.0036145036896989909 -0.017377856057366713 0 0.0025726883468986782 -0.019365442974534006 0 0.0015242278794759506 -0.01789036179636783 0 0.0038511046246857061 -0.022133153681680492 0 0.0024596187586509674 -0.017349857319389105 0 0.0034221860792890838 -0.020859437917630872 0 0.0036145036896989909 -0.017377856057366713 0 0.0025726883468986782 -0.019365442974534006 0 0.0034221860792890838 -0.020859437917630872 0 0.0025726883468986782 -0.019365442974534006 0 0.0025889523464381913 -0.020522667268958763 0 0.0025726883468986782 -0.019365442974534006 0 0.0015880828386749073 -0.019662107495563182 0 0.0025889523464381913 -0.020522667268958763 0 0.0025726883468986782 -0.019365442974534006 0 0.0015880828386749073 -0.019662107495563182 0 0.0015242278794759506 -0.01789036179636783 0 0.0015880828386749073 -0.019662107495563182 0 0.0015242278794759506 -0.01789036179636783 0 5.1453430808377914e-05 -0.0185324466315075 0 0.0015880828386749073 -0.019662107495563182 0 0.0012011652043970762 -0.021064855732022911 0 5.1453430808377914e-05 -0.0185324466315075 0 0.0015880828386749073 -0.019662107495563182 0 0.0012011652043970762 -0.021064855732022911 0 0.0025889523464381913 -0.020522667268958763 0 0.0032560315967331646 -0.020967807824569664 0 0.0034221860792890838 -0.020859437917630872 0 0.0025889523464381913 -0.020522667268958763 0 0.0032560315967331646 -0.020967807824569664 0 0.0012011652043970762 -0.021064855732022911 0 0.0025889523464381913 -0.020522667268958763 0 0.0015836081700307913 -0.017339919576867563 0 -2.365230881807559e-05 -0.017074939463332127 0 0.00011408040019573577 -0.013676178787069612 0 -0.0012296404542381152 -0.013157106847581656 0 -0.00070068500916970822 -0.013673939076364709 0 0.00011408040019573577 -0.013676178787069612 0 -0.00026511267507962324 -0.014220554465075261 0 -0.00070068500916970822 -0.013673939076364709 0 -0.00029044556417541338 -0.014069180462192842 0 -0.001315877432219418 -0.013679321590787026 0 -0.00026511267507962324 -0.014220554465075261 0 -0.0013989181449038364 -0.013640508995194481 0 -0.00070068500916970822 -0.013673939076364709 0 -0.00031079390024904124 -0.013923198162761231 0 -0.0013989181449038364 -0.013640508995194481 0 -0.0010368869844176493 -0.014254319247095557 0 -0.0012296404542381152 -0.013157106847581656 0 -0.0013989181449038364 -0.013640508995194481 0 -0.00070068500916970822 -0.013673939076364709 0 -0.0010368869844176493 -0.014254319247095557 0 -0.0012963257345514542 -0.014954330532952987 0 -0.001832613901826829 -0.014351970057984982 0 -0.0013989181449038364 -0.013640508995194481 0 -0.0010368869844176493 -0.014254319247095557 0 -0.0015042230690793675 -0.014028818853144002 0 -0.0012963257345514542 -0.014954330532952987 0 -0.00031480275447190123 -0.014743089741570891 0 -0.00069963981043894008 -0.015680362724781103 0 -0.0010368869844176493 -0.014254319247095557 0 -0.0012963257345514542 -0.014954330532952987 0 -0.00031480275447190123 -0.014743089741570891 0 -0.00031480275447190123 -0.014743089741570891 0 0.00020311172291391066 -0.015438933242402005 0 -0.00069963981043894008 -0.015680362724781103 0 -0.00031079390024904124 -0.013923198162761231 0 -0.0010368869844176493 -0.014254319247095557 0 -0.00031480275447190123 -0.014743089741570891 0 -0.00031079390024904124 -0.013923198162761231 0 -0.00031480275447190123 -0.014743089741570891 0 0.00013899202339136949 -0.014470223744402337 0 -0.00031079390024904124 -0.013923198162761231 0 0.00013899202339136949 -0.014470223744402337 0 0.00074221051649217377 -0.014353668132860098 0 -0.00029044556417541338 -0.014069180462192842 0 0.00076213105706505622 -0.014535822742229006 0 0.00013899202339136949 -0.014470223744402337 0 0.00074221051649217377 -0.014353668132860098 0 0.00043280408881193384 -0.014862555362343502 0 0.0019455141682075427 -0.014697128761535935 0 0.00076213105706505622 -0.014535822742229006 0 0.0018776545927884714 -0.015076104288973808 0 0.0013675305587638339 -0.014204045842047918 0 0.00085777965130245839 -0.014681831352576939 0 0.0016117096981222592 -0.014778182789565797 0 0.00074221051649217377 -0.014353668132860098 0 0.0010517037361210198 -0.01489698323682203 0 0.00074221051649217377 -0.014353668132860098 0 0.0010517037361210198 -0.01489698323682203 0 0.00043280408881193384 -0.014862555362343502 0 0.0010517037361210198 -0.01489698323682203 0 0.00043280408881193384 -0.014862555362343502 0 0.0010037944650119989 -0.015375765720435749 0 0.0014281887518056346 -0.015111730964198006 0 0.0010517037361210198 -0.01489698323682203 0 0.0010037944650119989 -0.015375765720435749 0 -0.00031480275447190123 -0.014743089741570891 0 0.00013899202339136949 -0.014470223744402337 0 0.00043280408881193384 -0.014862555362343502 0 0.00043280408881193384 -0.014862555362343502 0 0.00020311172291391066 -0.015438933242402005 0 0.0010037944650119989 -0.015375765720435749 0 -0.00031480275447190123 -0.014743089741570891 0 0.00043280408881193384 -0.014862555362343502 0 0.00020311172291391066 -0.015438933242402005 0 0.00020311172291391066 -0.015438933242402005 0 0.00052160986449742007 -0.01624681412889312 0 -0.0002023992490572902 -0.016475904003480289 0 0.00020311172291391066 -0.015438933242402005 0 0.0014018175323057035 -0.01538984737035615 0 0.00052160986449742007 -0.01624681412889312 0 0.00018110846519599102 -0.015459139995486197 0 0.0014595291545254445 -0.01521685040568644 0 0.0018463681837411535 -0.015966267879300479 0 0.0014018175323057035 -0.01538984737035615 0 0.0013455413220505087 -0.016441590157245774 0 0.0014018175323057035 -0.01538984737035615 0 0.0013455413220505087 -0.016441590157245774 0 0.00052160986449742007 -0.01624681412889312 0 0.0022183572938212774 -0.016730476420612334 0 0.0013455413220505087 -0.016441590157245774 0 0.0014461232964905538 -0.017262491895466133 0 0.0022183572938212774 -0.016730476420612334 0 0.0018463681837411535 -0.015966267879300479 0 0.0013455413220505087 -0.016441590157245774 0 0.0013455413220505087 -0.016441590157245774 0 0.00068723974489551243 -0.017035690960240768 0 0.0014461232964905538 -0.017262491895466133 0 0.00052160986449742007 -0.01624681412889312 0 0.00068723974489551243 -0.017035690960240768 0 -0.0002023992490572902 -0.016475904003480289 0 0.0013455413220505087 -0.016441590157245774 0 0.00052160986449742007 -0.01624681412889312 0 0.00068723974489551243 -0.017035690960240768 0 -0.0002023992490572902 -0.016475904003480289 0 -0.00094797707663225102 -0.016812271427061588 0 -0.00069963981043894008 -0.015680362724781103 0 -0.00094797707663225102 -0.016812271427061588 0 -0.00069963981043894008 -0.015680362724781103 0 -0.001605403263049912 -0.015806559975922365 0 -0.0012963257345514542 -0.014954330532952987 0 -0.00069963981043894008 -0.015680362724781103 0 -0.001605403263049912 -0.015806559975922365 0 0.00020311172291391066 -0.015438933242402005 0 -0.0002023992490572902 -0.016475904003480289 0 -0.00069963981043894008 -0.015680362724781103 0 -0.0026044925548450869 -0.015801346038766019 0 -0.0031675689766222158 -0.014974963392067652 0 -0.0022038698482017664 -0.01503633228745626 0 -0.0026044925548450869 -0.015801346038766019 0 -0.001605403263049912 -0.015806559975922365 0 -0.0022038698482017664 -0.01503633228745626 0 -0.00094797707663225102 -0.016812271427061588 0 -0.001605403263049912 -0.015806559975922365 0 -0.0020215929930963031 -0.01663037419634391 0 -0.0026044925548450869 -0.015801346038766019 0 -0.001605403263049912 -0.015806559975922365 0 -0.0020215929930963031 -0.01663037419634391 0 -0.0026044925548450869 -0.015801346038766019 0 -0.0020215929930963031 -0.01663037419634391 0 -0.0029184834153844273 -0.016857866329741695 0 -0.0026044925548450869 -0.015801346038766019 0 -0.0033877985644676163 -0.016104404885166197 0 -0.0029184834153844273 -0.016857866329741695 0 -0.0026044925548450869 -0.015801346038766019 0 -0.0033877985644676163 -0.016104404885166197 0 -0.0032401577991209994 -0.015550236155700352 0 -0.0033877985644676163 -0.016104404885166197 0 -0.0039058604418362544 -0.015350429970505175 0 -0.0042749223880279566 -0.016063819139285545 0 -0.0033877985644676163 -0.016104404885166197 0 -0.0039058604418362544 -0.015350429970505175 0 -0.0032401577991209994 -0.015550236155700352 0 -0.0039058604418362544 -0.015350429970505175 0 -0.0031675689766222158 -0.014974963392067652 0 -0.0037989982477966283 -0.014685669931478431 0 -0.0039058604418362544 -0.015350429970505175 0 -0.0032401577991209994 -0.015550236155700352 0 -0.0031675689766222158 -0.014974963392067652 0 -0.0026044925548450869 -0.015801346038766019 0 -0.0032401577991209994 -0.015550236155700352 0 -0.0031675689766222158 -0.014974963392067652 0 -0.0031675689766222158 -0.014974963392067652 0 -0.0033410008941755593 -0.014209433443113262 0 -0.0026700798820958639 -0.014286318243187539 0 -0.0031675689766222158 -0.014974963392067652 0 -0.0037989982477966283 -0.014685669931478431 0 -0.0033410008941755593 -0.014209433443113262 0 -0.0033410008941755593 -0.014209433443113262 0 -0.0034612783021336188 -0.013527048517943965 0 -0.0039813641645198294 -0.014100290694776939 0 -0.0037989982477966283 -0.014685669931478431 0 -0.0033410008941755593 -0.014209433443113262 0 -0.0039813641645198294 -0.014100290694776939 0 -0.0033410008941755593 -0.014209433443113262 0 -0.0026700798820958639 -0.014286318243187539 0 -0.0028005880288852251 -0.01371528265402691 0 -0.0026700798820958639 -0.014286318243187539 0 -0.001832613901826829 -0.014351970057984982 0 -0.0020724051177676904 -0.013680314299666266 0 -0.0026700798820958639 -0.014286318243187539 0 -0.0022038698482017664 -0.01503633228745626 0 -0.001832613901826829 -0.014351970057984982 0 -0.0031675689766222158 -0.014974963392067652 0 -0.0026700798820958639 -0.014286318243187539 0 -0.0022038698482017664 -0.01503633228745626 0 -0.0012963257345514542 -0.014954330532952987 0 -0.0022038698482017664 -0.01503633228745626 0 -0.001832613901826829 -0.014351970057984982 0 -0.0012963257345514542 -0.014954330532952987 0 -0.001605403263049912 -0.015806559975922365 0 -0.0022038698482017664 -0.01503633228745626 0 -0.0010368869844176493 -0.014254319247095557 0 -0.001832613901826829 -0.014351970057984982 0 -0.0015042230690793675 -0.014028818853144002 0 -0.001832613901826829 -0.014351970057984982 0 -0.0015042230690793675 -0.014028818853144002 0 -0.0020724051177676904 -0.013680314299666266 0 -0.0013989181449038364 -0.013640508995194481 0 -0.0015042230690793675 -0.014028818853144002 0 -0.0020724051177676904 -0.013680314299666266 0 -0.0012296404542381152 -0.013157106847581656 0 -0.0013989181449038364 -0.013640508995194481 0 -0.0020724051177676904 -0.013680314299666266 0 -0.0020724051177676904 -0.013680314299666266 0 -0.0024233219058417774 -0.012849186736850406 0 -0.0028005880288852251 -0.01371528265402691 0 -0.0026700798820958639 -0.014286318243187539 0 -0.0020724051177676904 -0.013680314299666266 0 -0.0028005880288852251 -0.01371528265402691 0 -2.365230881807559e-05 -0.017074939463332127 0 -0.0023387323583205833 -0.016377996641442155 0 0.0012011652043970762 -0.021064855732022911 0 -0.002264079871569452 -0.019901250251576214 0 5.1453430808377914e-05 -0.0185324466315075 0 -0.0012296404542381152 -0.013157106847581656 0 -0.0020724051177676904 -0.013680314299666266 0 -0.0024233219058417774 -0.012849186736850406 0 -0.002264079871569452 -0.019901250251576214 0 5.1453430808377914e-05 -0.0185324466315075 0 -0.0018723253440429076 -0.016067741608438879 0 -0.002264079871569452 -0.019901250251576214 0 -0.0018723253440429076 -0.016067741608438879 0 -0.0036113480971666917 -0.017583653112034251 0 -0.0044123357048295965 -0.01538955250085971 0 -0.0018723253440429076 -0.016067741608438879 0 -0.0036113480971666917 -0.017583653112034251 0 5.1453430808377914e-05 -0.0185324466315075 0 -0.0018723253440429076 -0.016067741608438879 0 0.00041332653920989114 -0.016453079253709497 0 0.00035084452161284255 -0.014081156517540527 0 -0.0018723253440429076 -0.016067741608438879 0 0.00041332653920989114 -0.016453079253709497 0 -0.0044123357048295965 -0.01538955250085971 0 -0.006905343237183446 -0.016183108199627098 0 -0.0055899122937866181 -0.018596729758738273 0 -0.0044123357048295965 -0.01538955250085971 0 -0.0036113480971666917 -0.017583653112034251 0 -0.0055899122937866181 -0.018596729758738273 0 -0.0023387323583205833 -0.016377996641442155 0 -0.0044441960763801566 -0.015625724227448633 0 -0.002264079871569452 -0.019901250251576214 0 -0.0036113480971666917 -0.017583653112034251 0 -0.0055899122937866181 -0.018596729758738273 0 -0.006905343237183446 -0.016183108199627098 0 -0.0055899122937866181 -0.018596729758738273 0 -0.0086148985623064854 -0.017389585235062836 0 -0.0044441960763801566 -0.015625724227448633 0 -0.0067591939129980514 -0.014993865093229921 0 -0.0034707288638392234 -0.012637509580857909 0 -0.0034612783021336188 -0.013527048517943965 0 -0.0040340966685935833 -0.013449182031569785 0 -0.0024233219058417774 -0.012849186736850406 0 -0.0034707288638392234 -0.012637509580857909 0 -0.0034612783021336188 -0.013527048517943965 0 -0.0024233219058417774 -0.012849186736850406 0 -0.0028005880288852251 -0.01371528265402691 0 -0.0034612783021336188 -0.013527048517943965 0 -0.0033410008941755593 -0.014209433443113262 0 -0.0028005880288852251 -0.01371528265402691 0 -0.0034612783021336188 -0.013527048517943965 0 -0.0034612783021336188 -0.013527048517943965 0 -0.0040340966685935833 -0.013449182031569785 0 -0.0039813641645198294 -0.014100290694776939 0 -0.0040340966685935833 -0.013449182031569785 0 -0.0044693095318606418 -0.01343806255601188 0 -0.0044217575496263879 -0.013903377936075396 0 -0.0047919991590344331 -0.013599150026291539 0 -0.0044693095318606418 -0.01343806255601188 0 -0.0044217575496263879 -0.013903377936075396 0 -0.0047919991590344331 -0.013599150026291539 0 -0.0044693095318606418 -0.01343806255601188 0 -0.0047061450570553519 -0.013203537807785272 0 -0.0047061450570553519 -0.013203537807785272 0 -0.0043155767946050864 -0.013029857149884848 0 -0.0047877610149894591 -0.012915758332061511 0 -0.0044693095318606418 -0.01343806255601188 0 -0.0047061450570553519 -0.013203537807785272 0 -0.0043155767946050864 -0.013029857149884848 0 -0.0047061450570553519 -0.013203537807785272 0 -0.0047877610149894591 -0.012915758332061511 0 -0.0048943087649994067 -0.013056704057140116 0 -0.0034707288638392234 -0.012637509580857909 0 -0.0040340966685935833 -0.013449182031569785 0 -0.0043155767946050864 -0.013029857149884848 0 -0.0040340966685935833 -0.013449182031569785 0 -0.0044693095318606418 -0.01343806255601188 0 -0.0043155767946050864 -0.013029857149884848 0 -0.0034707288638392234 -0.012637509580857909 0 -0.0043155767946050864 -0.013029857149884848 0 -0.0043259689273443648 -0.012492779589437272 0 -0.0043155767946050864 -0.013029857149884848 0 -0.0043259689273443648 -0.012492779589437272 0 -0.0047877610149894591 -0.012915758332061511 0 -0.0043259689273443648 -0.012492779589437272 0 -0.0047877610149894591 -0.012915758332061511 0 -0.0051279764868024267 -0.012276695865455274 0 -0.0067591939129980514 -0.014993865093229921 0 -0.0067432978224134486 -0.013745305998307191 0 -0.0090496061011925526 -0.015420320784232984 0 -0.0086148985623064854 -0.017389585235062836 0 -0.011297123091873838 -0.016432603321239792 0 -0.0069389071821360261 -0.014096678905476452 0 -0.0067432978224134486 -0.013745305998307191 0 -0.0090496061011925526 -0.015420320784232984 0 -0.006905343237183446 -0.016183108199627098 0 -0.0086148985623064854 -0.017389585235062836 0 -0.0037148630751674553 -0.012099609450900394 0 -0.0040858621656495037 -0.012175510833783409 0 -0.0042370031383801828 -0.011949598174830378 0 -0.0036725817901587876 -0.01172199620012433 0 -0.0052099899080993552 -0.013015253474331362 0 -0.0049237144753276315 -0.012777148863460781 0 -0.0049758625143334293 -0.01281267668222321 0 -0.005000862336839368 -0.012738746554175654 0 -0.0050135304119397648 -0.012719505096088124 0 -0.0049237144753276315 -0.012777148863460781 0 -0.005000862336839368 -0.012738746554175654 0 -0.0049237144753276315 -0.012777148863460781 0 -0.0049183817483981034 -0.012786202857119101 0 -0.0049758625143334293 -0.01281267668222321 0 -0.0053789876573109609 -0.012949154925590917 0 -0.0048365552102554304 -0.012747075341621282 0 -0.0030220238663522746 -0.011121668402614228 0 -0.0052099899080993552 -0.013015253474331362 0 -0.0045045017019795198 -0.012291010530793681 0 -0.0049130121416497002 -0.012703389142265807 0 -0.0048337309991468343 -0.012730725175240841 0 -0.0052099899080993552 -0.013015253474331362 0 -0.0067432978224134486 -0.013745305998307191 0 -0.0052099899080993552 -0.013015253474331362 0 -0.0053789876573109609 -0.012949154925590917 0 -0.0058598046540033807 -0.013258855244093391 0 -0.0053155184009155811 -0.013429332365235537 0 -0.0056589405159471187 -0.013580499046511006 0 -0.0067432978224134486 -0.013745305998307191 0 -0.0053789876573109609 -0.012949154925590917 0 -0.0047877610149894591 -0.012915758332061511 0 -0.0051279764868024267 -0.012276695865455274 0 -0.0052002673811523915 -0.012308728200560835 0 -0.0047877610149894591 -0.012915758332061511 0 -0.0049333369320137517 -0.012785052065016131 0 -0.004924868090761373 -0.012914375736109041 0 -0.0047704829617019311 -0.012789847569065866 0 -0.0053789876573109609 -0.012949154925590917 0 -0.0049333369320137517 -0.012785052065016131 0 -0.004924868090761373 -0.012914375736109041 0 -0.0049758625143334293 -0.01281267668222321 0 -0.004924868090761373 -0.012914375736109041 0 -0.0049758625143334293 -0.01281267668222321 0 -0.0050023825524131635 -0.012781984453197925 0 -0.0048887205420937753 -0.012882519903438489 0 -0.0052212678945635378 -0.012956936146170786 0 -0.004924868090761373 -0.012914375736109041 0 -0.0051247908171991778 -0.012962489376224748 0 -0.0052166776370845287 -0.012861322075118626 0 -0.004924868090761373 -0.012914375736109041 0 -0.0051247908171991778 -0.012962489376224748 0 -0.0050464575806250392 -0.01307914967274333 0 -0.0051247908171991778 -0.012962489376224748 0 -0.0052215997775989361 -0.012966320693547119 0 -0.0052166776370845287 -0.012861322075118626 0 -0.0051247908171991778 -0.012962489376224748 0 -0.0051869710524650881 -0.013057504673460141 0 -0.0052215997775989361 -0.012966320693547119 0 -0.0051247908171991778 -0.012962489376224748 0 -0.0051869710524650881 -0.013057504673460141 0 -0.0050464575806250392 -0.01307914967274333 0 -0.0051869710524650881 -0.013057504673460141 0 -0.0050464575806250392 -0.01307914967274333 0 -0.005140810265919539 -0.013245143129801228 0 -0.0050464575806250392 -0.01307914967274333 0 -0.004958086561754553 -0.013258243802809162 0 -0.005140810265919539 -0.013245143129801228 0 -0.0051869710524650881 -0.013057504673460141 0 -0.005140810265919539 -0.013245143129801228 0 -0.0052576275381710095 -0.013155289538617018 0 -0.0047877610149894591 -0.012915758332061511 0 -0.004924868090761373 -0.012914375736109041 0 -0.0048943087649994067 -0.013056704057140116 0 -0.004924868090761373 -0.012914375736109041 0 -0.0050464575806250392 -0.01307914967274333 0 -0.0048943087649994067 -0.013056704057140116 0 -0.0050464575806250392 -0.01307914967274333 0 -0.0048943087649994067 -0.013056704057140116 0 -0.004958086561754553 -0.013258243802809162 0 -0.0047061450570553519 -0.013203537807785272 0 -0.0048943087649994067 -0.013056704057140116 0 -0.004958086561754553 -0.013258243802809162 0 -0.0047919991590344331 -0.013599150026291539 0 -0.0047061450570553519 -0.013203537807785272 0 -0.004958086561754553 -0.013258243802809162 0 -0.004958086561754553 -0.013258243802809162 0 -0.0050504666372419189 -0.013533531115200103 0 -0.005140810265919539 -0.013245143129801228 0 -0.0047919991590344331 -0.013599150026291539 0 -0.004958086561754553 -0.013258243802809162 0 -0.0050504666372419189 -0.013533531115200103 0 -0.0050504666372419189 -0.013533531115200103 0 -0.005140810265919539 -0.013245143129801228 0 -0.0052508664629879916 -0.013471969311249315 0 -0.005140810265919539 -0.013245143129801228 0 -0.0052508664629879916 -0.013471969311249315 0 -0.0052576275381710095 -0.013155289538617018 0 -0.0052508664629879916 -0.013471969311249315 0 -0.0052200163670297478 -0.013780079127251469 0 -0.0053418208819198858 -0.013678314347486622 0 -0.0050504666372419189 -0.013533531115200103 0 -0.0052508664629879916 -0.013471969311249315 0 -0.0052200163670297478 -0.013780079127251469 0 -0.0053300447857881099 -0.014281245368921575 0 -0.0061453955113458126 -0.01417174516955385 0 -0.0057880010785568868 -0.014588524255284153 0 -0.0052200163670297478 -0.013780079127251469 0 -0.0053300447857881099 -0.014281245368921575 0 -0.0053418208819198858 -0.013678314347486622 0 -0.0053351437028263601 -0.014230857612144942 0 -0.0057540844017843632 -0.014054645643612293 0 -0.0052200163670297478 -0.013780079127251469 0 -0.0053300447857881099 -0.014281245368921575 0 -0.0050308288170751716 -0.013924967805915407 0 -0.0053300447857881099 -0.014281245368921575 0 -0.0049809595786027934 -0.014365906696739908 0 -0.0050308288170751716 -0.013924967805915407 0 -0.0049809595786027934 -0.014365906696739908 0 -0.0050308288170751716 -0.013924967805915407 0 -0.0047610292069729301 -0.014025204883277817 0 -0.0050504666372419189 -0.013533531115200103 0 -0.0052200163670297478 -0.013780079127251469 0 -0.0050308288170751716 -0.013924967805915407 0 -0.0047919991590344331 -0.013599150026291539 0 -0.0050504666372419189 -0.013533531115200103 0 -0.0050308288170751716 -0.013924967805915407 0 -0.0047919991590344331 -0.013599150026291539 0 -0.0050308288170751716 -0.013924967805915407 0 -0.0047610292069729301 -0.014025204883277817 0 -0.0047919991590344331 -0.013599150026291539 0 -0.0047610292069729301 -0.014025204883277817 0 -0.0044217575496263879 -0.013903377936075396 0 -0.0047610292069729301 -0.014025204883277817 0 -0.0044217575496263879 -0.013903377936075396 0 -0.0044794907565200081 -0.014579409074636297 0 -0.0039813641645198294 -0.014100290694776939 0 -0.0044217575496263879 -0.013903377936075396 0 -0.0044794907565200081 -0.014579409074636297 0 -0.0040340966685935833 -0.013449182031569785 0 -0.0039813641645198294 -0.014100290694776939 0 -0.0044217575496263879 -0.013903377936075396 0 -0.0039058604418362544 -0.015350429970505175 0 -0.0037989982477966283 -0.014685669931478431 0 -0.0044794907565200081 -0.014579409074636297 0 -0.0037989982477966283 -0.014685669931478431 0 -0.0039813641645198294 -0.014100290694776939 0 -0.0044794907565200081 -0.014579409074636297 0 -0.0049809595786027934 -0.014365906696739908 0 -0.0044794907565200081 -0.014579409074636297 0 -0.0050708196741261445 -0.014958847304480816 0 -0.0049809595786027934 -0.014365906696739908 0 -0.0047610292069729301 -0.014025204883277817 0 -0.0044794907565200081 -0.014579409074636297 0 -0.0044794907565200081 -0.014579409074636297 0 -0.0045782809556456786 -0.015282904972532508 0 -0.0050708196741261445 -0.014958847304480816 0 -0.0039058604418362544 -0.015350429970505175 0 -0.0044794907565200081 -0.014579409074636297 0 -0.0045782809556456786 -0.015282904972532508 0 -0.0045782809556456786 -0.015282904972532508 0 -0.0042749223880279566 -0.016063819139285545 0 -0.0050352196969497345 -0.015561930565927418 0 -0.0039058604418362544 -0.015350429970505175 0 -0.0045782809556456786 -0.015282904972532508 0 -0.0042749223880279566 -0.016063819139285545 0 -0.0045782809556456786 -0.015282904972532508 0 -0.0050352196969497345 -0.015561930565927418 0 -0.0050708196741261445 -0.014958847304480816 0 -0.0050706186701595362 -0.01547673581690513 0 -0.0058018965444383832 -0.015006646804069834 0 -0.0050352196969497345 -0.015561930565927418 0 -0.0054253637099317322 -0.015110339082735695 0 -0.0050708196741261445 -0.014958847304480816 0 -0.0050352196969497345 -0.015561930565927418 0 -0.0061855332792322025 -0.014837228619985987 0 -0.0061303534933851243 -0.015521551241015397 0 -0.0053300447857881099 -0.014281245368921575 0 -0.0054253637099317322 -0.015110339082735695 0 -0.0057880010785568868 -0.014588524255284153 0 -0.0053300447857881099 -0.014281245368921575 0 -0.0054253637099317322 -0.015110339082735695 0 -0.0050708196741261445 -0.014958847304480816 0 -0.0053300447857881099 -0.014281245368921575 0 -0.0049809595786027934 -0.014365906696739908 0 -0.0050708196741261445 -0.014958847304480816 0 -0.0055120200574662647 -0.016169944101831746 0 -0.0061565676730874824 -0.016575055278653349 0 -0.005471718463366331 -0.016187387760149531 0 -0.0055203176197879756 -0.017627244933305603 0 -0.0063483523740524329 -0.017620266247130281 0 -0.0061303534933851243 -0.015521551241015397 0 -0.005471718463366331 -0.016187387760149531 0 -0.0061348878189984015 -0.015697212551312886 0 -0.0061303534933851243 -0.015521551241015397 0 -0.0061348878189984015 -0.015697212551312886 0 -0.0065638128088547397 -0.015380942541391227 0 -0.0061303534933851243 -0.015521551241015397 0 -0.0065638128088547397 -0.015380942541391227 0 -0.006677978855024972 -0.014991256900781059 0 -0.0061855332792322025 -0.014837228619985987 0 -0.0061303534933851243 -0.015521551241015397 0 -0.006677978855024972 -0.014991256900781059 0 -0.0050352196969497345 -0.015561930565927418 0 -0.0061303534933851243 -0.015521551241015397 0 -0.005471718463366331 -0.016187387760149531 0 -0.0050352196969497345 -0.015561930565927418 0 -0.005471718463366331 -0.016187387760149531 0 -0.0048087615606058889 -0.016272039007664239 0 -0.005471718463366331 -0.016187387760149531 0 -0.0048087615606058889 -0.016272039007664239 0 -0.0045317226556030078 -0.01716204306640708 0 -0.0042749223880279566 -0.016063819139285545 0 -0.0045317226556030078 -0.01716204306640708 0 -0.0037162302686765867 -0.016972608471077871 0 -0.0042749223880279566 -0.016063819139285545 0 -0.0048087615606058889 -0.016272039007664239 0 -0.0045317226556030078 -0.01716204306640708 0 -0.0042749223880279566 -0.016063819139285545 0 -0.0050352196969497345 -0.015561930565927418 0 -0.0048087615606058889 -0.016272039007664239 0 -0.005471718463366331 -0.016187387760149531 0 -0.0045317226556030078 -0.01716204306640708 0 -0.0055203176197879756 -0.017627244933305603 0 -0.0049345388239424208 -0.018237841566206607 0 -0.0055203176197879756 -0.017627244933305603 0 -0.0055914576915333004 -0.018746415190474035 0 -0.0045317226556030078 -0.01716204306640708 0 -0.0049345388239424208 -0.018237841566206607 0 -0.0055203176197879756 -0.017627244933305603 0 -0.0045317226556030078 -0.01716204306640708 0 -0.0049345388239424208 -0.018237841566206607 0 -0.004097916698125207 -0.018055788699566838 0 -0.0049345388239424208 -0.018237841566206607 0 -0.0043790613389493999 -0.018831787850214082 0 -0.004097916698125207 -0.018055788699566838 0 -0.0049345388239424208 -0.018237841566206607 0 -0.0043790613389493999 -0.018831787850214082 0 -0.0049721388806757043 -0.019251946749936542 0 -0.0043790613389493999 -0.018831787850214082 0 -0.0049721388806757043 -0.019251946749936542 0 -0.0043055667368111297 -0.019368961659676821 0 -0.0049345388239424208 -0.018237841566206607 0 -0.0055914576915333004 -0.018746415190474035 0 -0.0049721388806757043 -0.019251946749936542 0 -0.0055914576915333004 -0.018746415190474035 0 -0.0063275152174321501 -0.018349256187687429 0 -0.0063309757880126915 -0.018966653412679581 0 -0.0055203176197879756 -0.017627244933305603 0 -0.0063483523740524329 -0.017620266247130281 0 -0.0063275152174321501 -0.018349256187687429 0 -0.0055203176197879756 -0.017627244933305603 0 -0.0055914576915333004 -0.018746415190474035 0 -0.0063275152174321501 -0.018349256187687429 0 -0.0061348878189984015 -0.015697212551312886 0 -0.0065638128088547397 -0.015380942541391227 0 -0.0065429098263936614 -0.015948308547200998 0 -0.0063483523740524329 -0.017620266247130281 0 -0.0063275152174321501 -0.018349256187687429 0 -0.0068907245855089824 -0.018449753314107708 0 -0.0061565676730874824 -0.016575055278653349 0 -0.0067656607372106456 -0.017557719365453604 0 -0.0063309757880126915 -0.018966653412679581 0 -0.0068907245855089824 -0.018449753314107708 0 -0.0069473388225045774 -0.01907001030102087 0 -0.0063275152174321501 -0.018349256187687429 0 -0.0063309757880126915 -0.018966653412679581 0 -0.0068907245855089824 -0.018449753314107708 0 -0.0063309757880126915 -0.018966653412679581 0 -0.0061113144141243768 -0.019887992154146199 0 -0.006784807321847176 -0.019495541258554665 0 -0.0063309757880126915 -0.018966653412679581 0 -0.006784807321847176 -0.019495541258554665 0 -0.0069473388225045774 -0.01907001030102087 0 -0.0055914576915333004 -0.018746415190474035 0 -0.0063309757880126915 -0.018966653412679581 0 -0.0055822205812665286 -0.019614282183372533 0 -0.0063309757880126915 -0.018966653412679581 0 -0.0053596830357713768 -0.01940384477959993 0 -0.0061113144141243768 -0.019887992154146199 0 -0.0062341002949346603 -0.019030758120700406 0 -0.0055004711480729452 -0.019446963144069913 0 -0.0053596830357713768 -0.01940384477959993 0 -0.0053005478743247117 -0.020162971517831838 0 -0.0061113144141243768 -0.019887992154146199 0 -0.0061113144141243768 -0.019887992154146199 0 -0.0068709493844457768 -0.020082377606634984 0 -0.006784807321847176 -0.019495541258554665 0 -0.0061113144141243768 -0.019887992154146199 0 -0.0064252405978110268 -0.020608182228106411 0 -0.0068709493844457768 -0.020082377606634984 0 -0.0061113144141243768 -0.019887992154146199 0 -0.0064252405978110268 -0.020608182228106411 0 -0.0057705675515281009 -0.02057422765263606 0 -0.0064252405978110268 -0.020608182228106411 0 -0.0057705675515281009 -0.02057422765263606 0 -0.0059353697076966298 -0.02124110880873482 0 -0.0053005478743247117 -0.020162971517831838 0 -0.0061113144141243768 -0.019887992154146199 0 -0.0057705675515281009 -0.02057422765263606 0 -0.0053005478743247117 -0.020162971517831838 0 -0.0057705675515281009 -0.02057422765263606 0 -0.0050921605566979604 -0.021128700507769646 0 -0.0057705675515281009 -0.02057422765263606 0 -0.0059353697076966298 -0.02124110880873482 0 -0.0050921605566979604 -0.021128700507769646 0 -0.0059353697076966298 -0.02124110880873482 0 -0.0050921605566979604 -0.021128700507769646 0 -0.0054818293892392282 -0.021911840373799271 0 -0.0059353697076966298 -0.02124110880873482 0 -0.0066586909824655049 -0.021287950459612022 0 -0.0061612418580664075 -0.02177467228338556 0 -0.0064252405978110268 -0.020608182228106411 0 -0.0059353697076966298 -0.02124110880873482 0 -0.0066586909824655049 -0.021287950459612022 0 -0.0035483494083431658 -0.021912513237352969 0 -0.0044800570825860161 -0.021806100150616174 0 -0.0040417992572468831 -0.021110895421556069 0 -0.0035483494083431658 -0.021912513237352969 0 -0.0040417992572468831 -0.021110895421556069 0 -0.0030948367600299228 -0.021005019780951293 0 -0.0044800570825860161 -0.021806100150616174 0 -0.0050921605566979604 -0.021128700507769646 0 -0.0054818293892392282 -0.021911840373799271 0 -0.0044800570825860161 -0.021806100150616174 0 -0.0050921605566979604 -0.021128700507769646 0 -0.0040417992572468831 -0.021110895421556069 0 -0.0049100098622260778 -0.020880099535826577 0 -0.0046559738463191839 -0.020549408417689343 0 -0.0050921605566979604 -0.021128700507769646 0 -0.0040417992572468831 -0.021110895421556069 0 -0.0041960667134158074 -0.02013616192540113 0 -0.0053005478743247117 -0.020162971517831838 0 -0.0050921605566979604 -0.021128700507769646 0 -0.0044028026691643679 -0.01996768016323313 0 -0.0040417992572468831 -0.021110895421556069 0 -0.0041960667134158074 -0.02013616192540113 0 -0.0030948367600299228 -0.021005019780951293 0 -0.0046559738463191839 -0.020549408417689343 0 -0.0036507886934250742 -0.021771092454323886 0 -0.0046559738463191839 -0.020549408417689343 0 -0.0045489951936756503 -0.020016324935885132 0 -0.005408272061975054 -0.021678782462809326 0 -0.0044141315962450949 -0.021520447333261576 0 -0.0041422752303854563 -0.022455273286808144 0 -0.005408272061975054 -0.021678782462809326 0 -0.0046609185345603344 -0.020513645609351924 0 -0.0044141315962450949 -0.021520447333261576 0 -0.0053596830357713768 -0.01940384477959993 0 -0.0053005478743247117 -0.020162971517831838 0 -0.0044028026691643679 -0.01996768016323313 0 -0.0055004711480729452 -0.019446963144069913 0 -0.0046559738463191839 -0.020549408417689343 0 -0.0055914576915333004 -0.018746415190474035 0 -0.0055822205812665286 -0.019614282183372533 0 -0.0049721388806757043 -0.019251946749936542 0 -0.0055822205812665286 -0.019614282183372533 0 -0.0048360101906837248 -0.020119766502324544 0 -0.0049721388806757043 -0.019251946749936542 0 -0.0048360101906837248 -0.020119766502324544 0 -0.0049721388806757043 -0.019251946749936542 0 -0.0043055667368111297 -0.019368961659676821 0 -0.0046609185345603344 -0.020513645609351924 0 -0.0030305698950680218 -0.020263423822887379 0 -0.0034664094645712631 -0.021402274152129509 0 -0.0034664094645712631 -0.021402274152129509 0 -0.0044141315962450949 -0.021520447333261576 0 -0.0041422752303854563 -0.022455273286808144 0 -0.0046609185345603344 -0.020513645609351924 0 -0.0034664094645712631 -0.021402274152129509 0 -0.0044141315962450949 -0.021520447333261576 0 -0.0041422752303854563 -0.022455273286808144 0 -0.0029020368689144389 -0.023047099717732455 0 -0.0027809031043837681 -0.022217797260321123 0 -0.0034664094645712631 -0.021402274152129509 0 -0.0041422752303854563 -0.022455273286808144 0 -0.0027809031043837681 -0.022217797260321123 0 -0.0036507886934250742 -0.021771092454323886 0 -0.0026234732918846279 -0.022553551793177678 0 -0.0030948367600299228 -0.021005019780951293 0 -0.0022580354881168068 -0.022116193499926072 0 -0.0028255390515375461 -0.02221258103778195 0 -0.0035483494083431658 -0.021912513237352969 0 -0.0030948367600299228 -0.021005019780951293 0 -0.0028255390515375461 -0.02221258103778195 0 -0.0019641168954438481 -0.022695494129655748 0 -0.0014665611936928379 -0.023173616965951584 0 -0.0019515394839420927 -0.023200555405349394 0 -0.0019641168954438481 -0.022695494129655748 0 -0.0014376110789043391 -0.022827847267634285 0 -0.0014665611936928379 -0.023173616965951584 0 -0.0026234732918846279 -0.022553551793177678 0 -0.0020197120780199073 -0.023118184979526387 0 -0.0029020368689144389 -0.023047099717732455 0 -0.0019641168954438481 -0.022695494129655748 0 -0.0019515394839420927 -0.023200555405349394 0 -0.0029020368689144389 -0.023047099717732455 0 -0.0027809031043837681 -0.022217797260321123 0 -0.0019641168954438481 -0.022695494129655748 0 -0.0027809031043837681 -0.022217797260321123 0 -0.0019641168954438481 -0.022695494129655748 0 -0.0021715363424570102 -0.021413539663616143 0 -0.0019641168954438481 -0.022695494129655748 0 -0.0021715363424570102 -0.021413539663616143 0 -0.0013415369600138019 -0.022211266648644704 0 -0.0021715363424570102 -0.021413539663616143 0 -0.001350939657518555 -0.021026786016883924 0 -0.0013415369600138019 -0.022211266648644704 0 -0.0034664094645712631 -0.021402274152129509 0 -0.0027809031043837681 -0.022217797260321123 0 -0.0021715363424570102 -0.021413539663616143 0 -0.0030305698950680218 -0.020263423822887379 0 -0.0021715363424570102 -0.021413539663616143 0 -0.0020050434251135162 -0.02029472178862636 0 -0.0030305698950680218 -0.020263423822887379 0 -0.0034664094645712631 -0.021402274152129509 0 -0.0021715363424570102 -0.021413539663616143 0 -0.0021715363424570102 -0.021413539663616143 0 -0.0020050434251135162 -0.02029472178862636 0 -0.001350939657518555 -0.021026786016883924 0 -0.0020050434251135162 -0.02029472178862636 0 -0.0024190056755412533 -0.019019930709249001 0 -0.0010717275011508742 -0.019661073515297747 0 -0.0024190056755412533 -0.019019930709249001 0 -0.0016230817790812051 -0.018420149314041699 0 -0.0010717275011508742 -0.019661073515297747 0 -0.0030305698950680218 -0.020263423822887379 0 -0.0020050434251135162 -0.02029472178862636 0 -0.0024190056755412533 -0.019019930709249001 0 -0.0030305698950680218 -0.020263423822887379 0 -0.0024190056755412533 -0.019019930709249001 0 -0.0037841817464441176 -0.019023594270623997 0 -0.0045489951936756503 -0.020016324935885132 0 -0.0037889188306527658 -0.019019519620562031 0 -0.0046609185345603344 -0.020513645609351924 0 -0.0030305698950680218 -0.020263423822887379 0 -0.0037841817464441176 -0.019023594270623997 0 -0.0043790613389493999 -0.018831787850214082 0 -0.0043055667368111297 -0.019368961659676821 0 -0.0037841817464441176 -0.019023594270623997 0 -0.0037841817464441176 -0.019023594270623997 0 -0.004097916698125207 -0.018055788699566838 0 -0.0031857801887822728 -0.018000348988269813 0 -0.0043790613389493999 -0.018831787850214082 0 -0.0037841817464441176 -0.019023594270623997 0 -0.004097916698125207 -0.018055788699566838 0 -0.0024190056755412533 -0.019019930709249001 0 -0.0037841817464441176 -0.019023594270623997 0 -0.0031857801887822728 -0.018000348988269813 0 -0.004097916698125207 -0.018055788699566838 0 -0.0031857801887822728 -0.018000348988269813 0 -0.0037162302686765867 -0.016972608471077871 0 -0.0045317226556030078 -0.01716204306640708 0 -0.004097916698125207 -0.018055788699566838 0 -0.0037162302686765867 -0.016972608471077871 0 -0.0033877985644676163 -0.016104404885166197 0 -0.0042749223880279566 -0.016063819139285545 0 -0.0037162302686765867 -0.016972608471077871 0 -0.0033877985644676163 -0.016104404885166197 0 -0.0037162302686765867 -0.016972608471077871 0 -0.0029184834153844273 -0.016857866329741695 0 -0.0031857801887822728 -0.018000348988269813 0 -0.0037162302686765867 -0.016972608471077871 0 -0.0029184834153844273 -0.016857866329741695 0 -0.0020215929930963031 -0.01663037419634391 0 -0.0029184834153844273 -0.016857866329741695 0 -0.0023223112095679763 -0.017551247436299187 0 -0.0020215929930963031 -0.01663037419634391 0 -0.0015466406260624638 -0.017472810720220406 0 -0.0023223112095679763 -0.017551247436299187 0 -0.00094797707663225102 -0.016812271427061588 0 -0.0020215929930963031 -0.01663037419634391 0 -0.0015466406260624638 -0.017472810720220406 0 -0.0015466406260624638 -0.017472810720220406 0 -0.0016230817790812051 -0.018420149314041699 0 -0.0023223112095679763 -0.017551247436299187 0 -0.0024190056755412533 -0.019019930709249001 0 -0.0016230817790812051 -0.018420149314041699 0 -0.0023223112095679763 -0.017551247436299187 0 -0.0031857801887822728 -0.018000348988269813 0 -0.0029184834153844273 -0.016857866329741695 0 -0.0023223112095679763 -0.017551247436299187 0 -0.0024190056755412533 -0.019019930709249001 0 -0.0031857801887822728 -0.018000348988269813 0 -0.0023223112095679763 -0.017551247436299187 0 -0.00077451267796681495 -0.01814930129388553 0 9.9349633971272317e-05 -0.017742337206739341 0 0.00011435887526030621 -0.018919062200510102 0 -0.0015466406260624638 -0.017472810720220406 0 -0.0016230817790812051 -0.018420149314041699 0 -0.00077451267796681495 -0.01814930129388553 0 -0.00094797707663225102 -0.016812271427061588 0 -0.0015466406260624638 -0.017472810720220406 0 -0.00077451267796681495 -0.01814930129388553 0 -0.00094797707663225102 -0.016812271427061588 0 -0.00077451267796681495 -0.01814930129388553 0 9.9349633971272317e-05 -0.017742337206739341 0 -0.0002023992490572902 -0.016475904003480289 0 -0.00094797707663225102 -0.016812271427061588 0 9.9349633971272317e-05 -0.017742337206739341 0 0.00068723974489551243 -0.017035690960240768 0 9.9349633971272317e-05 -0.017742337206739341 0 0.0010243950532867446 -0.017935084709045201 0 0.00068723974489551243 -0.017035690960240768 0 -0.0002023992490572902 -0.016475904003480289 0 9.9349633971272317e-05 -0.017742337206739341 0 0.0022183572938212774 -0.016730476420612334 0 0.0014461232964905538 -0.017262491895466133 0 0.001944746620280612 -0.018196166539047744 0 0.00068723974489551243 -0.017035690960240768 0 0.0010243950532867446 -0.017935084709045201 0 0.0014461232964905538 -0.017262491895466133 0 0.0010243950532867446 -0.017935084709045201 0 0.0014461232964905538 -0.017262491895466133 0 0.001944746620280612 -0.018196166539047744 0 0.0013526511055186963 -0.020515379403943903 0 0.0013690284335343599 -0.019985100973998225 0 0.001944746620280612 -0.018196166539047744 0 0.0011584699215681626 -0.018805010984613516 0 0.001337211028997992 -0.019880188016114107 0 0.0010243950532867446 -0.017935084709045201 0 0.001944746620280612 -0.018196166539047744 0 0.0011584699215681626 -0.018805010984613516 0 9.9349633971272317e-05 -0.017742337206739341 0 0.00069608726693263969 -0.018634170716048386 0 0.00011435887526030621 -0.018919062200510102 0 9.9349633971272317e-05 -0.017742337206739341 0 0.0010243950532867446 -0.017935084709045201 0 0.00069608726693263969 -0.018634170716048386 0 0.0010243950532867446 -0.017935084709045201 0 0.0011584699215681626 -0.018805010984613516 0 0.00069608726693263969 -0.018634170716048386 0 0.0011584699215681626 -0.018805010984613516 0 0.00069608726693263969 -0.018634170716048386 0 0.00084367482205313985 -0.019324252709885852 0 0.00084367482205313985 -0.019324252709885852 0 0.00061380953147733804 -0.019936420880062106 0 0.00011435887526030621 -0.018919062200510102 0 0.00084367482205313985 -0.019324252709885852 0 0.001337211028997992 -0.019880188016114107 0 0.00061380953147733804 -0.019936420880062106 0 0.00069608726693263969 -0.018634170716048386 0 0.00084367482205313985 -0.019324252709885852 0 0.00011435887526030621 -0.018919062200510102 0 0.001337211028997992 -0.019880188016114107 0 0.0012473687056848211 -0.019545213175290597 0 5.5456637575576921e-05 -0.021366750459431854 0 0.0011584699215681626 -0.018805010984613516 0 0.00084367482205313985 -0.019324252709885852 0 0.001337211028997992 -0.019880188016114107 0 0.00082562646669180997 -0.023098999278711316 0 0.001337211028997992 -0.019880188016114107 0 5.5456637575576921e-05 -0.021366750459431854 0 0.00051034324598619801 -0.020998113322319281 0 0.0013334233776311393 -0.020643396062402248 0 0.0010477842906373676 -0.021626473613943528 0 0.00051034324598619801 -0.020998113322319281 0 0.0013334233776311393 -0.020643396062402248 0 -0.00012003205211139179 -0.020335566712705606 0 0.001337211028997992 -0.019880188016114107 0 0.0012473687056848211 -0.019545213175290597 0 0.00061380953147733804 -0.019936420880062106 0 0.00061833589153805163 -0.022381410832457708 0 0.00065531689612547924 -0.022839805841670075 0 0.00061833589153805163 -0.022381410832457708 0 0.00031525911329744719 -0.019802844565945648 0 0.00051034324598619801 -0.020998113322319281 0 -0.00012003205211139179 -0.020335566712705606 0 -6.5423724906492947e-05 -0.021515822768559491 0 -0.00012003205211139179 -0.020335566712705606 0 -0.00066542196245982313 -0.020849679288843362 0 -6.5423724906492947e-05 -0.021515822768559491 0 -0.00012003205211139179 -0.020335566712705606 0 -0.00066542196245982313 -0.020849679288843362 0 -0.0010717275011508742 -0.019661073515297747 0 0.00031525911329744719 -0.019802844565945648 0 -0.0010639554676577692 -0.019791822576166389 0 -0.00077451267796681495 -0.01814930129388553 0 0.00011435887526030621 -0.018919062200510102 0 -0.0010717275011508742 -0.019661073515297747 0 0.00061380953147733804 -0.019936420880062106 0 0.00011435887526030621 -0.018919062200510102 0 -0.0010717275011508742 -0.019661073515297747 0 -0.0016230817790812051 -0.018420149314041699 0 -0.00077451267796681495 -0.01814930129388553 0 -0.0010717275011508742 -0.019661073515297747 0 -0.0020050434251135162 -0.02029472178862636 0 -0.0010717275011508742 -0.019661073515297747 0 -0.001350939657518555 -0.021026786016883924 0 -0.00066542196245982313 -0.020849679288843362 0 -0.0010717275011508742 -0.019661073515297747 0 -0.001350939657518555 -0.021026786016883924 0 -0.00066542196245982313 -0.020849679288843362 0 -0.001350939657518555 -0.021026786016883924 0 -0.00073560806889343003 -0.021716820633577962 0 -0.00066542196245982313 -0.020849679288843362 0 -0.00073560806889343003 -0.021716820633577962 0 -6.5423724906492947e-05 -0.021515822768559491 0 -0.00073560806889343003 -0.021716820633577962 0 -0.00071254171054891411 -0.022552932233816245 0 -0.00021251857118229696 -0.022680306779902626 0 -0.00073560806889343003 -0.021716820633577962 0 -0.00071254171054891411 -0.022552932233816245 0 -0.0013415369600138019 -0.022211266648644704 0 -0.001350939657518555 -0.021026786016883924 0 -0.00073560806889343003 -0.021716820633577962 0 -0.0013415369600138019 -0.022211266648644704 0 -0.0019641168954438481 -0.022695494129655748 0 -0.0013415369600138019 -0.022211266648644704 0 -0.0014376110789043391 -0.022827847267634285 0 -0.0013415369600138019 -0.022211266648644704 0 -0.0014376110789043391 -0.022827847267634285 0 -0.00097281137453649423 -0.022957318342821095 0 -0.00097281137453649423 -0.022957318342821095 0 -0.00057301535046903646 -0.023436499543075473 0 -0.00039125755093358472 -0.023089094306015828 0 -0.00071254171054891411 -0.022552932233816245 0 -0.00097281137453649423 -0.022957318342821095 0 -0.00039125755093358472 -0.023089094306015828 0 -0.00071254171054891411 -0.022552932233816245 0 -0.0013415369600138019 -0.022211266648644704 0 -0.00097281137453649423 -0.022957318342821095 0 -0.00097281137453649423 -0.022957318342821095 0 -0.00057301535046903646 -0.023436499543075473 0 -0.00089165006468245136 -0.023623557870080556 0 -0.00097281137453649423 -0.022957318342821095 0 -0.0014665611936928379 -0.023173616965951584 0 -0.00089165006468245136 -0.023623557870080556 0 -0.0014376110789043391 -0.022827847267634285 0 -0.00097281137453649423 -0.022957318342821095 0 -0.0014665611936928379 -0.023173616965951584 0 -3.9343470715802158e-05 -0.023866965357173066 0 -0.00022946842094244291 -0.02358400248873126 0 5.882591322908535e-05 -0.023394144794779182 0 -3.9343470715802158e-05 -0.023866965357173066 0 -0.00022946842094244291 -0.02358400248873126 0 -0.00044789217552462335 -0.023824001497896107 0 -0.00057301535046903646 -0.023436499543075473 0 -0.00022946842094244291 -0.02358400248873126 0 -0.00039125755093358472 -0.023089094306015828 0 -0.00057301535046903646 -0.023436499543075473 0 -0.00022946842094244291 -0.02358400248873126 0 -0.00044789217552462335 -0.023824001497896107 0 -0.00039125755093358472 -0.023089094306015828 0 5.882591322908535e-05 -0.023394144794779182 0 -0.00021251857118229696 -0.022680306779902626 0 -0.00022946842094244291 -0.02358400248873126 0 -0.00039125755093358472 -0.023089094306015828 0 5.882591322908535e-05 -0.023394144794779182 0 -3.9343470715802158e-05 -0.023866965357173066 0 5.882591322908535e-05 -0.023394144794779182 0 0.00010036433822582749 -0.023738763474771638 0 5.882591322908535e-05 -0.023394144794779182 0 0.00037833617001793989 -0.02307749915593138 0 0.00010036433822582749 -0.023738763474771638 0 0.00037833617001793989 -0.02307749915593138 0 -0.00021251857118229696 -0.022680306779902626 0 -6.5423724906492947e-05 -0.021515822768559491 0 -0.00071254171054891411 -0.022552932233816245 0 -0.00039125755093358472 -0.023089094306015828 0 -0.00021251857118229696 -0.022680306779902626 0 5.882591322908535e-05 -0.023394144794779182 0 0.00037833617001793989 -0.02307749915593138 0 -0.00021251857118229696 -0.022680306779902626 0 -0.00073560806889343003 -0.021716820633577962 0 -0.00021251857118229696 -0.022680306779902626 0 -6.5423724906492947e-05 -0.021515822768559491 0 0.00046757013529781207 -0.023067906699811888 0 0.00065531689612547924 -0.022839805841670075 0 0.00051034324598619801 -0.020998113322319281 0 -6.5423724906492947e-05 -0.021515822768559491 0 0.0010477842906373676 -0.021626473613943528 0 0.00037833617001793989 -0.02307749915593138 0 0.00036647347520877682 -0.024037892817923501 0 7.7761458992510845e-05 -0.023861717145546517 0 0.00037833617001793989 -0.02307749915593138 0 -6.5423724906492947e-05 -0.021515822768559491 0 0.0010477842906373676 -0.021626473613943528 0 9.4861721304125463e-05 -0.02418994858668044 0 -1.2357201466771512e-05 -0.024292119494771391 0 7.7761458992510845e-05 -0.023861717145546517 0 0.00025440384459101518 -0.024371883356872251 0 0.00036647347520877682 -0.024037892817923501 0 9.4861721304125463e-05 -0.02418994858668044 0 0.00036647347520877682 -0.024037892817923501 0 9.4861721304125463e-05 -0.02418994858668044 0 7.7761458992510845e-05 -0.023861717145546517 0 -1.2357201466771512e-05 -0.024292119494771391 0 -3.0818182710946682e-05 -0.02459889754597866 0 -6.9759820370804162e-06 -0.024373344827735764 0 9.4861721304125463e-05 -0.02418994858668044 0 -1.2357201466771512e-05 -0.024292119494771391 0 -6.9759820370804162e-06 -0.024373344827735764 0 -1.2357201466771512e-05 -0.024292119494771391 0 2.8100460466194253e-05 -0.024203096375956475 0 -9.6649693595466193e-06 -0.024628431899169866 0 -1.2357201466771512e-05 -0.024292119494771391 0 2.8100460466194253e-05 -0.024203096375956475 0 7.7761458992510845e-05 -0.023861717145546517 0 0.00037833617001793989 -0.02307749915593138 0 7.7761458992510845e-05 -0.023861717145546517 0 0.00010036433822582749 -0.023738763474771638 0 2.8100460466194253e-05 -0.024203096375956475 0 7.7761458992510845e-05 -0.023861717145546517 0 0.00010036433822582749 -0.023738763474771638 0 -3.9343470715802158e-05 -0.023866965357173066 0 0.00010036433822582749 -0.023738763474771638 0 5.7011195839640552e-05 -0.024173551619592993 0 2.8100460466194253e-05 -0.024203096375956475 0 0.00010036433822582749 -0.023738763474771638 0 5.7011195839640552e-05 -0.024173551619592993 0 2.8100460466194253e-05 -0.024203096375956475 0 5.7011195839640552e-05 -0.024173551619592993 0 2.6681088012678001e-05 -0.0246319624398363 0 5.7011195839640552e-05 -0.024173551619592993 0 5.4307874299377308e-05 -0.02454318575442142 0 1.245032403319705e-05 -0.024222763611311305 0 -3.9343470715802158e-05 -0.023866965357173066 0 5.7011195839640552e-05 -0.024173551619592993 0 1.245032403319705e-05 -0.024222763611311305 0 6.4280940599934285e-08 -0.024999511711709277 0 5.4307874299377308e-05 -0.02454318575442142 0 2.6681088012678001e-05 -0.0246319624398363 0 5.7011195839640552e-05 -0.024173551619592993 0 5.4307874299377308e-05 -0.02454318575442142 0 2.6681088012678001e-05 -0.0246319624398363 0 6.4280940599934285e-08 -0.024999511711709277 0 2.6681088012678001e-05 -0.0246319624398363 0 -6.3165571697971335e-09 -0.024999513963238039 0 2.6681088012678001e-05 -0.0246319624398363 0 -6.3165571697971335e-09 -0.024999513963238039 0 -9.6649693595466193e-06 -0.024628431899169866 0 2.8100460466194253e-05 -0.024203096375956475 0 2.6681088012678001e-05 -0.0246319624398363 0 -9.6649693595466193e-06 -0.024628431899169866 0 -1.2357201466771512e-05 -0.024292119494771391 0 -9.6649693595466193e-06 -0.024628431899169866 0 -3.0818182710946682e-05 -0.02459889754597866 0 -9.6649693595466193e-06 -0.024628431899169866 0 -1.6077981302324258e-08 -0.024999364179504362 0 -3.0818182710946682e-05 -0.02459889754597866 0 -6.3165571697971335e-09 -0.024999513963238039 0 -9.6649693595466193e-06 -0.024628431899169866 0 -1.6077981302324258e-08 -0.024999364179504362 0 -1.0131730318054884e-07 -0.024999904383923837 0 -6.5255514483326219e-05 -0.024817324594119242 0 -2.4819466342052757e-08 -0.025000157847790947 0 -2.8619356933440542e-05 -0.024973062327639496 0 4.7920134448797176e-08 -0.024999760614104357 0 -2.4819466342052757e-08 -0.025000157847790947 0 -2.8619356933440542e-05 -0.024973062327639496 0 -7.4955112466180821e-05 -0.025042292476131166 0 -2.8619356933440542e-05 -0.024973062327639496 0 4.7920134448797176e-08 -0.024999760614104357 0 -4.072372207123183e-05 -0.024858254743059281 0 -2.8619356933440542e-05 -0.024973062327639496 0 -4.072372207123183e-05 -0.024858254743059281 0 -0.00013031837207395792 -0.024914894365700355 0 -4.072372207123183e-05 -0.024858254743059281 0 -0.00013031837207395792 -0.024914894365700355 0 -0.00016871653837781641 -0.0247201318742791 0 -0.00013031837207395792 -0.024914894365700355 0 -7.4955112466180821e-05 -0.025042292476131166 0 -0.00031293258533077488 -0.025044431230737334 0 -2.8619356933440542e-05 -0.024973062327639496 0 -0.00013031837207395792 -0.024914894365700355 0 -7.4955112466180821e-05 -0.025042292476131166 0 -6.5255514483326219e-05 -0.024817324594119242 0 -0.00027533989132673875 -0.024857099477186111 0 -0.00031293258533077488 -0.025044431230737334 0 -0.00045091371044212695 -0.024896836795846221 0 -0.00030736376407561116 -0.024832931920519899 0 -0.00013031837207395792 -0.024914894365700355 0 -0.00031293258533077488 -0.025044431230737334 0 -0.00030736376407561116 -0.024832931920519899 0 0.00025440384459101518 -0.024371883356872251 0 9.4861721304125463e-05 -0.02418994858668044 0 -6.9759820370804162e-06 -0.024373344827735764 0 0.00061833589153805163 -0.022381410832457708 0 -0.00027533989132673875 -0.024857099477186111 0 -0.00062072447400936953 -0.024997048590863193 0 -0.00031293258533077488 -0.025044431230737334 0 -0.00045091371044212695 -0.024896836795846221 0 -0.00062072447400936953 -0.024997048590863193 0 -0.00045091371044212695 -0.024896836795846221 0 -0.00057125532809721845 -0.024688406561296044 0 0.00061833589153805163 -0.022381410832457708 0 -0.00022695804199519544 -0.023064310316618791 0 -0.00045091371044212695 -0.024896836795846221 0 -0.00057125532809721845 -0.024688406561296044 0 -0.00030736376407561116 -0.024832931920519899 0 -0.00057125532809721845 -0.024688406561296044 0 -0.00030736376407561116 -0.024832931920519899 0 -0.00029245449401982444 -0.024559427892786881 0 -0.00030736376407561116 -0.024832931920519899 0 -0.00029245449401982444 -0.024559427892786881 0 -0.00016871653837781641 -0.0247201318742791 0 -0.00013031837207395792 -0.024914894365700355 0 -0.00030736376407561116 -0.024832931920519899 0 -0.00016871653837781641 -0.0247201318742791 0 -0.00029245449401982444 -0.024559427892786881 0 -0.00022260468942577236 -0.024438004244655892 0 -0.00016871653837781641 -0.0247201318742791 0 -0.00029245449401982444 -0.024559427892786881 0 -0.00022260468942577236 -0.024438004244655892 0 -0.00033016963157546467 -0.024026301834304421 0 -0.00057125532809721845 -0.024688406561296044 0 -0.00029245449401982444 -0.024559427892786881 0 -0.00033016963157546467 -0.024026301834304421 0 0.00082562646669180997 -0.023098999278711316 0 5.5456637575576921e-05 -0.021366750459431854 0 -0.00033016963157546467 -0.024026301834304421 0 -0.00022695804199519544 -0.023064310316618791 0 -0.00035423816875911708 -0.02390217307565614 0 0.0011250734677151794 -0.021032857696683394 0 0.0013526511055186963 -0.020515379403943903 0 -3.6255445263357531e-06 -0.024605718996808898 0 0.00082562646669180997 -0.023098999278711316 0 -0.00033016963157546467 -0.024026301834304421 0 -0.00021222822843355524 -0.024539641008926815 0 -0.00032492063590882714 -0.024345055396224165 0 -0.00033016963157546467 -0.024026301834304421 0 -0.00032492063590882714 -0.024345055396224165 0 -0.00022260468942577236 -0.024438004244655892 0 -0.00013183637446807173 -0.024575270060719034 0 -0.00032492063590882714 -0.024345055396224165 0 -0.00022260468942577236 -0.024438004244655892 0 -0.00033016963157546467 -0.024026301834304421 0 -4.0471446926107789e-05 -0.024250479572070965 0 -0.00032492063590882714 -0.024345055396224165 0 -0.00013183637446807173 -0.024575270060719034 0 -9.5548541208510706e-05 -0.025096104794840715 0 3.1857555117126525e-05 -0.02470176293119836 0 2.8202214024795423e-05 -0.025026305050147218 0 9.6064947436356821e-09 -0.024999649175671552 0 3.1398123582210586e-05 -0.024914130066203861 0 -4.0471446926107789e-05 -0.024250479572070965 0 -0.00013183637446807173 -0.024575270060719034 0 3.1398123582210586e-05 -0.024914130066203861 0 4.7920134448797176e-08 -0.024999760614104357 0 9.6064947436356821e-09 -0.024999649175671552 0 3.1398123582210586e-05 -0.024914130066203861 0 4.7920134448797176e-08 -0.024999760614104357 0 -4.072372207123183e-05 -0.024858254743059281 0 3.1398123582210586e-05 -0.024914130066203861 0 -0.00013183637446807173 -0.024575270060719034 0 3.1398123582210586e-05 -0.024914130066203861 0 -5.8603191340550102e-05 -0.024767771546834419 0 -4.072372207123183e-05 -0.024858254743059281 0 3.1398123582210586e-05 -0.024914130066203861 0 -5.8603191340550102e-05 -0.024767771546834419 0 -4.072372207123183e-05 -0.024858254743059281 0 -0.00013072854939034012 -0.02463755004328106 0 -5.8603191340550102e-05 -0.024767771546834419 0 -4.072372207123183e-05 -0.024858254743059281 0 -0.00016871653837781641 -0.0247201318742791 0 -0.00013072854939034012 -0.02463755004328106 0 -0.00022260468942577236 -0.024438004244655892 0 -0.00013183637446807173 -0.024575270060719034 0 -0.00013072854939034012 -0.02463755004328106 0 -0.00022260468942577236 -0.024438004244655892 0 -0.00016871653837781641 -0.0247201318742791 0 -0.00013072854939034012 -0.02463755004328106 0 -0.00013183637446807173 -0.024575270060719034 0 -0.00013072854939034012 -0.02463755004328106 0 -5.8603191340550102e-05 -0.024767771546834419 0 -0.0059197187370924106 -0.0031977430259622001 0 -0.0060156960933949585 -0.0027538457674569248 0 -0.0053964051579097417 -0.0028525931628995294 0 -0.0059197187370924106 -0.0031977430259622001 0 -0.0054302795106276345 -0.0035766095548097955 0 -0.0063788042053819181 -0.0036462841013356288 0 -0.0059197187370924106 -0.0031977430259622001 0 -0.0063788042053819181 -0.0036462841013356288 0 -0.0063840986421618874 -0.0031642248622515321 0 -0.0059197187370924106 -0.0031977430259622001 0 -0.0063840986421618874 -0.0031642248622515321 0 -0.0060156960933949585 -0.0027538457674569248 0 -0.0059197187370924106 -0.0031977430259622001 0 -0.0054302795106276345 -0.0035766095548097955 0 -0.0053964051579097417 -0.0028525931628995294 0 -0.0054302795106276345 -0.0035766095548097955 0 -0.0053964051579097417 -0.0028525931628995294 0 -0.0047798941835141689 -0.0030464125747528201 0 -0.0052858951241475417 -0.0034293519949572101 0 -0.0047335345674104157 -0.0038946376089807949 0 -0.0051997283350703064 -0.0040500981567452368 0 -0.0052858951241475417 -0.0034293519949572101 0 -0.0059706172296333411 -0.003788316675145619 0 -0.0051997283350703064 -0.0040500981567452368 0 -0.005358856843951724 -0.0035511781585323499 0 -0.0062045437947002872 -0.0031051484121779674 0 -0.0052858951241475417 -0.0034293519949572101 0 -0.0060706460158568374 -0.0033922581620310548 0 -0.0059706172296333411 -0.003788316675145619 0 -0.0065849569200476547 -0.00352143062881789 0 -0.005997319582338994 -0.0036367286031244706 0 -0.0060706460158568374 -0.0033922581620310548 0 -0.006646392342386882 -0.0035065049239460765 0 -0.0059706172296333411 -0.003788316675145619 0 -0.0062045437947002872 -0.0031051484121779674 0 -0.0071900677935244862 -0.0070511501133240307 0 -0.006646392342386882 -0.0035065049239460765 0 -0.0067438496313476284 -0.0033644017123214674 0 -0.0066740114578291146 -0.0038822497964740668 0 -0.00849550014571482 -0.013405866768654726 0 -0.0086073015653821833 -0.012542735935867631 0 -0.0082848893118510122 -0.013041297753823086 0 -0.0060706460158568374 -0.0033922581620310548 0 -0.006646392342386882 -0.0035065049239460765 0 -0.0067438496313476284 -0.0033644017123214674 0 -0.0071900677935244862 -0.0070511501133240307 0 -0.007665790367562055 -0.0086699507386012158 0 -0.0063788042053819181 -0.0036462841013356288 0 -0.0073350294396349039 -0.0036999218773284357 0 -0.0068511732570533971 -0.0033376158334245776 0 -0.0071900677935244862 -0.0070511501133240307 0 -0.0072796630484145341 -0.0095353682039082 0 -0.0073350294396349039 -0.0036999218773284357 0 -0.0071380494174066488 -0.0032991956250109887 0 -0.0074015314161192088 -0.0031673881695443991 0 -0.0073350294396349039 -0.0036999218773284357 0 -0.0068511732570533971 -0.0033376158334245776 0 -0.0071380494174066488 -0.0032991956250109887 0 -0.0068511732570533971 -0.0033376158334245776 0 -0.0071380494174066488 -0.0032991956250109887 0 -0.006965846863642682 -0.0029943686167850053 0 -0.0071380494174066488 -0.0032991956250109887 0 -0.006965846863642682 -0.0029943686167850053 0 -0.0074015314161192088 -0.0031673881695443991 0 -0.0063788042053819181 -0.0036462841013356288 0 -0.0068511732570533971 -0.0033376158334245776 0 -0.0063840986421618874 -0.0031642248622515321 0 -0.0068511732570533971 -0.0033376158334245776 0 -0.0065766260943524854 -0.0028082988480725999 0 -0.006965846863642682 -0.0029943686167850053 0 -0.0068511732570533971 -0.0033376158334245776 0 -0.0063840986421618874 -0.0031642248622515321 0 -0.0065766260943524854 -0.0028082988480725999 0 -0.0065766260943524854 -0.0028082988480725999 0 -0.0068200363363415516 -0.0022647489124868691 0 -0.0062254433131909443 -0.0023731957068314894 0 -0.0063840986421618874 -0.0031642248622515321 0 -0.0065766260943524854 -0.0028082988480725999 0 -0.0060156960933949585 -0.0027538457674569248 0 -0.0065766260943524854 -0.0028082988480725999 0 -0.006965846863642682 -0.0029943686167850053 0 -0.0068200363363415516 -0.0022647489124868691 0 -0.0065766260943524854 -0.0028082988480725999 0 -0.0062254433131909443 -0.0023731957068314894 0 -0.0060156960933949585 -0.0027538457674569248 0 -0.006965846863642682 -0.0029943686167850053 0 -0.0068200363363415516 -0.0022647489124868691 0 -0.0074015314161192088 -0.0031673881695443991 0 -0.0072801176359165738 -0.0090787917608014957 0 -0.0072796630484145341 -0.0095353682039082 0 -0.0077086039860957481 -0.013851866971801029 0 -0.0075797614733513876 -0.013438541108578433 0 -0.0075742964854435321 -0.013957231822588873 0 -0.0077086039860957481 -0.013851866971801029 0 -0.0079341624337696971 -0.014007478316973637 0 -0.0075797614733513876 -0.013438541108578433 0 -0.0076786515358776451 -0.014050952069999819 0 -0.0078138460207246244 -0.013958828407762138 0 -0.0078991076604527383 -0.014096130267927519 0 -0.0077086039860957481 -0.013851866971801029 0 -0.0076786515358776451 -0.014050952069999819 0 -0.0075742964854435321 -0.013957231822588873 0 -0.0088050743784573258 -0.013587142486192279 0 -0.0072801176359165738 -0.0090787917608014957 0 -0.0077086039860957481 -0.013851866971801029 0 -0.0076786515358776451 -0.014050952069999819 0 -0.0078138460207246244 -0.013958828407762138 0 -0.0068200363363415516 -0.0022647489124868691 0 -0.0063246118453572078 -0.0018939898957771254 0 -0.0062254433131909443 -0.0023731957068314894 0 -0.0072801176359165738 -0.0090787917608014957 0 -0.0059249042996025007 -0.0035545545742055747 0 -0.0077581731807591665 -0.0080422093873969338 0 -0.0051345490789188684 -0.0061337545693013933 0 -0.0062584128965665663 -0.0057479403958769918 0 -0.0072801176359165738 -0.0090787917608014957 0 -0.0054319105378926409 -0.0082938662687970077 0 -0.0063246118453572078 -0.0018939898957771254 0 -0.0062254433131909443 -0.0023731957068314894 0 -0.0054046039289963408 -0.0021483432168280443 0 -0.0061977431995000835 -0.0017197734669058434 0 -0.0053620276251329932 -0.0020122949533518558 0 -0.0057449607323444519 -0.0013803026029196998 0 -0.0059249042996025007 -0.0035545545742055747 0 -0.0055016744091574993 -0.0018312687957087058 0 -0.0062254433131909443 -0.0023731957068314894 0 -0.0060156960933949585 -0.0027538457674569248 0 -0.0054046039289963408 -0.0021483432168280443 0 -0.0060156960933949585 -0.0027538457674569248 0 -0.0053964051579097417 -0.0028525931628995294 0 -0.0054046039289963408 -0.0021483432168280443 0 -0.0053620276251329932 -0.0020122949533518558 0 -0.0046802896240080013 -0.0017354400127101049 0 -0.0050599370917978562 -0.0013148241717732578 0 -0.0055016744091574993 -0.0018312687957087058 0 -0.0044638918982839761 -0.0024298217780878394 0 -0.0053620276251329932 -0.0020122949533518558 0 -0.0046802896240080013 -0.0017354400127101049 0 -0.0044909141662465065 -0.0023645474326462463 0 -0.0046802896240080013 -0.0017354400127101049 0 -0.0040928847427824291 -0.0017907254930763789 0 -0.0044909141662465065 -0.0023645474326462463 0 -0.0040928847427824291 -0.0017907254930763789 0 -0.0044909141662465065 -0.0023645474326462463 0 -0.0038144916659688158 -0.0024482571444501902 0 -0.0044909141662465065 -0.0023645474326462463 0 -0.0047798941835141689 -0.0030464125747528201 0 -0.0041166195786869293 -0.0029503402388387097 0 -0.0044909141662465065 -0.0023645474326462463 0 -0.0038144916659688158 -0.0024482571444501902 0 -0.0041166195786869293 -0.0029503402388387097 0 -0.0053964051579097417 -0.0028525931628995294 0 -0.0054046039289963408 -0.0021483432168280443 0 -0.0044909141662465065 -0.0023645474326462463 0 -0.0053964051579097417 -0.0028525931628995294 0 -0.0044909141662465065 -0.0023645474326462463 0 -0.0047798941835141689 -0.0030464125747528201 0 -0.002791868217578155 -0.0018563642770209813 0 -0.0035298809150344176 -0.0019975137730349189 0 -0.0036166117553019608 -0.0011600862331575723 0 -0.002791868217578155 -0.0018563642770209813 0 -0.0035298809150344176 -0.0019975137730349189 0 -0.0030649748600673509 -0.0022989461578038074 0 -0.0033175327162691371 0.00066716527425602875 0 -0.0035844314260021029 0.00015350347753281658 0 -0.0040928847427824291 -0.0017907254930763789 0 -0.0035298809150344176 -0.0019975137730349189 0 -0.0038144916659688158 -0.0024482571444501902 0 -0.0035298809150344176 -0.0019975137730349189 0 -0.0038144916659688158 -0.0024482571444501902 0 -0.0033533585312002911 -0.002747685488193906 0 -0.0038144916659688158 -0.0024482571444501902 0 -0.0033533585312002911 -0.002747685488193906 0 -0.0041166195786869293 -0.0029503402388387097 0 -0.0035298809150344176 -0.0019975137730349189 0 -0.0033533585312002911 -0.002747685488193906 0 -0.0030649748600673509 -0.0022989461578038074 0 -0.0039067672241845401 -0.0003876900757774466 0 -0.0035844314260021029 0.00015350347753281658 0 -0.0038679221060109758 0.0019530789601938379 0 -0.0044749427727596063 0.0019890585508020252 0 -0.0041038412017385152 0.002596010432158805 0 -0.0044749427727596063 0.0019890585508020252 0 -0.0051886758875357092 0.00080089431434095639 0 -0.0041733356752344849 0.0011819951071536953 0 -0.0038679221060109758 0.0019530789601938379 0 -0.0044749427727596063 0.0019890585508020252 0 -0.0041733356752344849 0.0011819951071536953 0 -0.0033533585312002911 -0.002747685488193906 0 -0.0039327210281367587 -0.0035748564788467799 0 -0.0041166195786869293 -0.0029503402388387097 0 -0.0039067672241845401 -0.0003876900757774466 0 -0.0046130411752024871 -0.0013210599447494758 0 -0.0035687010352673278 0.00060433509195802811 0 -0.0041733356752344849 0.0011819951071536953 0 -0.0045290633698051542 0.00018941710900413365 0 -0.0051886758875357092 0.00080089431434095639 0 -0.0041733356752344849 0.0011819951071536953 0 -0.0045290633698051542 0.00018941710900413365 0 -0.0054302795106276345 -0.0035766095548097955 0 -0.0047798941835141689 -0.0030464125747528201 0 -0.0044929351122462539 -0.0034822445623775397 0 -0.0047798941835141689 -0.0030464125747528201 0 -0.0041166195786869293 -0.0029503402388387097 0 -0.0044929351122462539 -0.0034822445623775397 0 -0.0039327210281367587 -0.0035748564788467799 0 -0.0044929351122462539 -0.0034822445623775397 0 -0.0047335345674104157 -0.0038946376089807949 0 -0.0039327210281367587 -0.0035748564788467799 0 -0.0041166195786869293 -0.0029503402388387097 0 -0.0044929351122462539 -0.0034822445623775397 0 -0.005358856843951724 -0.0035511781585323499 0 -0.004547655476395302 -0.0034766711947461829 0 -0.0052858951241475417 -0.0034293519949572101 0 -0.0044929351122462539 -0.0034822445623775397 0 -0.0047335345674104157 -0.0038946376089807949 0 -0.0047172181533589909 -0.002718779728142435 0 -0.0050787227697415283 -0.0040440120419391158 0 -0.0047335345674104157 -0.0038946376089807949 0 -0.0044266724318059603 -0.0042806464458857935 0 -0.0051997283350703064 -0.0040500981567452368 0 -0.0046130411752024871 -0.0013210599447494758 0 -0.0047172181533589909 -0.002718779728142435 0 -0.0039327210281367587 -0.0035748564788467799 0 -0.0047335345674104157 -0.0038946376089807949 0 -0.0044266724318059603 -0.0042806464458857935 0 -0.0039393706763421171 -0.0032805569588419056 0 -0.0043492082110243736 -0.0038768291937423694 0 -0.0035658979425633452 -0.0039003683184252493 0 -0.0044365265550424977 -0.0038622156343360039 0 -0.0051078891569579267 -0.0041321144946388621 0 -0.0051598377536416417 -0.0036680016739032944 0 -0.0047172181533589909 -0.002718779728142435 0 -0.0045586230967488506 -0.0041928121069554434 0 -0.0044365265550424977 -0.0038622156343360039 0 -0.0047131579935107753 -0.0043009955191040412 0 -0.0051078891569579267 -0.0041321144946388621 0 -0.0038281209547414768 -0.00020395496241774051 0 -0.0045290633698051542 0.00018941710900413365 0 -0.0046438780051474577 -0.00070833027411667539 0 -0.0035687010352673278 0.00060433509195802811 0 -0.0038281209547414768 -0.00020395496241774051 0 -0.0045290633698051542 0.00018941710900413365 0 -0.0051886758875357092 0.00080089431434095639 0 -0.0058978368105855397 -0.00036816721931547829 0 -0.0045290633698051542 0.00018941710900413365 0 -0.0058978368105855397 -0.00036816721931547829 0 -0.0045290633698051542 0.00018941710900413365 0 -0.0046438780051474577 -0.00070833027411667539 0 -0.0039393706763421171 -0.0032805569588419056 0 -0.0030507722225818594 -0.0035965451402214569 0 -0.0035658979425633452 -0.0039003683184252493 0 -0.0047172181533589909 -0.002718779728142435 0 -0.0039311122152238176 -0.0020296039173819513 0 -0.0028836398211516787 -0.0024060317378736197 0 -0.0039311122152238176 -0.0020296039173819513 0 -0.0038281209547414768 -0.00020395496241774051 0 -0.0033752879748991239 -0.0010467883583631919 0 -0.0046438780051474577 -0.00070833027411667539 0 -0.002507088329190125 -0.0038299333332423042 0 -0.0030507722225818594 -0.0035965451402214569 0 -0.002792701180239286 -0.0042119178961671404 0 -0.002792701180239286 -0.0042119178961671404 0 -0.0035658979425633452 -0.0039003683184252493 0 -0.0035379002734270137 -0.0046237741337610307 0 -0.0030507722225818594 -0.0035965451402214569 0 -0.002792701180239286 -0.0042119178961671404 0 -0.0035658979425633452 -0.0039003683184252493 0 -0.0026209338637267826 -0.0048714641086123533 0 -0.002792701180239286 -0.0042119178961671404 0 -0.0035379002734270137 -0.0046237741337610307 0 -0.0045586230967488506 -0.0041928121069554434 0 -0.0048308879381296892 -0.0045909223225035541 0 -0.0047131579935107753 -0.0043009955191040412 0 -0.0048730198245393562 -0.0046749294432998408 0 -0.0051078891569579267 -0.0041321144946388621 0 -0.0043492082110243736 -0.0038768291937423694 0 -0.004237567629082218 -0.0049099554871664952 0 -0.0048730198245393562 -0.0046749294432998408 0 -0.0043492082110243736 -0.0038768291937423694 0 -0.0035658979425633452 -0.0039003683184252493 0 -0.0035379002734270137 -0.0046237741337610307 0 -0.0043492082110243736 -0.0038768291937423694 0 -0.0035379002734270137 -0.0046237741337610307 0 -0.004237567629082218 -0.0049099554871664952 0 -0.0047382271038978012 -0.0055169803550856227 0 -0.004237567629082218 -0.0049099554871664952 0 -0.0048730198245393562 -0.0046749294432998408 0 -0.0047382271038978012 -0.0055169803550856227 0 -0.0048730198245393562 -0.0046749294432998408 0 -0.0055221630786124196 -0.0052447334500432367 0 -0.0048730198245393562 -0.0046749294432998408 0 -0.0055221630786124196 -0.0052447334500432367 0 -0.005473135473468377 -0.0046010741008593739 0 -0.0055221630786124196 -0.0052447334500432367 0 -0.005473135473468377 -0.0046010741008593739 0 -0.0060564223257534066 -0.0049146435385553373 0 -0.0063321565825349502 -0.0057201596344737954 0 -0.0055221630786124196 -0.0052447334500432367 0 -0.0060564223257534066 -0.0049146435385553373 0 -0.005473135473468377 -0.0046010741008593739 0 -0.0056249808981236691 -0.0042152447957756935 0 -0.0060421809985690862 -0.0044551226936157028 0 -0.005473135473468377 -0.0046010741008593739 0 -0.0060421809985690862 -0.0044551226936157028 0 -0.0060564223257534066 -0.0049146435385553373 0 -0.0048730198245393562 -0.0046749294432998408 0 -0.005473135473468377 -0.0046010741008593739 0 -0.0051078891569579267 -0.0041321144946388621 0 -0.005473135473468377 -0.0046010741008593739 0 -0.0051078891569579267 -0.0041321144946388621 0 -0.0056249808981236691 -0.0042152447957756935 0 -0.0051078891569579267 -0.0041321144946388621 0 -0.0056249808981236691 -0.0042152447957756935 0 -0.0055979809537578199 -0.0038931715526528453 0 -0.0051078891569579267 -0.0041321144946388621 0 -0.0055979809537578199 -0.0038931715526528453 0 -0.0051598377536416417 -0.0036680016739032944 0 -0.0056249808981236691 -0.0042152447957756935 0 -0.0055979809537578199 -0.0038931715526528453 0 -0.0061089507137325784 -0.0039431540300845563 0 -0.0056249808981236691 -0.0042152447957756935 0 -0.0061089507137325784 -0.0039431540300845563 0 -0.0060421809985690862 -0.0044551226936157028 0 -0.0055979809537578199 -0.0038931715526528453 0 -0.0059775328552595678 -0.0035335324113835009 0 -0.0051598377536416417 -0.0036680016739032944 0 -0.0055979809537578199 -0.0038931715526528453 0 -0.0059775328552595678 -0.0035335324113835009 0 -0.0061089507137325784 -0.0039431540300845563 0 -0.005997319582338994 -0.0036367286031244706 0 -0.0050787227697415283 -0.0040440120419391158 0 -0.006646392342386882 -0.0035065049239460765 0 -0.0066740114578291146 -0.0038822497964740668 0 -0.0063799582845374785 -0.0037623161207665594 0 -0.0066740114578291146 -0.0038822497964740668 0 -0.0063799582845374785 -0.0037623161207665594 0 -0.006440567711523194 -0.0040452733391788988 0 -0.006646392342386882 -0.0035065049239460765 0 -0.0059775328552595678 -0.0035335324113835009 0 -0.0063799582845374785 -0.0037623161207665594 0 -0.0059775328552595678 -0.0035335324113835009 0 -0.0063799582845374785 -0.0037623161207665594 0 -0.0061089507137325784 -0.0039431540300845563 0 -0.0063799582845374785 -0.0037623161207665594 0 -0.0061089507137325784 -0.0039431540300845563 0 -0.006440567711523194 -0.0040452733391788988 0 -0.0061089507137325784 -0.0039431540300845563 0 -0.0063698007077407212 -0.0042573477081575993 0 -0.006440567711523194 -0.0040452733391788988 0 -0.0061089507137325784 -0.0039431540300845563 0 -0.0063698007077407212 -0.0042573477081575993 0 -0.0060421809985690862 -0.0044551226936157028 0 -0.0066740114578291146 -0.0038822497964740668 0 -0.006440567711523194 -0.0040452733391788988 0 -0.0066400350719899547 -0.0044740329555021177 0 -0.0086073015653821833 -0.012542735935867631 0 -0.0086857292325323836 -0.011726024393655372 0 -0.0083832841667755408 -0.012113879794743336 0 -0.007665790367562055 -0.0086699507386012158 0 -0.007576090650926787 -0.0071787980460727742 0 -0.0063698007077407212 -0.0042573477081575993 0 -0.006440567711523194 -0.0040452733391788988 0 -0.0066400350719899547 -0.0044740329555021177 0 -0.007576090650926787 -0.0071787980460727742 0 -0.0075581756499915947 -0.0061409411879762262 0 -0.0068272749947269704 -0.004512402118648829 0 -0.0068185992693426956 -0.0046530317895236983 0 -0.0064842374697097072 -0.0045387875778013691 0 -0.0058196023107854487 -0.0041967085128785135 0 -0.007576090650926787 -0.0071787980460727742 0 -0.0063698007077407212 -0.0042573477081575993 0 -0.0068272749947269704 -0.004512402118648829 0 -0.0064842374697097072 -0.0045387875778013691 0 -0.0068185992693426956 -0.0046530317895236983 0 -0.0064842374697097072 -0.0045387875778013691 0 -0.0065735042078443242 -0.0050157541410410216 0 -0.0063698007077407212 -0.0042573477081575993 0 -0.0060421809985690862 -0.0044551226936157028 0 -0.0064842374697097072 -0.0045387875778013691 0 -0.0064842374697097072 -0.0045387875778013691 0 -0.0060564223257534066 -0.0049146435385553373 0 -0.0065735042078443242 -0.0050157541410410216 0 -0.0060421809985690862 -0.0044551226936157028 0 -0.0064842374697097072 -0.0045387875778013691 0 -0.0060564223257534066 -0.0049146435385553373 0 -0.0063321565825349502 -0.0057201596344737954 0 -0.0060564223257534066 -0.0049146435385553373 0 -0.0065735042078443242 -0.0050157541410410216 0 -0.0063321565825349502 -0.0057201596344737954 0 -0.0065735042078443242 -0.0050157541410410216 0 -0.0069854392165696576 -0.0054254374002796436 0 -0.0070196998576254263 -0.0050635576956602662 0 -0.0065735042078443242 -0.0050157541410410216 0 -0.0069854392165696576 -0.0054254374002796436 0 -0.0068185992693426956 -0.0046530317895236983 0 -0.0070196998576254263 -0.0050635576956602662 0 -0.0065735042078443242 -0.0050157541410410216 0 -0.0068185992693426956 -0.0046530317895236983 0 -0.0070196998576254263 -0.0050635576956602662 0 -0.007712333653501496 -0.0051589091869384523 0 -0.0070196998576254263 -0.0050635576956602662 0 -0.0069854392165696576 -0.0054254374002796436 0 -0.007712333653501496 -0.0051589091869384523 0 -0.0072268303920252873 -0.0070537662465062836 0 -0.006845880573635145 -0.0067058629936580854 0 -0.0072310157658923664 -0.0067811613911338345 0 -0.0068719261233044582 -0.0058942796608403847 0 -0.0081983293646175591 -0.0082197917519279285 0 -0.0086857292325323836 -0.011726024393655372 0 -0.008253230604950661 -0.011739753684755449 0 -0.0079345141455485976 -0.011218677902941189 0 -0.0068354907871779691 -0.0045200394700284511 0 -0.0068185992693426956 -0.0046530317895236983 0 -0.007712333653501496 -0.0051589091869384523 0 -0.007576090650926787 -0.0071787980460727742 0 -0.0081983293646175591 -0.0082197917519279285 0 -0.008253230604950661 -0.011739753684755449 0 -0.0079461445715060166 -0.011590368847078966 0 -0.0079345141455485976 -0.011218677902941189 0 -0.008013711062771614 -0.011905183231996484 0 -0.008253230604950661 -0.011739753684755449 0 -0.0079461445715060166 -0.011590368847078966 0 -0.008013711062771614 -0.011905183231996484 0 -0.008253230604950661 -0.011739753684755449 0 -0.0081862030829065874 -0.01199147695070887 0 -0.0086857292325323836 -0.011726024393655372 0 -0.008253230604950661 -0.011739753684755449 0 -0.0083832841667755408 -0.012113879794743336 0 -0.0079461445715060166 -0.011590368847078966 0 -0.0079345141455485976 -0.011218677902941189 0 -0.0074640139739266644 -0.011450222204325929 0 -0.0076997989647438212 -0.011803526623697413 0 -0.0079461445715060166 -0.011590368847078966 0 -0.0074640139739266644 -0.011450222204325929 0 -0.0076997989647438212 -0.011803526623697413 0 -0.0074640139739266644 -0.011450222204325929 0 -0.0073993637938805498 -0.01189043032035831 0 -0.008013711062771614 -0.011905183231996484 0 -0.0076997989647438212 -0.011803526623697413 0 -0.0079461445715060166 -0.011590368847078966 0 -0.0090990172423938854 -0.0090948076634000934 0 -0.010540697761238636 -0.010152560131180426 0 -0.0088433774117040367 -0.010883520227302181 0 -0.0081983293646175591 -0.0082197917519279285 0 -0.0081417273482586316 -0.011178370803458166 0 -0.0074636352555518442 -0.0071543434118060082 0 -0.0072268303920252873 -0.0070537662465062836 0 -0.0072310157658923664 -0.0067811613911338345 0 -0.0083211111732437188 -0.0081955639676127689 0 -0.0081983293646175591 -0.0082197917519279285 0 -0.008010071852595552 -0.0098957198954641324 0 -0.0070867677568078489 -0.011555410302402806 0 -0.0088433774117040367 -0.010883520227302181 0 -0.0090990172423938854 -0.0090948076634000934 0 -0.008010071852595552 -0.0098957198954641324 0 -0.0088433774117040367 -0.010883520227302181 0 -0.0068649729498573052 -0.0097125061587454552 0 -0.0070867677568078489 -0.011555410302402806 0 -0.0059506316799580955 -0.010989858083828756 0 -0.008010071852595552 -0.0098957198954641324 0 -0.0068649729498573052 -0.0097125061587454552 0 -0.0070867677568078489 -0.011555410302402806 0 -0.0070867677568078489 -0.011555410302402806 0 -0.0059506316799580955 -0.010989858083828756 0 -0.0063124754055784776 -0.012042472712310381 0 -0.0070867677568078489 -0.011555410302402806 0 -0.0073993637938805498 -0.01189043032035831 0 -0.0069721466388482124 -0.012237412303208565 0 -0.0072101814295293352 -0.01152151386315837 0 -0.0081417273482586316 -0.011178370803458166 0 -0.0070867677568078489 -0.011555410302402806 0 -0.0074640139739266644 -0.011450222204325929 0 -0.0073993637938805498 -0.01189043032035831 0 -0.0073993637938805498 -0.01189043032035831 0 -0.0073142004133691981 -0.012268094975881511 0 -0.0076978379505881914 -0.012209276911353713 0 -0.0073993637938805498 -0.01189043032035831 0 -0.0073142004133691981 -0.012268094975881511 0 -0.0069721466388482124 -0.012237412303208565 0 -0.0073142004133691981 -0.012268094975881511 0 -0.0069721466388482124 -0.012237412303208565 0 -0.0070494700599504113 -0.012739560407588117 0 -0.0070867677568078489 -0.011555410302402806 0 -0.0069721466388482124 -0.012237412303208565 0 -0.0063124754055784776 -0.012042472712310381 0 -0.0069721466388482124 -0.012237412303208565 0 -0.0063124754055784776 -0.012042472712310381 0 -0.0063602214184977565 -0.01282108108440041 0 -0.0069721466388482124 -0.012237412303208565 0 -0.0070494700599504113 -0.012739560407588117 0 -0.0063602214184977565 -0.01282108108440041 0 -0.0070494700599504113 -0.012739560407588117 0 -0.0063602214184977565 -0.01282108108440041 0 -0.0066380164101313309 -0.013320395826505084 0 -0.0073142004133691981 -0.012268094975881511 0 -0.0074330501887868664 -0.012537413629508184 0 -0.0070494700599504113 -0.012739560407588117 0 -0.0074330501887868664 -0.012537413629508184 0 -0.0070494700599504113 -0.012739560407588117 0 -0.0074098314455686431 -0.012950509512044836 0 -0.0070494700599504113 -0.012739560407588117 0 -0.0074098314455686431 -0.012950509512044836 0 -0.0071068181268463806 -0.013206870878518261 0 -0.0074098314455686431 -0.012950509512044836 0 -0.0076787078066134756 -0.01295181733345758 0 -0.0075469078377704696 -0.013173926493119726 0 -0.0074098314455686431 -0.012950509512044836 0 -0.0076636764144413366 -0.012637504407431324 0 -0.0076787078066134756 -0.01295181733345758 0 -0.0074330501887868664 -0.012537413629508184 0 -0.0074098314455686431 -0.012950509512044836 0 -0.0076636764144413366 -0.012637504407431324 0 -0.0076636764144413366 -0.012637504407431324 0 -0.0079097349837030859 -0.012472547977269641 0 -0.0078768584307984078 -0.012750821052578066 0 -0.0076636764144413366 -0.012637504407431324 0 -0.0078768584307984078 -0.012750821052578066 0 -0.0076787078066134756 -0.01295181733345758 0 -0.0078768584307984078 -0.012750821052578066 0 -0.0076787078066134756 -0.01295181733345758 0 -0.0078753695666750455 -0.012960444017150647 0 -0.0078768584307984078 -0.012750821052578066 0 -0.0078753695666750455 -0.012960444017150647 0 -0.0080994785035387162 -0.01285142511558383 0 -0.0078753695666750455 -0.012960444017150647 0 -0.0080994785035387162 -0.01285142511558383 0 -0.0079934787820653431 -0.013098740419748192 0 -0.0086073015653821833 -0.012542735935867631 0 -0.0080994785035387162 -0.01285142511558383 0 -0.0082848893118510122 -0.013041297753823086 0 -0.0086073015653821833 -0.012542735935867631 0 -0.0080994785035387162 -0.01285142511558383 0 -0.0081591883901052393 -0.01249059207011039 0 -0.0079097349837030859 -0.012472547977269641 0 -0.0078768584307984078 -0.012750821052578066 0 -0.0081591883901052393 -0.01249059207011039 0 -0.0078768584307984078 -0.012750821052578066 0 -0.0080994785035387162 -0.01285142511558383 0 -0.0081591883901052393 -0.01249059207011039 0 -0.0079097349837030859 -0.012472547977269641 0 -0.0081591883901052393 -0.01249059207011039 0 -0.0080942089603437354 -0.012211867149905648 0 -0.0081591883901052393 -0.01249059207011039 0 -0.0080942089603437354 -0.012211867149905648 0 -0.0083832841667755408 -0.012113879794743336 0 -0.0086073015653821833 -0.012542735935867631 0 -0.0081591883901052393 -0.01249059207011039 0 -0.0083832841667755408 -0.012113879794743336 0 -0.008253230604950661 -0.011739753684755449 0 -0.0083832841667755408 -0.012113879794743336 0 -0.0081862030829065874 -0.01199147695070887 0 -0.0080942089603437354 -0.012211867149905648 0 -0.0083832841667755408 -0.012113879794743336 0 -0.0081862030829065874 -0.01199147695070887 0 -0.008013711062771614 -0.011905183231996484 0 -0.0080942089603437354 -0.012211867149905648 0 -0.0081862030829065874 -0.01199147695070887 0 -0.008013711062771614 -0.011905183231996484 0 -0.0076997989647438212 -0.011803526623697413 0 -0.0076978379505881914 -0.012209276911353713 0 -0.008013711062771614 -0.011905183231996484 0 -0.0080942089603437354 -0.012211867149905648 0 -0.0076978379505881914 -0.012209276911353713 0 -0.0076997989647438212 -0.011803526623697413 0 -0.0073993637938805498 -0.01189043032035831 0 -0.0076978379505881914 -0.012209276911353713 0 -0.0074330501887868664 -0.012537413629508184 0 -0.0076636764144413366 -0.012637504407431324 0 -0.0076978379505881914 -0.012209276911353713 0 -0.0073142004133691981 -0.012268094975881511 0 -0.0074330501887868664 -0.012537413629508184 0 -0.0076978379505881914 -0.012209276911353713 0 -0.0076636764144413366 -0.012637504407431324 0 -0.0079097349837030859 -0.012472547977269641 0 -0.0076978379505881914 -0.012209276911353713 0 -0.0079097349837030859 -0.012472547977269641 0 -0.0080942089603437354 -0.012211867149905648 0 -0.0076978379505881914 -0.012209276911353713 0 -0.0052716310396393445 -0.012941856931490189 0 -0.0052166776370845287 -0.012861322075118626 0 -0.0053318348557419952 -0.012884865507253818 0 -0.0052716310396393445 -0.012941856931490189 0 -0.0053066340634514136 -0.012982708305938147 0 -0.0052740197704285712 -0.013016548081748546 0 -0.0052215997775989361 -0.012966320693547119 0 -0.0052716310396393445 -0.012941856931490189 0 -0.0052740197704285712 -0.013016548081748546 0 -0.0052215997775989361 -0.012966320693547119 0 -0.0052716310396393445 -0.012941856931490189 0 -0.0052166776370845287 -0.012861322075118626 0 -0.0050156084075373636 -0.012711560094907991 0 -0.0050023825524131635 -0.012781984453197925 0 -0.005000862336839368 -0.012738746554175654 0 -0.0052212678945635378 -0.012956936146170786 0 -0.0044362718136072218 -0.011714049844096441 0 -0.0050156084075373636 -0.012711560094907991 0 -0.0050023825524131635 -0.012781984453197925 0 -0.0050390788887052507 -0.012708306190067317 0 -0.0049758625143334293 -0.01281267668222321 0 -0.0050023825524131635 -0.012781984453197925 0 -0.005000862336839368 -0.012738746554175654 0 -0.0040591178313452566 -0.01156114874546652 0 -0.0048087906861967802 -0.012293007853126401 0 -0.0050135304119397648 -0.012719505096088124 0 -0.0050264228603805663 -0.0127079737821915 0 -0.005000862336839368 -0.012738746554175654 0 -0.0038622893026175262 -0.0099680869111314612 0 -0.0049003712972746239 -0.012018636447462107 0 -0.0052166776370845287 -0.012861322075118626 0 -0.0053403621756007583 -0.012865029203008888 0 -0.0053318348557419952 -0.012884865507253818 0 -0.0052166776370845287 -0.012861322075118626 0 -0.0053474276475754473 -0.012787930932329987 0 -0.0053403621756007583 -0.012865029203008888 0 -0.0046077999726908464 -0.010877736726304828 0 -0.0042507275224123965 -0.011069860335293486 0 -0.0041611285844130918 -0.011679764463132567 0 -0.0044362718136072218 -0.011714049844096441 0 -0.0049003712972746239 -0.012018636447462107 0 -0.0049003712972746239 -0.012018636447462107 0 -0.0048821160770576412 -0.012216964391931536 0 -0.0050434176461893908 -0.011238470392233559 0 -0.004996927938036369 -0.012009201878378126 0 -0.0053734972293035472 -0.011662156862839345 0 -0.0053476722253251738 -0.012863482660901801 0 -0.0053318348557419952 -0.012884865507253818 0 -0.0053066340634514136 -0.012982708305938147 0 -0.0049003712972746239 -0.012018636447462107 0 -0.0051746844212412317 -0.012484303543591955 0 -0.0052716310396393445 -0.012941856931490189 0 -0.0053318348557419952 -0.012884865507253818 0 -0.0053066340634514136 -0.012982708305938147 0 -0.004996927938036369 -0.012009201878378126 0 -0.0053734972293035472 -0.011662156862839345 0 -0.0054453084169812363 -0.012230648703805762 0 -0.0053734972293035472 -0.011662156862839345 0 -0.00573312419159786 -0.012090946406995881 0 -0.0054453084169812363 -0.012230648703805762 0 -0.0053734972293035472 -0.011662156862839345 0 -0.0056786265889173619 -0.011435563869025056 0 -0.00573312419159786 -0.012090946406995881 0 -0.0053734972293035472 -0.011662156862839345 0 -0.0056786265889173619 -0.011435563869025056 0 -0.0053886527103144521 -0.01120777651541738 0 -0.0050434176461893908 -0.011238470392233559 0 -0.0053734972293035472 -0.011662156862839345 0 -0.0053886527103144521 -0.01120777651541738 0 -0.0053845508191941484 -0.010733298063786617 0 -0.0053886527103144521 -0.01120777651541738 0 -0.0055719591399053959 -0.010993812919358456 0 -0.0053845508191941484 -0.010733298063786617 0 -0.0050434176461893908 -0.011238470392233559 0 -0.0053886527103144521 -0.01120777651541738 0 -0.0054704396889621691 -0.010711068420968532 0 -0.0055719591399053959 -0.010993812919358456 0 -0.0059506316799580955 -0.010989858083828756 0 -0.0053845508191941484 -0.010733298063786617 0 -0.0054704396889621691 -0.010711068420968532 0 -0.0055719591399053959 -0.010993812919358456 0 -0.0056786265889173619 -0.011435563869025056 0 -0.0053886527103144521 -0.01120777651541738 0 -0.0055719591399053959 -0.010993812919358456 0 -0.0056226621971649359 -0.0091223346562495436 0 -0.0068649729498573052 -0.0097125061587454552 0 -0.0059506316799580955 -0.010989858083828756 0 -0.0036003056084627167 -0.0092657572710382156 0 -0.0062583204699593054 -0.011201171333971006 0 -0.0056226621971649359 -0.0091223346562495436 0 -0.0036947297383273119 -0.008821660875592309 0 -0.0059506316799580955 -0.010989858083828756 0 -0.0056786265889173619 -0.011435563869025056 0 -0.0055719591399053959 -0.010993812919358456 0 -0.0059506316799580955 -0.010989858083828756 0 -0.0056786265889173619 -0.011435563869025056 0 -0.0063124754055784776 -0.012042472712310381 0 -0.00573312419159786 -0.012090946406995881 0 -0.0056786265889173619 -0.011435563869025056 0 -0.0059506316799580955 -0.010989858083828756 0 -0.0063124754055784776 -0.012042472712310381 0 -0.0063124754055784776 -0.012042472712310381 0 -0.0059903597749759591 -0.012529346796169905 0 -0.00573312419159786 -0.012090946406995881 0 -0.0063124754055784776 -0.012042472712310381 0 -0.0059903597749759591 -0.012529346796169905 0 -0.0063602214184977565 -0.01282108108440041 0 -0.0059903597749759591 -0.012529346796169905 0 -0.0063602214184977565 -0.01282108108440041 0 -0.0057316358281207626 -0.01323302613784076 0 -0.0059903597749759591 -0.012529346796169905 0 -0.0056300544308211364 -0.012695467578843943 0 -0.0057316358281207626 -0.01323302613784076 0 -0.0056300544308211364 -0.012695467578843943 0 -0.0052535052311390761 -0.012956655574225529 0 -0.0057316358281207626 -0.01323302613784076 0 -0.0059903597749759591 -0.012529346796169905 0 -0.0056300544308211364 -0.012695467578843943 0 -0.00573312419159786 -0.012090946406995881 0 -0.0056300544308211364 -0.012695467578843943 0 -0.00573312419159786 -0.012090946406995881 0 -0.0054453084169812363 -0.012230648703805762 0 -0.0053066340634514136 -0.012982708305938147 0 -0.0052535052311390761 -0.012956655574225529 0 -0.0052740197704285712 -0.013016548081748546 0 -0.0051746844212412317 -0.012484303543591955 0 -0.0052088077077183216 -0.012855647866043405 0 -0.004996927938036369 -0.012009201878378126 0 -0.0054453084169812363 -0.012230648703805762 0 -0.0052535052311390761 -0.012956655574225529 0 -0.0056300544308211364 -0.012695467578843943 0 -0.0054453084169812363 -0.012230648703805762 0 -0.0052535052311390761 -0.012956655574225529 0 -0.0052535052311390761 -0.012956655574225529 0 -0.0053757131450925515 -0.01338284573909689 0 -0.0057316358281207626 -0.01323302613784076 0 -0.0052508664629879916 -0.013471969311249315 0 -0.0052576275381710095 -0.013155289538617018 0 -0.0053757131450925515 -0.01338284573909689 0 -0.0052535052311390761 -0.012956655574225529 0 -0.0052576275381710095 -0.013155289538617018 0 -0.0053757131450925515 -0.01338284573909689 0 -0.0051869710524650881 -0.013057504673460141 0 -0.0052576275381710095 -0.013155289538617018 0 -0.0052740197704285712 -0.013016548081748546 0 -0.0052535052311390761 -0.012956655574225529 0 -0.0052576275381710095 -0.013155289538617018 0 -0.0052740197704285712 -0.013016548081748546 0 -0.0051869710524650881 -0.013057504673460141 0 -0.0052215997775989361 -0.012966320693547119 0 -0.0052740197704285712 -0.013016548081748546 0 -0.0053905852948834387 -0.013884650414457954 0 -0.0053418208819198858 -0.013678314347486622 0 -0.0054915136371672078 -0.013658717514537632 0 -0.0053300447857881099 -0.014281245368921575 0 -0.0053905852948834387 -0.013884650414457954 0 -0.0053418208819198858 -0.013678314347486622 0 -0.0052508664629879916 -0.013471969311249315 0 -0.0053418208819198858 -0.013678314347486622 0 -0.0053757131450925515 -0.01338284573909689 0 -0.0054915136371672078 -0.013658717514537632 0 -0.0053757131450925515 -0.01338284573909689 0 -0.0057316358281207626 -0.01323302613784076 0 -0.0053418208819198858 -0.013678314347486622 0 -0.0054915136371672078 -0.013658717514537632 0 -0.0053757131450925515 -0.01338284573909689 0 -0.0053905852948834387 -0.013884650414457954 0 -0.0054915136371672078 -0.013658717514537632 0 -0.00570646366047157 -0.013823799890597179 0 -0.0061453955113458126 -0.01417174516955385 0 -0.0067327268182286642 -0.014120096258693071 0 -0.0065075370276569374 -0.014359262717742393 0 -0.0057540844017843632 -0.014054645643612293 0 -0.0062205113923536849 -0.013970650515635726 0 -0.00570646366047157 -0.013823799890597179 0 -0.0057316358281207626 -0.01323302613784076 0 -0.0060504085578340734 -0.013492949452539855 0 -0.0054915136371672078 -0.013658717514537632 0 -0.00570646366047157 -0.013823799890597179 0 -0.0057316358281207626 -0.01323302613784076 0 -0.0063602214184977565 -0.01282108108440041 0 -0.0060504085578340734 -0.013492949452539855 0 -0.0066380164101313309 -0.013320395826505084 0 -0.0063602214184977565 -0.01282108108440041 0 -0.0057316358281207626 -0.01323302613784076 0 -0.0060504085578340734 -0.013492949452539855 0 -0.0060504085578340734 -0.013492949452539855 0 -0.006330251021770295 -0.013807799914033742 0 -0.0066380164101313309 -0.013320395826505084 0 -0.0062205113923536849 -0.013970650515635726 0 -0.0066518407209498094 -0.013903080894848249 0 -0.00570646366047157 -0.013823799890597179 0 -0.0060504085578340734 -0.013492949452539855 0 -0.006330251021770295 -0.013807799914033742 0 -0.0067327268182286642 -0.014120096258693071 0 -0.0069367680290450245 -0.014027925066162831 0 -0.006909181242306617 -0.014219782201112783 0 -0.006909181242306617 -0.014219782201112783 0 -0.0069005791831541997 -0.014363027645586638 0 -0.0070168814294620336 -0.014090304954346603 0 -0.006909181242306617 -0.014219782201112783 0 -0.0069005791831541997 -0.014363027645586638 0 -0.0068643857970866213 -0.014377613110678703 0 -0.0069367680290450245 -0.014027925066162831 0 -0.006909181242306617 -0.014219782201112783 0 -0.0070168814294620336 -0.014090304954346603 0 -0.0069005791831541997 -0.014363027645586638 0 -0.0069607348215032254 -0.014604579965850231 0 -0.0068980420989138242 -0.014461301057634839 0 -0.0069005791831541997 -0.014363027645586638 0 -0.0069607348215032254 -0.014604579965850231 0 -0.0068643857970866213 -0.014377613110678703 0 -0.0067327268182286642 -0.014120096258693071 0 -0.0068643857970866213 -0.014377613110678703 0 -0.0065075370276569374 -0.014359262717742393 0 -0.0067327268182286642 -0.014120096258693071 0 -0.006909181242306617 -0.014219782201112783 0 -0.0068643857970866213 -0.014377613110678703 0 -0.0068475319131232025 -0.014416912911649829 0 -0.0064901935504565788 -0.014646831620976877 0 -0.0068643857970866213 -0.014377613110678703 0 -0.0065075370276569374 -0.014359262717742393 0 -0.0062221781938717278 -0.014767603054273565 0 -0.0061453955113458126 -0.01417174516955385 0 -0.0065075370276569374 -0.014359262717742393 0 -0.0062221781938717278 -0.014767603054273565 0 -0.0069607348215032254 -0.014604579965850231 0 -0.0068643857970866213 -0.014377613110678703 0 -0.0067696500960006453 -0.014545891145047007 0 -0.0069607348215032254 -0.014604579965850231 0 -0.0067696500960006453 -0.014545891145047007 0 -0.006677978855024972 -0.014991256900781059 0 -0.0058018965444383832 -0.015006646804069834 0 -0.0064901935504565788 -0.014646831620976877 0 -0.0061855332792322025 -0.014837228619985987 0 -0.0067696500960006453 -0.014545891145047007 0 -0.006677978855024972 -0.014991256900781059 0 -0.0054253637099317322 -0.015110339082735695 0 -0.0062221781938717278 -0.014767603054273565 0 -0.0057880010785568868 -0.014588524255284153 0 -0.0061453955113458126 -0.01417174516955385 0 -0.0062221781938717278 -0.014767603054273565 0 -0.0057880010785568868 -0.014588524255284153 0 -0.0074699844723781087 -0.013688471654922364 0 -0.0076428720894497933 -0.013647070924607032 0 -0.0076955711866927368 -0.013513442077855067 0 -0.0074699844723781087 -0.013688471654922364 0 -0.0072334027590147173 -0.013930019461466912 0 -0.0074183304273053524 -0.013901786089503682 0 -0.0074699844723781087 -0.013688471654922364 0 -0.0075738900965217062 -0.013770086268064561 0 -0.0074183304273053524 -0.013901786089503682 0 -0.0074699844723781087 -0.013688471654922364 0 -0.0075738900965217062 -0.013770086268064561 0 -0.0076428720894497933 -0.013647070924607032 0 -0.0075738900965217062 -0.013770086268064561 0 -0.007715641436824512 -0.013744248195413566 0 -0.0076428720894497933 -0.013647070924607032 0 -0.0075738900965217062 -0.013770086268064561 0 -0.007715641436824512 -0.013744248195413566 0 -0.007553732332797233 -0.013877296293783474 0 -0.007715641436824512 -0.013744248195413566 0 -0.0076428720894497933 -0.013647070924607032 0 -0.0076970656921533497 -0.013550927456926182 0 -0.0072613707806430342 -0.0097533157430619542 0 -0.0073135811651051964 -0.0092888234172838532 0 -0.0076220801585866679 -0.0097555495383437382 0 -0.0072796630484145341 -0.0095353682039082 0 -0.008192063224587114 -0.011945970117235815 0 -0.0076428720894497933 -0.013647070924607032 0 -0.0076970656921533497 -0.013550927456926182 0 -0.0076955711866927368 -0.013513442077855067 0 -0.008192063224587114 -0.011945970117235815 0 -0.0078028692388103348 -0.012559569205844603 0 -0.0081168824112576657 -0.013522837577969002 0 -0.0079939731108126556 -0.013338805784439661 0 -0.0076955711866927368 -0.013513442077855067 0 -0.008192063224587114 -0.011945970117235815 0 -0.0083542481935639963 -0.012438636639427026 0 -0.0080836916459483179 -0.013446984383412422 0 -0.0079939731108126556 -0.013338805784439661 0 -0.0081636579414439605 -0.013246002329885398 0 -0.0079939731108126556 -0.013338805784439661 0 -0.0077862384881573418 -0.013307117397241384 0 -0.0076955711866927368 -0.013513442077855067 0 -0.00849550014571482 -0.013405866768654726 0 -0.0080836916459483179 -0.013446984383412422 0 -0.0081636579414439605 -0.013246002329885398 0 -0.0071900677935244862 -0.0070511501133240307 0 -0.008192063224587114 -0.011945970117235815 0 -0.00849550014571482 -0.013405866768654726 0 -0.0082848893118510122 -0.013041297753823086 0 -0.0081636579414439605 -0.013246002329885398 0 -0.0080994785035387162 -0.01285142511558383 0 -0.0082848893118510122 -0.013041297753823086 0 -0.0079934787820653431 -0.013098740419748192 0 -0.0082848893118510122 -0.013041297753823086 0 -0.0081636579414439605 -0.013246002329885398 0 -0.0079934787820653431 -0.013098740419748192 0 -0.0079939731108126556 -0.013338805784439661 0 -0.0079934787820653431 -0.013098740419748192 0 -0.0077862384881573418 -0.013307117397241384 0 -0.0079939731108126556 -0.013338805784439661 0 -0.0081636579414439605 -0.013246002329885398 0 -0.0079934787820653431 -0.013098740419748192 0 -0.0076787078066134756 -0.01295181733345758 0 -0.0078753695666750455 -0.012960444017150647 0 -0.0077320032835464089 -0.013160578128392005 0 -0.0078753695666750455 -0.012960444017150647 0 -0.0079934787820653431 -0.013098740419748192 0 -0.0077320032835464089 -0.013160578128392005 0 -0.0076787078066134756 -0.01295181733345758 0 -0.0077320032835464089 -0.013160578128392005 0 -0.0075469078377704696 -0.013173926493119726 0 -0.0077320032835464089 -0.013160578128392005 0 -0.0075673063823497883 -0.013404161358326908 0 -0.0075469078377704696 -0.013173926493119726 0 -0.0077320032835464089 -0.013160578128392005 0 -0.0077862384881573418 -0.013307117397241384 0 -0.0075673063823497883 -0.013404161358326908 0 -0.0079934787820653431 -0.013098740419748192 0 -0.0077320032835464089 -0.013160578128392005 0 -0.0077862384881573418 -0.013307117397241384 0 -0.0074699844723781087 -0.013688471654922364 0 -0.0075673063823497883 -0.013404161358326908 0 -0.0076955711866927368 -0.013513442077855067 0 -0.0077862384881573418 -0.013307117397241384 0 -0.0075673063823497883 -0.013404161358326908 0 -0.0076955711866927368 -0.013513442077855067 0 -0.0074699844723781087 -0.013688471654922364 0 -0.0075673063823497883 -0.013404161358326908 0 -0.0073633442676308272 -0.013385577543486555 0 -0.0075673063823497883 -0.013404161358326908 0 -0.0075469078377704696 -0.013173926493119726 0 -0.0073633442676308272 -0.013385577543486555 0 -0.0074098314455686431 -0.012950509512044836 0 -0.0075469078377704696 -0.013173926493119726 0 -0.0073633442676308272 -0.013385577543486555 0 -0.0071068181268463806 -0.013206870878518261 0 -0.0066380164101313309 -0.013320395826505084 0 -0.0071083005566032267 -0.013755126702767255 0 -0.0071068181268463806 -0.013206870878518261 0 -0.0073633442676308272 -0.013385577543486555 0 -0.0071083005566032267 -0.013755126702767255 0 -0.0074098314455686431 -0.012950509512044836 0 -0.0071068181268463806 -0.013206870878518261 0 -0.0073633442676308272 -0.013385577543486555 0 -0.0070494700599504113 -0.012739560407588117 0 -0.0071068181268463806 -0.013206870878518261 0 -0.0066380164101313309 -0.013320395826505084 0 -0.0066518407209498094 -0.013903080894848249 0 -0.0070925189451340664 -0.013784777064849983 0 -0.006330251021770295 -0.013807799914033742 0 -0.0066380164101313309 -0.013320395826505084 0 -0.0071083005566032267 -0.013755126702767255 0 -0.0069367680290450245 -0.014027925066162831 0 -0.0071083005566032267 -0.013755126702767255 0 -0.0070168814294620336 -0.014090304954346603 0 -0.0074699844723781087 -0.013688471654922364 0 -0.0071083005566032267 -0.013755126702767255 0 -0.0072334027590147173 -0.013930019461466912 0 -0.0074699844723781087 -0.013688471654922364 0 -0.0073633442676308272 -0.013385577543486555 0 -0.0071083005566032267 -0.013755126702767255 0 -0.0071083005566032267 -0.013755126702767255 0 -0.0072334027590147173 -0.013930019461466912 0 -0.0070168814294620336 -0.014090304954346603 0 -0.0070168814294620336 -0.014090304954346603 0 -0.0069875771320513725 -0.014244509197533435 0 -0.007191813794750178 -0.014096669054146763 0 -0.0072334027590147173 -0.013930019461466912 0 -0.0070168814294620336 -0.014090304954346603 0 -0.007191813794750178 -0.014096669054146763 0 -0.0069005791831541997 -0.014363027645586638 0 -0.0069875771320513725 -0.014244509197533435 0 -0.0068186864643355926 -0.014384890913971261 0 -0.0069005791831541997 -0.014363027645586638 0 -0.0070168814294620336 -0.014090304954346603 0 -0.0069875771320513725 -0.014244509197533435 0 -0.007191813794750178 -0.014096669054146763 0 -0.0072716438848774512 -0.014180623849471444 0 -0.0070450742089521292 -0.014289822883394613 0 -0.0069875771320513725 -0.014244509197533435 0 -0.007191813794750178 -0.014096669054146763 0 -0.0070450742089521292 -0.014289822883394613 0 -0.007191813794750178 -0.014096669054146763 0 -0.0072716438848774512 -0.014180623849471444 0 -0.0074203454824687005 -0.014023090664787862 0 -0.0072716438848774512 -0.014180623849471444 0 -0.0074203454824687005 -0.014023090664787862 0 -0.0074583019214063797 -0.014147211322219683 0 -0.007191813794750178 -0.014096669054146763 0 -0.0074203454824687005 -0.014023090664787862 0 -0.0074183304273053524 -0.013901786089503682 0 -0.0074203454824687005 -0.014023090664787862 0 -0.0074183304273053524 -0.013901786089503682 0 -0.007553732332797233 -0.013877296293783474 0 -0.0075738900965217062 -0.013770086268064561 0 -0.0074183304273053524 -0.013901786089503682 0 -0.007553732332797233 -0.013877296293783474 0 -0.0072334027590147173 -0.013930019461466912 0 -0.007191813794750178 -0.014096669054146763 0 -0.0074183304273053524 -0.013901786089503682 0 -0.007715641436824512 -0.013744248195413566 0 -0.007553732332797233 -0.013877296293783474 0 -0.0075742964854435321 -0.013957231822588873 0 -0.0072796630484145341 -0.0095353682039082 0 -0.0075054340568013111 -0.01542994184356771 0 -0.0074203454824687005 -0.014023090664787862 0 -0.007553732332797233 -0.013877296293783474 0 -0.0075742964854435321 -0.013957231822588873 0 -0.0076786515358776451 -0.014050952069999819 0 -0.0075742964854435321 -0.013957231822588873 0 -0.0074583019214063797 -0.014147211322219683 0 -0.0074203454824687005 -0.014023090664787862 0 -0.0075742964854435321 -0.013957231822588873 0 -0.0074583019214063797 -0.014147211322219683 0 -0.0074583019214063797 -0.014147211322219683 0 -0.0075921357850816003 -0.014278398431145731 0 -0.0072268353696377042 -0.014407115233648564 0 -0.0076786515358776451 -0.014050952069999819 0 -0.0074583019214063797 -0.014147211322219683 0 -0.0075921357850816003 -0.014278398431145731 0 -0.0058358008848417801 -0.014345595042711708 0 -0.0062742602469479363 -0.013604647692261367 0 -0.0043813249969487777 -0.013119297915902849 0 -0.0047703588225536161 -0.012540849768403473 0 -0.0042551608500069685 -0.012303807696522704 0 -0.0043813249969487777 -0.013119297915902849 0 -0.0047703588225536161 -0.012540849768403473 0 -0.0051969660958271552 -0.012969586986634514 0 -0.0047703588225536161 -0.012540849768403473 0 -0.0051969660958271552 -0.012969586986634514 0 -0.0053457788988679625 -0.012749533156900889 0 -0.0072716438848774512 -0.014180623849471444 0 -0.0074583019214063797 -0.014147211322219683 0 -0.0072268353696377042 -0.014407115233648564 0 -0.0072716438848774512 -0.014180623849471444 0 -0.0072268353696377042 -0.014407115233648564 0 -0.0070450742089521292 -0.014289822883394613 0 -0.0070450742089521292 -0.014289822883394613 0 -0.0068186864643355926 -0.014384890913971261 0 -0.0068428534796625799 -0.014340045855963983 0 -0.0069875771320513725 -0.014244509197533435 0 -0.0070450742089521292 -0.014289822883394613 0 -0.0068186864643355926 -0.014384890913971261 0 -0.0068186864643355926 -0.014384890913971261 0 -0.0068428534796625799 -0.014340045855963983 0 -0.0066123482234717009 -0.013856751646690615 0 -0.0063867014951201392 -0.013747809935847555 0 -0.0066677887121837937 -0.013792363676553159 0 -0.0072268353696377042 -0.014407115233648564 0 -0.0070450742089521292 -0.014289822883394613 0 -0.0068428534796625799 -0.014340045855963983 0 -0.0051969660958271552 -0.012969586986634514 0 -0.0053457788988679625 -0.012749533156900889 0 -0.0058384426396195233 -0.013143682145540054 0 -0.0062742602469479363 -0.013604647692261367 0 -0.0063867014951201392 -0.013747809935847555 0 -0.0053457788988679625 -0.012749533156900889 0 -0.0058384426396195233 -0.013143682145540054 0 -0.0056588503642030271 -0.012763082957660939 0 -0.0056588503642030271 -0.012763082957660939 0 -0.0053970404330597683 -0.012089338496196584 0 -0.0056350557530480726 -0.011709727185991579 0 -0.0058384426396195233 -0.013143682145540054 0 -0.0056588503642030271 -0.012763082957660939 0 -0.0060482764020013471 -0.013127404866030331 0 -0.0056588503642030271 -0.012763082957660939 0 -0.0060482764020013471 -0.013127404866030331 0 -0.005914475527058977 -0.012720926148918942 0 -0.0058384426396195233 -0.013143682145540054 0 -0.0060482764020013471 -0.013127404866030331 0 -0.0066123482234717009 -0.013856751646690615 0 -0.0060482764020013471 -0.013127404866030331 0 -0.005914475527058977 -0.012720926148918942 0 -0.0065859836259549468 -0.013032326996461807 0 -0.0056588503642030271 -0.012763082957660939 0 -0.0063193752750509459 -0.011368464238700526 0 -0.0056350557530480726 -0.011709727185991579 0 -0.0056710465727367286 -0.012752899722376164 0 -0.0060907167392653897 -0.012042222052153242 0 -0.0063193752750509459 -0.011368464238700526 0 -0.0056350557530480726 -0.011709727185991579 0 -0.0055446758136507932 -0.011283707998902829 0 -0.0053970404330597683 -0.012089338496196584 0 -0.0056350557530480726 -0.011709727185991579 0 -0.0052476466495797545 -0.011678475539944664 0 -0.0056350557530480726 -0.011709727185991579 0 -0.0052476466495797545 -0.011678475539944664 0 -0.0055446758136507932 -0.011283707998902829 0 -0.0052476466495797545 -0.011678475539944664 0 -0.0051295344203513647 -0.01127092117228691 0 -0.0055446758136507932 -0.011283707998902829 0 -0.0053970404330597683 -0.012089338496196584 0 -0.0052476466495797545 -0.011678475539944664 0 -0.005111398892376948 -0.012227759115375358 0 -0.0052476466495797545 -0.011678475539944664 0 -0.0048185358846563227 -0.011713976477059641 0 -0.005111398892376948 -0.012227759115375358 0 -0.0048185358846563227 -0.011713976477059641 0 -0.0046182904410919517 -0.011263641500592069 0 -0.0051295344203513647 -0.01127092117228691 0 -0.0052476466495797545 -0.011678475539944664 0 -0.0048185358846563227 -0.011713976477059641 0 -0.0051295344203513647 -0.01127092117228691 0 -0.0048185358846563227 -0.011713976477059641 0 -0.004393982873048906 -0.011727697367799902 0 -0.0046182904410919517 -0.011263641500592069 0 -0.0045040398389662199 -0.010839638074697466 0 -0.0040789455810709453 -0.0107988801525522 0 -0.0048185358846563227 -0.011713976477059641 0 -0.0046588504944282917 -0.012070397350906099 0 -0.004393982873048906 -0.011727697367799902 0 -0.0047703588225536161 -0.012540849768403473 0 -0.0046588504944282917 -0.012070397350906099 0 -0.0042551608500069685 -0.012303807696522704 0 -0.0046588504944282917 -0.012070397350906099 0 -0.004393982873048906 -0.011727697367799902 0 -0.0042551608500069685 -0.012303807696522704 0 -0.0047703588225536161 -0.012540849768403473 0 -0.0046588504944282917 -0.012070397350906099 0 -0.005111398892376948 -0.012227759115375358 0 -0.0047703588225536161 -0.012540849768403473 0 -0.0053457788988679625 -0.012749533156900889 0 -0.005111398892376948 -0.012227759115375358 0 -0.0053457788988679625 -0.012749533156900889 0 -0.0056588503642030271 -0.012763082957660939 0 -0.005111398892376948 -0.012227759115375358 0 -0.0056588503642030271 -0.012763082957660939 0 -0.0053970404330597683 -0.012089338496196584 0 -0.005111398892376948 -0.012227759115375358 0 -0.0048185358846563227 -0.011713976477059641 0 -0.0046588504944282917 -0.012070397350906099 0 -0.005111398892376948 -0.012227759115375358 0 -0.0065638128088547397 -0.015380942541391227 0 -0.006677978855024972 -0.014991256900781059 0 -0.0071938938764413386 -0.014793722498728193 0 -0.0069607348215032254 -0.014604579965850231 0 -0.006677978855024972 -0.014991256900781059 0 -0.0071938938764413386 -0.014793722498728193 0 -0.0071938938764413386 -0.014793722498728193 0 -0.0069347827212669216 -0.014455165762492918 0 -0.0070553562556147911 -0.013800109415107306 0 -0.0069347827212669216 -0.014455165762492918 0 -0.0066123482234717009 -0.013856751646690615 0 -0.0070553562556147911 -0.013800109415107306 0 -0.0069607348215032254 -0.014604579965850231 0 -0.0069347827212669216 -0.014455165762492918 0 -0.0068980420989138242 -0.014461301057634839 0 -0.0069607348215032254 -0.014604579965850231 0 -0.0071938938764413386 -0.014793722498728193 0 -0.0069347827212669216 -0.014455165762492918 0 -0.0068186864643355926 -0.014384890913971261 0 -0.0069347827212669216 -0.014455165762492918 0 -0.0068980420989138242 -0.014461301057634839 0 -0.0069005791831541997 -0.014363027645586638 0 -0.0068186864643355926 -0.014384890913971261 0 -0.0068980420989138242 -0.014461301057634839 0 -0.0068186864643355926 -0.014384890913971261 0 -0.0069347827212669216 -0.014455165762492918 0 -0.0066123482234717009 -0.013856751646690615 0 -0.0060482764020013471 -0.013127404866030331 0 -0.0066123482234717009 -0.013856751646690615 0 -0.0065859836259549468 -0.013032326996461807 0 -0.0066123482234717009 -0.013856751646690615 0 -0.0065859836259549468 -0.013032326996461807 0 -0.0070553562556147911 -0.013800109415107306 0 -0.005914475527058977 -0.012720926148918942 0 -0.0065859836259549468 -0.013032326996461807 0 -0.0064958569788462544 -0.012355405450544359 0 -0.0073854576398455149 -0.012760051665662077 0 -0.0070553562556147911 -0.013800109415107306 0 -0.0078042836303258943 -0.013469390598107912 0 -0.0065859836259549468 -0.013032326996461807 0 -0.0073854576398455149 -0.012760051665662077 0 -0.0070553562556147911 -0.013800109415107306 0 -0.0065859836259549468 -0.013032326996461807 0 -0.0073854576398455149 -0.012760051665662077 0 -0.0070047434397478726 -0.012314899515420074 0 -0.0065638128088547397 -0.015380942541391227 0 -0.0071938938764413386 -0.014793722498728193 0 -0.0071179925210226322 -0.015810198932245268 0 -0.0072507268073987233 -0.014863069814112034 0 -0.0074380674830227785 -0.014364438623863857 0 -0.0071938938764413386 -0.014793722498728193 0 -0.0070553562556147911 -0.013800109415107306 0 -0.0078042836303258943 -0.013469390598107912 0 -0.0074380674830227785 -0.014364438623863857 0 -0.0077391097705854983 -0.015545066920384033 0 -0.0071179925210226322 -0.015810198932245268 0 -0.0065429098263936614 -0.015948308547200998 0 -0.007058759648040102 -0.016449436688447568 0 -0.0073854576398455149 -0.012760051665662077 0 -0.0078042836303258943 -0.013469390598107912 0 -0.0080646715161124 -0.012273052731202414 0 -0.0067656607372106456 -0.017557719365453604 0 -0.0077391097705854983 -0.015545066920384033 0 -0.0068907245855089824 -0.018449753314107708 0 -0.0069473388225045774 -0.01907001030102087 0 -0.0075300726333419757 -0.019120422751437875 0 -0.0065638128088547397 -0.015380942541391227 0 -0.0071179925210226322 -0.015810198932245268 0 -0.0065429098263936614 -0.015948308547200998 0 -0.0068709493844457768 -0.020082377606634984 0 -0.007185486488291171 -0.019682398449227111 0 -0.0074592379935472866 -0.020078806998696026 0 -0.007185486488291171 -0.019682398449227111 0 -0.006784807321847176 -0.019495541258554665 0 -0.0071212201736604959 -0.019355638885303672 0 -0.0068709493844457768 -0.020082377606634984 0 -0.007185486488291171 -0.019682398449227111 0 -0.006784807321847176 -0.019495541258554665 0 -0.006784807321847176 -0.019495541258554665 0 -0.0069473388225045774 -0.01907001030102087 0 -0.0071212201736604959 -0.019355638885303672 0 -0.0069473388225045774 -0.01907001030102087 0 -0.0071212201736604959 -0.019355638885303672 0 -0.0075300726333419757 -0.019120422751437875 0 -0.007185486488291171 -0.019682398449227111 0 -0.0071212201736604959 -0.019355638885303672 0 -0.0075300726333419757 -0.019120422751437875 0 -0.0077391097705854983 -0.015545066920384033 0 -0.0071974906086285772 -0.014254511610256246 0 -0.0073854576398455149 -0.012760051665662077 0 -0.0080646715161124 -0.012273052731202414 0 -0.0075504654243842978 -0.012197229126954401 0 -0.0081379468469209345 -0.012318898935355574 0 -0.0079147845672083959 -0.012089891292601511 0 -0.0078051925973394217 -0.011440052645905811 0 -0.0075504654243842978 -0.012197229126954401 0 -0.0079147845672083959 -0.012089891292601511 0 -0.0076505632291722281 -0.0118784329967393 0 -0.0079147845672083959 -0.012089891292601511 0 -0.0076505632291722281 -0.0118784329967393 0 -0.0078051925973394217 -0.011440052645905811 0 -0.0080646715161124 -0.012273052731202414 0 -0.0075504654243842978 -0.012197229126954401 0 -0.0079147845672083959 -0.012089891292601511 0 -0.0081379468469209345 -0.012318898935355574 0 -0.0078051925973394217 -0.011440052645905811 0 -0.0082111584259701668 -0.010664536708570484 0 -0.0077391097705854983 -0.015545066920384033 0 -0.0077969497592380544 -0.015355010197768356 0 -0.0076505632291722281 -0.0118784329967393 0 -0.0078051925973394217 -0.011440052645905811 0 -0.0073538448276935422 -0.011772282085551656 0 -0.007185486488291171 -0.019682398449227111 0 -0.0075300726333419757 -0.019120422751437875 0 -0.0074592379935472866 -0.020078806998696026 0 -0.0078051925973394217 -0.011440052645905811 0 -0.0072472555697999314 -0.01115442988562031 0 -0.007776275701370944 -0.010522601786073586 0 -0.0078051925973394217 -0.011440052645905811 0 -0.007776275701370944 -0.010522601786073586 0 -0.0082111584259701668 -0.010664536708570484 0 -0.0072472555697999314 -0.01115442988562031 0 -0.0068559238702644194 -0.011858389243712684 0 -0.0063787634775283779 -0.01143095715213311 0 -0.0072472555697999314 -0.01115442988562031 0 -0.0073538448276935422 -0.011772282085551656 0 -0.0068559238702644194 -0.011858389243712684 0 -0.0078051925973394217 -0.011440052645905811 0 -0.0072472555697999314 -0.01115442988562031 0 -0.0073538448276935422 -0.011772282085551656 0 -0.0075504654243842978 -0.012197229126954401 0 -0.0076505632291722281 -0.0118784329967393 0 -0.0073538448276935422 -0.011772282085551656 0 -0.0075504654243842978 -0.012197229126954401 0 -0.0073538448276935422 -0.011772282085551656 0 -0.0070047434397478726 -0.012314899515420074 0 -0.0073854576398455149 -0.012760051665662077 0 -0.0075504654243842978 -0.012197229126954401 0 -0.0070047434397478726 -0.012314899515420074 0 -0.0073538448276935422 -0.011772282085551656 0 -0.0070047434397478726 -0.012314899515420074 0 -0.0068559238702644194 -0.011858389243712684 0 -0.0068559238702644194 -0.011858389243712684 0 -0.0064958569788462544 -0.012355405450544359 0 -0.0063787634775283779 -0.01143095715213311 0 -0.0060907167392653897 -0.012042222052153242 0 -0.0065699941637859206 -0.010908081096031223 0 -0.0065859836259549468 -0.013032326996461807 0 -0.0070047434397478726 -0.012314899515420074 0 -0.0064958569788462544 -0.012355405450544359 0 -0.0070047434397478726 -0.012314899515420074 0 -0.0068559238702644194 -0.011858389243712684 0 -0.0064958569788462544 -0.012355405450544359 0 -0.005914475527058977 -0.012720926148918942 0 -0.0064958569788462544 -0.012355405450544359 0 -0.0063787634775283779 -0.01143095715213311 0 -0.0066863600434073816 -0.010402338957306368 0 -0.0067042357018794749 -0.010058683023430123 0 -0.0061152970126886006 -0.010415868543763241 0 -0.0066863600434073816 -0.010402338957306368 0 -0.0067042357018794749 -0.010058683023430123 0 -0.0072713999399332914 -0.0098444001050459109 0 -0.0067042357018794749 -0.010058683023430123 0 -0.0067289256287816242 -0.0094396432904229888 0 -0.0072713999399332914 -0.0098444001050459109 0 -0.0067042357018794749 -0.010058683023430123 0 -0.0067289256287816242 -0.0094396432904229888 0 -0.0061212939370946639 -0.0095881253891506955 0 -0.0067042357018794749 -0.010058683023430123 0 -0.0060567387045538674 -0.0099033590597576403 0 -0.0061212939370946639 -0.0095881253891506955 0 -0.0067289256287816242 -0.0094396432904229888 0 -0.0061208135912552437 -0.0090260241491878484 0 -0.0067243755457651469 -0.0087033547259922767 0 -0.0067289256287816242 -0.0094396432904229888 0 -0.0061212939370946639 -0.0095881253891506955 0 -0.0061208135912552437 -0.0090260241491878484 0 -0.0067289256287816242 -0.0094396432904229888 0 -0.007262252130997072 -0.0091314748095795914 0 -0.0072713999399332914 -0.0098444001050459109 0 -0.0067289256287816242 -0.0094396432904229888 0 -0.007262252130997072 -0.0091314748095795914 0 -0.0067243755457651469 -0.0087033547259922767 0 -0.007262252130997072 -0.0091314748095795914 0 -0.0076519259784434118 -0.0098619583402187148 0 -0.0079024505812408195 -0.0089526768517566094 0 -0.007262252130997072 -0.0091314748095795914 0 -0.0072713999399332914 -0.0098444001050459109 0 -0.0076519259784434118 -0.0098619583402187148 0 -0.0065699941637859206 -0.010908081096031223 0 -0.0072367562483426498 -0.0098766635410207082 0 -0.0072472555697999314 -0.01115442988562031 0 -0.0063787634775283779 -0.01143095715213311 0 -0.0072713999399332914 -0.0098444001050459109 0 -0.0072713999399332914 -0.0098444001050459109 0 -0.007776275701370944 -0.010522601786073586 0 -0.0076519259784434118 -0.0098619583402187148 0 -0.0072472555697999314 -0.01115442988562031 0 -0.0072713999399332914 -0.0098444001050459109 0 -0.007776275701370944 -0.010522601786073586 0 -0.0077969497592380544 -0.015355010197768356 0 -0.0080731669869906122 -0.016276719195832672 0 -0.0082111584259701668 -0.010664536708570484 0 -0.0080391943955704561 -0.01058264353025256 0 -0.0081170136396184825 -0.010479230404910656 0 -0.007776275701370944 -0.010522601786073586 0 -0.0082111584259701668 -0.010664536708570484 0 -0.0081170136396184825 -0.010479230404910656 0 -0.007776275701370944 -0.010522601786073586 0 -0.0076519259784434118 -0.0098619583402187148 0 -0.0081170136396184825 -0.010479230404910656 0 -0.0076519259784434118 -0.0098619583402187148 0 -0.0081170136396184825 -0.010479230404910656 0 -0.0079024505812408195 -0.0089526768517566094 0 -0.00811106602575851 -0.010212510634837102 0 -0.0084617664931311166 -0.010552124679758435 0 -0.0080391943955704561 -0.01058264353025256 0 -0.0081170136396184825 -0.010479230404910656 0 -0.0086428455555314278 -0.011085371030437786 0 -0.0066586909824655049 -0.021287950459612022 0 -0.007339254406360734 -0.021122695885927474 0 -0.0069435770021686657 -0.02161621479584297 0 -0.0066586909824655049 -0.021287950459612022 0 -0.007339254406360734 -0.021122695885927474 0 -0.0069650111336137582 -0.020635149938237295 0 -0.0064252405978110268 -0.020608182228106411 0 -0.0066586909824655049 -0.021287950459612022 0 -0.0069650111336137582 -0.020635149938237295 0 -0.0074592379935472866 -0.020078806998696026 0 -0.007339254406360734 -0.021122695885927474 0 -0.0069650111336137582 -0.020635149938237295 0 -0.0068709493844457768 -0.020082377606634984 0 -0.0074592379935472866 -0.020078806998696026 0 -0.0069650111336137582 -0.020635149938237295 0 -0.0064252405978110268 -0.020608182228106411 0 -0.0068709493844457768 -0.020082377606634984 0 -0.0069650111336137582 -0.020635149938237295 0 -0.0046310435094827525 -0.0099100438208437492 0 -0.0049332049198845991 -0.0099835989453640299 0 -0.0049480829250184606 -0.0098190269780105022 0 -0.0049332049198845991 -0.0099835989453640299 0 -0.0049480829250184606 -0.0098190269780105022 0 -0.00524598823392145 -0.0097284599250843286 0 -0.0046310435094827525 -0.0099100438208437492 0 -0.0048503733448591897 -0.0097217080798986631 0 -0.0049480829250184606 -0.0098190269780105022 0 -0.0048503733448591897 -0.0097217080798986631 0 -0.0049480829250184606 -0.0098190269780105022 0 -0.0050214726793486805 -0.0097118841053325401 0 -0.0048503733448591897 -0.0097217080798986631 0 -0.0050214726793486805 -0.0097118841053325401 0 -0.0050084579944558987 -0.0095282107572048254 0 -0.0048503733448591897 -0.0097217080798986631 0 -0.0046103252496764047 -0.0096426853805334257 0 -0.0047769106767444535 -0.0095007177598640316 0 -0.0046310435094827525 -0.0099100438208437492 0 -0.0048503733448591897 -0.0097217080798986631 0 -0.0046103252496764047 -0.0096426853805334257 0 -0.0046310435094827525 -0.0099100438208437492 0 -0.0046103252496764047 -0.0096426853805334257 0 -0.0044401688307226283 -0.0097487382933505676 0 -0.0046103252496764047 -0.0096426853805334257 0 -0.0044123787210061157 -0.0095461189201101523 0 -0.0044401688307226283 -0.0097487382933505676 0 -0.0046103252496764047 -0.0096426853805334257 0 -0.0044123787210061157 -0.0095461189201101523 0 -0.0045579222809269031 -0.0094002583309613329 0 -0.0044123787210061157 -0.0095461189201101523 0 -0.0041707368121009459 -0.0096084042684703164 0 -0.004313591078276573 -0.0093121353682403055 0 -0.0044123787210061157 -0.0095461189201101523 0 -0.0044401688307226283 -0.0097487382933505676 0 -0.0041707368121009459 -0.0096084042684703164 0 -0.0041707368121009459 -0.0096084042684703164 0 -0.0042352152902396757 -0.010015192847121206 0 -0.0037833529891200604 -0.0098218844357449049 0 -0.0044401688307226283 -0.0097487382933505676 0 -0.0041707368121009459 -0.0096084042684703164 0 -0.0042352152902396757 -0.010015192847121206 0 -0.0046310435094827525 -0.0099100438208437492 0 -0.0044401688307226283 -0.0097487382933505676 0 -0.0042352152902396757 -0.010015192847121206 0 -0.0046310435094827525 -0.0099100438208437492 0 -0.0042352152902396757 -0.010015192847121206 0 -0.0043139194756558995 -0.010487417452052141 0 -0.0042352152902396757 -0.010015192847121206 0 -0.0043139194756558995 -0.010487417452052141 0 -0.0039536858023056743 -0.010391580468754444 0 -0.0043139194756558995 -0.010487417452052141 0 -0.0039536858023056743 -0.010391580468754444 0 -0.0038493212572061185 -0.010721151263849905 0 -0.0048628029861635712 -0.010433101421793401 0 -0.0041867160127650235 -0.011020260565813664 0 -0.0049480898898571664 -0.010625065909026607 0 -0.0045040398389662199 -0.010839638074697466 0 -0.0051121491441808364 -0.010778845807211383 0 -0.0046182904410919517 -0.011263641500592069 0 -0.0053405962190433438 -0.010854649244821988 0 -0.0051295344203513647 -0.01127092117228691 0 -0.0046310435094827525 -0.0099100438208437492 0 -0.0049332049198845991 -0.0099835989453640299 0 -0.0043139194756558995 -0.010487417452052141 0 -0.0048826941466493731 -0.010209941858534983 0 -0.0045040398389662199 -0.010839638074697466 0 -0.0051295344203513647 -0.01127092117228691 0 -0.0054035091867659681 -0.011096304540656977 0 -0.0055446758136507932 -0.011283707998902829 0 -0.0053405962190433438 -0.010854649244821988 0 -0.0051295344203513647 -0.01127092117228691 0 -0.0054035091867659681 -0.011096304540656977 0 -0.0063193752750509459 -0.011368464238700526 0 -0.0055446758136507932 -0.011283707998902829 0 -0.0059008754662112518 -0.011005616106301221 0 -0.0054035091867659681 -0.011096304540656977 0 -0.0055446758136507932 -0.011283707998902829 0 -0.0056645229124322044 -0.010925923556170338 0 -0.0055446758136507932 -0.011283707998902829 0 -0.0059008754662112518 -0.011005616106301221 0 -0.0056645229124322044 -0.010925923556170338 0 -0.0059008754662112518 -0.011005616106301221 0 -0.0056645229124322044 -0.010925923556170338 0 -0.0061152970126886006 -0.010415868543763241 0 -0.0053405962190433438 -0.010854649244821988 0 -0.0054035091867659681 -0.011096304540656977 0 -0.0056645229124322044 -0.010925923556170338 0 -0.0063193752750509459 -0.011368464238700526 0 -0.0066863600434073816 -0.010402338957306368 0 -0.0061152970126886006 -0.010415868543763241 0 -0.0063193752750509459 -0.011368464238700526 0 -0.0059008754662112518 -0.011005616106301221 0 -0.0061152970126886006 -0.010415868543763241 0 -0.006660308187685815 -0.010049714964243821 0 -0.0059865608540431315 -0.010310730901997739 0 -0.0067042357018794749 -0.010058683023430123 0 -0.0057976923133447175 -0.010204426536532703 0 -0.0060567387045538674 -0.0099033590597576403 0 -0.0057976923133447175 -0.010204426536532703 0 -0.0056165375007205488 -0.0097649939160354034 0 -0.0060567387045538674 -0.0099033590597576403 0 -0.0048826941466493731 -0.010209941858534983 0 -0.0055848097974109338 -0.0097615186510422967 0 -0.0053405962190433438 -0.010854649244821988 0 -0.0056645229124322044 -0.010925923556170338 0 -0.0061152970126886006 -0.010415868543763241 0 -0.0049332049198845991 -0.0099835989453640299 0 -0.00524598823392145 -0.0097284599250843286 0 -0.0056165375007205488 -0.0097649939160354034 0 -0.0051121491441808364 -0.010778845807211383 0 -0.0059865608540431315 -0.010310730901997739 0 -0.0048628029861635712 -0.010433101421793401 0 -0.0049480898898571664 -0.010625065909026607 0 -0.0057976923133447175 -0.010204426536532703 0 -0.0048628029861635712 -0.010433101421793401 0 -0.0057976923133447175 -0.010204426536532703 0 -0.0056165375007205488 -0.0097649939160354034 0 -0.0049480829250184606 -0.0098190269780105022 0 -0.0050214726793486805 -0.0097118841053325401 0 -0.00524598823392145 -0.0097284599250843286 0 -0.00524598823392145 -0.0097284599250843286 0 -0.0052828243691093778 -0.0094331924187375238 0 -0.0050084579944558987 -0.0095282107572048254 0 -0.0050214726793486805 -0.0097118841053325401 0 -0.00524598823392145 -0.0097284599250843286 0 -0.0050084579944558987 -0.0095282107572048254 0 -0.00524598823392145 -0.0097284599250843286 0 -0.0056165375007205488 -0.0097649939160354034 0 -0.0052828243691093778 -0.0094331924187375238 0 -0.0056165375007205488 -0.0097649939160354034 0 -0.0052828243691093778 -0.0094331924187375238 0 -0.0056387919040579576 -0.0092520644735010239 0 -0.0052828243691093778 -0.0094331924187375238 0 -0.0056387919040579576 -0.0092520644735010239 0 -0.0051732899281080559 -0.0090127130780815207 0 -0.0052828243691093778 -0.0094331924187375238 0 -0.0051732899281080559 -0.0090127130780815207 0 -0.005011516449885573 -0.0092510829003953909 0 -0.0052828243691093778 -0.0094331924187375238 0 -0.005011516449885573 -0.0092510829003953909 0 -0.0050084579944558987 -0.0095282107572048254 0 -0.0056165375007205488 -0.0097649939160354034 0 -0.0060567387045538674 -0.0099033590597576403 0 -0.0061212939370946639 -0.0095881253891506955 0 -0.0056165375007205488 -0.0097649939160354034 0 -0.0061212939370946639 -0.0095881253891506955 0 -0.0056387919040579576 -0.0092520644735010239 0 -0.0061212939370946639 -0.0095881253891506955 0 -0.0056387919040579576 -0.0092520644735010239 0 -0.0061208135912552437 -0.0090260241491878484 0 -0.0056387919040579576 -0.0092520644735010239 0 -0.0061208135912552437 -0.0090260241491878484 0 -0.0055145560557193765 -0.0086320604843436993 0 -0.0056387919040579576 -0.0092520644735010239 0 -0.0051732899281080559 -0.0090127130780815207 0 -0.0055145560557193765 -0.0086320604843436993 0 -0.0051732899281080559 -0.0090127130780815207 0 -0.0051232757176816945 -0.0085926488238516827 0 -0.0048798895626140006 -0.0087343273781044315 0 -0.0051732899281080559 -0.0090127130780815207 0 -0.0051232757176816945 -0.0085926488238516827 0 -0.0055145560557193765 -0.0086320604843436993 0 -0.0048798895626140006 -0.0087343273781044315 0 -0.0046616835394460675 -0.0085007786470404877 0 -0.0048616741747306135 -0.0084001491339305429 0 -0.0051232757176816945 -0.0085926488238516827 0 -0.0048798895626140006 -0.0087343273781044315 0 -0.0048616741747306135 -0.0084001491339305429 0 -0.0046616835394460675 -0.0085007786470404877 0 -0.0044926595010365633 -0.0085613784141815689 0 -0.004443221301049528 -0.0083686252661444929 0 -0.0048798895626140006 -0.0087343273781044315 0 -0.0046616835394460675 -0.0085007786470404877 0 -0.0046544596040748593 -0.008754680215135615 0 -0.0046616835394460675 -0.0085007786470404877 0 -0.0044926595010365633 -0.0085613784141815689 0 -0.0046544596040748593 -0.008754680215135615 0 -0.0044926595010365633 -0.0085613784141815689 0 -0.0046544596040748593 -0.008754680215135615 0 -0.0044328631656021227 -0.008750451228793003 0 -0.0046544596040748593 -0.008754680215135615 0 -0.0046064843435964335 -0.0089844095315268716 0 -0.0044328631656021227 -0.008750451228793003 0 -0.0046544596040748593 -0.008754680215135615 0 -0.0046064843435964335 -0.0089844095315268716 0 -0.0048345891097810959 -0.0090072114880143557 0 -0.0051732899281080559 -0.0090127130780815207 0 -0.0048345891097810959 -0.0090072114880143557 0 -0.005011516449885573 -0.0092510829003953909 0 -0.0051732899281080559 -0.0090127130780815207 0 -0.0048798895626140006 -0.0087343273781044315 0 -0.0048345891097810959 -0.0090072114880143557 0 -0.0048798895626140006 -0.0087343273781044315 0 -0.0046544596040748593 -0.008754680215135615 0 -0.0048345891097810959 -0.0090072114880143557 0 -0.005011516449885573 -0.0092510829003953909 0 -0.004764699832263717 -0.0092596545790733942 0 -0.0050084579944558987 -0.0095282107572048254 0 -0.0048345891097810959 -0.0090072114880143557 0 -0.005011516449885573 -0.0092510829003953909 0 -0.004764699832263717 -0.0092596545790733942 0 -0.0046064843435964335 -0.0089844095315268716 0 -0.0048345891097810959 -0.0090072114880143557 0 -0.004764699832263717 -0.0092596545790733942 0 -0.0046064843435964335 -0.0089844095315268716 0 -0.0045065645840070409 -0.0091495359403623387 0 -0.0044284006274157217 -0.008941437043423376 0 -0.0046064843435964335 -0.0089844095315268716 0 -0.004764699832263717 -0.0092596545790733942 0 -0.0045065645840070409 -0.0091495359403623387 0 -0.004764699832263717 -0.0092596545790733942 0 -0.0045579222809269031 -0.0094002583309613329 0 -0.0045065645840070409 -0.0091495359403623387 0 -0.004764699832263717 -0.0092596545790733942 0 -0.0045579222809269031 -0.0094002583309613329 0 -0.0047769106767444535 -0.0095007177598640316 0 -0.0046103252496764047 -0.0096426853805334257 0 -0.0045579222809269031 -0.0094002583309613329 0 -0.0047769106767444535 -0.0095007177598640316 0 -0.0048503733448591897 -0.0097217080798986631 0 -0.0047769106767444535 -0.0095007177598640316 0 -0.0050084579944558987 -0.0095282107572048254 0 -0.004764699832263717 -0.0092596545790733942 0 -0.0047769106767444535 -0.0095007177598640316 0 -0.0050084579944558987 -0.0095282107572048254 0 -0.0041707368121009459 -0.0096084042684703164 0 -0.0039447868579973932 -0.0091601350141041395 0 -0.0038512522439952874 -0.0094800877493586531 0 -0.004313591078276573 -0.0093121353682403055 0 -0.0042770634664737982 -0.0090192519776292664 0 -0.0039447868579973932 -0.0091601350141041395 0 -0.0041707368121009459 -0.0096084042684703164 0 -0.004313591078276573 -0.0093121353682403055 0 -0.0039447868579973932 -0.0091601350141041395 0 -0.0044123787210061157 -0.0095461189201101523 0 -0.0045579222809269031 -0.0094002583309613329 0 -0.004313591078276573 -0.0093121353682403055 0 -0.0045579222809269031 -0.0094002583309613329 0 -0.004313591078276573 -0.0093121353682403055 0 -0.0045065645840070409 -0.0091495359403623387 0 -0.004313591078276573 -0.0093121353682403055 0 -0.0045065645840070409 -0.0091495359403623387 0 -0.0042770634664737982 -0.0090192519776292664 0 -0.0045065645840070409 -0.0091495359403623387 0 -0.0044284006274157217 -0.008941437043423376 0 -0.0042770634664737982 -0.0090192519776292664 0 -0.0042770634664737982 -0.0090192519776292664 0 -0.0039690394911687651 -0.0087068587893720673 0 -0.0039447868579973932 -0.0091601350141041395 0 -0.0042770634664737982 -0.0090192519776292664 0 -0.0039690394911687651 -0.0087068587893720673 0 -0.004250404643590713 -0.0087256914999734887 0 -0.0039690394911687651 -0.0087068587893720673 0 -0.004250404643590713 -0.0087256914999734887 0 -0.0040665250085215451 -0.0084247558320918806 0 -0.0046064843435964335 -0.0089844095315268716 0 -0.0044284006274157217 -0.008941437043423376 0 -0.0044328631656021227 -0.008750451228793003 0 -0.0044284006274157217 -0.008941437043423376 0 -0.004250404643590713 -0.0087256914999734887 0 -0.0044328631656021227 -0.008750451228793003 0 -0.0044284006274157217 -0.008941437043423376 0 -0.0042770634664737982 -0.0090192519776292664 0 -0.004250404643590713 -0.0087256914999734887 0 -0.004250404643590713 -0.0087256914999734887 0 -0.0044328631656021227 -0.008750451228793003 0 -0.0043177141312947132 -0.0085176858860575681 0 -0.0044926595010365633 -0.0085613784141815689 0 -0.0044328631656021227 -0.008750451228793003 0 -0.0043177141312947132 -0.0085176858860575681 0 -0.004250404643590713 -0.0087256914999734887 0 -0.0043177141312947132 -0.0085176858860575681 0 -0.0040665250085215451 -0.0084247558320918806 0 -0.0043177141312947132 -0.0085176858860575681 0 -0.0040665250085215451 -0.0084247558320918806 0 -0.0042248069392080007 -0.0082789531339783184 0 -0.0044926595010365633 -0.0085613784141815689 0 -0.0043177141312947132 -0.0085176858860575681 0 -0.004443221301049528 -0.0083686252661444929 0 -0.0043177141312947132 -0.0085176858860575681 0 -0.004443221301049528 -0.0083686252661444929 0 -0.0042248069392080007 -0.0082789531339783184 0 -0.0040665250085215451 -0.0084247558320918806 0 -0.003706076856222023 -0.008202137596958833 0 -0.00396817551963738 -0.0081568356016315114 0 -0.0040665250085215451 -0.0084247558320918806 0 -0.00396817551963738 -0.0081568356016315114 0 -0.0042248069392080007 -0.0082789531339783184 0 -0.0039690394911687651 -0.0087068587893720673 0 -0.003706076856222023 -0.008202137596958833 0 -0.0034770636783350269 -0.0087231066033841894 0 -0.003706076856222023 -0.008202137596958833 0 -0.0030496546957782139 -0.0081233468102584663 0 -0.0034770636783350269 -0.0087231066033841894 0 -0.003706076856222023 -0.008202137596958833 0 -0.0030496546957782139 -0.0081233468102584663 0 -0.0034848801559454528 -0.007897557915361118 0 -0.0039690394911687651 -0.0087068587893720673 0 -0.0040665250085215451 -0.0084247558320918806 0 -0.003706076856222023 -0.008202137596958833 0 -0.0031307349085271134 -0.0077828190339890831 0 -0.0025853098338988042 -0.0090377749746087255 0 -0.0026863801457352975 -0.0092043376293773019 0 -0.0034973513400225684 -0.0093255114775325481 0 -0.0034770636783350269 -0.0087231066033841894 0 -0.0030496546957782139 -0.0081233468102584663 0 -0.0026863801457352975 -0.0092043376293773019 0 -0.0034770636783350269 -0.0087231066033841894 0 -0.0034973513400225684 -0.0093255114775325481 0 -0.0039447868579973932 -0.0091601350141041395 0 -0.0034770636783350269 -0.0087231066033841894 0 -0.0034973513400225684 -0.0093255114775325481 0 -0.0039447868579973932 -0.0091601350141041395 0 -0.0038512522439952874 -0.0094800877493586531 0 -0.0039690394911687651 -0.0087068587893720673 0 -0.0039447868579973932 -0.0091601350141041395 0 -0.0034770636783350269 -0.0087231066033841894 0 -0.0052633136977178014 0.0038158388264689078 0 -0.005583746238001115 0.0036754057546285 0 -0.0054024663725932209 0.003108833421368625 0 -0.0044562705545780606 -0.0016457972896801634 0 -0.0042168542430265597 -0.00062653613251480102 0 -0.0031805602677796785 -0.00784999707008892 0 -0.0033776573323554197 -0.0075072854834729464 0 -0.0032657608369083368 -0.0078011396263300871 0 -0.0030496546957782139 -0.0081233468102584663 0 -0.0031805602677796785 -0.00784999707008892 0 -0.0033776573323554197 -0.0075072854834729464 0 -0.0030496546957782139 -0.0081233468102584663 0 -0.0029463574287372108 -0.0072482075759962633 0 -0.0033776573323554197 -0.0075072854834729464 0 -0.0052633136977178014 0.0038158388264689078 0 -0.0056122365653897173 0.0041726450927545124 0 -0.005583746238001115 0.0036754057546285 0 -0.0052633136977178014 0.0038158388264689078 0 -0.0056122365653897173 0.0041726450927545124 0 -0.0054333090625667364 0.0043014321670322552 0 -0.0054333090625667364 0.0043014321670322552 0 -0.0051247761217425259 0.004455356552947265 0 -0.0055256349574441437 0.004578625981344956 0 -0.0056202497355841395 0.0044752998889885376 0 -0.0054333090625667364 0.0043014321670322552 0 -0.0055256349574441437 0.004578625981344956 0 -0.0056202497355841395 0.0044752998889885376 0 -0.0055256349574441437 0.004578625981344956 0 -0.0058120585610820742 0.0046571160230732926 0 -0.0056122365653897173 0.0041726450927545124 0 -0.0056202497355841395 0.0044752998889885376 0 -0.0054333090625667364 0.0043014321670322552 0 -0.0026863801457352975 -0.0092043376293773019 0 -0.0026784068639966008 -0.010042958732150593 0 -0.0023962253251745306 -0.0099866523754867358 0 -0.0052633136977178014 0.0038158388264689078 0 -0.0054333090625667364 0.0043014321670322552 0 -0.0051247761217425259 0.004455356552947265 0 -0.0044562705545780606 -0.0016457972896801634 0 -0.0031180348911469835 -0.0036995103567863453 0 -0.0025853098338988042 -0.0090377749746087255 0 -0.0031180348911469835 -0.0036995103567863453 0 -0.0029463574287372108 -0.0072482075759962633 0 -0.0033776573323554197 -0.0075072854834729464 0 -0.0031906355542082503 -0.006390845798088963 0 -0.0051247761217425259 0.004455356552947265 0 -0.0052161075742363618 0.0047021930009525838 0 -0.0055256349574441437 0.004578625981344956 0 -0.0031180348911469835 -0.0036995103567863453 0 -0.0031282713423991019 -0.0078246410299070094 0 -0.0026784068639966008 -0.010042958732150593 0 -0.0023962253251745306 -0.0099866523754867358 0 -0.0024976527877531335 -0.010349446782720361 0 -0.0031282713423991019 -0.0078246410299070094 0 -0.0032489377565593251 -0.0027405678586043748 0 -0.0028287879332653402 -0.0087569583142677807 0 -0.002222781925804876 -0.008805448107719856 0 -0.0023959089342012871 -0.010016419288644511 0 -0.0027241933479437916 -0.0045221425481400635 0 -0.0028297229935410079 -0.0048562749797957539 0 -0.002578672113133416 -0.0048781527056955768 0 -0.0031180348911469835 -0.0036995103567863453 0 -0.0032489377565593251 -0.0027405678586043748 0 -0.0052161075742363618 0.0047021930009525838 0 -0.0055256349574441437 0.004578625981344956 0 -0.0059301038342741358 0.0047924359196828015 0 -0.0022117157825522426 0.0003585909918294912 0 -0.0029435333868111234 0.00099215866313271165 0 -0.0033105878636915886 0.00098618849959905921 0 -0.0032489377565593251 -0.0027405678586043748 0 -0.0047338298131885991 0.0036508784295293888 0 -0.0037833529891200604 -0.0098218844357449049 0 -0.0033301147141200573 -0.009733619572498204 0 -0.0035799479894856505 -0.010258230517642691 0 -0.0034973513400225684 -0.0093255114775325481 0 -0.0037833529891200604 -0.0098218844357449049 0 -0.0038512522439952874 -0.0094800877493586531 0 -0.0041707368121009459 -0.0096084042684703164 0 -0.0037833529891200604 -0.0098218844357449049 0 -0.0038512522439952874 -0.0094800877493586531 0 -0.0034973513400225684 -0.0093255114775325481 0 -0.0037833529891200604 -0.0098218844357449049 0 -0.0033301147141200573 -0.009733619572498204 0 -0.0026863801457352975 -0.0092043376293773019 0 -0.0033301147141200573 -0.009733619572498204 0 -0.00299494911933398 -0.010016914627162027 0 -0.0026863801457352975 -0.0092043376293773019 0 -0.0026784068639966008 -0.010042958732150593 0 -0.00299494911933398 -0.010016914627162027 0 -0.0026863801457352975 -0.0092043376293773019 0 -0.0034973513400225684 -0.0093255114775325481 0 -0.0033301147141200573 -0.009733619572498204 0 -0.0024976527877531335 -0.010349446782720361 0 -0.00299494911933398 -0.010016914627162027 0 -0.0035799479894856505 -0.010258230517642691 0 -0.0031282713423991019 -0.0078246410299070094 0 -0.0033203911700661667 -0.010768080817834751 0 -0.0033301147141200573 -0.009733619572498204 0 -0.00299494911933398 -0.010016914627162027 0 -0.0035799479894856505 -0.010258230517642691 0 -0.0029955818289995762 -0.010360692942793352 0 -0.0033425588432470163 -0.010495969580218298 0 -0.0035799479894856505 -0.010258230517642691 0 -0.0026784068639966008 -0.010042958732150593 0 -0.0024976527877531335 -0.010349446782720361 0 -0.00299494911933398 -0.010016914627162027 0 -0.0029955818289995762 -0.010360692942793352 0 -0.0033425588432470163 -0.010495969580218298 0 -0.0032668034621890583 -0.010666271973332673 0 -0.0033425588432470163 -0.010495969580218298 0 -0.0035799479894856505 -0.010258230517642691 0 -0.0035468096305045632 -0.010673316163934044 0 -0.0042352152902396757 -0.010015192847121206 0 -0.0037833529891200604 -0.0098218844357449049 0 -0.0039536858023056743 -0.010391580468754444 0 -0.0037833529891200604 -0.0098218844357449049 0 -0.0035799479894856505 -0.010258230517642691 0 -0.0039536858023056743 -0.010391580468754444 0 -0.0035799479894856505 -0.010258230517642691 0 -0.0039536858023056743 -0.010391580468754444 0 -0.0038493212572061185 -0.010721151263849905 0 -0.0050224639936623672 -0.010523067708064106 0 -0.0042624319293043588 -0.010909290248517084 0 -0.0039421580384209872 -0.011418270910411239 0 -0.0045040398389662199 -0.010839638074697466 0 -0.0040889156641759116 -0.011410274184154577 0 -0.004393982873048906 -0.011727697367799902 0 -0.0046182904410919517 -0.011263641500592069 0 -0.0039421580384209872 -0.011418270910411239 0 -0.0035799479894856505 -0.010258230517642691 0 -0.0038493212572061185 -0.010721151263849905 0 -0.0035468096305045632 -0.010673316163934044 0 -0.0038493212572061185 -0.010721151263849905 0 -0.0034696576139603063 -0.011063239815982921 0 -0.0035468096305045632 -0.010673316163934044 0 -0.0042624319293043588 -0.010909290248517084 0 -0.0039421580384209872 -0.011418270910411239 0 -0.0034696576139603063 -0.011063239815982921 0 -0.0040789455810709453 -0.0107988801525522 0 -0.0035060585477168192 -0.011064026321636659 0 -0.004393982873048906 -0.011727697367799902 0 -0.0039421580384209872 -0.011418270910411239 0 -0.0040024907445608071 -0.011839731431612639 0 -0.0039421580384209872 -0.011418270910411239 0 -0.0040024907445608071 -0.011839731431612639 0 -0.0036427596960475271 -0.011595830765257541 0 -0.0040024907445608071 -0.011839731431612639 0 -0.0042551608500069685 -0.012303807696522704 0 -0.0036299386834044208 -0.012092447048969781 0 -0.0040024907445608071 -0.011839731431612639 0 -0.0036427596960475271 -0.011595830765257541 0 -0.0036299386834044208 -0.012092447048969781 0 -0.004393982873048906 -0.011727697367799902 0 -0.0040024907445608071 -0.011839731431612639 0 -0.0042551608500069685 -0.012303807696522704 0 -0.0032160164995125068 -0.011493598833787576 0 -0.0025936079434041681 -0.011427202574679394 0 -0.0030845420338128531 -0.012016240618943942 0 -0.0032160164995125068 -0.011493598833787576 0 -0.0036299386834044208 -0.012092447048969781 0 -0.0030845420338128531 -0.012016240618943942 0 -0.0036427596960475271 -0.011595830765257541 0 -0.0032160164995125068 -0.011493598833787576 0 -0.0036299386834044208 -0.012092447048969781 0 -0.0036427596960475271 -0.011595830765257541 0 -0.0032160164995125068 -0.011493598833787576 0 -0.0034696576139603063 -0.011063239815982921 0 -0.0039421580384209872 -0.011418270910411239 0 -0.0036427596960475271 -0.011595830765257541 0 -0.0034696576139603063 -0.011063239815982921 0 -0.0032160164995125068 -0.011493598833787576 0 -0.003118684790179552 -0.01075483171985149 0 -0.0034696576139603063 -0.011063239815982921 0 -0.003118684790179552 -0.01075483171985149 0 -0.0034696576139603063 -0.011063239815982921 0 -0.0032668034621890583 -0.010666271973332673 0 -0.0029955818289995762 -0.010360692942793352 0 -0.003118684790179552 -0.01075483171985149 0 -0.0032668034621890583 -0.010666271973332673 0 -0.0034696576139603063 -0.011063239815982921 0 -0.0035468096305045632 -0.010673316163934044 0 -0.0032668034621890583 -0.010666271973332673 0 -0.0033425588432470163 -0.010495969580218298 0 -0.0035468096305045632 -0.010673316163934044 0 -0.0032668034621890583 -0.010666271973332673 0 -0.0031282713423991019 -0.0078246410299070094 0 -0.0032451051184909565 -0.011177379162052553 0 -0.0028287879332653402 -0.0087569583142677807 0 -0.003118684790179552 -0.01075483171985149 0 -0.0023959089342012871 -0.010016419288644511 0 -0.002222781925804876 -0.008805448107719856 0 -0.0023959089342012871 -0.010016419288644511 0 -0.0014920797324770622 -0.010928638134413643 0 -0.0023959089342012871 -0.010016419288644511 0 -0.0024108879499628124 -0.010786248854540315 0 -0.0014920797324770622 -0.010928638134413643 0 -0.003118684790179552 -0.01075483171985149 0 -0.0023959089342012871 -0.010016419288644511 0 -0.0024108879499628124 -0.010786248854540315 0 -0.0032489377565593251 -0.0027405678586043748 0 -0.0026925641844421423 -0.0029425925876708902 0 -0.0022117157825522426 0.0003585909918294912 0 -0.0029435333868111234 0.00099215866313271165 0 -0.0025344018561390623 0.001155744307549438 0 -0.0023175809801827068 0.0019721453049529854 0 -0.0026925641844421423 -0.0029425925876708902 0 -0.0029435333868111234 0.00099215866313271165 0 -0.0030032256059162659 0.001495018903240589 0 -0.0031479957179837274 0.0014203480373089817 0 -0.0036887826536255767 0.0024181420601365414 0 -0.0033295348043860611 0.0015624265824609872 0 -0.003917504018495865 0.0012394545460403658 0 -0.0030032256059162659 0.001495018903240589 0 -0.0032260509623773886 0.0016023202815110933 0 -0.0031479957179837274 0.0014203480373089817 0 -0.0026925641844421423 -0.0029425925876708902 0 -0.0039357428384140221 0.0027756985352797203 0 -0.0030032256059162659 0.001495018903240589 0 -0.0033295348043860611 0.0015624265824609872 0 -0.0032260509623773886 0.0016023202815110933 0 -0.0014920797324770622 -0.010928638134413643 0 -0.0025936079434041681 -0.011427202574679394 0 -0.0025745331694533077 -0.01246142072879782 0 -0.0026925641844421423 -0.0029425925876708902 0 -0.0035462009184940271 -0.0057311416084774398 0 -0.0036887826536255767 0.0024181420601365414 0 -0.0047516422525500836 0.00098989350028567285 0 -0.003917504018495865 0.0012394545460403658 0 -0.0032160164995125068 -0.011493598833787576 0 -0.003118684790179552 -0.01075483171985149 0 -0.0025936079434041681 -0.011427202574679394 0 -0.003118684790179552 -0.01075483171985149 0 -0.0024108879499628124 -0.010786248854540315 0 -0.0025936079434041681 -0.011427202574679394 0 -0.0024108879499628124 -0.010786248854540315 0 -0.0014920797324770622 -0.010928638134413643 0 -0.0025936079434041681 -0.011427202574679394 0 -0.0025936079434041681 -0.011427202574679394 0 -0.0025745331694533077 -0.01246142072879782 0 -0.0030845420338128531 -0.012016240618943942 0 -0.0047516422525500836 0.00098989350028567285 0 -0.003917504018495865 0.0012394545460403658 0 -0.0044453928760433848 0.00031389228670786662 0 -0.0033295348043860611 0.0015624265824609872 0 -0.0034309536849626795 0.00079132394346462915 0 -0.0032497490754384191 0.0015160367526010216 0 -0.0033295348043860611 0.0015624265824609872 0 -0.003917504018495865 0.0012394545460403658 0 -0.0034309536849626795 0.00079132394346462915 0 -0.003917504018495865 0.0012394545460403658 0 -0.0034309536849626795 0.00079132394346462915 0 -0.0044453928760433848 0.00031389228670786662 0 -0.0036490776954534237 0.0013478609229184378 0 -0.0033917872521671798 0.0010893381805212948 0 -0.0033692635856673913 0.0014086538674365624 0 -0.0053620276251329932 -0.0020122949533518558 0 -0.0057449607323444519 -0.0013803026029196998 0 -0.0050599370917978562 -0.0013148241717732578 0 -0.0047387828954358118 -2.5144160203786514e-05 0 -0.0042746490674366727 -0.00012042998853872208 0 -0.0036490776954534237 0.0013478609229184378 0 -0.0041100427835961189 0.0010071623575358226 0 -0.0033917872521671798 0.0010893381805212948 0 -0.0034309536849626795 0.00079132394346462915 0 -0.0044453928760433848 0.00031389228670786662 0 -0.0043476781263092823 -0.00013297844062762297 0 -0.0034922930778351672 0.0011229738897243818 0 -0.0047387828954358118 -2.5144160203786514e-05 0 -0.0044453928760433848 0.00031389228670786662 0 -0.0043476781263092823 -0.00013297844062762297 0 -0.0060072916986996187 -0.0008786793595504447 0 -0.005514544967354271 -0.0010428272845627461 0 -0.0043476781263092823 -0.00013297844062762297 0 -0.0060072916986996187 -0.0008786793595504447 0 -0.0047516422525500836 0.00098989350028567285 0 -0.0044453928760433848 0.00031389228670786662 0 -0.0060072916986996187 -0.0008786793595504447 0 -0.0059249042996025007 -0.0035545545742055747 0 -0.0047387828954358118 -2.5144160203786514e-05 0 -0.0025745331694533077 -0.01246142072879782 0 -0.0033665005150174854 -0.013462723779594319 0 -0.0032974489961469246 -0.01254962092807283 0 -0.0033665005150174854 -0.013462723779594319 0 -0.0039075092634306089 -0.012648388799874719 0 -0.0032974489961469246 -0.01254962092807283 0 -0.0035462009184940271 -0.0057311416084774398 0 -0.0054319105378926409 -0.0082938662687970077 0 -0.0059249042996025007 -0.0035545545742055747 0 -0.0054319105378926409 -0.0082938662687970077 0 -0.0076786515358776451 -0.014050952069999819 0 -0.0075921357850816003 -0.014278398431145731 0 -0.0078991076604527383 -0.014096130267927519 0 -0.0043813249969487777 -0.013119297915902849 0 -0.0033665005150174854 -0.013462723779594319 0 -0.0039075092634306089 -0.012648388799874719 0 -0.0058358008848417801 -0.014345595042711708 0 -0.0054319105378926409 -0.0082938662687970077 0 -0.0043813249969487777 -0.013119297915902849 0 -0.0039075092634306089 -0.012648388799874719 0 -0.0042551608500069685 -0.012303807696522704 0 -0.0039075092634306089 -0.012648388799874719 0 -0.0042551608500069685 -0.012303807696522704 0 -0.0036299386834044208 -0.012092447048969781 0 -0.0039075092634306089 -0.012648388799874719 0 -0.0036299386834044208 -0.012092447048969781 0 -0.0032974489961469246 -0.01254962092807283 0 -0.0036299386834044208 -0.012092447048969781 0 -0.0030845420338128531 -0.012016240618943942 0 -0.0032974489961469246 -0.01254962092807283 0 -0.0025745331694533077 -0.01246142072879782 0 -0.0030845420338128531 -0.012016240618943942 0 -0.0032974489961469246 -0.01254962092807283 0 -0.0036600734013925154 0.0019388166758615582 0 -0.0037387801141519133 0.0020146361020290261 0 -0.0037342109403212869 0.0019522904160846712 0 -0.0037528088094481151 0.0020008927626406587 0 -0.0037387801141519133 0.0020146361020290261 0 -0.0037342109403212869 0.0019522904160846712 0 -0.0036600734013925154 0.0019388166758615582 0 -0.0037387801141519133 0.0020146361020290261 0 -0.00356672684924293 0.0019983590025172263 0 -0.0032153559411121063 0.00083162836090712011 0 -0.0031790537239488061 0.0017136498069799787 0 -0.0037528088094481151 0.0020008927626406587 0 -0.0037145252684716887 0.0019611866029941071 0 -0.0037387801141519133 0.0020146361020290261 0 -0.0036570206519765118 0.0020365981760283535 0 -0.0037528088094481151 0.0020008927626406587 0 -0.0037699943371080208 0.0020897324846045951 0 -0.0036570206519765118 0.0020365981760283535 0 -0.0037528088094481151 0.0020008927626406587 0 -0.0037145252684716887 0.0019611866029941071 0 -0.0026318491905637518 -0.0015712590430582052 0 -0.002791868217578155 -0.0018563642770209813 0 -0.0036166117553019608 -0.0011600862331575723 0 -0.0035367239932926442 0.0019038870632672952 0 -0.0032153559411121063 0.00083162836090712011 0 -0.0029395415939661336 0.0016643424180367015 0 -0.0030822886561271651 0.0018648552963334312 0 -0.0033526097850810031 0.0018361035379688673 0 -0.0028918741170054448 0.0015223872441805281 0 -0.0032153559411121063 0.00083162836090712011 0 -0.0040928847427824291 -0.0017907254930763789 0 -0.0035298809150344176 -0.0019975137730349189 0 -0.0036166117553019608 -0.0011600862331575723 0 -0.0032153559411121063 0.00083162836090712011 0 -0.0035431463520337763 -7.7538597122855598e-05 0 -0.0040928847427824291 -0.0017907254930763789 0 -0.0036166117553019608 -0.0011600862331575723 0 -0.0043458042877125647 -0.0012379173195185742 0 -0.0046802896240080013 -0.0017354400127101049 0 -0.0040928847427824291 -0.0017907254930763789 0 -0.0043458042877125647 -0.0012379173195185742 0 -0.0046802896240080013 -0.0017354400127101049 0 -0.0043458042877125647 -0.0012379173195185742 0 -0.0050599370917978562 -0.0013148241717732578 0 -0.002826179269624543 0.0011731180844329328 0 -0.0033917872521671798 0.0010893381805212948 0 -0.0030953292450199813 0.00128648496943834 0 -0.0035431463520337763 -7.7538597122855598e-05 0 -0.0042746490674366727 -0.00012042998853872208 0 -0.0033917872521671798 0.0010893381805212948 0 -0.00323543428928747 0.0013459925080275593 0 -0.0030953292450199813 0.00128648496943834 0 -0.0031037769244089217 0.0014528656335354583 0 -0.0031980973180289708 0.0016509034365551787 0 -0.0027378933867313595 0.0013952564934428349 0 -0.0036490776954534237 0.0013478609229184378 0 -0.0033692635856673913 0.0014086538674365624 0 -0.0031792633737587036 0.0015948763184290607 0 -0.0034922930778351672 0.0011229738897243818 0 -0.0032603833505262985 0.0014402736203167586 0 -0.0033917872521671798 0.0010893381805212948 0 -0.0033692635856673913 0.0014086538674365624 0 -0.00323543428928747 0.0013459925080275593 0 -0.0033692635856673913 0.0014086538674365624 0 -0.00323543428928747 0.0013459925080275593 0 -0.0032302490018728371 0.0014840983064864366 0 -0.00323543428928747 0.0013459925080275593 0 -0.0031037769244089217 0.0014528656335354583 0 -0.0032302490018728371 0.0014840983064864366 0 -0.00323543428928747 0.0013459925080275593 0 -0.0030953292450199813 0.00128648496943834 0 -0.0031037769244089217 0.0014528656335354583 0 -0.0030953292450199813 0.00128648496943834 0 -0.0031037769244089217 0.0014528656335354583 0 -0.0029270235754372703 0.0013276176652457989 0 -0.0033482359777089001 0.0017493907752935949 0 -0.003391120533654765 0.0017415778924163685 0 -0.0032593397651428484 0.0016431210008348814 0 -0.0031980973180289708 0.0016509034365551787 0 -0.0032106233995295055 0.0016046309463061327 0 -0.0032593397651428484 0.0016431210008348814 0 -0.0033482359777089001 0.0017493907752935949 0 -0.0031980973180289708 0.0016509034365551787 0 -0.0032593397651428484 0.0016431210008348814 0 -0.0031980973180289708 0.0016509034365551787 0 -0.0031925406479657195 0.0015538576217710423 0 -0.0031792633737587036 0.0015948763184290607 0 -0.0031037769244089217 0.0014528656335354583 0 -0.0031980973180289708 0.0016509034365551787 0 -0.0031925406479657195 0.0015538576217710423 0 -0.0031037769244089217 0.0014528656335354583 0 -0.0031925406479657195 0.0015538576217710423 0 -0.0032302490018728371 0.0014840983064864366 0 -0.0034309536849626795 0.00079132394346462915 0 -0.0031792633737587036 0.0015948763184290607 0 -0.0032497490754384191 0.0015160367526010216 0 -0.0033692635856673913 0.0014086538674365624 0 -0.0032302490018728371 0.0014840983064864366 0 -0.0031792633737587036 0.0015948763184290607 0 -0.0031925406479657195 0.0015538576217710423 0 -0.0032302490018728371 0.0014840983064864366 0 -0.0031792633737587036 0.0015948763184290607 0 -0.0031792633737587036 0.0015948763184290607 0 -0.0032497490754384191 0.0015160367526010216 0 -0.0032106233995295055 0.0016046309463061327 0 -0.0031980973180289708 0.0016509034365551787 0 -0.0031792633737587036 0.0015948763184290607 0 -0.0032106233995295055 0.0016046309463061327 0 -0.0033482359777089001 0.0017493907752935949 0 -0.0031980973180289708 0.0016509034365551787 0 -0.00356672684924293 0.0019983590025172263 0 -0.0023611507695475912 0.0012117461000238506 0 -0.002826179269624543 0.0011731180844329328 0 -0.0027378933867313595 0.0013952564934428349 0 -0.003196307160943909 0.0016697786709674145 0 -0.0031790537239488061 0.0017136498069799787 0 -0.002826179269624543 0.0011731180844329328 0 -0.0027378933867313595 0.0013952564934428349 0 -0.0029270235754372703 0.0013276176652457989 0 -0.002826179269624543 0.0011731180844329328 0 -0.0030953292450199813 0.00128648496943834 0 -0.0029270235754372703 0.0013276176652457989 0 -0.0031037769244089217 0.0014528656335354583 0 -0.0027378933867313595 0.0013952564934428349 0 -0.0029270235754372703 0.0013276176652457989 0 -0.0033482359777089001 0.0017493907752935949 0 -0.00356672684924293 0.0019983590025172263 0 -0.003391120533654765 0.0017415778924163685 0 -0.00356672684924293 0.0019983590025172263 0 -0.003391120533654765 0.0017415778924163685 0 -0.0035477614941629974 0.0018358241529442645 0 -0.0036600734013925154 0.0019388166758615582 0 -0.00356672684924293 0.0019983590025172263 0 -0.0035477614941629974 0.0018358241529442645 0 -0.0036600734013925154 0.0019388166758615582 0 -0.0035477614941629974 0.0018358241529442645 0 -0.0036297472106918559 0.0018147801871793935 0 -0.0036297472106918559 0.0018147801871793935 0 -0.0034778671059238699 0.0017433040116141352 0 -0.0034854949105631522 0.0016477525941651779 0 -0.0035477614941629974 0.0018358241529442645 0 -0.0036297472106918559 0.0018147801871793935 0 -0.0034778671059238699 0.0017433040116141352 0 -0.0034778671059238699 0.0017433040116141352 0 -0.0034854949105631522 0.0016477525941651779 0 -0.0033193078712258905 0.0016309729397890559 0 -0.003391120533654765 0.0017415778924163685 0 -0.0034778671059238699 0.0017433040116141352 0 -0.0033193078712258905 0.0016309729397890559 0 -0.003391120533654765 0.0017415778924163685 0 -0.0035477614941629974 0.0018358241529442645 0 -0.0034778671059238699 0.0017433040116141352 0 -0.0036297472106918559 0.0018147801871793935 0 -0.0034854949105631522 0.0016477525941651779 0 -0.0036329318574119963 0.0017066123873153447 0 -0.0032497490754384191 0.0015160367526010216 0 -0.0032260509623773886 0.0016023202815110933 0 -0.0032106233995295055 0.0016046309463061327 0 -0.0033295348043860611 0.0015624265824609872 0 -0.0032497490754384191 0.0015160367526010216 0 -0.0032260509623773886 0.0016023202815110933 0 -0.0032260509623773886 0.0016023202815110933 0 -0.0032106233995295055 0.0016046309463061327 0 -0.0032593397651428484 0.0016431210008348814 0 -0.0032260509623773886 0.0016023202815110933 0 -0.0032593397651428484 0.0016431210008348814 0 -0.0033193078712258905 0.0016309729397890559 0 -0.003391120533654765 0.0017415778924163685 0 -0.0032593397651428484 0.0016431210008348814 0 -0.0033193078712258905 0.0016309729397890559 0 -0.0033193078712258905 0.0016309729397890559 0 -0.0032567186237938356 0.0015388221706592413 0 -0.0033284220241444292 0.0015046681444873 0 -0.0034854949105631522 0.0016477525941651779 0 -0.0033193078712258905 0.0016309729397890559 0 -0.0033284220241444292 0.0015046681444873 0 -0.0032260509623773886 0.0016023202815110933 0 -0.0033193078712258905 0.0016309729397890559 0 -0.0032567186237938356 0.0015388221706592413 0 -0.0032567186237938356 0.0015388221706592413 0 -0.0031479957179837274 0.0014203480373089817 0 -0.0033284220241444292 0.0015046681444873 0 -0.0032260509623773886 0.0016023202815110933 0 -0.0032567186237938356 0.0015388221706592413 0 -0.0031479957179837274 0.0014203480373089817 0 -0.0031479957179837274 0.0014203480373089817 0 -0.0033284220241444292 0.0015046681444873 0 -0.0032746603084938711 0.0012674947664700459 0 -0.0029435333868111234 0.00099215866313271165 0 -0.0031479957179837274 0.0014203480373089817 0 -0.0032746603084938711 0.0012674947664700459 0 -0.0033284220241444292 0.0015046681444873 0 -0.0032746603084938711 0.0012674947664700459 0 -0.0034804271930152972 0.0014693466749434792 0 -0.0032746603084938711 0.0012674947664700459 0 -0.0034804271930152972 0.0014693466749434792 0 -0.0033105878636915886 0.00098618849959905921 0 -0.0029435333868111234 0.00099215866313271165 0 -0.0032746603084938711 0.0012674947664700459 0 -0.0033105878636915886 0.00098618849959905921 0 -0.0036329318574119963 0.0017066123873153447 0 -0.0034804271930152972 0.0014693466749434792 0 -0.0037626650304960351 0.0017106783195899255 0 -0.0034804271930152972 0.0014693466749434792 0 -0.0037626650304960351 0.0017106783195899255 0 -0.0033105878636915886 0.00098618849959905921 0 -0.0034854949105631522 0.0016477525941651779 0 -0.0036329318574119963 0.0017066123873153447 0 -0.0034804271930152972 0.0014693466749434792 0 -0.0034854949105631522 0.0016477525941651779 0 -0.0033284220241444292 0.0015046681444873 0 -0.0034804271930152972 0.0014693466749434792 0 -0.0036329318574119963 0.0017066123873153447 0 -0.0037626650304960351 0.0017106783195899255 0 -0.0037729069109057188 0.0019297619786927667 0 -0.0036297472106918559 0.0018147801871793935 0 -0.0036329318574119963 0.0017066123873153447 0 -0.0037729069109057188 0.0019297619786927667 0 -0.0036600734013925154 0.0019388166758615582 0 -0.0036297472106918559 0.0018147801871793935 0 -0.0037342109403212869 0.0019522904160846712 0 -0.0036297472106918559 0.0018147801871793935 0 -0.0037729069109057188 0.0019297619786927667 0 -0.0037342109403212869 0.0019522904160846712 0 -0.0037528088094481151 0.0020008927626406587 0 -0.0037342109403212869 0.0019522904160846712 0 -0.0037699943371080208 0.0020897324846045951 0 -0.0037729069109057188 0.0019297619786927667 0 -0.0037342109403212869 0.0019522904160846712 0 -0.0037699943371080208 0.0020897324846045951 0 -0.0038292038011596748 0.0024777563325928953 0 -0.0037626650304960351 0.0017106783195899255 0 -0.0037729069109057188 0.0019297619786927667 0 -0.0038292038011596748 0.0024777563325928953 0 -0.0037729069109057188 0.0019297619786927667 0 -0.0037699943371080208 0.0020897324846045951 0 -0.00433626180186239 0.0034244896238460739 0 -0.0048549943927868201 0.0030431589245672754 0 -0.0049804976371234646 0.0043028201737844076 0 -0.0061251788997389684 0.0046103075362884747 0 -0.0053746479740341066 0.0053355488884839659 0 -0.0061251788997389684 0.0046103075362884747 0 -0.0063181763864691345 0.0049376710288723032 0 -0.0053746479740341066 0.0053355488884839659 0 -0.0063181763864691345 0.0049376710288723032 0 -0.0053746479740341066 0.0053355488884839659 0 -0.0057628177558345615 0.0065814170495609057 0 -0.0055256349574441437 0.004578625981344956 0 -0.0058120585610820742 0.0046571160230732926 0 -0.0059301038342741358 0.0047924359196828015 0 -0.0058120585610820742 0.0046571160230732926 0 -0.0059301038342741358 0.0047924359196828015 0 -0.0060292768601483398 0.0046954502938611128 0 -0.0048549943927868201 0.0030431589245672754 0 -0.0047338298131885991 0.0036508784295293888 0 -0.0061251788997389684 0.0046103075362884747 0 -0.0063181763864691345 0.0049376710288723032 0 -0.0060292768601483398 0.0046954502938611128 0 -0.0061251788997389684 0.0046103075362884747 0 -0.0059301038342741358 0.0047924359196828015 0 -0.0060292768601483398 0.0046954502938611128 0 -0.0063181763864691345 0.0049376710288723032 0 -0.0060292768601483398 0.0046954502938611128 0 -0.0058812013646417464 0.0041152892404105234 0 -0.0056202497355841395 0.0044752998889885376 0 -0.0058120585610820742 0.0046571160230732926 0 -0.0060292768601483398 0.0046954502938611128 0 -0.0056122365653897173 0.0041726450927545124 0 -0.0056202497355841395 0.0044752998889885376 0 -0.0060292768601483398 0.0046954502938611128 0 -0.0056122365653897173 0.0041726450927545124 0 -0.0058812013646417464 0.0041152892404105234 0 -0.005583746238001115 0.0036754057546285 0 -0.0056122365653897173 0.0041726450927545124 0 -0.0060292768601483398 0.0046954502938611128 0 -0.0058812013646417464 0.0041152892404105234 0 -0.0063181763864691345 0.0049376710288723032 0 -0.0058812013646417464 0.0041152892404105234 0 -0.0063817858715184096 0.0039306548266263902 0 -0.0063817858715184096 0.0039306548266263902 0 -0.0068016673415405458 0.0033048818865704763 0 -0.0059941598489662408 0.0032814015832474891 0 -0.0058812013646417464 0.0041152892404105234 0 -0.0063817858715184096 0.0039306548266263902 0 -0.0059941598489662408 0.0032814015832474891 0 -0.0058812013646417464 0.0041152892404105234 0 -0.005583746238001115 0.0036754057546285 0 -0.0059941598489662408 0.0032814015832474891 0 -0.005583746238001115 0.0036754057546285 0 -0.0059941598489662408 0.0032814015832474891 0 -0.0054024663725932209 0.003108833421368625 0 -0.0049404242433904351 0.0067435959648085462 0 -0.0053746479740341066 0.0053355488884839659 0 -0.0057628177558345615 0.0065814170495609057 0 -0.0062289991913451132 0.0051133715687066142 0 -0.0066903282490040974 0.0051114113165455352 0 -0.0063181763864691345 0.0049376710288723032 0 -0.0063817858715184096 0.0039306548266263902 0 -0.007170769021942071 0.0040522673314679876 0 -0.0063817858715184096 0.0039306548266263902 0 -0.007170769021942071 0.0040522673314679876 0 -0.0068016673415405458 0.0033048818865704763 0 -0.0066903282490040974 0.0051114113165455352 0 -0.0051171340839966757 0.0063642086000827852 0 -0.007170769021942071 0.0040522673314679876 0 -0.0068016673415405458 0.0033048818865704763 0 -0.0078640378223394838 0.0033276947234964372 0 -0.0068016673415405458 0.0033048818865704763 0 -0.0072120034549135034 0.0026229286143386456 0 -0.0078640378223394838 0.0033276947234964372 0 -0.0029128484304944062 0.0077932714419411755 0 -0.0031913345004495174 0.0078350526513672608 0 -0.003295500552324799 0.008155092768092561 0 -0.0050930727777953374 0.0051400504242123573 0 -0.0051171340839966757 0.0063642086000827852 0 -0.0068016673415405458 0.0033048818865704763 0 -0.0072120034549135034 0.0026229286143386456 0 -0.0063245949855524038 0.0025959001736296726 0 -0.0050930727777953374 0.0051400504242123573 0 -0.0045638652519475768 0.0045881073040063619 0 -0.0072120034549135034 0.0026229286143386456 0 -0.0063245949855524038 0.0025959001736296726 0 -0.0065244432733598994 0.0018887482713462567 0 -0.0029128484304944062 0.0077932714419411755 0 -0.0029824325211089534 0.0074644091557521637 0 -0.0031913345004495174 0.0078350526513672608 0 -0.0029128484304944062 0.0077932714419411755 0 -0.0029824325211089534 0.0074644091557521637 0 -0.0025056601914557092 0.0074104171429455285 0 -0.0059941598489662408 0.0032814015832474891 0 -0.005608707760579635 0.0025336004779399255 0 -0.0048108217195057309 0.0030198793517543896 0 -0.006442207778600096 0.0041723044371179876 0 -0.0042168542430265597 -0.00062653613251480102 0 -0.0059941598489662408 0.0032814015832474891 0 -0.0063245949855524038 0.0025959001736296726 0 -0.005608707760579635 0.0025336004779399255 0 -0.0068016673415405458 0.0033048818865704763 0 -0.0059941598489662408 0.0032814015832474891 0 -0.0063245949855524038 0.0025959001736296726 0 -0.0063245949855524038 0.0025959001736296726 0 -0.005608707760579635 0.0025336004779399255 0 -0.0057162275069149665 0.001924423439691189 0 -0.0063245949855524038 0.0025959001736296726 0 -0.0057162275069149665 0.001924423439691189 0 -0.0065244432733598994 0.0018887482713462567 0 -0.005608707760579635 0.0025336004779399255 0 -0.0057162275069149665 0.001924423439691189 0 -0.0052029577157425054 0.0020307000657817562 0 -0.005608707760579635 0.0025336004779399255 0 -0.0050043022641947099 0.0024118733449430599 0 -0.0048108217195057309 0.0030198793517543896 0 -0.005608707760579635 0.0025336004779399255 0 -0.0052029577157425054 0.0020307000657817562 0 -0.0050043022641947099 0.0024118733449430599 0 -0.0057162275069149665 0.001924423439691189 0 -0.0052029577157425054 0.0020307000657817562 0 -0.0049691989546403591 0.0014102846427014556 0 -0.0057162275069149665 0.001924423439691189 0 -0.0057993604372172537 0.001195634834465288 0 -0.0049691989546403591 0.0014102846427014556 0 -0.0034110198357145387 0.0047589564101642116 0 -0.0045638652519475768 0.0045881073040063619 0 -0.0057162275069149665 0.001924423439691189 0 -0.0057993604372172537 0.001195634834465288 0 -0.0065244432733598994 0.0018887482713462567 0 -0.0021310248275620367 0.0070231637865536571 0 -0.0025056601914557092 0.0074104171429455285 0 -0.0024780037309557112 0.0069443911460382321 0 -0.0034110198357145387 0.0047589564101642116 0 -0.0018214665192481216 0.0071738687242182313 0 -0.0034110198357145387 0.0047589564101642116 0 -0.0044407685023966602 0.00216233692346028 0 -0.0030547525704580987 0.0034408543935828422 0 -0.0032231933227768465 0.0036117146982132219 0 -0.0033441361859801299 0.0033481672396761027 0 -0.0034110198357145387 0.0047589564101642116 0 -0.0024493603388416802 0.0051965125422548369 0 -0.0029824325211089534 0.0074644091557521637 0 -0.0027352645758455269 0.0071805933205606153 0 -0.0029949973248467824 0.0071829183138214818 0 -0.0029824325211089534 0.0074644091557521637 0 -0.0029949973248467824 0.0071829183138214818 0 -0.0031951463356574036 0.0072661262597709638 0 -0.0029824325211089534 0.0074644091557521637 0 -0.0025056601914557092 0.0074104171429455285 0 -0.0027352645758455269 0.0071805933205606153 0 -0.0025056601914557092 0.0074104171429455285 0 -0.0027352645758455269 0.0071805933205606153 0 -0.0024780037309557112 0.0069443911460382321 0 -0.0027352645758455269 0.0071805933205606153 0 -0.0024780037309557112 0.0069443911460382321 0 -0.00283416867546299 0.0069465899218913571 0 -0.0027352645758455269 0.0071805933205606153 0 -0.00283416867546299 0.0069465899218913571 0 -0.0029949973248467824 0.0071829183138214818 0 -0.0029949973248467824 0.0071829183138214818 0 -0.0031416649855736806 0.0069830455971687877 0 -0.0031951463356574036 0.0072661262597709638 0 -0.00283416867546299 0.0069465899218913571 0 -0.0029949973248467824 0.0071829183138214818 0 -0.0031416649855736806 0.0069830455971687877 0 -0.00283416867546299 0.0069465899218913571 0 -0.0029975856877496607 0.0067078125480729911 0 -0.0031416649855736806 0.0069830455971687877 0 -0.00283416867546299 0.0069465899218913571 0 -0.0029975856877496607 0.0067078125480729911 0 -0.0026506001201073107 0.006675698885317825 0 -0.0029975856877496607 0.0067078125480729911 0 -0.0028594332823836111 0.0064046135066221756 0 -0.0026506001201073107 0.006675698885317825 0 -0.0028594332823836111 0.0064046135066221756 0 -0.0030320431947359985 0.0061055029355145405 0 -0.0025839787482827971 0.0059655344825482442 0 -0.0029975856877496607 0.0067078125480729911 0 -0.0028594332823836111 0.0064046135066221756 0 -0.0032021173228587974 0.0064663055565701072 0 -0.0028594332823836111 0.0064046135066221756 0 -0.0030320431947359985 0.0061055029355145405 0 -0.0032021173228587974 0.0064663055565701072 0 -0.0028594332823836111 0.0064046135066221756 0 -0.0024914598154764053 0.0063488237818153763 0 -0.0025839787482827971 0.0059655344825482442 0 -0.0024914598154764053 0.0063488237818153763 0 -0.0021688999734651633 0.0061921028181968771 0 -0.0025839787482827971 0.0059655344825482442 0 -0.0028594332823836111 0.0064046135066221756 0 -0.0024914598154764053 0.0063488237818153763 0 -0.0026506001201073107 0.006675698885317825 0 -0.0024914598154764053 0.0063488237818153763 0 -0.0026506001201073107 0.006675698885317825 0 -0.0021209686139353054 0.0065923220705865976 0 -0.0024780037309557112 0.0069443911460382321 0 -0.0026506001201073107 0.006675698885317825 0 -0.0021209686139353054 0.0065923220705865976 0 -0.0024780037309557112 0.0069443911460382321 0 -0.00283416867546299 0.0069465899218913571 0 -0.0026506001201073107 0.006675698885317825 0 -0.0020066999114703235 0.007049305719155451 0 -0.0024780037309557112 0.0069443911460382321 0 -0.0021209686139353054 0.0065923220705865976 0 -0.0021209686139353054 0.0065923220705865976 0 -0.0016790915562693307 0.0067120871267951692 0 -0.0017827244339297041 0.0060965148715706099 0 -0.0020066999114703235 0.007049305719155451 0 -0.0021209686139353054 0.0065923220705865976 0 -0.0016790915562693307 0.0067120871267951692 0 -0.0020268368417219974 0.005465058045979165 0 -0.0024954912984011921 0.004411543795524663 0 -0.0016790915562693307 0.0067120871267951692 0 -0.0017827244339297041 0.0060965148715706099 0 -0.0013711934367810568 0.0063851667144729724 0 -0.0024914598154764053 0.0063488237818153763 0 -0.0021209686139353054 0.0065923220705865976 0 -0.0021688999734651633 0.0061921028181968771 0 -0.0021209686139353054 0.0065923220705865976 0 -0.0017827244339297041 0.0060965148715706099 0 -0.0021688999734651633 0.0061921028181968771 0 -0.0020268368417219974 0.005465058045979165 0 -0.002386834522536655 0.005252955166466104 0 -0.0017827244339297041 0.0060965148715706099 0 -0.0021688999734651633 0.0061921028181968771 0 -0.002157716250988644 0.0057649836319141846 0 -0.0025444905514126715 0.0045493354785653608 0 -0.0025484083125045937 0.0047231976420183761 0 -0.0026180285043095543 0.0045227050175714748 0 -0.0025444905514126715 0.0045493354785653608 0 -0.0024835226009931872 0.0048191401691778171 0 -0.0025484083125045937 0.0047231976420183761 0 -0.0025484083125045937 0.0047231976420183761 0 -0.0025908456692235481 0.0046434293369369403 0 -0.0025656258707020692 0.0048597010347633226 0 -0.0025484083125045937 0.0047231976420183761 0 -0.0024939877226737382 0.0049256675725247836 0 -0.0025656258707020692 0.0048597010347633226 0 -0.0024835226009931872 0.0048191401691778171 0 -0.0025484083125045937 0.0047231976420183761 0 -0.0024939877226737382 0.0049256675725247836 0 -0.0024835226009931872 0.0048191401691778171 0 -0.002613869027427297 0.005228599760893341 0 -0.0024939877226737382 0.0049256675725247836 0 -0.002386834522536655 0.005252955166466104 0 -0.0025951158025272784 0.0052063855081685238 0 -0.0028810725637181478 0.0056629408913537981 0 -0.0029954205162876237 0.0050708538984850357 0 -0.0031883910735867578 0.0056757984401724854 0 -0.002613869027427297 0.005228599760893341 0 -0.0028810725637181478 0.0056629408913537981 0 -0.0029954205162876237 0.0050708538984850357 0 -0.0028810725637181478 0.0056629408913537981 0 -0.0030320431947359985 0.0061055029355145405 0 -0.0025839787482827971 0.0059655344825482442 0 -0.0028810725637181478 0.0056629408913537981 0 -0.0030320431947359985 0.0061055029355145405 0 -0.0031883910735867578 0.0056757984401724854 0 -0.002157716250988644 0.0057649836319141846 0 -0.002613869027427297 0.005228599760893341 0 -0.0025839787482827971 0.0059655344825482442 0 -0.0021688999734651633 0.0061921028181968771 0 -0.002157716250988644 0.0057649836319141846 0 -0.0025839787482827971 0.0059655344825482442 0 -0.002613869027427297 0.005228599760893341 0 -0.0028810725637181478 0.0056629408913537981 0 -0.0025839787482827971 0.0059655344825482442 0 -0.0027189756879259534 0.0040927853587128596 0 -0.0030459291362700093 0.0034934995427025701 0 -0.0030273289497645913 0.0039307674121003555 0 -0.0027189756879259534 0.0040927853587128596 0 -0.0030459291362700093 0.0034934995427025701 0 -0.0026365578878662552 0.003374197010228638 0 -0.0030459291362700093 0.0034934995427025701 0 -0.0032747723075757466 0.003672457189695996 0 -0.003459567302593588 0.0031063013004075332 0 -0.0030459291362700093 0.0034934995427025701 0 -0.0032747723075757466 0.003672457189695996 0 -0.0030273289497645913 0.0039307674121003555 0 -0.0032747723075757466 0.003672457189695996 0 -0.0030273289497645913 0.0039307674121003555 0 -0.003230443607796848 0.0041076498671038719 0 -0.003230443607796848 0.0041076498671038719 0 -0.0036071155692579903 0.0037374413634025734 0 -0.0035162554618408891 0.0043363608941392982 0 -0.0030273289497645913 0.0039307674121003555 0 -0.003230443607796848 0.0041076498671038719 0 -0.0028725492622607329 0.0042876998105988743 0 -0.0032747723075757466 0.003672457189695996 0 -0.003230443607796848 0.0041076498671038719 0 -0.0036071155692579903 0.0037374413634025734 0 -0.003230443607796848 0.0041076498671038719 0 -0.0028725492622607329 0.0042876998105988743 0 -0.0030875436565734448 0.004533208063750206 0 -0.0027189756879259534 0.0040927853587128596 0 -0.0028725492622607329 0.0042876998105988743 0 -0.0026556999311830479 0.0044088121054170022 0 -0.0028725492622607329 0.0042876998105988743 0 -0.0026556999311830479 0.0044088121054170022 0 -0.002795208568091141 0.0046222958307874859 0 -0.0027189756879259534 0.0040927853587128596 0 -0.0030273289497645913 0.0039307674121003555 0 -0.0028725492622607329 0.0042876998105988743 0 -0.0026556999311830479 0.0044088121054170022 0 -0.0025908456692235481 0.0046434293369369403 0 -0.0026180285043095543 0.0045227050175714748 0 -0.0025484083125045937 0.0047231976420183761 0 -0.0025908456692235481 0.0046434293369369403 0 -0.0026180285043095543 0.0045227050175714748 0 -0.0026556999311830479 0.0044088121054170022 0 -0.0026180285043095543 0.0045227050175714748 0 -0.0026583718510907956 0.0043981740340052035 0 -0.0027189756879259534 0.0040927853587128596 0 -0.0026556999311830479 0.0044088121054170022 0 -0.0026583718510907956 0.0043981740340052035 0 -0.0027312054273556279 0.0041446670348692727 0 -0.002337726860275129 0.0038088521682601022 0 -0.0027189756879259534 0.0040927853587128596 0 -0.0021630416099857339 0.0034328766828265163 0 -0.0026365578878662552 0.003374197010228638 0 -0.0021630416099857339 0.0034328766828265163 0 -0.0023763144624423227 0.0030396792979786812 0 -0.0026365578878662552 0.003374197010228638 0 -0.0021630416099857339 0.0034328766828265163 0 -0.0023763144624423227 0.0030396792979786812 0 -0.0017198358659978393 0.0029629028479954259 0 -0.0025444905514126715 0.0045493354785653608 0 -0.0026180285043095543 0.0045227050175714748 0 -0.0026154144748500919 0.0044258242150973567 0 -0.0026180285043095543 0.0045227050175714748 0 -0.0026583718510907956 0.0043981740340052035 0 -0.0026154144748500919 0.0044258242150973567 0 -0.002337726860275129 0.0038088521682601022 0 -0.0024954912984011921 0.004411543795524663 0 -0.0032231933227768465 0.0036117146982132219 0 -0.0033937767072465897 0.0037895252983703386 0 -0.0034673924100286245 0.0035092929359630599 0 -0.0024493603388416802 0.0051965125422548369 0 -0.0024954912984011921 0.004411543795524663 0 -0.0024954912984011921 0.004411543795524663 0 -0.0030056824680717745 0.0026815100665440162 0 -0.0023763144624423227 0.0030396792979786812 0 -0.0017198358659978393 0.0029629028479954259 0 -0.0025620782350498326 0.0023781525501513838 0 -0.0033937767072465897 0.0037895252983703386 0 -0.0037413620490244215 0.0035375999765660956 0 -0.0034673924100286245 0.0035092929359630599 0 -0.0023763144624423227 0.0030396792979786812 0 -0.0025620782350498326 0.0023781525501513838 0 -0.0028039101927882877 0.0029811520783154482 0 -0.0030056824680717745 0.0026815100665440162 0 -0.0028131707324857195 0.0028932783087228706 0 -0.0027585265125836885 0.0024974121215199925 0 -0.0028724365999811294 0.002893183706742694 0 -0.0031552823922183994 0.0025870651016089881 0 -0.0030459291362700093 0.0034934995427025701 0 -0.0028039101927882877 0.0029811520783154482 0 -0.0026365578878662552 0.003374197010228638 0 -0.0030393497478712252 0.0034661277331927381 0 -0.0028131707324857195 0.0028932783087228706 0 -0.0023763144624423227 0.0030396792979786812 0 -0.0028039101927882877 0.0029811520783154482 0 -0.0026365578878662552 0.003374197010228638 0 -0.0030459291362700093 0.0034934995427025701 0 -0.0028724365999811294 0.002893183706742694 0 -0.0032464165747594885 0.0029071991233222756 0 -0.0030459291362700093 0.0034934995427025701 0 -0.0032464165747594885 0.0029071991233222756 0 -0.003459567302593588 0.0031063013004075332 0 -0.0031552823922183994 0.0025870651016089881 0 -0.0033599817460576585 0.002367354229018695 0 -0.0035416913604426723 0.0026216009117559147 0 -0.0032464165747594885 0.0029071991233222756 0 -0.0031552823922183994 0.0025870651016089881 0 -0.0035416913604426723 0.0026216009117559147 0 -0.0028724365999811294 0.002893183706742694 0 -0.0032464165747594885 0.0029071991233222756 0 -0.0031552823922183994 0.0025870651016089881 0 -0.0031552823922183994 0.0025870651016089881 0 -0.0033599817460576585 0.002367354229018695 0 -0.0031713571181926224 0.0022648402465771079 0 -0.0033599817460576585 0.002367354229018695 0 -0.0031713571181926224 0.0022648402465771079 0 -0.0033385050370469556 0.0021784009852523455 0 -0.0027585265125836885 0.0024974121215199925 0 -0.0031552823922183994 0.0025870651016089881 0 -0.0031713571181926224 0.0022648402465771079 0 -0.002966843324192964 0.0024042704852857656 0 -0.00301789457180608 0.0022281030467680824 0 -0.0028721179615127726 0.0021654005085062432 0 -0.002966843324192964 0.0024042704852857656 0 -0.0031713571181926224 0.0022648402465771079 0 -0.00301789457180608 0.0022281030467680824 0 -0.0030056824680717745 0.0026815100665440162 0 -0.0031277415125524882 0.0022475132958078908 0 -0.0037780375039752653 0.0018514091710294959 0 -0.004295416404136619 0.0016876107055815962 0 -0.0040738958474886401 0.0020911362005832154 0 -0.0031713571181926224 0.0022648402465771079 0 -0.00301789457180608 0.0022281030467680824 0 -0.0031194616945750451 0.002085204898334826 0 -0.00301789457180608 0.0022281030467680824 0 -0.0031194616945750451 0.002085204898334826 0 -0.0028721179615127726 0.0021654005085062432 0 -0.0034211845304468621 0.0019589129367902237 0 -0.0038403999860911631 0.0022705147841403646 0 -0.0037780375039752653 0.0018514091710294959 0 -0.0035974932578037113 0.0020495018194844118 0 -0.0034542084444866106 0.0020278664766289296 0 -0.0034211845304468621 0.0019589129367902237 0 -0.0034653928821290884 0.0020113924210069848 0 -0.0031194616945750451 0.002085204898334826 0 -0.0033385050370469556 0.0021784009852523455 0 -0.0034542084444866106 0.0020278664766289296 0 -0.0031713571181926224 0.0022648402465771079 0 -0.0031194616945750451 0.002085204898334826 0 -0.0033385050370469556 0.0021784009852523455 0 -0.0034673924100286245 0.0035092929359630599 0 -0.0033441361859801299 0.0033481672396761027 0 -0.0036371716100511782 0.0032586409737267071 0 -0.0032231933227768465 0.0036117146982132219 0 -0.0034673924100286245 0.0035092929359630599 0 -0.0033441361859801299 0.0033481672396761027 0 -0.0037413620490244215 0.0035375999765660956 0 -0.0034673924100286245 0.0035092929359630599 0 -0.0036371716100511782 0.0032586409737267071 0 -0.0030056824680717745 0.0026815100665440162 0 -0.0038403999860911631 0.0022705147841403646 0 -0.004251792059637844 0.0016321471600557152 0 -0.0047721693407138284 0.0019211664605192982 0 -0.0045631434894020956 0.002344658470253913 0 -0.0038403999860911631 0.0022705147841403646 0 -0.0046001784051885718 0.0021008469326667051 0 -0.0052029577157425054 0.0020307000657817562 0 -0.0049691989546403591 0.0014102846427014556 0 -0.0047721693407138284 0.0019211664605192982 0 -0.0044407685023966602 0.00216233692346028 0 -0.0038403999860911631 0.0022705147841403646 0 -0.0049691989546403591 0.0014102846427014556 0 -0.004251792059637844 0.0016321471600557152 0 -0.0047721693407138284 0.0019211664605192982 0 -0.0052029577157425054 0.0020307000657817562 0 -0.0047721693407138284 0.0019211664605192982 0 -0.0050043022641947099 0.0024118733449430599 0 -0.0047721693407138284 0.0019211664605192982 0 -0.0050043022641947099 0.0024118733449430599 0 -0.0045631434894020956 0.002344658470253913 0 -0.0050043022641947099 0.0024118733449430599 0 -0.0045631434894020956 0.002344658470253913 0 -0.004844946707873549 0.0027212847129047925 0 -0.004295416404136619 0.0016876107055815962 0 -0.0045631434894020956 0.002344658470253913 0 -0.0040738958474886401 0.0020911362005832154 0 -0.0045631434894020956 0.002344658470253913 0 -0.0040738958474886401 0.0020911362005832154 0 -0.0040106196118196939 0.0024538926799587408 0 -0.0031805602677796785 -0.00784999707008892 0 -0.0032657608369083368 -0.0078011396263300871 0 -0.0031436641170277347 -0.0078140826251650881 0 -0.0045631434894020956 0.002344658470253913 0 -0.004844946707873549 0.0027212847129047925 0 -0.0040106196118196939 0.0024538926799587408 0 -0.0042168542430265597 -0.00062653613251480102 0 -0.0035437008463968691 -0.0031475286459639925 0 -0.0044892320967712717 0.0031797818493820166 0 -0.0042168542430265597 -0.00062653613251480102 0 -0.0035437008463968691 -0.0031475286459639925 0 -0.0035942575066715459 -0.0015530986824193035 0 -0.0035196440413026268 0.0021560918478212192 0 -0.0037974625639660203 0.0021227405744147923 0 -0.0040106196118196939 0.0024538926799587408 0 -0.0035196440413026268 0.0021560918478212192 0 -0.0040106196118196939 0.0024538926799587408 0 -0.0034034710754198756 0.0021146343774828304 0 -0.0035425749093888673 -0.0005929914336933388 0 -0.0035942575066715459 -0.0015530986824193035 0 -0.0035974932578037113 0.0020495018194844118 0 -0.0035002875626432162 0.0020655371733391426 0 -0.0034542084444866106 0.0020278664766289296 0 -0.0035196440413026268 0.0021560918478212192 0 -0.0035974932578037113 0.0020495018194844118 0 -0.0035002875626432162 0.0020655371733391426 0 -0.0037780375039752653 0.0018514091710294959 0 -0.0035974932578037113 0.0020495018194844118 0 -0.0037974625639660203 0.0021227405744147923 0 -0.0035196440413026268 0.0021560918478212192 0 -0.0035974932578037113 0.0020495018194844118 0 -0.0037974625639660203 0.0021227405744147923 0 -0.0037780375039752653 0.0018514091710294959 0 -0.0037974625639660203 0.0021227405744147923 0 -0.0040738958474886401 0.0020911362005832154 0 -0.0037974625639660203 0.0021227405744147923 0 -0.0040738958474886401 0.0020911362005832154 0 -0.0040106196118196939 0.0024538926799587408 0 -0.0030496546957782139 -0.0081233468102584663 0 -0.0031805602677796785 -0.00784999707008892 0 -0.0031436641170277347 -0.0078140826251650881 0 -0.0030496546957782139 -0.0081233468102584663 0 -0.0031436641170277347 -0.0078140826251650881 0 -0.0034848801559454528 -0.007897557915361118 0 -0.003706076856222023 -0.008202137596958833 0 -0.0034848801559454528 -0.007897557915361118 0 -0.0036945764203190658 -0.0079797243338660569 0 -0.0031436641170277347 -0.0078140826251650881 0 -0.0034848801559454528 -0.007897557915361118 0 -0.0039302525011652798 -0.0076171050461438681 0 -0.0038275227860761242 -0.0078497981427148346 0 -0.0036945764203190658 -0.0079797243338660569 0 -0.0040331394838116303 -0.0079596907644876487 0 -0.0034848801559454528 -0.007897557915361118 0 -0.0038275227860761242 -0.0078497981427148346 0 -0.0036945764203190658 -0.0079797243338660569 0 -0.0034848801559454528 -0.007897557915361118 0 -0.0038275227860761242 -0.0078497981427148346 0 -0.0039302525011652798 -0.0076171050461438681 0 -0.003706076856222023 -0.008202137596958833 0 -0.0036945764203190658 -0.0079797243338660569 0 -0.00396817551963738 -0.0081568356016315114 0 -0.0036945764203190658 -0.0079797243338660569 0 -0.00396817551963738 -0.0081568356016315114 0 -0.0040331394838116303 -0.0079596907644876487 0 -0.00396817551963738 -0.0081568356016315114 0 -0.0042248069392080007 -0.0082789531339783184 0 -0.0042068285710430975 -0.008096018264769805 0 -0.00396817551963738 -0.0081568356016315114 0 -0.0042068285710430975 -0.008096018264769805 0 -0.0040331394838116303 -0.0079596907644876487 0 -0.004443221301049528 -0.0083686252661444929 0 -0.0042248069392080007 -0.0082789531339783184 0 -0.0043718932282466316 -0.0081921307355324966 0 -0.0042248069392080007 -0.0082789531339783184 0 -0.0042068285710430975 -0.008096018264769805 0 -0.0043718932282466316 -0.0081921307355324966 0 -0.0042068285710430975 -0.008096018264769805 0 -0.0043718932282466316 -0.0081921307355324966 0 -0.0044196033486994454 -0.0080545639054680779 0 -0.0042068285710430975 -0.008096018264769805 0 -0.0044196033486994454 -0.0080545639054680779 0 -0.0042779656404898225 -0.0079144113273457353 0 -0.0044196033486994454 -0.0080545639054680779 0 -0.0042779656404898225 -0.0079144113273457353 0 -0.0044546651742802465 -0.0079244671950391681 0 -0.0042068285710430975 -0.008096018264769805 0 -0.0042779656404898225 -0.0079144113273457353 0 -0.0040331394838116303 -0.0079596907644876487 0 -0.0042081215346933447 -0.0077747764485974211 0 -0.0042779656404898225 -0.0079144113273457353 0 -0.0040587556260481515 -0.0078181377098174958 0 -0.0042081215346933447 -0.0077747764485974211 0 -0.0042779656404898225 -0.0079144113273457353 0 -0.0043538516459236485 -0.0078299003541048018 0 -0.0042779656404898225 -0.0079144113273457353 0 -0.0043538516459236485 -0.0078299003541048018 0 -0.0044546651742802465 -0.0079244671950391681 0 -0.0043538516459236485 -0.0078299003541048018 0 -0.0044546651742802465 -0.0079244671950391681 0 -0.0044703509895576924 -0.0078102324874416793 0 -0.0038275227860761242 -0.0078497981427148346 0 -0.0040331394838116303 -0.0079596907644876487 0 -0.0040587556260481515 -0.0078181377098174958 0 -0.0042779656404898225 -0.0079144113273457353 0 -0.0040331394838116303 -0.0079596907644876487 0 -0.0040587556260481515 -0.0078181377098174958 0 -0.0038275227860761242 -0.0078497981427148346 0 -0.0040587556260481515 -0.0078181377098174958 0 -0.0039302525011652798 -0.0076171050461438681 0 -0.0035196440413026268 0.0021560918478212192 0 -0.0034925306386446265 0.0020855846867260355 0 -0.0034848838714678777 0.0020512754594902991 0 -0.0034779959436903271 0.0020282325123089973 0 -0.0035077833741688595 0.0019839472415011561 0 -0.0035597844917230406 0.0021320979457087729 0 -0.0035196440413026268 0.0021560918478212192 0 -0.0034848838714678777 0.0020512754594902991 0 -0.0035002875626432162 0.0020655371733391426 0 -0.0042081215346933447 -0.0077747764485974211 0 -0.0040587556260481515 -0.0078181377098174958 0 -0.0039302525011652798 -0.0076171050461438681 0 -0.0034848838714678777 0.0020512754594902991 0 -0.0034779959436903271 0.0020282325123089973 0 -0.0035077833741688595 0.0019839472415011561 0 -0.0042081215346933447 -0.0077747764485974211 0 -0.0039302525011652798 -0.0076171050461438681 0 -0.0043602831024776387 -0.0077235022765168981 0 -0.0039302525011652798 -0.0076171050461438681 0 -0.0043602831024776387 -0.0077235022765168981 0 -0.0045309729031886188 -0.0076558469160692586 0 -0.0035942575066715459 -0.0015530986824193035 0 -0.0042931133337255796 -0.0025032459388235726 0 -0.0034925306386446265 0.0020855846867260355 0 -0.0034848838714678777 0.0020512754594902991 0 -0.0035077833741688595 0.0019839472415011561 0 -0.0042081215346933447 -0.0077747764485974211 0 -0.0043538516459236485 -0.0078299003541048018 0 -0.0043602831024776387 -0.0077235022765168981 0 -0.0043538516459236485 -0.0078299003541048018 0 -0.0043602831024776387 -0.0077235022765168981 0 -0.0044703509895576924 -0.0078102324874416793 0 -0.0043602831024776387 -0.0077235022765168981 0 -0.0044796667700846048 -0.0077355550947770151 0 -0.0044703509895576924 -0.0078102324874416793 0 -0.0035002875626432162 0.0020655371733391426 0 -0.0034779959436903271 0.0020282325123089973 0 -0.0034542084444866106 0.0020278664766289296 0 -0.0034848838714678777 0.0020512754594902991 0 -0.0035002875626432162 0.0020655371733391426 0 -0.0034779959436903271 0.0020282325123089973 0 -0.0039287381741543916 -0.001989237439110756 0 -0.0054747281921715156 -0.0019930300969325412 0 -0.0045627960821732804 -0.00097102127326740965 0 -0.0042931133337255796 -0.0025032459388235726 0 -0.0053672180740892321 -0.0051868688423815212 0 -0.0043602831024776387 -0.0077235022765168981 0 -0.0045309729031886188 -0.0076558469160692586 0 -0.0044796667700846048 -0.0077355550947770151 0 -0.0045309729031886188 -0.0076558469160692586 0 -0.0045462747760203759 -0.0077496702318899085 0 -0.0044796667700846048 -0.0077355550947770151 0 -0.0042931133337255796 -0.0025032459388235726 0 -0.0043952813211593257 -0.0031666011832651923 0 -0.0045462747760203759 -0.0077496702318899085 0 -0.0044796667700846048 -0.0077355550947770151 0 -0.0044703509895576924 -0.0078102324874416793 0 -0.004532167671203572 -0.0076763248059610947 0 -0.0047299225191483954 -0.0080459542196797962 0 -0.0051918183563295223 -0.0081766879192972635 0 -0.004532167671203572 -0.0076763248059610947 0 -0.0045462747760203759 -0.0077496702318899085 0 -0.0047299225191483954 -0.0080459542196797962 0 -0.0045462747760203759 -0.0077496702318899085 0 -0.0044703509895576924 -0.0078102324874416793 0 -0.0045530438253008221 -0.0079129154465610498 0 -0.0044546651742802465 -0.0079244671950391681 0 -0.0044703509895576924 -0.0078102324874416793 0 -0.0045530438253008221 -0.0079129154465610498 0 -0.0044546651742802465 -0.0079244671950391681 0 -0.0045530438253008221 -0.0079129154465610498 0 -0.0045615819963974909 -0.0080321764470544475 0 -0.0045462747760203759 -0.0077496702318899085 0 -0.0045530438253008221 -0.0079129154465610498 0 -0.0047299225191483954 -0.0080459542196797962 0 -0.0047299225191483954 -0.0080459542196797962 0 -0.0045615819963974909 -0.0080321764470544475 0 -0.0045910972646866265 -0.0082183149101408663 0 -0.0045530438253008221 -0.0079129154465610498 0 -0.0047299225191483954 -0.0080459542196797962 0 -0.0045615819963974909 -0.0080321764470544475 0 -0.0044196033486994454 -0.0080545639054680779 0 -0.0045615819963974909 -0.0080321764470544475 0 -0.0045910972646866265 -0.0082183149101408663 0 -0.0044196033486994454 -0.0080545639054680779 0 -0.0044546651742802465 -0.0079244671950391681 0 -0.0045615819963974909 -0.0080321764470544475 0 -0.0047299225191483954 -0.0080459542196797962 0 -0.0045910972646866265 -0.0082183149101408663 0 -0.0048616741747306135 -0.0084001491339305429 0 -0.0043718932282466316 -0.0081921307355324966 0 -0.0044196033486994454 -0.0080545639054680779 0 -0.0045910972646866265 -0.0082183149101408663 0 -0.0046616835394460675 -0.0085007786470404877 0 -0.0045910972646866265 -0.0082183149101408663 0 -0.0048616741747306135 -0.0084001491339305429 0 -0.0046616835394460675 -0.0085007786470404877 0 -0.004443221301049528 -0.0083686252661444929 0 -0.0045910972646866265 -0.0082183149101408663 0 -0.004443221301049528 -0.0083686252661444929 0 -0.0043718932282466316 -0.0081921307355324966 0 -0.0045910972646866265 -0.0082183149101408663 0 -0.0047299225191483954 -0.0080459542196797962 0 -0.0048616741747306135 -0.0084001491339305429 0 -0.0051918183563295223 -0.0081766879192972635 0 -0.0051232757176816945 -0.0085926488238516827 0 -0.0055145560557193765 -0.0086320604843436993 0 -0.0051918183563295223 -0.0081766879192972635 0 -0.0055145560557193765 -0.0086320604843436993 0 -0.0051918183563295223 -0.0081766879192972635 0 -0.0054402815850607645 -0.007853520956987296 0 -0.0051232757176816945 -0.0085926488238516827 0 -0.0048616741747306135 -0.0084001491339305429 0 -0.0051918183563295223 -0.0081766879192972635 0 -0.0060257241319998855 -0.0084349910079185332 0 -0.0054402815850607645 -0.007853520956987296 0 -0.0063856063595517636 -0.0079788547955921049 0 -0.0055145560557193765 -0.0086320604843436993 0 -0.0060257241319998855 -0.0084349910079185332 0 -0.0054402815850607645 -0.007853520956987296 0 -0.0061208135912552437 -0.0090260241491878484 0 -0.0055145560557193765 -0.0086320604843436993 0 -0.0060257241319998855 -0.0084349910079185332 0 -0.0053672180740892321 -0.0051868688423815212 0 -0.0070073043829661022 -0.0046759547519075349 0 -0.0054747281921715156 -0.0019930300969325412 0 -0.0064774685324180334 -0.00061409493101890935 0 -0.0069852484496468002 -0.0020284558865963894 0 -0.004532167671203572 -0.0076763248059610947 0 -0.0051918183563295223 -0.0081766879192972635 0 -0.0054402815850607645 -0.007853520956987296 0 -0.0054747281921715156 -0.0019930300969325412 0 -0.0053393549186872566 -0.00031839004384978664 0 -0.0045627960821732804 -0.00097102127326740965 0 -0.0054747281921715156 -0.0019930300969325412 0 -0.0053393549186872566 -0.00031839004384978664 0 -0.0064774685324180334 -0.00061409493101890935 0 -0.0064774685324180334 -0.00061409493101890935 0 -0.0060005651380569324 0.00038226091297454773 0 -0.0073407228082236512 0.00080065295789192388 0 -0.0053393549186872566 -0.00031839004384978664 0 -0.0064774685324180334 -0.00061409493101890935 0 -0.0060005651380569324 0.00038226091297454773 0 -0.0053393549186872566 -0.00031839004384978664 0 -0.0050609342129460996 0.00055572870824096643 0 -0.0044177066217969104 0.00028698575194973476 0 -0.0053393549186872566 -0.00031839004384978664 0 -0.0060005651380569324 0.00038226091297454773 0 -0.0050609342129460996 0.00055572870824096643 0 -0.0050609342129460996 0.00055572870824096643 0 -0.0044177066217969104 0.00028698575194973476 0 -0.0045230187397820197 0.0014107897007406298 0 -0.0044177066217969104 0.00028698575194973476 0 -0.0036234653044452596 -0.00033371280771188122 0 -0.0034084669447253459 0.0013745467475652319 0 -0.003475928601390843 0.0014583935923102483 0 -0.0035136492780973591 0.001875354420373348 0 -0.0033599817460576585 0.002367354229018695 0 -0.0033385050370469556 0.0021784009852523455 0 -0.0035597844917230406 0.0021320979457087729 0 -0.0033599817460576585 0.002367354229018695 0 -0.0035597844917230406 0.0021320979457087729 0 -0.0035416913604426723 0.0026216009117559147 0 -0.0034779959436903271 0.0020282325123089973 0 -0.0035597844917230406 0.0021320979457087729 0 -0.0034542084444866106 0.0020278664766289296 0 -0.0033385050370469556 0.0021784009852523455 0 -0.0035597844917230406 0.0021320979457087729 0 -0.0034542084444866106 0.0020278664766289296 0 -0.0042931133337255796 -0.0025032459388235726 0 -0.003475928601390843 0.0014583935923102483 0 -0.0044177066217969104 0.00028698575194973476 0 -0.0036234653044452596 -0.00033371280771188122 0 -0.0045627960821732804 -0.00097102127326740965 0 -0.0053393549186872566 -0.00031839004384978664 0 -0.0044177066217969104 0.00028698575194973476 0 -0.0045627960821732804 -0.00097102127326740965 0 -0.0039287381741543916 -0.001989237439110756 0 -0.0036234653044452596 -0.00033371280771188122 0 -0.0045627960821732804 -0.00097102127326740965 0 -0.00089665656949029326 -0.012836328030720498 0 -0.0012060826619826456 -0.012522672608318446 0 -0.0015269807718481226 -0.012837169675690955 0 -0.0035351654945510349 -0.015340281327824364 0 -0.0044668293201214427 -0.019379737639388085 0 -0.00089665656949029326 -0.012836328030720498 0 -0.00090860779593197058 -0.012480839129102941 0 -0.0012060826619826456 -0.012522672608318446 0 -0.0035351654945510349 -0.015340281327824364 0 -0.0015151192996121436 -0.012063049377519215 0 -0.0080731669869906122 -0.016276719195832672 0 -0.0035351654945510349 -0.015340281327824364 0 -0.007339254406360734 -0.021122695885927474 0 -0.0071323291988067963 -0.022085243859749804 0 -0.0069435770021686657 -0.02161621479584297 0 -0.0071323291988067963 -0.022085243859749804 0 -0.0069435770021686657 -0.02161621479584297 0 -0.0066163490354480868 -0.021927228756273998 0 -0.0066586909824655049 -0.021287950459612022 0 -0.0069435770021686657 -0.02161621479584297 0 -0.0066163490354480868 -0.021927228756273998 0 -0.0080391943955704561 -0.01058264353025256 0 -0.0075517570584025919 -0.012637852193728576 0 -0.0086428455555314278 -0.011085371030437786 0 -0.0084617664931311166 -0.010552124679758435 0 -0.0065460066507323986 -0.0080228475998622845 0 -0.0075517570584025919 -0.012637852193728576 0 -0.0086428455555314278 -0.011085371030437786 0 -0.009233226798817374 -0.012561670429499678 0 -0.00089773305796355947 -0.012773860501648474 0 -0.00042354806721662072 -0.012744167173968063 0 -0.00054483655549726758 -0.012408163430336575 0 -0.0035351654945510349 -0.015340281327824364 0 -0.0065460066507323986 -0.0080228475998622845 0 -0.00089773305796355947 -0.012773860501648474 0 -0.00054483655549726758 -0.012408163430336575 0 -0.00090860779593197058 -0.012480839129102941 0 -0.0085053190651004605 -0.0020816464883317543 0 -0.0069852484496468002 -0.0020284558865963894 0 -0.00793099433253798 -0.00063678100323054691 0 -0.0065460066507323986 -0.0080228475998622845 0 -0.0037773925790961786 -0.0061698643023759669 0 -0.0065460066507323986 -0.0080228475998622845 0 -0.0070073043829661022 -0.0046759547519075349 0 -0.007262252130997072 -0.0091314748095795914 0 -0.0079024505812408195 -0.0089526768517566094 0 -0.0075054242263440027 -0.0080051634545529864 0 -0.007262252130997072 -0.0091314748095795914 0 -0.0075054242263440027 -0.0080051634545529864 0 -0.0067243755457651469 -0.0087033547259922767 0 -0.0060257241319998855 -0.0084349910079185332 0 -0.0067243755457651469 -0.0087033547259922767 0 -0.0063856063595517636 -0.0079788547955921049 0 -0.0075054242263440027 -0.0080051634545529864 0 -0.0067243755457651469 -0.0087033547259922767 0 -0.0063856063595517636 -0.0079788547955921049 0 -0.0061208135912552437 -0.0090260241491878484 0 -0.0060257241319998855 -0.0084349910079185332 0 -0.0067243755457651469 -0.0087033547259922767 0 -0.0064774685324180334 -0.00061409493101890935 0 -0.0069852484496468002 -0.0020284558865963894 0 -0.00793099433253798 -0.00063678100323054691 0 -0.0064774685324180334 -0.00061409493101890935 0 -0.00793099433253798 -0.00063678100323054691 0 -0.0073407228082236512 0.00080065295789192388 0 -0.0037773925790961786 -0.0061698643023759669 0 -0.003562325910489788 -0.0056028361567343138 0 -0.00030953707402565391 -0.011686577488615674 0 -0.00014441160736174688 -0.012180415225156213 0 0.00012484073280406326 -0.011564634973212359 0 -0.00030953707402565391 -0.011686577488615674 0 -0.00014441160736174688 -0.012180415225156213 0 -0.00060034202899218508 -0.012015929564609769 0 -0.00042354806721662072 -0.012744167173968063 0 -0.00014441160736174688 -0.012180415225156213 0 -0.00054483655549726758 -0.012408163430336575 0 -0.00014441160736174688 -0.012180415225156213 0 -0.00054483655549726758 -0.012408163430336575 0 -0.00060034202899218508 -0.012015929564609769 0 -0.00054483655549726758 -0.012408163430336575 0 -0.00060034202899218508 -0.012015929564609769 0 -0.00090860779593197058 -0.012480839129102941 0 -0.00060034202899218508 -0.012015929564609769 0 -0.0010512496760881147 -0.012098872673847001 0 -0.00065157178590228172 -0.011506676363672096 0 -0.00030953707402565391 -0.011686577488615674 0 -0.00060034202899218508 -0.012015929564609769 0 -0.00065157178590228172 -0.011506676363672096 0 -0.0010512496760881147 -0.012098872673847001 0 -0.00090860779593197058 -0.012480839129102941 0 -0.0012060826619826456 -0.012522672608318446 0 -0.00060034202899218508 -0.012015929564609769 0 -0.0010512496760881147 -0.012098872673847001 0 -0.00090860779593197058 -0.012480839129102941 0 -0.00095167927969409447 -0.011138134350976825 0 -0.0013191609342901173 -0.011673758997825615 0 -0.0013737711949340914 -0.010643948745639988 0 -0.00095167927969409447 -0.011138134350976825 0 -0.00043321507650174762 -0.010691826335621475 0 -0.0013737711949340914 -0.010643948745639988 0 -0.00095167927969409447 -0.011138134350976825 0 -0.00065157178590228172 -0.011506676363672096 0 -0.0013191609342901173 -0.011673758997825615 0 -0.0010512496760881147 -0.012098872673847001 0 -0.00065157178590228172 -0.011506676363672096 0 -0.0013191609342901173 -0.011673758997825615 0 -0.00060026279294761995 -0.011428325273617789 0 -4.9791718587531613e-06 -0.011396440946051935 0 -0.00095167927969409447 -0.011138134350976825 0 -0.00065157178590228172 -0.011506676363672096 0 -0.00043321507650174762 -0.010691826335621475 0 -0.00065157178590228172 -0.011506676363672096 0 -0.00043321507650174762 -0.010691826335621475 0 9.8695908227473388e-05 -0.011139711693860346 0 -0.00043321507650174762 -0.010691826335621475 0 0.00016401402360613349 -0.010739087124370732 0 9.8695908227473388e-05 -0.011139711693860346 0 0.00016401402360613349 -0.010739087124370732 0 9.8695908227473388e-05 -0.011139711693860346 0 0.00075866479377643373 -0.01077687483253629 0 -0.00030953707402565391 -0.011686577488615674 0 -0.00065157178590228172 -0.011506676363672096 0 -0.00023501223784559038 -0.011165324841893894 0 -0.00030953707402565391 -0.011686577488615674 0 -0.00023501223784559038 -0.011165324841893894 0 0.00012484073280406326 -0.011564634973212359 0 -0.00023501223784559038 -0.011165324841893894 0 0.00012484073280406326 -0.011564634973212359 0 0.00037751629518559737 -0.010884400823297427 0 -0.003562325910489788 -0.0056028361567343138 0 -0.0043226792222560697 -0.0032492072560478319 0 -4.9791718587531613e-06 -0.011396440946051935 0 -0.00090745083098690653 -0.0073674190002779643 0 -0.00023501223784559038 -0.011165324841893894 0 0.00037751629518559737 -0.010884400823297427 0 0.00028286459237582761 -0.010810753176014685 0 -0.00090745083098690653 -0.0073674190002779643 0 -0.0037325720207957444 -0.0025508953557277533 0 -0.0034800589708527739 -0.0054898949474524294 0 -0.0042455648063857987 -0.0048740755407482789 0 -0.0029597918003183778 -0.0042381388854440226 0 -0.0043226792222560697 -0.0032492072560478319 0 -0.00090745083098690653 -0.0073674190002779643 0 -0.00073089740065081438 -0.0091785293847930841 0 -0.00075840679160153084 -0.0091748256838871771 0 -0.00076419044299141806 -0.00920929869476317 0 0.00016401402360613349 -0.010739087124370732 0 0.00075866479377643373 -0.01077687483253629 0 0.00021969224199689161 -0.010345121869691679 0 -0.00072218454288407532 -0.0091842895251138847 0 -0.00073089740065081438 -0.0091785293847930841 0 -0.00076419044299141806 -0.00920929869476317 0 -0.00090745083098690653 -0.0073674190002779643 0 3.5956001028311496e-05 -0.01012544362550411 0 -0.00072218454288407532 -0.0091842895251138847 0 -0.00073089740065081438 -0.0091785293847930841 0 -0.00071129650857340121 -0.0091773193932985948 0 -0.00073089740065081438 -0.0091785293847930841 0 -0.00075840679160153084 -0.0091748256838871771 0 -0.0006445142063943826 -0.0090957789763261698 0 -0.00075840679160153084 -0.0091748256838871771 0 -0.00076419044299141806 -0.00920929869476317 0 -0.00083158507071285086 -0.0092630980550530099 0 -0.00075840679160153084 -0.0091748256838871771 0 -0.00083158507071285086 -0.0092630980550530099 0 -0.00085642061436279056 -0.0092783934870924317 0 -0.00043321507650174762 -0.010691826335621475 0 0.00016401402360613349 -0.010739087124370732 0 0.00021969224199689161 -0.010345121869691679 0 3.5956001028311496e-05 -0.01012544362550411 0 -0.00067381908114257474 -0.0095030981237687988 0 -0.00043321507650174762 -0.010691826335621475 0 -0.00034041332553358508 -0.0098685571240182367 0 -0.00086445588904837526 -0.01010341587640242 0 -0.00043321507650174762 -0.010691826335621475 0 0.00021969224199689161 -0.010345121869691679 0 -0.00034041332553358508 -0.0098685571240182367 0 -0.00067381908114257474 -0.0095030981237687988 0 -0.0008695807198996501 -0.0094314891862289051 0 -0.00034041332553358508 -0.0098685571240182367 0 -0.00086445588904837526 -0.01010341587640242 0 -0.00093055520165851303 -0.0094170634769883774 0 -0.00083158507071285086 -0.0092630980550530099 0 -0.00093055520165851303 -0.0094170634769883774 0 -0.00085642061436279056 -0.0092783934870924317 0 -0.00086445588904837526 -0.01010341587640242 0 -0.00093055520165851303 -0.0094170634769883774 0 -0.0012101114525426269 -0.0096208917836697397 0 -0.00086445588904837526 -0.01010341587640242 0 -0.0012101114525426269 -0.0096208917836697397 0 -0.0013737711949340914 -0.010643948745639988 0 -0.00043321507650174762 -0.010691826335621475 0 -0.00086445588904837526 -0.01010341587640242 0 -0.0013737711949340914 -0.010643948745639988 0 -0.0041998477904272103 0.0026214098283352813 0 -0.0045230187397820197 0.0014107897007406298 0 -0.0050584418412407657 0.0024227986419718653 0 -0.0032464165747594885 0.0029071991233222756 0 -0.0035416913604426723 0.0026216009117559147 0 -0.003459567302593588 0.0031063013004075332 0 -0.0035136492780973591 0.001875354420373348 0 -0.003426671916845724 0.0030692817514307645 0 -0.0041998477904272103 0.0026214098283352813 0 -0.0034084669447253459 0.0013745467475652319 0 -0.003459567302593588 0.0031063013004075332 0 -0.0044177066217969104 0.00028698575194973476 0 -0.0034084669447253459 0.0013745467475652319 0 -0.0045230187397820197 0.0014107897007406298 0 -0.0041998477904272103 0.0026214098283352813 0 -0.0034084669447253459 0.0013745467475652319 0 -0.0045230187397820197 0.0014107897007406298 0 -0.0050609342129460996 0.00055572870824096643 0 -0.0045230187397820197 0.0014107897007406298 0 -0.0057932934788762144 0.0014797575485125643 0 -0.0045230187397820197 0.0014107897007406298 0 -0.0057932934788762144 0.0014797575485125643 0 -0.0050584418412407657 0.0024227986419718653 0 -0.0060005651380569324 0.00038226091297454773 0 -0.0050609342129460996 0.00055572870824096643 0 -0.0057932934788762144 0.0014797575485125643 0 -0.0073407228082236512 0.00080065295789192388 0 -0.0067403388578795003 0.0021694902289914669 0 -0.0057932934788762144 0.0014797575485125643 0 -0.0060005651380569324 0.00038226091297454773 0 -0.0073407228082236512 0.00080065295789192388 0 -0.0057932934788762144 0.0014797575485125643 0 -0.0043226792222560697 -0.0032492072560478319 0 -0.0072423664752369558 0.002970304796276291 0 -0.0067030582935874829 0.0022508361730919396 0 -0.0057932934788762144 0.0014797575485125643 0 -0.0059563919362727478 0.0023592814515971585 0 -0.0059563919362727478 0.0023592814515971585 0 -0.006562282476020663 0.0025903524692310409 0 -0.005661316958371799 0.0030413486345325829 0 -0.0067030582935874829 0.0022508361730919396 0 -0.0059563919362727478 0.0023592814515971585 0 -0.006562282476020663 0.0025903524692310409 0 -0.0043226792222560697 -0.0032492072560478319 0 -0.0037325720207957444 -0.0025508953557277533 0 -0.0057932934788762144 0.0014797575485125643 0 -0.0059563919362727478 0.0023592814515971585 0 -0.0050584418412407657 0.0024227986419718653 0 -0.0059563919362727478 0.0023592814515971585 0 -0.0050584418412407657 0.0024227986419718653 0 -0.005661316958371799 0.0030413486345325829 0 -0.0050584418412407657 0.0024227986419718653 0 -0.005661316958371799 0.0030413486345325829 0 -0.004697407558210488 0.0034168521898574524 0 -0.0048322088446172409 0.0032709980420126588 0 -0.0048885932718624354 0.0035478043771552089 0 -0.0047524736807342156 0.0035579992621873509 0 -0.0048322088446172409 0.0032709980420126588 0 -0.004697407558210488 0.0034168521898574524 0 -0.0047524736807342156 0.0035579992621873509 0 -0.0051105183086107763 0.0030524982573791248 0 -0.0048000637530474901 0.0033607743115528109 0 -0.0037325720207957444 -0.0025508953557277533 0 -0.0026647265886590608 -0.002807053361761732 0 -0.00073089740065081438 -0.0091785293847930841 0 -0.00071129650857340121 -0.0091773193932985948 0 -0.0006445142063943826 -0.0090957789763261698 0 -0.0051054028634692434 0.003080963152486957 0 -0.0048322088446172409 0.0032709980420126588 0 -0.0048885932718624354 0.0035478043771552089 0 -0.0037325720207957444 -0.0025508953557277533 0 -0.0051105183086107763 0.0030524982573791248 0 -0.00075840679160153084 -0.0091748256838871771 0 -0.0006445142063943826 -0.0090957789763261698 0 -0.00066255464963639544 -0.0090826269651882868 0 -0.004697407558210488 0.0034168521898574524 0 -0.0047524736807342156 0.0035579992621873509 0 -0.0044264929879183484 0.0037474511661052365 0 -0.0048885932718624354 0.0035478043771552089 0 -0.0047524736807342156 0.0035579992621873509 0 -0.0047115541821917328 0.0037079884197703562 0 -0.0047524736807342156 0.0035579992621873509 0 -0.0044264929879183484 0.0037474511661052365 0 -0.0047115541821917328 0.0037079884197703562 0 -0.004697407558210488 0.0034168521898574524 0 -0.0044264929879183484 0.0037474511661052365 0 -0.0040514663496772768 0.0034519511301654648 0 -0.0044264929879183484 0.0037474511661052365 0 -0.0040514663496772768 0.0034519511301654648 0 -0.0040024982937249499 0.0039555602654039058 0 -0.0041998477904272103 0.0026214098283352813 0 -0.004697407558210488 0.0034168521898574524 0 -0.0040514663496772768 0.0034519511301654648 0 -0.0041998477904272103 0.0026214098283352813 0 -0.0050584418412407657 0.0024227986419718653 0 -0.004697407558210488 0.0034168521898574524 0 -0.0040514663496772768 0.0034519511301654648 0 -0.003459567302593588 0.0031063013004075332 0 -0.0036071155692579903 0.0037374413634025734 0 -0.0032747723075757466 0.003672457189695996 0 -0.003459567302593588 0.0031063013004075332 0 -0.0036071155692579903 0.0037374413634025734 0 -0.0041998477904272103 0.0026214098283352813 0 -0.0040514663496772768 0.0034519511301654648 0 -0.003459567302593588 0.0031063013004075332 0 -0.0036071155692579903 0.0037374413634025734 0 -0.0040024982937249499 0.0039555602654039058 0 -0.0035162554618408891 0.0043363608941392982 0 -0.0040514663496772768 0.0034519511301654648 0 -0.0036071155692579903 0.0037374413634025734 0 -0.0040024982937249499 0.0039555602654039058 0 -0.0035162554618408891 0.0043363608941392982 0 -0.0040115465798204446 0.0046237388230809659 0 -0.0033220616871300602 0.0048608835951869083 0 -0.0039893252444435515 0.0041317860721474826 0 -0.0035824836486339075 0.0041086359166402631 0 -0.0040024982937249499 0.0039555602654039058 0 -0.0035162554618408891 0.0043363608941392982 0 -0.0040115465798204446 0.0046237388230809659 0 -0.00097914367885932121 0.0056060556453519763 0 -0.0011813783017036105 0.0051249664824671018 0 -0.0014375767808976979 0.0054088872805874572 0 -0.0035824836486339075 0.0041086359166402631 0 -0.0021505505388172796 0.005263001562366137 0 -0.00097914367885932121 0.0056060556453519763 0 -0.0011813783017036105 0.0051249664824671018 0 -0.00086917053377676124 0.0049129735794038619 0 -0.0035824836486339075 0.0041086359166402631 0 -0.0032076247361078705 0.0040798825947585583 0 -0.0055449904716023081 0.0034037924500027886 0 -0.0051627165745789447 0.0028564730760022345 0 -0.0049164710083703855 0.0034149849701529925 0 -0.0055449904716023081 0.0034037924500027886 0 -0.0051627165745789447 0.0028564730760022345 0 -0.0054607354163243365 0.0021758073433959927 0 -0.0051627165745789447 0.0028564730760022345 0 -0.0049164710083703855 0.0034149849701529925 0 -0.004731468820734306 0.0023900705036245108 0 -0.0044264929879183484 0.0037474511661052365 0 -0.0040970884312295317 0.004299671536537728 0 -0.0047115541821917328 0.0037079884197703562 0 -0.0035824836486339075 0.0041086359166402631 0 -0.0052016522662726846 0.0035860019492043962 0 -0.0055449904716023081 0.0034037924500027886 0 -0.0047115541821917328 0.0037079884197703562 0 -0.0049164710083703855 0.0034149849701529925 0 -0.0044264929879183484 0.0037474511661052365 0 -0.0040024982937249499 0.0039555602654039058 0 -0.0040970884312295317 0.004299671536537728 0 -0.0048885932718624354 0.0035478043771552089 0 -0.0047115541821917328 0.0037079884197703562 0 -0.0045865611929162414 0.0034660285437634226 0 -0.0047115541821917328 0.0037079884197703562 0 -0.0045865611929162414 0.0034660285437634226 0 -0.0049164710083703855 0.0034149849701529925 0 -0.0006445142063943826 -0.0090957789763261698 0 -0.00055100240918109285 -0.0090028977094596292 0 -0.00066255464963639544 -0.0090826269651882868 0 -0.0026647265886590608 -0.002807053361761732 0 -0.0026357675099099665 -0.0030227079119507895 0 -0.00055100240918109285 -0.0090028977094596292 0 -0.00066255464963639544 -0.0090826269651882868 0 -0.0007018208519498011 -0.0090588748715401748 0 -0.00055100240918109285 -0.0090028977094596292 0 -0.00057274081440657513 -0.0089429369476105997 0 -0.0007018208519498011 -0.0090588748715401748 0 -0.0053022605391711457 0.0051192420447020211 0 -0.0026961261511445978 -0.0019690678860969629 0 -0.0026357675099099665 -0.0030227079119507895 0 -0.0026961261511445978 -0.0019690678860969629 0 -0.00055100240918109285 -0.0090028977094596292 0 -0.00057274081440657513 -0.0089429369476105997 0 -0.0004263815695782159 -0.0088852674304362046 0 -0.0045865611929162414 0.0034660285437634226 0 -0.0049164710083703855 0.0034149849701529925 0 -0.0048386226677943015 0.0024604283490097913 0 -0.00057274081440657513 -0.0089429369476105997 0 -0.0004263815695782159 -0.0088852674304362046 0 -0.00050202804152372452 -0.0088318392506221647 0 -0.0004263815695782159 -0.0088852674304362046 0 -0.00050202804152372452 -0.0088318392506221647 0 -0.00031843126273394499 -0.0086954942735193285 0 -0.0026961261511445978 -0.0019690678860969629 0 -0.00017644877548276397 -0.0074875679048409362 0 -0.00057274081440657513 -0.0089429369476105997 0 -0.00070432425812870622 -0.0088691755263413871 0 -0.0007018208519498011 -0.0090588748715401748 0 -0.00057274081440657513 -0.0089429369476105997 0 -0.00050202804152372452 -0.0088318392506221647 0 -0.00070432425812870622 -0.0088691755263413871 0 -0.00070432425812870622 -0.0088691755263413871 0 -0.00051834896971621051 -0.0087248159979846709 0 -0.00057306396509666671 -0.0085361909931290711 0 -0.00070432425812870622 -0.0088691755263413871 0 -0.00089422141723366456 -0.0086205220974787042 0 -0.00057306396509666671 -0.0085361909931290711 0 -0.00050202804152372452 -0.0088318392506221647 0 -0.00070432425812870622 -0.0088691755263413871 0 -0.00051834896971621051 -0.0087248159979846709 0 -0.00051834896971621051 -0.0087248159979846709 0 -0.00031843126273394499 -0.0086954942735193285 0 -0.00057306396509666671 -0.0085361909931290711 0 -0.00050202804152372452 -0.0088318392506221647 0 -0.00051834896971621051 -0.0087248159979846709 0 -0.00031843126273394499 -0.0086954942735193285 0 -0.00033053520356709864 -0.0046842984388034579 0 -0.00089782738508372676 -0.0043657936984687999 0 -0.0013172366014260954 -0.0054910367826491412 0 -0.0030312258613675283 -0.0015759113804617549 0 -0.0024706852752276348 0.00033355949563966303 0 -0.0049972137069602277 0.0016135337720303556 0 -0.0054607354163243365 0.0021758073433959927 0 -0.0052876929723714048 0.00081383840387627584 0 -0.0032076247361078705 0.0040798825947585583 0 -0.0024706852752276348 0.00033355949563966303 0 -0.0010411743644167027 0.0043931450733560497 0 -0.0011749006421896812 0.0047543923610295098 0 -0.00086917053377676124 0.0049129735794038619 0 -0.0010411743644167027 0.0043931450733560497 0 -0.00086917053377676124 0.0049129735794038619 0 -0.00072462463199484371 0.0041239717565560103 0 -0.0010411743644167027 0.0043931450733560497 0 -0.0011442578431171341 0.004075909229886922 0 -0.0013972556035371504 0.0044103641181852029 0 -0.0010411743644167027 0.0043931450733560497 0 -0.0011749006421896812 0.0047543923610295098 0 -0.0013972556035371504 0.0044103641181852029 0 -0.0011749006421896812 0.0047543923610295098 0 -0.0011813783017036105 0.0051249664824671018 0 -0.0014571624014764011 0.0049176195989916816 0 -0.0011749006421896812 0.0047543923610295098 0 -0.0011813783017036105 0.0051249664824671018 0 -0.00086917053377676124 0.0049129735794038619 0 -0.0051627165745789447 0.0028564730760022345 0 -0.004731468820734306 0.0023900705036245108 0 -0.0054607354163243365 0.0021758073433959927 0 -0.00045278122575198311 -0.0031975326340325945 0 -0.00033053520356709864 -0.0046842984388034579 0 -0.00089782738508372676 -0.0043657936984687999 0 -0.0026961261511445978 -0.0019690678860969629 0 -0.0030312258613675283 -0.0015759113804617549 0 -0.004731468820734306 0.0023900705036245108 0 -0.0049972137069602277 0.0016135337720303556 0 -0.0054607354163243365 0.0021758073433959927 0 -0.00095664858365099932 -0.0092353249625894938 0 -0.00096698850610240457 -0.0093630487122276455 0 -0.0010560765595260099 -0.0092662456899149041 0 -0.00095664858365099932 -0.0092353249625894938 0 -0.00096698850610240457 -0.0093630487122276455 0 -0.00091840426964133741 -0.0092996172786974224 0 -0.00096698850610240457 -0.0093630487122276455 0 -0.00093055520165851303 -0.0094170634769883774 0 -0.00091840426964133741 -0.0092996172786974224 0 -0.00098027130715923273 -0.0094206182686277298 0 -0.0010818621114764954 -0.010042519459610827 0 -0.00096698850610240457 -0.0093630487122276455 0 -0.00093055520165851303 -0.0094170634769883774 0 -0.0012101114525426269 -0.0096208917836697397 0 -0.00091840426964133741 -0.0092996172786974224 0 -0.00085642061436279056 -0.0092783934870924317 0 -0.00088296807442330002 -0.009191755182773877 0 -0.00085642061436279056 -0.0092783934870924317 0 -0.00088296807442330002 -0.009191755182773877 0 -0.00080678434764121058 -0.0091572987203359154 0 -0.00093055520165851303 -0.0094170634769883774 0 -0.00091840426964133741 -0.0092996172786974224 0 -0.00085642061436279056 -0.0092783934870924317 0 -0.00095664858365099932 -0.0092353249625894938 0 -0.00088296807442330002 -0.009191755182773877 0 -0.00093147361140262128 -0.0090726233452667164 0 -0.00088296807442330002 -0.009191755182773877 0 -0.00082449402340081638 -0.009053291677162718 0 -0.00093147361140262128 -0.0090726233452667164 0 -0.00095664858365099932 -0.0092353249625894938 0 -0.00091840426964133741 -0.0092996172786974224 0 -0.00088296807442330002 -0.009191755182773877 0 -0.00088296807442330002 -0.009191755182773877 0 -0.00082449402340081638 -0.009053291677162718 0 -0.00080678434764121058 -0.0091572987203359154 0 -0.00075840679160153084 -0.0091748256838871771 0 -0.00085642061436279056 -0.0092783934870924317 0 -0.00080678434764121058 -0.0091572987203359154 0 -0.00075840679160153084 -0.0091748256838871771 0 -0.00066255464963639544 -0.0090826269651882868 0 -0.0007018208519498011 -0.0090588748715401748 0 -0.00075840679160153084 -0.0091748256838871771 0 -0.00080678434764121058 -0.0091572987203359154 0 -0.0007018208519498011 -0.0090588748715401748 0 -0.00082449402340081638 -0.009053291677162718 0 -0.00080678434764121058 -0.0091572987203359154 0 -0.0007018208519498011 -0.0090588748715401748 0 -0.00070432425812870622 -0.0088691755263413871 0 -0.00082449402340081638 -0.009053291677162718 0 -0.0008944217977186965 -0.0088905872281017859 0 -0.00070432425812870622 -0.0088691755263413871 0 -0.00082449402340081638 -0.009053291677162718 0 -0.0007018208519498011 -0.0090588748715401748 0 -0.00070432425812870622 -0.0088691755263413871 0 -0.0008944217977186965 -0.0088905872281017859 0 -0.00089422141723366456 -0.0086205220974787042 0 -0.00082449402340081638 -0.009053291677162718 0 -0.0008944217977186965 -0.0088905872281017859 0 -0.00093147361140262128 -0.0090726233452667164 0 -0.0008944217977186965 -0.0088905872281017859 0 -0.00095255837844800378 -0.0089554495157857204 0 -0.00092910467767972108 -0.008839358666427188 0 -0.0008944217977186965 -0.0088905872281017859 0 -0.00093147361140262128 -0.0090726233452667164 0 -0.00095255837844800378 -0.0089554495157857204 0 -0.00095255837844800378 -0.0089554495157857204 0 -0.001023637541153131 -0.0090458277590038192 0 -0.0010033751736446492 -0.0089596526682456847 0 -0.00093147361140262128 -0.0090726233452667164 0 -0.00095255837844800378 -0.0089554495157857204 0 -0.001023637541153131 -0.0090458277590038192 0 -0.001023637541153131 -0.0090458277590038192 0 -0.0010033751736446492 -0.0089596526682456847 0 -0.0011221413081564404 -0.0090687288195182049 0 -0.001023637541153131 -0.0090458277590038192 0 -0.0010296852562713568 -0.0091553703258141095 0 -0.0011165385810583031 -0.0091300025118022602 0 -0.00095664858365099932 -0.0092353249625894938 0 -0.00093147361140262128 -0.0090726233452667164 0 -0.0010296852562713568 -0.0091553703258141095 0 -0.00093147361140262128 -0.0090726233452667164 0 -0.001023637541153131 -0.0090458277590038192 0 -0.0010296852562713568 -0.0091553703258141095 0 -0.00095664858365099932 -0.0092353249625894938 0 -0.0010296852562713568 -0.0091553703258141095 0 -0.0010560765595260099 -0.0092662456899149041 0 -0.00094495394692065159 -0.0088944437576595967 0 -0.0010033751736446492 -0.0089596526682456847 0 -0.0010593458599979138 -0.00890922994543932 0 -0.00094495394692065159 -0.0088944437576595967 0 -0.0010033751736446492 -0.0089596526682456847 0 -0.00092910467767972108 -0.008839358666427188 0 -0.00095255837844800378 -0.0089554495157857204 0 -0.0010033751736446492 -0.0089596526682456847 0 -0.00092910467767972108 -0.008839358666427188 0 -0.00094495394692065159 -0.0088944437576595967 0 -0.00092910467767972108 -0.008839358666427188 0 -0.00096158953776868884 -0.0089153006756748573 0 -0.00092910467767972108 -0.008839358666427188 0 -0.00099947305404787497 -0.0088826881536969333 0 -0.00089422141723366456 -0.0086205220974787042 0 -0.00092910467767972108 -0.008839358666427188 0 -0.00099947305404787497 -0.0088826881536969333 0 -0.00096158953776868884 -0.0089153006756748573 0 -0.0008944217977186965 -0.0088905872281017859 0 -0.00092910467767972108 -0.008839358666427188 0 -0.00089422141723366456 -0.0086205220974787042 0 -0.0010922437240845878 -0.0077841144982528357 0 -0.00089422141723366456 -0.0086205220974787042 0 -0.00075704380090071879 -0.0078733297243090763 0 -0.00098797686187898615 -0.0084823202180147831 0 -0.00092112696983949536 -0.0085646209593452319 0 -0.0010922437240845878 -0.0077841144982528357 0 -0.00096413730930013271 -0.0076306099077034948 0 -0.00075704380090071879 -0.0078733297243090763 0 -0.00096413730930013271 -0.0076306099077034948 0 -0.00075704380090071879 -0.0078733297243090763 0 -0.00073473494417288301 -0.0075568723908782656 0 -0.00096413730930013271 -0.0076306099077034948 0 -0.00083946997702359768 -0.007513312875584704 0 -0.00073473494417288301 -0.0075568723908782656 0 -0.00083946997702359768 -0.007513312875584704 0 -0.00099359133676730333 -0.0075759112053432843 0 -0.00080278446812742969 -0.0073511066387494496 0 -0.00096413730930013271 -0.0076306099077034948 0 -0.00083946997702359768 -0.007513312875584704 0 -0.00099359133676730333 -0.0075759112053432843 0 -0.00099359133676730333 -0.0075759112053432843 0 -0.000854583299350904 -0.0075813825075101695 0 -0.0009677792577214916 -0.0079868831975718462 0 -0.00096413730930013271 -0.0076306099077034948 0 -0.00099359133676730333 -0.0075759112053432843 0 -0.000854583299350904 -0.0075813825075101695 0 -0.00098797686187898615 -0.0084823202180147831 0 -0.0010669288195144359 -0.0078110865896007138 0 -0.00099947305404787497 -0.0088826881536969333 0 -0.0010582055761798874 -0.009088014843480657 0 -0.0009852994065470376 -0.0089968060681910548 0 -0.00099947305404787497 -0.0088826881536969333 0 -0.00096158953776868884 -0.0089153006756748573 0 -0.0009852994065470376 -0.0089968060681910548 0 -0.0010922437240845878 -0.0077841144982528357 0 -0.00096413730930013271 -0.0076306099077034948 0 -0.000854583299350904 -0.0075813825075101695 0 -0.00096158953776868884 -0.0089153006756748573 0 -0.0009852994065470376 -0.0089968060681910548 0 -0.00091829217266213526 -0.0090325775396231066 0 -0.00094495394692065159 -0.0088944437576595967 0 -0.00096158953776868884 -0.0089153006756748573 0 -0.00091829217266213526 -0.0090325775396231066 0 -0.0009852994065470376 -0.0089968060681910548 0 -0.00095457355823056064 -0.0090883969424766699 0 -0.00091829217266213526 -0.0090325775396231066 0 -0.0010582055761798874 -0.009088014843480657 0 -0.0009852994065470376 -0.0089968060681910548 0 -0.00095457355823056064 -0.0090883969424766699 0 -0.0010582055761798874 -0.009088014843480657 0 -0.00095457355823056064 -0.0090883969424766699 0 -0.00097291385942415776 -0.0091978366540639688 0 -0.00095457355823056064 -0.0090883969424766699 0 -0.00097291385942415776 -0.0091978366540639688 0 -0.00086932676953867152 -0.0091594591343526349 0 -0.00095457355823056064 -0.0090883969424766699 0 -0.00091829217266213526 -0.0090325775396231066 0 -0.00086932676953867152 -0.0091594591343526349 0 -0.00086932676953867152 -0.0091594591343526349 0 -0.00079640020891381589 -0.0091635068108076555 0 -0.00080324514918974211 -0.0090163377546794068 0 -0.00091829217266213526 -0.0090325775396231066 0 -0.00086932676953867152 -0.0091594591343526349 0 -0.00080324514918974211 -0.0090163377546794068 0 -0.00087924249591739354 -0.0090461245847288322 0 -0.0010250229465119691 -0.0085519815509777688 0 -0.00094495394692065159 -0.0088944437576595967 0 -0.0010411365285375668 -0.0088478714589521456 0 -0.0010593458599979138 -0.00890922994543932 0 -0.00094495394692065159 -0.0088944437576595967 0 -0.00091829217266213526 -0.0090325775396231066 0 -0.00080324514918974211 -0.0090163377546794068 0 -0.00085013092926318674 0.0036402471302981981 0 -0.00074712554320124458 0.0040355543501723523 0 -0.00052108776918786796 0.0032134662816448141 0 -0.0013172366014260954 -0.0054910367826491412 0 -0.00025778280826768777 -0.0061400058241668307 0 -0.00091659709255147029 -0.0073590058630537379 0 -0.0024706852752276348 0.00033355949563966303 0 -0.00051446174581664869 -0.0025362927051722529 0 -0.0010876306027544293 0.0033991407642449405 0 -0.00085013092926318674 0.0036402471302981981 0 -0.00052108776918786796 0.0032134662816448141 0 -0.0010876306027544293 0.0033991407642449405 0 -0.0012392252134597363 0.0037347766735946809 0 -0.00085013092926318674 0.0036402471302981981 0 -0.0012392252134597363 0.0037347766735946809 0 -0.00085013092926318674 0.0036402471302981981 0 -0.00096095959249912935 0.0039031993192023516 0 -0.00085013092926318674 0.0036402471302981981 0 -0.00096095959249912935 0.0039031993192023516 0 -0.00074712554320124458 0.0040355543501723523 0 -0.0012392252134597363 0.0037347766735946809 0 -0.00096095959249912935 0.0039031993192023516 0 -0.0011442578431171341 0.004075909229886922 0 -0.0012392252134597363 0.0037347766735946809 0 -0.0011442578431171341 0.004075909229886922 0 -0.0014516326924652731 0.0040482041159088629 0 -0.0010411743644167027 0.0043931450733560497 0 -0.0011442578431171341 0.004075909229886922 0 -0.00092508035617938362 0.0041077776613001327 0 -0.0010411743644167027 0.0043931450733560497 0 -0.00092508035617938362 0.0041077776613001327 0 -0.00072462463199484371 0.0041239717565560103 0 -0.00096095959249912935 0.0039031993192023516 0 -0.00092508035617938362 0.0041077776613001327 0 -0.00074712554320124458 0.0040355543501723523 0 -0.00096095959249912935 0.0039031993192023516 0 -0.0011442578431171341 0.004075909229886922 0 -0.00092508035617938362 0.0041077776613001327 0 -0.00033053520356709864 -0.0046842984388034579 0 -0.0013172366014260954 -0.0054910367826491412 0 -0.00025778280826768777 -0.0061400058241668307 0 -0.00072319802364061202 0.0041110207462196633 0 -0.00074712554320124458 0.0040355543501723523 0 -0.00052108776918786796 0.0032134662816448141 0 -0.00092508035617938362 0.0041077776613001327 0 -0.00072462463199484371 0.0041239717565560103 0 -0.00074712554320124458 0.0040355543501723523 0 -0.0024706852752276348 0.00033355949563966303 0 -0.0020476612169162251 0.0013173129133761856 0 -0.00031843126273394499 -0.0086954942735193285 0 -0.00022127977143169322 -0.0082482726417686739 0 -0.00057306396509666671 -0.0085361909931290711 0 -0.00022127977143169322 -0.0082482726417686739 0 -0.00057306396509666671 -0.0085361909931290711 0 -0.00050043836887909618 -0.0079382530817543144 0 -0.00017644877548276397 -0.0074875679048409362 0 -0.00028250165213249329 -0.0070195526959273228 0 -0.00089422141723366456 -0.0086205220974787042 0 -0.00057306396509666671 -0.0085361909931290711 0 -0.00075704380090071879 -0.0078733297243090763 0 -0.00057306396509666671 -0.0085361909931290711 0 -0.00075704380090071879 -0.0078733297243090763 0 -0.00050043836887909618 -0.0079382530817543144 0 -0.00075704380090071879 -0.0078733297243090763 0 -0.00050043836887909618 -0.0079382530817543144 0 -0.00054383046719715328 -0.0075867723313321712 0 -0.00025778280826768777 -0.0061400058241668307 0 -0.00035739463512013018 -0.0074837554533947626 0 -0.00091659709255147029 -0.0073590058630537379 0 -0.00028250165213249329 -0.0070195526959273228 0 -0.00031595488643556099 -0.0075161524891581956 0 -0.00050043836887909618 -0.0079382530817543144 0 -0.00035739463512013018 -0.0074837554533947626 0 -0.00054383046719715328 -0.0075867723313321712 0 -0.00022127977143169322 -0.0082482726417686739 0 -0.00050043836887909618 -0.0079382530817543144 0 -0.00035739463512013018 -0.0074837554533947626 0 -0.00035739463512013018 -0.0074837554533947626 0 -0.00051197536254440608 -0.0075320090047466806 0 -0.00091659709255147029 -0.0073590058630537379 0 -0.00051197536254440608 -0.0075320090047466806 0 -0.00054383046719715328 -0.0075867723313321712 0 -0.00055740539008610119 -0.0074998883640915431 0 -0.00035739463512013018 -0.0074837554533947626 0 -0.00051197536254440608 -0.0075320090047466806 0 -0.00054383046719715328 -0.0075867723313321712 0 -0.00075704380090071879 -0.0078733297243090763 0 -0.00054383046719715328 -0.0075867723313321712 0 -0.00073473494417288301 -0.0075568723908782656 0 -0.00054383046719715328 -0.0075867723313321712 0 -0.00073473494417288301 -0.0075568723908782656 0 -0.00055740539008610119 -0.0074998883640915431 0 -0.00073473494417288301 -0.0075568723908782656 0 -0.00055740539008610119 -0.0074998883640915431 0 -0.00067487491671750746 -0.0074200300402323506 0 -0.00083946997702359768 -0.007513312875584704 0 -0.00073473494417288301 -0.0075568723908782656 0 -0.00067487491671750746 -0.0074200300402323506 0 -0.00051197536254440608 -0.0075320090047466806 0 -0.00055740539008610119 -0.0074998883640915431 0 -0.00057591613670780317 -0.0075365670977150965 0 -0.00035599365642809355 0.0020311909861682178 0 -0.00052108776918786796 0.0032134662816448141 0 -0.00088578290001418178 0.0025439827817699363 0 -0.00043021247728506652 -0.0015539888845750422 0 -0.0012792654568745088 0.0029527993094569257 0 -0.00051197536254440608 -0.0075320090047466806 0 -0.00057591613670780317 -0.0075365670977150965 0 -0.00091659709255147029 -0.0073590058630537379 0 -0.00043021247728506652 -0.0015539888845750422 0 -0.00051446174581664869 -0.0025362927051722529 0 -0.0010876306027544293 0.0033991407642449405 0 -0.00088578290001418178 0.0025439827817699363 0 -0.0013029723281323842 0.0031107041953576139 0 -0.0010876306027544293 0.0033991407642449405 0 -0.00052108776918786796 0.0032134662816448141 0 -0.00088578290001418178 0.0025439827817699363 0 -0.0012792654568745088 0.0029527993094569257 0 -0.0011490429999246763 0.0029528537515994069 0 -0.00097178980149794497 0.0029014198466990808 0 -0.001317694006535977 0.0029000879266235739 0 -0.0013029723281323842 0.0031107041953576139 0 -0.00061003267644388793 0.0025914443083767448 0 -0.00097178980149794497 0.0029014198466990808 0 -0.0013116138362634193 0.0024853414304172373 0 -0.00097178980149794497 0.0029014198466990808 0 -0.001317694006535977 0.0029000879266235739 0 -0.0013116138362634193 0.0024853414304172373 0 -0.0019736293606729574 0.0028140881309167884 0 -0.0016844809543670261 0.0030695372821967449 0 -0.0013116138362634193 0.0024853414304172373 0 -0.0017683444524514628 0.0028240758760085414 0 -0.00089739534510759273 0.002806457295149781 0 -0.001317694006535977 0.0029000879266235739 0 -0.0016844809543670261 0.0030695372821967449 0 -0.0013116138362634193 0.0024853414304172373 0 -0.0019736293606729574 0.0028140881309167884 0 -0.0016844809543670261 0.0030695372821967449 0 -0.0022277226549209197 0.003405415863950012 0 -0.0016844809543670261 0.0030695372821967449 0 -0.0018789660881654156 0.0035017848028886054 0 -0.0022277226549209197 0.003405415863950012 0 -0.0016844809543670261 0.0030695372821967449 0 -0.0015343311997197192 0.0034026446059575942 0 -0.0018789660881654156 0.0035017848028886054 0 -0.0010876306027544293 0.0033991407642449405 0 -0.0013029723281323842 0.0031107041953576139 0 -0.0015343311997197192 0.0034026446059575942 0 -0.001317694006535977 0.0029000879266235739 0 -0.0016844809543670261 0.0030695372821967449 0 -0.0013029723281323842 0.0031107041953576139 0 -0.0016844809543670261 0.0030695372821967449 0 -0.0013029723281323842 0.0031107041953576139 0 -0.0015343311997197192 0.0034026446059575942 0 -0.0012392252134597363 0.0037347766735946809 0 -0.0015343311997197192 0.0034026446059575942 0 -0.0016805856061414954 0.003793319348086131 0 -0.0010876306027544293 0.0033991407642449405 0 -0.0012392252134597363 0.0037347766735946809 0 -0.0015343311997197192 0.0034026446059575942 0 -0.0016805856061414954 0.003793319348086131 0 -0.0020814278814227307 0.0039060079381871447 0 -0.0018789660881654156 0.0035017848028886054 0 -0.0015343311997197192 0.0034026446059575942 0 -0.0016805856061414954 0.003793319348086131 0 -0.0018789660881654156 0.0035017848028886054 0 -0.0020814278814227307 0.0039060079381871447 0 -0.0018789660881654156 0.0035017848028886054 0 -0.0022277226549209197 0.003405415863950012 0 -0.0020814278814227307 0.0039060079381871447 0 -0.0018036378164408213 0.0041989190715431496 0 -0.0023821753143572506 0.0044545397348924026 0 -0.0016805856061414954 0.003793319348086131 0 -0.0020814278814227307 0.0039060079381871447 0 -0.0018036378164408213 0.0041989190715431496 0 -0.0018036378164408213 0.0041989190715431496 0 -0.0014516326924652731 0.0040482041159088629 0 -0.0013972556035371504 0.0044103641181852029 0 -0.0012392252134597363 0.0037347766735946809 0 -0.0016805856061414954 0.003793319348086131 0 -0.0014516326924652731 0.0040482041159088629 0 -0.0011442578431171341 0.004075909229886922 0 -0.0014516326924652731 0.0040482041159088629 0 -0.0013972556035371504 0.0044103641181852029 0 -0.0016805856061414954 0.003793319348086131 0 -0.0018036378164408213 0.0041989190715431496 0 -0.0014516326924652731 0.0040482041159088629 0 -0.0026719069004631176 0.004296900180051539 0 -0.0024436554876607806 0.0039037350903741662 0 -0.0023821753143572506 0.0044545397348924026 0 -0.0020814278814227307 0.0039060079381871447 0 -0.0024436554876607806 0.0039037350903741662 0 -0.0023821753143572506 0.0044545397348924026 0 -0.0020814278814227307 0.0039060079381871447 0 -0.0024436554876607806 0.0039037350903741662 0 -0.0022277226549209197 0.003405415863950012 0 -0.0024436554876607806 0.0039037350903741662 0 -0.0026849560314675769 0.003595217956435145 0 -0.002862041018948797 0.0039849819098444293 0 -0.0024436554876607806 0.0039037350903741662 0 -0.0026849560314675769 0.003595217956435145 0 -0.0022277226549209197 0.003405415863950012 0 -0.0026719069004631176 0.004296900180051539 0 -0.0024436554876607806 0.0039037350903741662 0 -0.002862041018948797 0.0039849819098444293 0 -0.0026849560314675769 0.003595217956435145 0 -0.0025687969586764138 0.0031767375882392848 0 -0.0029557802554629219 0.0033974139869696889 0 -0.0026849560314675769 0.003595217956435145 0 -0.0022277226549209197 0.003405415863950012 0 -0.0025687969586764138 0.0031767375882392848 0 -0.0019736293606729574 0.0028140881309167884 0 -0.0022277226549209197 0.003405415863950012 0 -0.0025687969586764138 0.0031767375882392848 0 -0.0015789291359120624 0.0029112173843564436 0 -0.0025687969586764138 0.0031767375882392848 0 -0.0022549932683812476 0.0024130520530077984 0 -0.0017683444524514628 0.0028240758760085414 0 -0.002527684972519323 0.0031625156455081199 0 -0.0025687969586764138 0.0031767375882392848 0 -0.0030424386738388989 0.0029420607631764502 0 -0.0022549932683812476 0.0024130520530077984 0 -0.0025687969586764138 0.0031767375882392848 0 -0.0030424386738388989 0.0029420607631764502 0 -0.0029557802554629219 0.0033974139869696889 0 -0.0030424386738388989 0.0029420607631764502 0 -0.0032578893312525262 0.0034611832430203817 0 -0.0029557802554629219 0.0033974139869696889 0 -0.0027418351917808128 0.0030287167270324523 0 -0.0031496939696542387 0.0029323874976978233 0 -0.0029806490752637264 0.0028048239860690096 0 -0.0029267775435617657 0.0030407387423223397 0 -0.0036757116732842612 0.0032185802276476902 0 -0.0031496939696542387 0.0029323874976978233 0 -0.0035450137510609249 0.0031656773824895669 0 -0.0031885533065391112 0.0026480097018409176 0 -0.0035450137510609249 0.0031656773824895669 0 -0.004149716855363441 0.0029584777179110628 0 -0.0031885533065391112 0.0026480097018409176 0 -0.0027418351917808128 0.0030287167270324523 0 -0.0035450137510609249 0.0031656773824895669 0 -0.0038835954843044569 0.0037235324375641064 0 -0.0027418351917808128 0.0030287167270324523 0 -0.0031496939696542387 0.0029323874976978233 0 -0.0035450137510609249 0.0031656773824895669 0 -0.0030424386738388989 0.0029420607631764502 0 -0.0032578893312525262 0.0034611832430203817 0 -0.0036730890074415518 0.0033743457499259455 0 -0.0032578893312525262 0.0034611832430203817 0 -0.0036730890074415518 0.0033743457499259455 0 -0.0035254483701752451 0.0038715970914277439 0 -0.0032578893312525262 0.0034611832430203817 0 -0.0031006095528703973 0.0037292867077561875 0 -0.0035254483701752451 0.0038715970914277439 0 -0.0032578893312525262 0.0034611832430203817 0 -0.0029557802554629219 0.0033974139869696889 0 -0.0031006095528703973 0.0037292867077561875 0 -0.0026849560314675769 0.003595217956435145 0 -0.0029557802554629219 0.0033974139869696889 0 -0.0031006095528703973 0.0037292867077561875 0 -0.0038023608825682818 0.0046061823453845269 0 -0.0047379366303428004 0.0090618792796937908 0 -0.003657820986567503 0.007047654798090169 0 -0.0037494251197290598 0.0069849352513930135 0 -0.0038490771177153329 0.0071359297395299729 0 -0.0043062104888564713 0.0067075180021711088 0 -0.0037334072005257238 0.0059044551356723244 0 -0.0051248505272527721 0.0063981107136748035 0 -0.0046864695358880262 0.0036763314528824816 0 -0.0040568914939813679 0.003377910433866765 0 -0.0038835954843044569 0.0037235324375641064 0 -0.0044794791270454685 0.0051664882392603645 0 -0.0038023608825682818 0.0046061823453845269 0 -0.0046864695358880262 0.0036763314528824816 0 -0.004149716855363441 0.0029584777179110628 0 -0.0040568914939813679 0.003377910433866765 0 -0.0035450137510609249 0.0031656773824895669 0 -0.004149716855363441 0.0029584777179110628 0 -0.0040568914939813679 0.003377910433866765 0 -0.0035450137510609249 0.0031656773824895669 0 -0.0040568914939813679 0.003377910433866765 0 -0.0038835954843044569 0.0037235324375641064 0 -0.0036730890074415518 0.0033743457499259455 0 -0.0039388380430252223 0.0038743792617277817 0 -0.0035254483701752451 0.0038715970914277439 0 -0.0046864695358880262 0.0036763314528824816 0 -0.0038835954843044569 0.0037235324375641064 0 -0.0052209417295389273 0.0044534525356966321 0 -0.0036730890074415518 0.0033743457499259455 0 -0.0044668016293990401 0.0037948243889056221 0 -0.0039388380430252223 0.0038743792617277817 0 -0.0036757116732842612 0.0032185802276476902 0 -0.0050186020745433147 0.0061480314116120803 0 -0.0043062104888564713 0.0067075180021711088 0 -0.0048788750327858864 0.0074964520439372555 0 -0.0051248505272527721 0.0063981107136748035 0 -0.0044794791270454685 0.0051664882392603645 0 -0.0050186020745433147 0.0061480314116120803 0 -0.0044668016293990401 0.0037948243889056221 0 -0.0042053519283323003 0.004051184465837878 0 -0.0039388380430252223 0.0038743792617277817 0 -0.0041372696109708042 0.003832947823089022 0 -0.0057296209434249097 0.0067306194430522019 0 -0.0042053519283323003 0.004051184465837878 0 -0.0043494826951950456 0.0048998269241808702 0 -0.0045513600135398576 0.0038886976400140123 0 -0.0044668016293990401 0.0037948243889056221 0 -0.0042053519283323003 0.004051184465837878 0 -0.0045513600135398576 0.0038886976400140123 0 -0.0042053519283323003 0.004051184465837878 0 -0.0038718775860520794 0.0042770588134335829 0 -0.0039388380430252223 0.0038743792617277817 0 -0.0038718775860520794 0.0042770588134335829 0 -0.0035254483701752451 0.0038715970914277439 0 -0.0034766299186323982 0.0044501317941093958 0 -0.0038718775860520794 0.0042770588134335829 0 -0.0039388380430252223 0.0038743792617277817 0 -0.0035254483701752451 0.0038715970914277439 0 -0.0038718775860520794 0.0042770588134335829 0 -0.0039166417868260351 0.0047749632537601302 0 -0.0034766299186323982 0.0044501317941093958 0 -0.0039166417868260351 0.0047749632537601302 0 -0.0034766299186323982 0.0044501317941093958 0 -0.0036702130393326724 0.0050044241398918927 0 -0.0038718775860520794 0.0042770588134335829 0 -0.0039166417868260351 0.0047749632537601302 0 -0.0043494826951950456 0.0048998269241808702 0 -0.0042053519283323003 0.004051184465837878 0 -0.0038718775860520794 0.0042770588134335829 0 -0.0043494826951950456 0.0048998269241808702 0 -0.0026849560314675769 0.003595217956435145 0 -0.002862041018948797 0.0039849819098444293 0 -0.0031006095528703973 0.0037292867077561875 0 -0.002862041018948797 0.0039849819098444293 0 -0.0032198630440626766 0.0040742111871949725 0 -0.0030092544603762417 0.0043609535076699025 0 -0.002862041018948797 0.0039849819098444293 0 -0.0031006095528703973 0.0037292867077561875 0 -0.0032198630440626766 0.0040742111871949725 0 -0.0035254483701752451 0.0038715970914277439 0 -0.0032198630440626766 0.0040742111871949725 0 -0.0034766299186323982 0.0044501317941093958 0 -0.0031006095528703973 0.0037292867077561875 0 -0.0035254483701752451 0.0038715970914277439 0 -0.0032198630440626766 0.0040742111871949725 0 -0.0034766299186323982 0.0044501317941093958 0 -0.0030092544603762417 0.0043609535076699025 0 -0.0032144507308805282 0.0047447908244483182 0 -0.0032198630440626766 0.0040742111871949725 0 -0.0034766299186323982 0.0044501317941093958 0 -0.0030092544603762417 0.0043609535076699025 0 -0.0026719069004631176 0.004296900180051539 0 -0.002862041018948797 0.0039849819098444293 0 -0.0030092544603762417 0.0043609535076699025 0 -0.0026719069004631176 0.004296900180051539 0 -0.0030092544603762417 0.0043609535076699025 0 -0.0027794659504093624 0.0047727165441550558 0 -0.0030092544603762417 0.0043609535076699025 0 -0.0027794659504093624 0.0047727165441550558 0 -0.0032144507308805282 0.0047447908244483182 0 -0.0027794659504093624 0.0047727165441550558 0 -0.0032144507308805282 0.0047447908244483182 0 -0.0032113642504630583 0.0050968290333306548 0 -0.0032144507308805282 0.0047447908244483182 0 -0.0032113642504630583 0.0050968290333306548 0 -0.0036702130393326724 0.0050044241398918927 0 -0.0034766299186323982 0.0044501317941093958 0 -0.0032144507308805282 0.0047447908244483182 0 -0.0036702130393326724 0.0050044241398918927 0 -0.0032113642504630583 0.0050968290333306548 0 -0.0036996871439910033 0.0053876859144576569 0 -0.0034615776704369126 0.0056532598057901524 0 -0.0027794659504093624 0.0047727165441550558 0 -0.0032113642504630583 0.0050968290333306548 0 -0.0026767062105650464 0.0050869660133620997 0 -0.004212686961117762 0.00521634712704689 0 -0.0036702130393326724 0.0050044241398918927 0 -0.0040823727048295497 0.0054485479986571229 0 -0.0039166417868260351 0.0047749632537601302 0 -0.0043494826951950456 0.0048998269241808702 0 -0.004212686961117762 0.00521634712704689 0 -0.0039166417868260351 0.0047749632537601302 0 -0.004212686961117762 0.00521634712704689 0 -0.0036702130393326724 0.0050044241398918927 0 -0.0032113642504630583 0.0050968290333306548 0 -0.0036702130393326724 0.0050044241398918927 0 -0.0036996871439910033 0.0053876859144576569 0 -0.0036702130393326724 0.0050044241398918927 0 -0.0036996871439910033 0.0053876859144576569 0 -0.0040823727048295497 0.0054485479986571229 0 -0.0036996871439910033 0.0053876859144576569 0 -0.0040823727048295497 0.0054485479986571229 0 -0.0040479432310217252 0.0057529073614507979 0 -0.0040823727048295497 0.0054485479986571229 0 -0.0042839651862453037 0.0056961451152032121 0 -0.0040479432310217252 0.0057529073614507979 0 -0.0040823727048295497 0.0054485479986571229 0 -0.0042839651862453037 0.0056961451152032121 0 -0.0044490639210845494 0.0055956812616804958 0 -0.004212686961117762 0.00521634712704689 0 -0.0040823727048295497 0.0054485479986571229 0 -0.0044490639210845494 0.0055956812616804958 0 -0.0042839651862453037 0.0056961451152032121 0 -0.0042780159476893285 0.0059209678429938458 0 -0.0040479432310217252 0.0057529073614507979 0 -0.0042839651862453037 0.0056961451152032121 0 -0.0042780159476893285 0.0059209678429938458 0 -0.0045188019898492271 0.0057913189323920622 0 -0.0041729679645703755 0.0053495767391898439 0 -0.0042325885931558125 0.0056315476505430003 0 -0.0036996871439910033 0.0053876859144576569 0 -0.0040479432310217252 0.0057529073614507979 0 -0.0034615776704369126 0.0056532598057901524 0 -0.0041729679645703755 0.0053495767391898439 0 -0.0028767292443831693 0.0052256025353015038 0 -0.004260830956084218 0.0059428658471585875 0 -0.0040479432310217252 0.0057529073614507979 0 -0.0034615776704369126 0.0056532598057901524 0 -0.0029176724653182757 0.0046218115876507536 0 -0.0026383773687630638 0.004910663910152358 0 -0.002485597819158305 0.0048525557246117314 0 -0.002613869027427297 0.005228599760893341 0 -0.0026383773687630638 0.004910663910152358 0 -0.0024939877226737382 0.0049256675725247836 0 -0.0026383773687630638 0.004910663910152358 0 -0.002485597819158305 0.0048525557246117314 0 -0.0024939877226737382 0.0049256675725247836 0 -0.002613869027427297 0.005228599760893341 0 -0.0026383773687630638 0.004910663910152358 0 -0.0029954205162876237 0.0050708538984850357 0 -0.0029176724653182757 0.0046218115876507536 0 -0.0026383773687630638 0.004910663910152358 0 -0.0029954205162876237 0.0050708538984850357 0 -0.0026767062105650464 0.0050869660133620997 0 -0.002485597819158305 0.0048525557246117314 0 -0.0025656258707020692 0.0048597010347633226 0 -0.0032113642504630583 0.0050968290333306548 0 -0.0026767062105650464 0.0050869660133620997 0 -0.0034615776704369126 0.0056532598057901524 0 -0.0027805803623694395 0.005124400860340805 0 -0.0028767292443831693 0.0052256025353015038 0 -0.002485597819158305 0.0048525557246117314 0 -0.0024939877226737382 0.0049256675725247836 0 -0.0025656258707020692 0.0048597010347633226 0 -0.0025908456692235481 0.0046434293369369403 0 -0.0025656258707020692 0.0048597010347633226 0 -0.0026082963214250181 0.0048352425266279626 0 -0.0026767062105650464 0.0050869660133620997 0 -0.0025656258707020692 0.0048597010347633226 0 -0.0026082963214250181 0.0048352425266279626 0 -0.0026767062105650464 0.0050869660133620997 0 -0.0026082963214250181 0.0048352425266279626 0 -0.0025093036060778117 0.0049798873964116948 0 -0.0026082963214250181 0.0048352425266279626 0 -0.002795208568091141 0.0046222958307874859 0 -0.0028294867768313922 0.0049608938337462292 0 -0.0026082963214250181 0.0048352425266279626 0 -0.0028294867768313922 0.0049608938337462292 0 -0.0025093036060778117 0.0049798873964116948 0 -0.0026556999311830479 0.0044088121054170022 0 -0.0026082963214250181 0.0048352425266279626 0 -0.002795208568091141 0.0046222958307874859 0 -0.0026556999311830479 0.0044088121054170022 0 -0.0025908456692235481 0.0046434293369369403 0 -0.0026082963214250181 0.0048352425266279626 0 -0.002795208568091141 0.0046222958307874859 0 -0.0030875436565734448 0.004533208063750206 0 -0.0028294867768313922 0.0049608938337462292 0 -0.0028725492622607329 0.0042876998105988743 0 -0.002795208568091141 0.0046222958307874859 0 -0.0030875436565734448 0.004533208063750206 0 -0.0035162554618408891 0.0043363608941392982 0 -0.0030875436565734448 0.004533208063750206 0 -0.0033220616871300602 0.0048608835951869083 0 -0.003230443607796848 0.0041076498671038719 0 -0.0035162554618408891 0.0043363608941392982 0 -0.0030875436565734448 0.004533208063750206 0 -0.0021505505388172796 0.005263001562366137 0 -0.0024500552259521355 0.0050555057695378805 0 -0.0011813783017036105 0.0051249664824671018 0 -0.0014375767808976979 0.0054088872805874572 0 -0.0014571624014764011 0.0049176195989916816 0 -0.0030875436565734448 0.004533208063750206 0 -0.0033220616871300602 0.0048608835951869083 0 -0.0028294867768313922 0.0049608938337462292 0 -0.0014375767808976979 0.0054088872805874572 0 -0.0019420887063778167 0.0052140857969142891 0 -0.0014571624014764011 0.0049176195989916816 0 -0.0019420887063778167 0.0052140857969142891 0 -0.0014571624014764011 0.0049176195989916816 0 -0.0019220225214487258 0.0046835872744406823 0 -0.0019420887063778167 0.0052140857969142891 0 -0.0019220225214487258 0.0046835872744406823 0 -0.0025093036060778117 0.0049798873964116948 0 -0.0014571624014764011 0.0049176195989916816 0 -0.0013972556035371504 0.0044103641181852029 0 -0.0019220225214487258 0.0046835872744406823 0 -0.0011749006421896812 0.0047543923610295098 0 -0.0014571624014764011 0.0049176195989916816 0 -0.0013972556035371504 0.0044103641181852029 0 -0.0018036378164408213 0.0041989190715431496 0 -0.0013972556035371504 0.0044103641181852029 0 -0.0019220225214487258 0.0046835872744406823 0 -0.0018036378164408213 0.0041989190715431496 0 -0.0019220225214487258 0.0046835872744406823 0 -0.0023821753143572506 0.0044545397348924026 0 -0.0019220225214487258 0.0046835872744406823 0 -0.0023821753143572506 0.0044545397348924026 0 -0.0025093036060778117 0.0049798873964116948 0 -0.0027794659504093624 0.0047727165441550558 0 -0.0023821753143572506 0.0044545397348924026 0 -0.0025093036060778117 0.0049798873964116948 0 -0.0026719069004631176 0.004296900180051539 0 -0.0027794659504093624 0.0047727165441550558 0 -0.0023821753143572506 0.0044545397348924026 0 -0.0027794659504093624 0.0047727165441550558 0 -0.0026767062105650464 0.0050869660133620997 0 -0.0025093036060778117 0.0049798873964116948 0 -0.0024500552259521355 0.0050555057695378805 0 -0.0024886818125379215 0.0050032846146288446 0 -5.7731834209738634e-05 -0.025077081834849708 0 -3.987019966112058e-05 -0.025024488785457991 0 -9.4566756514325755e-05 -0.025039005571573285 0 3.4256617520388799e-06 -0.024994758725600419 0 -8.7600834905791859e-07 -0.024999333663779804 0 -2.6006878301842636e-06 -0.025006026959760105 0 -0.00024588603072794022 -0.024584174009604894 0 8.6127992544850441e-06 -0.025080147004206341 0 -5.7731834209738634e-05 -0.025077081834849708 0 -3.987019966112058e-05 -0.025024488785457991 0 -2.6006878301842636e-06 -0.025006026959760105 0 -8.7600834905791859e-07 -0.024999333663779804 0 1.2988317782761486e-09 -0.02500001584265777 0 -2.6006878301842636e-06 -0.025006026959760105 0 -8.7600834905791859e-07 -0.024999333663779804 0 1.2988317782761486e-09 -0.02500001584265777 0 -1.4510243326798394e-06 -0.024997533726630602 0 3.5769933957396204e-07 -0.024999936489449003 0 -8.7600834905791859e-07 -0.024999333663779804 0 -1.4510243326798394e-06 -0.024997533726630602 0 -0.00024588603072794022 -0.024584174009604894 0 4.3270520151029457e-05 -0.024927742743203234 0 -1.4510243326798394e-06 -0.024997533726630602 0 -1.4235751702207996e-06 -0.024990938840466215 0 -1.0690857333732419e-08 -0.024999978430651378 0 1.2988317782761486e-09 -0.02500001584265777 0 -1.4510243326798394e-06 -0.024997533726630602 0 -1.0690857333732419e-08 -0.024999978430651378 0 3.5769933957396204e-07 -0.024999936489449003 0 1.326729338018844e-05 -0.024996143827480315 0 -1.4235751702207996e-06 -0.024990938840466215 0 3.5769933957396204e-07 -0.024999936489449003 0 -1.4510243326798394e-06 -0.024997533726630602 0 -1.4235751702207996e-06 -0.024990938840466215 0 -0.00024588603072794022 -0.024584174009604894 0 -0.00037226046529189162 -0.024210674384953591 0 -0.0007606841688488253 -0.02352780557701966 0 -0.00075669963625887621 -0.023498972845146956 0 -0.00075068515450364703 -0.023508242133238478 0 -0.00074878336613506047 -0.023502403399120221 0 -0.00075669963625887621 -0.023498972845146956 0 -0.00075068515450364703 -0.023508242133238478 0 -0.00074878336613506047 -0.023502403399120221 0 -0.00075669963625887621 -0.023498972845146956 0 -0.00072956575738988795 -0.023449766286598315 0 -0.00074878336613506047 -0.023502403399120221 0 -0.00071189140165642121 -0.023498878104614918 0 -0.00072956575738988795 -0.023449766286598315 0 -0.00074878336613506047 -0.023502403399120221 0 -0.00075068515450364703 -0.023508242133238478 0 -0.00074361919896040202 -0.023500299487431469 0 -0.00037226046529189162 -0.024210674384953591 0 -0.00026796784958086148 -0.02436366837962774 0 -0.00061271552474700529 -0.023518303148263055 0 -0.0011075867294617519 -0.023296392850787363 0 -0.00019019407228666819 -0.025061717699057844 0 -0.00014653028931772223 -0.025092215382313311 0 -0.00024788217969260487 -0.025090729243378167 0 -0.00037546101334543451 -0.024338090921954544 0 -0.0011075867294617519 -0.023296392850787363 0 -0.00019019407228666819 -0.025061717699057844 0 -0.00022413840388079076 -0.025041193810462738 0 -0.00024788217969260487 -0.025090729243378167 0 -0.0027129511228395644 -0.022863242171912396 0 -0.0023483518119242802 -0.022637024067974458 0 -0.0024721009395884536 -0.022251004701619656 0 -0.00083417926515135497 -0.024246497033400337 0 -0.0011075867294617519 -0.023296392850787363 0 -0.00019335288122847522 -0.025050017038814487 0 -0.00019019407228666819 -0.025061717699057844 0 -0.00016697945898362998 -0.025044685113737246 0 -0.00019019407228666819 -0.025061717699057844 0 -0.00014461966233645426 -0.025054256358564307 0 -0.00016697945898362998 -0.025044685113737246 0 -0.00019335288122847522 -0.025050017038814487 0 -0.00019019407228666819 -0.025061717699057844 0 -0.00020590806340832845 -0.02505420716838714 0 -0.00019335288122847522 -0.025050017038814487 0 -0.00020590806340832845 -0.02505420716838714 0 -0.00020525714343504206 -0.025039241474339044 0 -0.00017868057775216351 -0.024753613985962503 0 -0.00083417926515135497 -0.024246497033400337 0 -5.7731834209738634e-05 -0.025077081834849708 0 -0.00014653028931772223 -0.025092215382313311 0 -9.4566756514325755e-05 -0.025039005571573285 0 -0.00024588603072794022 -0.024584174009604894 0 -0.00037546101334543451 -0.024338090921954544 0 -0.00019019407228666819 -0.025061717699057844 0 -0.00014653028931772223 -0.025092215382313311 0 -0.00014461966233645426 -0.025054256358564307 0 -0.00014653028931772223 -0.025092215382313311 0 -0.00014461966233645426 -0.025054256358564307 0 -9.4566756514325755e-05 -0.025039005571573285 0 -0.00012410191849456689 -0.025032736220174823 0 -9.8227225393332409e-05 -0.025000234207055827 0 -9.4566756514325755e-05 -0.025039005571573285 0 -0.00014461966233645426 -0.025054256358564307 0 -0.00012410191849456689 -0.025032736220174823 0 -9.4566756514325755e-05 -0.025039005571573285 0 -0.00012410191849456689 -0.025032736220174823 0 -0.00016697945898362998 -0.025044685113737246 0 -0.0001596013755399994 -0.025007474309343126 0 -0.00014461966233645426 -0.025054256358564307 0 -0.00012410191849456689 -0.025032736220174823 0 -0.00016697945898362998 -0.025044685113737246 0 -0.00012410191849456689 -0.025032736220174823 0 -9.8227225393332409e-05 -0.025000234207055827 0 -0.0001596013755399994 -0.025007474309343126 0 -0.00020525714343504206 -0.025039241474339044 0 -0.00023499079042071447 -0.025014819035412715 0 -0.00027198148695044386 -0.025044125775022765 0 -0.00083417926515135497 -0.024246497033400337 0 -0.00058587156120338527 -0.024927014412555005 0 -0.00023325583742360767 -0.025095390737825098 0 -0.00020525714343504206 -0.025039241474339044 0 -0.00027198148695044386 -0.025044125775022765 0 -0.00020525714343504206 -0.025039241474339044 0 -0.00016697945898362998 -0.025044685113737246 0 -0.0001596013755399994 -0.025007474309343126 0 -0.00019335288122847522 -0.025050017038814487 0 -0.00020525714343504206 -0.025039241474339044 0 -0.00016697945898362998 -0.025044685113737246 0 -0.00020525714343504206 -0.025039241474339044 0 -0.0001596013755399994 -0.025007474309343126 0 -0.00023499079042071447 -0.025014819035412715 0 -0.00011502524934926659 -0.024911579968478884 0 -0.00029142253371003635 -0.025011803843324746 0 -6.8322697195581352e-05 -0.024866643440523434 0 -0.00024505730133179645 -0.024861523052097389 0 -0.00030511831804692278 -0.02501605477499998 0 -0.00023499079042071447 -0.025014819035412715 0 -0.00014593876445591526 -0.024949779657652604 0 -0.00030511831804692278 -0.02501605477499998 0 -0.0001596013755399994 -0.025007474309343126 0 -0.00023499079042071447 -0.025014819035412715 0 -0.00014593876445591526 -0.024949779657652604 0 -9.8227225393332409e-05 -0.025000234207055827 0 -0.00014593876445591526 -0.024949779657652604 0 -7.1097656446565617e-05 -0.024979169111469735 0 -0.00014593876445591526 -0.024949779657652604 0 -7.1097656446565617e-05 -0.024979169111469735 0 -5.7191392824004128e-05 -0.024959418433813246 0 -9.8227225393332409e-05 -0.025000234207055827 0 -0.0001596013755399994 -0.025007474309343126 0 -0.00014593876445591526 -0.024949779657652604 0 -7.1097656446565617e-05 -0.024979169111469735 0 -4.8826085008602584e-05 -0.025000864096731829 0 -2.4194765486967456e-05 -0.024987895136871646 0 -9.8227225393332409e-05 -0.025000234207055827 0 -7.1097656446565617e-05 -0.024979169111469735 0 -4.8826085008602584e-05 -0.025000864096731829 0 -9.8227225393332409e-05 -0.025000234207055827 0 -4.8826085008602584e-05 -0.025000864096731829 0 -9.4566756514325755e-05 -0.025039005571573285 0 -4.8826085008602584e-05 -0.025000864096731829 0 -3.987019966112058e-05 -0.025024488785457991 0 -9.4566756514325755e-05 -0.025039005571573285 0 -2.6006878301842636e-06 -0.025006026959760105 0 -1.9413800435454299e-05 -0.025006323376367014 0 -3.521467317483654e-08 -0.025000039220169683 0 1.2988317782761486e-09 -0.02500001584265777 0 -2.6006878301842636e-06 -0.025006026959760105 0 -3.521467317483654e-08 -0.025000039220169683 0 -3.987019966112058e-05 -0.025024488785457991 0 -2.6006878301842636e-06 -0.025006026959760105 0 -1.9413800435454299e-05 -0.025006323376367014 0 -4.8826085008602584e-05 -0.025000864096731829 0 -3.987019966112058e-05 -0.025024488785457991 0 -1.9413800435454299e-05 -0.025006323376367014 0 -4.8826085008602584e-05 -0.025000864096731829 0 -1.9413800435454299e-05 -0.025006323376367014 0 -2.4194765486967456e-05 -0.024987895136871646 0 -2.4194765486967456e-05 -0.024987895136871646 0 -3.521467317483654e-08 -0.025000039220169683 0 2.6932957984643882e-08 -0.024999837151257174 0 -1.9413800435454299e-05 -0.025006323376367014 0 -2.4194765486967456e-05 -0.024987895136871646 0 -3.521467317483654e-08 -0.025000039220169683 0 -2.4194765486967456e-05 -0.024987895136871646 0 2.6932957984643882e-08 -0.024999837151257174 0 -5.7191392824004128e-05 -0.024959418433813246 0 -7.1097656446565617e-05 -0.024979169111469735 0 -2.4194765486967456e-05 -0.024987895136871646 0 -5.7191392824004128e-05 -0.024959418433813246 0 6.0650882895789481e-05 -0.024753804962831878 0 4.5619137738517062e-05 -0.024784040767374352 0 1.2346809966057439e-05 -0.024670990881627733 0 4.5619137738517062e-05 -0.024784040767374352 0 4.5056163549867805e-05 -0.024666866721041795 0 1.2346809966057439e-05 -0.024670990881627733 0 6.0650882895789481e-05 -0.024753804962831878 0 4.5619137738517062e-05 -0.024784040767374352 0 4.9372093227257222e-06 -0.024951496125246605 0 2.4964066867168993e-06 -0.024865555210927565 0 5.4971387312244776e-06 -0.024931123192930085 0 2.6932957984643882e-08 -0.024999837151257174 0 -5.7191392824004128e-05 -0.024959418433813246 0 4.9372093227257222e-06 -0.024951496125246605 0 2.6932957984643882e-08 -0.024999837151257174 0 4.9372093227257222e-06 -0.024951496125246605 0 4.3537541525966457e-08 -0.02499963900154735 0 4.5619137738517062e-05 -0.024784040767374352 0 4.9372093227257222e-06 -0.024951496125246605 0 3.6520375326311042e-05 -0.024842564856557201 0 4.9372093227257222e-06 -0.024951496125246605 0 4.3537541525966457e-08 -0.02499963900154735 0 3.6520375326311042e-05 -0.024842564856557201 0 4.3537541525966457e-08 -0.02499963900154735 0 3.6520375326311042e-05 -0.024842564856557201 0 4.6761030324769885e-05 -0.024765459377241696 0 4.5619137738517062e-05 -0.024784040767374352 0 3.6520375326311042e-05 -0.024842564856557201 0 4.5056163549867805e-05 -0.024666866721041795 0 4.5056163549867805e-05 -0.024666866721041795 0 4.6761030324769885e-05 -0.024765459377241696 0 4.0571482105080177e-05 -0.024510720409252968 0 3.6520375326311042e-05 -0.024842564856557201 0 4.5056163549867805e-05 -0.024666866721041795 0 4.6761030324769885e-05 -0.024765459377241696 0 5.4307874299377308e-05 -0.02454318575442142 0 4.6761030324769885e-05 -0.024765459377241696 0 4.0571482105080177e-05 -0.024510720409252968 0 6.4280940599934285e-08 -0.024999511711709277 0 5.4307874299377308e-05 -0.02454318575442142 0 4.6761030324769885e-05 -0.024765459377241696 0 6.4280940599934285e-08 -0.024999511711709277 0 4.3537541525966457e-08 -0.02499963900154735 0 4.6761030324769885e-05 -0.024765459377241696 0 -3.9343470715802158e-05 -0.023866965357173066 0 1.245032403319705e-05 -0.024222763611311305 0 -0.00019493950752709895 -0.024204464362275909 0 1.245032403319705e-05 -0.024222763611311305 0 -2.3399975381878517e-05 -0.024446088685922511 0 -0.00019493950752709895 -0.024204464362275909 0 1.245032403319705e-05 -0.024222763611311305 0 4.0571482105080177e-05 -0.024510720409252968 0 -2.3399975381878517e-05 -0.024446088685922511 0 5.4307874299377308e-05 -0.02454318575442142 0 1.245032403319705e-05 -0.024222763611311305 0 4.0571482105080177e-05 -0.024510720409252968 0 4.5056163549867805e-05 -0.024666866721041795 0 4.0571482105080177e-05 -0.024510720409252968 0 -2.3399975381878517e-05 -0.024446088685922511 0 4.5056163549867805e-05 -0.024666866721041795 0 -2.3399975381878517e-05 -0.024446088685922511 0 1.2346809966057439e-05 -0.024670990881627733 0 -2.3399975381878517e-05 -0.024446088685922511 0 -0.00012556061676547776 -0.02456455733051242 0 -0.00019493950752709895 -0.024204464362275909 0 -0.00012556061676547776 -0.02456455733051242 0 -7.9476991441182146e-05 -0.024731977986043336 0 -0.00028253426398714782 -0.024687468688580103 0 -2.3399975381878517e-05 -0.024446088685922511 0 -0.00012556061676547776 -0.02456455733051242 0 1.2346809966057439e-05 -0.024670990881627733 0 -0.00012556061676547776 -0.02456455733051242 0 1.2346809966057439e-05 -0.024670990881627733 0 -7.9476991441182146e-05 -0.024731977986043336 0 -0.00011502524934926659 -0.024911579968478884 0 2.4964066867168993e-06 -0.024865555210927565 0 6.0650882895789481e-05 -0.024753804962831878 0 1.2346809966057439e-05 -0.024670990881627733 0 -7.9476991441182146e-05 -0.024731977986043336 0 -6.8322697195581352e-05 -0.024866643440523434 0 6.0650882895789481e-05 -0.024753804962831878 0 -7.9476991441182146e-05 -0.024731977986043336 0 -7.9476991441182146e-05 -0.024731977986043336 0 -0.00028253426398714782 -0.024687468688580103 0 -0.00024505730133179645 -0.024861523052097389 0 -6.8322697195581352e-05 -0.024866643440523434 0 -7.9476991441182146e-05 -0.024731977986043336 0 -0.00024505730133179645 -0.024861523052097389 0 -0.00028253426398714782 -0.024687468688580103 0 -0.00044503781028538308 -0.024903819806789129 0 -0.00024505730133179645 -0.024861523052097389 0 -0.00028253426398714782 -0.024687468688580103 0 -0.00058397904806591701 -0.024669564228113977 0 -0.00044503781028538308 -0.024903819806789129 0 -0.00099649631880865497 -0.024126229081437571 0 -0.0010898615444240387 -0.024131648393936708 0 -0.001028035300277088 -0.02416245133002622 0 -0.00079440729886671438 -0.024339440836534464 0 -0.00066167006651356858 -0.024700549577340986 0 -0.00058397904806591701 -0.024669564228113977 0 -0.00036314484840942499 -0.024459844713395192 0 -0.00078335930332893127 -0.024144409206083378 0 -0.00079440729886671438 -0.024339440836534464 0 -0.00079753136292264623 -0.024168824839841101 0 -0.00099649631880865497 -0.024126229081437571 0 -0.00078335930332893127 -0.024144409206083378 0 -0.001057518886963106 -0.024110582985779991 0 -0.00028253426398714782 -0.024687468688580103 0 -0.00058397904806591701 -0.024669564228113977 0 -0.00036314484840942499 -0.024459844713395192 0 -0.00012556061676547776 -0.02456455733051242 0 -0.00028253426398714782 -0.024687468688580103 0 -0.00036314484840942499 -0.024459844713395192 0 -0.00012556061676547776 -0.02456455733051242 0 -0.00036314484840942499 -0.024459844713395192 0 -0.00019493950752709895 -0.024204464362275909 0 -0.00036314484840942499 -0.024459844713395192 0 -0.00019493950752709895 -0.024204464362275909 0 -0.00078335930332893127 -0.024144409206083378 0 -0.00019493950752709895 -0.024204464362275909 0 -0.00078335930332893127 -0.024144409206083378 0 -0.00044789217552462335 -0.023824001497896107 0 -0.00078335930332893127 -0.024144409206083378 0 -0.00044789217552462335 -0.023824001497896107 0 -0.00089165006468245136 -0.023623557870080556 0 -0.00057301535046903646 -0.023436499543075473 0 -0.00044789217552462335 -0.023824001497896107 0 -0.00089165006468245136 -0.023623557870080556 0 -3.9343470715802158e-05 -0.023866965357173066 0 -0.00019493950752709895 -0.024204464362275909 0 -0.00044789217552462335 -0.023824001497896107 0 -0.0014665611936928379 -0.023173616965951584 0 -0.00089165006468245136 -0.023623557870080556 0 -0.0015441413475295663 -0.023598722313362793 0 -0.00078335930332893127 -0.024144409206083378 0 -0.00089165006468245136 -0.023623557870080556 0 -0.0010871004801125085 -0.023918640163514873 0 -0.0010871004801125085 -0.023918640163514873 0 -0.0015441413475295663 -0.023598722313362793 0 -0.0012609484344633843 -0.024030258747903419 0 -0.00089165006468245136 -0.023623557870080556 0 -0.0010871004801125085 -0.023918640163514873 0 -0.0015441413475295663 -0.023598722313362793 0 -0.0012609484344633843 -0.024030258747903419 0 -0.001057518886963106 -0.024110582985779991 0 -0.0012481572646756236 -0.024066590323832723 0 -0.0012609484344633843 -0.024030258747903419 0 -0.0012481572646756236 -0.024066590323832723 0 -0.0013439374126056353 -0.024132505016686286 0 -0.0010871004801125085 -0.023918640163514873 0 -0.0012609484344633843 -0.024030258747903419 0 -0.001057518886963106 -0.024110582985779991 0 -0.00078335930332893127 -0.024144409206083378 0 -0.0010871004801125085 -0.023918640163514873 0 -0.001057518886963106 -0.024110582985779991 0 -0.00099649631880865497 -0.024126229081437571 0 -0.001057518886963106 -0.024110582985779991 0 -0.0010898615444240387 -0.024131648393936708 0 -0.001057518886963106 -0.024110582985779991 0 -0.0010898615444240387 -0.024131648393936708 0 -0.0012481572646756236 -0.024066590323832723 0 -0.0012481572646756236 -0.024066590323832723 0 -0.0012042515485923523 -0.024128052489515994 0 -0.0012796271520553197 -0.023885208488880798 0 -0.0010898615444240387 -0.024131648393936708 0 -0.0012481572646756236 -0.024066590323832723 0 -0.0012042515485923523 -0.024128052489515994 0 -0.0025776739103947591 -0.023243338297527099 0 -0.0020603280847013372 -0.022552048470783802 0 -0.0016331312600455252 -0.023039018791683005 0 -0.0020603280847013372 -0.022552048470783802 0 -0.002614101092775452 -0.022106579880110985 0 -0.0016640077826575127 -0.021705991778766177 0 -0.0025776739103947591 -0.023243338297527099 0 -0.0020603280847013372 -0.022552048470783802 0 -0.002614101092775452 -0.022106579880110985 0 -0.0025776739103947591 -0.023243338297527099 0 -0.002614101092775452 -0.022106579880110985 0 -0.0036747634752799891 -0.02266622464785454 0 -0.002614101092775452 -0.022106579880110985 0 -0.0036747634752799891 -0.02266622464785454 0 -0.0034936010231215405 -0.021622168004891661 0 -0.0018352039309681982 -0.023695471508577041 0 -0.0025234230464142621 -0.023373398402630211 0 -0.0010898615444240387 -0.024131648393936708 0 -0.0012042515485923523 -0.024128052489515994 0 -0.001085598473894027 -0.024191997154787762 0 -0.0010898615444240387 -0.024131648393936708 0 -0.001085598473894027 -0.024191997154787762 0 -0.001028035300277088 -0.02416245133002622 0 -0.00044503781028538308 -0.024903819806789129 0 -0.00024505730133179645 -0.024861523052097389 0 -0.00030511831804692278 -0.02501605477499998 0 -0.001028035300277088 -0.02416245133002622 0 -0.0010325475002659075 -0.024206293821798751 0 -0.0010358868296930263 -0.024207721059870218 0 -0.00044503781028538308 -0.024903819806789129 0 -0.00030511831804692278 -0.02501605477499998 0 -0.00036079020474486065 -0.025074292210189676 0 -0.00066167006651356858 -0.024700549577340986 0 -0.0014752638369149227 -0.023873906540316257 0 -0.00023325583742360767 -0.025095390737825098 0 -0.00034168020092281291 -0.025041335522026333 0 -0.00027198148695044386 -0.025044125775022765 0 -9.1678432416534517e-05 -0.024910510920317524 0 -0.0014752638369149227 -0.023873906540316257 0 -0.00023499079042071447 -0.025014819035412715 0 -0.00030511831804692278 -0.02501605477499998 0 -0.00036079020474486065 -0.025074292210189676 0 -0.00034407876891427187 -0.025030283437161044 0 -0.00034168020092281291 -0.025041335522026333 0 -0.00027198148695044386 -0.025044125775022765 0 -0.0022602892154401613 -0.022063550687059789 0 -0.0022400307543996921 -0.022072556787874509 0 -0.0022650987108866331 -0.022175940448316545 0 -0.0014062713267129017 -0.023542978157386759 0 -0.001323094992778209 -0.02350849940277995 0 -0.0014285384227451976 -0.023458926848884731 0 -0.0014752638369149227 -0.023873906540316257 0 -0.0016809906804800781 -0.023528652017452266 0 -0.0021471616735528171 -0.023416308546510528 0 -0.0016809906804800781 -0.023528652017452266 0 -0.0014752638369149227 -0.023873906540316257 0 -0.0021471616735528171 -0.023416308546510528 0 -0.00023499079042071447 -0.025014819035412715 0 -0.00034407876891427187 -0.025030283437161044 0 -0.00027198148695044386 -0.025044125775022765 0 -0.0025234230464142621 -0.023373398402630211 0 -0.0021471616735528171 -0.023416308546510528 0 -0.001085598473894027 -0.024191997154787762 0 -0.001028035300277088 -0.02416245133002622 0 -0.0010358868296930263 -0.024207721059870218 0 -0.0036747634752799891 -0.02266622464785454 0 -0.0047069427841319109 -0.022172420196920149 0 -0.0034936010231215405 -0.021622168004891661 0 -0.0022602892154401613 -0.022063550687059789 0 -0.0023626876429785558 -0.022178219897514881 0 -0.0024942150907193597 -0.022144802066783962 0 -0.0021471616735528171 -0.023416308546510528 0 -0.0032320150244321204 -0.021847217565604031 0 -0.0023626876429785558 -0.022178219897514881 0 -0.0021983355280997294 -0.022272730106259023 0 -0.0024688718300177491 -0.022243066821605165 0 -0.0022602892154401613 -0.022063550687059789 0 -0.0023626876429785558 -0.022178219897514881 0 -0.0022650987108866331 -0.022175940448316545 0 -0.0027129511228395644 -0.022863242171912396 0 -0.0019103540049073187 -0.023236138661021137 0 -0.0023483518119242802 -0.022637024067974458 0 -0.0019103540049073187 -0.023236138661021137 0 -0.0023483518119242802 -0.022637024067974458 0 -0.0021912003447554515 -0.022266805431464896 0 -0.0016809906804800781 -0.023528652017452266 0 -0.0022813111804697401 -0.021967891920471286 0 -0.0022400307543996921 -0.022072556787874509 0 -0.0022650987108866331 -0.022175940448316545 0 -0.0021912003447554515 -0.022266805431464896 0 -0.00083417926515135497 -0.024246497033400337 0 -0.0016809906804800781 -0.023528652017452266 0 -0.0022650987108866331 -0.022175940448316545 0 -0.0021912003447554515 -0.022266805431464896 0 -0.0021983355280997294 -0.022272730106259023 0 -0.0023626876429785558 -0.022178219897514881 0 -0.0022650987108866331 -0.022175940448316545 0 -0.0021983355280997294 -0.022272730106259023 0 -0.0023483518119242802 -0.022637024067974458 0 -0.0021912003447554515 -0.022266805431464896 0 -0.0022505858201626503 -0.022226377108743769 0 -0.0023483518119242802 -0.022637024067974458 0 -0.0024721009395884536 -0.022251004701619656 0 -0.0022560628010435129 -0.022223575287984087 0 -0.0026386124322397551 -0.022418044412252321 0 -0.0027784359216765017 -0.021596686861453929 0 -0.0042563673022422621 -0.02009708773566022 0 -0.0038521767492482582 -0.019673742388918898 0 -0.0040548743651434675 -0.019132095218941988 0 -0.0020287388505636321 -0.022601777719589114 0 -0.0018261055641279364 -0.022576149270142697 0 -0.0015845134558058916 -0.021453505092874678 0 -0.00071189140165642121 -0.023498878104614918 0 -0.00068585848404354149 -0.023416879979713062 0 -0.00072956575738988795 -0.023449766286598315 0 -0.0027784359216765017 -0.021596686861453929 0 -0.0018418559860840312 -0.021398813849572176 0 -0.0011075867294617519 -0.023296392850787363 0 -0.0018418559860840312 -0.021398813849572176 0 -0.0011075867294617519 -0.023296392850787363 0 -0.0027784359216765017 -0.021596686861453929 0 -0.0021912003447554515 -0.022266805431464896 0 -0.0022505858201626503 -0.022226377108743769 0 -0.0021983355280997294 -0.022272730106259023 0 -0.0027784359216765017 -0.021596686861453929 0 -0.0032892804950991985 -0.021085130421163809 0 -0.0042563673022422621 -0.02009708773566022 0 -0.0041363214675612971 -0.020080235555139346 0 -0.0038521767492482582 -0.019673742388918898 0 -0.0032892804950991985 -0.021085130421163809 0 -0.0027719327669346702 -0.021204514807100165 0 -0.0041020112097187823 -0.020080894361327924 0 -0.0034676799646537952 -0.019988961981578391 0 -0.0031277743347820752 -0.020107474099375047 0 -0.0041363214675612971 -0.020080235555139346 0 -0.0038521767492482582 -0.019673742388918898 0 -0.0034676799646537952 -0.019988961981578391 0 -0.0032892804950991985 -0.021085130421163809 0 -0.0037687549932294527 -0.020046771103957823 0 -0.0034676799646537952 -0.019988961981578391 0 -0.0031881591994779085 -0.019705301891112168 0 -0.0031277743347820752 -0.020107474099375047 0 -0.0038521767492482582 -0.019673742388918898 0 -0.0034676799646537952 -0.019988961981578391 0 -0.0034796992686867683 -0.019542440962420225 0 -0.0034676799646537952 -0.019988961981578391 0 -0.0034796992686867683 -0.019542440962420225 0 -0.0031881591994779085 -0.019705301891112168 0 -0.0031277743347820752 -0.020107474099375047 0 -0.0027787604144140542 -0.019564310863198934 0 -0.0021198493336199733 -0.020152071717070789 0 -0.0031881591994779085 -0.019705301891112168 0 -0.0027787604144140542 -0.019564310863198934 0 -0.0032019124721006944 -0.019217016973620223 0 -0.0031881591994779085 -0.019705301891112168 0 -0.0031277743347820752 -0.020107474099375047 0 -0.0027787604144140542 -0.019564310863198934 0 -0.0027787604144140542 -0.019564310863198934 0 -0.0021198493336199733 -0.020152071717070789 0 -0.0022061768044756122 -0.019296477125573273 0 -0.0021198493336199733 -0.020152071717070789 0 -0.0017890917732621265 -0.019381468815305437 0 -0.0022061768044756122 -0.019296477125573273 0 -0.002614101092775452 -0.022106579880110985 0 -0.0021909003374261998 -0.021002305309162854 0 -0.0034936010231215405 -0.021622168004891661 0 -0.002614101092775452 -0.022106579880110985 0 -0.0021909003374261998 -0.021002305309162854 0 -0.0016640077826575127 -0.021705991778766177 0 -0.0023786050168538024 -0.021014954012181616 0 -0.0032320150244321204 -0.021847217565604031 0 -0.0024688718300177491 -0.022243066821605165 0 -0.0026922279498963956 -0.022203438573676463 0 -0.0024942150907193597 -0.022144802066783962 0 -0.0027719327669346702 -0.021204514807100165 0 -0.0023786050168538024 -0.021014954012181616 0 -0.0023626876429785558 -0.022178219897514881 0 -0.0024688718300177491 -0.022243066821605165 0 -0.0024942150907193597 -0.022144802066783962 0 -0.0010465980184769176 -0.02077247371608926 0 0.0004018251969439288 -0.020812304716140418 0 -0.0011777673194465679 -0.02062255820216188 0 -0.00032188086178539888 -0.020169745045647978 0 0.0004969880614769601 -0.020798049405002367 0 -0.0009265644502748537 -0.020956822227343047 0 -0.00031304864106018678 -0.021660299626553577 0 0.0004969880614769601 -0.020798049405002367 0 -0.0009265644502748537 -0.020956822227343047 0 -0.00031304864106018678 -0.021660299626553577 0 -0.00096938926120606738 -0.021722847718173951 0 -0.0021909003374261998 -0.021002305309162854 0 -0.0009265644502748537 -0.020956822227343047 0 -0.0016640077826575127 -0.021705991778766177 0 -0.0023786050168538024 -0.021014954012181616 0 -0.0010465980184769176 -0.02077247371608926 0 -0.0009265644502748537 -0.020956822227343047 0 -0.00096938926120606738 -0.021722847718173951 0 -0.0016640077826575127 -0.021705991778766177 0 -0.0028876609217458184 -0.020541985311767683 0 -0.0011777673194465679 -0.02062255820216188 0 -0.0012697048565747094 -0.019863747467640948 0 -0.0021198493336199733 -0.020152071717070789 0 -0.0014513587621102597 -0.019618370934484698 0 -0.0017890917732621265 -0.019381468815305437 0 -0.0021198493336199733 -0.020152071717070789 0 -0.0014513587621102597 -0.019618370934484698 0 -0.0012697048565747094 -0.019863747467640948 0 -0.0023786050168538024 -0.021014954012181616 0 -0.0013422681597062545 -0.019790049671842086 0 -0.0014513587621102597 -0.019618370934484698 0 -0.00079387550759004973 -0.019606589276838012 0 -0.0012697048565747094 -0.019863747467640948 0 -0.0014513587621102597 -0.019618370934484698 0 -0.00079387550759004973 -0.019606589276838012 0 -0.00051577952372272476 -0.018612822352367862 0 -0.0011777673194465679 -0.02062255820216188 0 -0.0012697048565747094 -0.019863747467640948 0 -0.00088955045109714436 -0.020062869130048771 0 -0.0011777673194465679 -0.02062255820216188 0 -0.00088955045109714436 -0.020062869130048771 0 -0.00032188086178539888 -0.020169745045647978 0 -0.00079387550759004973 -0.019606589276838012 0 -0.0012697048565747094 -0.019863747467640948 0 -0.00088955045109714436 -0.020062869130048771 0 -0.00079387550759004973 -0.019606589276838012 0 -0.00088955045109714436 -0.020062869130048771 0 -0.00032188086178539888 -0.020169745045647978 0 -0.00079387550759004973 -0.019606589276838012 0 -0.00032188086178539888 -0.020169745045647978 0 -0.00027998040753322108 -0.019167872590061308 0 -0.00032188086178539888 -0.020169745045647978 0 0.0004969880614769601 -0.020798049405002367 0 0.00072363296801822394 -0.019018518711888348 0 -0.00032188086178539888 -0.020169745045647978 0 0.00072363296801822394 -0.019018518711888348 0 -0.00027998040753322108 -0.019167872590061308 0 0.0013704859851066246 -0.02089399556984578 0 0.0004969880614769601 -0.020798049405002367 0 0.00072363296801822394 -0.019018518711888348 0 -0.0020257180237205027 -0.016520477536878662 0 -0.0010499249536214969 -0.014883409977980473 0 -0.0026813343239648667 -0.010722044715004026 0 -0.0028910172406328774 -0.011145807283735249 0 -0.0031064090233186119 -0.010438149707997398 0 -0.0016987012746523113 -0.010115169736289339 0 -0.0020257180237205027 -0.016520477536878662 0 -0.0028493950866900677 -0.011090166790790586 0 -0.0025500742641095656 -0.0117581917819584 0 -0.0025482687230585213 -0.011068608703749146 0 -0.0026813343239648667 -0.010722044715004026 0 -0.0028493950866900677 -0.011090166790790586 0 -0.0025482687230585213 -0.011068608703749146 0 -0.0020257180237205027 -0.016520477536878662 0 -0.0012096180234228155 -0.023239813638824609 0 0.0013704859851066246 -0.02089399556984578 0 0.0004969880614769601 -0.020798049405002367 0 0.00032418339437077678 -0.022560728500201053 0 -0.00031304864106018678 -0.021660299626553577 0 0.0004969880614769601 -0.020798049405002367 0 0.00032418339437077678 -0.022560728500201053 0 -0.0020257180237205027 -0.016520477536878662 0 -0.0024412943037630274 -0.016736987651586595 0 -0.0024520840863458799 -0.021549588887253193 0 -0.002734069209991198 -0.022320585821559765 0 -0.0022559176803706306 -0.022382869649922657 0 -0.0022559176803706306 -0.022382869649922657 0 -0.0024487716379860344 -0.022652233565562091 0 -0.0024023284170373326 -0.022785821574763034 0 -0.002734069209991198 -0.022320585821559765 0 -0.0022559176803706306 -0.022382869649922657 0 -0.0024487716379860344 -0.022652233565562091 0 -0.002734069209991198 -0.022320585821559765 0 -0.0024487716379860344 -0.022652233565562091 0 -0.0025417222465707059 -0.022861353505130397 0 -0.002734069209991198 -0.022320585821559765 0 -0.0026558102361396059 -0.022928449088803263 0 -0.0025417222465707059 -0.022861353505130397 0 -0.0012096180234228155 -0.023239813638824609 0 -0.0016185588089190645 -0.02320047344151601 0 0.00032418339437077678 -0.022560728500201053 0 -0.00095122447131072729 -0.023120283868784515 0 -0.00071582099369564567 -0.023881129670993647 0 -0.00095122447131072729 -0.023120283868784515 0 -0.0012796271520553197 -0.023885208488880798 0 -0.00071582099369564567 -0.023881129670993647 0 0.00032418339437077678 -0.022560728500201053 0 -0.00095122447131072729 -0.023120283868784515 0 -0.00065716119550579782 -0.02227517242108084 0 -0.00095122447131072729 -0.023120283868784515 0 -0.00065716119550579782 -0.02227517242108084 0 -0.0013335778522861623 -0.022390693998226092 0 -0.00031304864106018678 -0.021660299626553577 0 -0.00096938926120606738 -0.021722847718173951 0 -0.00065716119550579782 -0.02227517242108084 0 -0.00096938926120606738 -0.021722847718173951 0 -0.00065716119550579782 -0.02227517242108084 0 -0.0013335778522861623 -0.022390693998226092 0 -0.00031304864106018678 -0.021660299626553577 0 0.00032418339437077678 -0.022560728500201053 0 -0.00065716119550579782 -0.02227517242108084 0 -0.0020603280847013372 -0.022552048470783802 0 -0.0016640077826575127 -0.021705991778766177 0 -0.0013335778522861623 -0.022390693998226092 0 -0.00096938926120606738 -0.021722847718173951 0 -0.0016640077826575127 -0.021705991778766177 0 -0.0013335778522861623 -0.022390693998226092 0 -0.00095122447131072729 -0.023120283868784515 0 -0.0013335778522861623 -0.022390693998226092 0 -0.0016331312600455252 -0.023039018791683005 0 -0.0020603280847013372 -0.022552048470783802 0 -0.0013335778522861623 -0.022390693998226092 0 -0.0016331312600455252 -0.023039018791683005 0 -0.0025776739103947591 -0.023243338297527099 0 -0.0016331312600455252 -0.023039018791683005 0 -0.0012796271520553197 -0.023885208488880798 0 -0.0018352039309681982 -0.023695471508577041 0 -0.0013342778989062277 -0.023882492342764971 0 -0.00095122447131072729 -0.023120283868784515 0 -0.0016331312600455252 -0.023039018791683005 0 -0.0012796271520553197 -0.023885208488880798 0 -0.0012796271520553197 -0.023885208488880798 0 -0.00071582099369564567 -0.023881129670993647 0 -0.0013439374126056353 -0.024132505016686286 0 -0.0012481572646756236 -0.024066590323832723 0 -0.0012796271520553197 -0.023885208488880798 0 -0.0013439374126056353 -0.024132505016686286 0 -0.0016185588089190645 -0.02320047344151601 0 -0.0017619134738732101 -0.023690718979107992 0 -0.0026558102361396059 -0.022928449088803263 0 -0.0024443261262482993 -0.023138148280837344 0 -0.0025363788069547783 -0.023015075891281017 0 -0.0026558102361396059 -0.022928449088803263 0 -0.0024443261262482993 -0.023138148280837344 0 -0.0022446011479538576 -0.023288728167070092 0 -0.0024443261262482993 -0.023138148280837344 0 -0.0022446011479538576 -0.023288728167070092 0 -0.0022841080372161416 -0.023165284918554296 0 -0.0015441413475295663 -0.023598722313362793 0 -0.0022446011479538576 -0.023288728167070092 0 -0.0020281559138947999 -0.023345985733316834 0 -0.0015441413475295663 -0.023598722313362793 0 -0.0012609484344633843 -0.024030258747903419 0 -0.0013439374126056353 -0.024132505016686286 0 -0.001541824684636772 -0.023532524965034832 0 -0.0017619134738732101 -0.023690718979107992 0 -0.0015441413475295663 -0.023598722313362793 0 -0.0020281559138947999 -0.023345985733316834 0 -0.0019515394839420927 -0.023200555405349394 0 -0.0020281559138947999 -0.023345985733316834 0 -0.0022841080372161416 -0.023165284918554296 0 -0.0019515394839420927 -0.023200555405349394 0 -0.0022446011479538576 -0.023288728167070092 0 -0.0020281559138947999 -0.023345985733316834 0 -0.0022841080372161416 -0.023165284918554296 0 -0.0022841080372161416 -0.023165284918554296 0 -0.0019515394839420927 -0.023200555405349394 0 -0.0024645209530951818 -0.022767671837701474 0 -0.0022580354881168068 -0.022116193499926072 0 -0.0019515394839420927 -0.023200555405349394 0 -0.0024645209530951818 -0.022767671837701474 0 -0.0014665611936928379 -0.023173616965951584 0 -0.0015441413475295663 -0.023598722313362793 0 -0.0019515394839420927 -0.023200555405349394 0 -0.0028255390515375461 -0.02221258103778195 0 -0.0024645209530951818 -0.022767671837701474 0 -0.0027862797803003465 -0.02303820958368142 0 -0.0035483494083431658 -0.021912513237352969 0 -0.0028255390515375461 -0.02221258103778195 0 -0.0027862797803003465 -0.02303820958368142 0 -0.0022580354881168068 -0.022116193499926072 0 -0.0028255390515375461 -0.02221258103778195 0 -0.0024645209530951818 -0.022767671837701474 0 -0.0022841080372161416 -0.023165284918554296 0 -0.0024645209530951818 -0.022767671837701474 0 -0.0027862797803003465 -0.02303820958368142 0 -0.0022841080372161416 -0.023165284918554296 0 -0.0027862797803003465 -0.02303820958368142 0 -0.0025202639775067787 -0.023095129181931337 0 -0.0025467864639784682 -0.022972510245845401 0 -0.0025202639775067787 -0.023095129181931337 0 -0.002498925711079094 -0.022921627250543194 0 -0.0027862797803003465 -0.02303820958368142 0 -0.0025467864639784682 -0.022972510245845401 0 -0.0025202639775067787 -0.023095129181931337 0 -0.0024443261262482993 -0.023138148280837344 0 -0.0022841080372161416 -0.023165284918554296 0 -0.0025202639775067787 -0.023095129181931337 0 -0.0024443261262482993 -0.023138148280837344 0 -0.0025202639775067787 -0.023095129181931337 0 -0.0025363788069547783 -0.023015075891281017 0 -0.0026558102361396059 -0.022928449088803263 0 -0.0025363788069547783 -0.023015075891281017 0 -0.0025417222465707059 -0.022861353505130397 0 -0.0025202639775067787 -0.023095129181931337 0 -0.0025417222465707059 -0.022861353505130397 0 -0.002498925711079094 -0.022921627250543194 0 -0.0025202639775067787 -0.023095129181931337 0 -0.0025363788069547783 -0.023015075891281017 0 -0.0025417222465707059 -0.022861353505130397 0 -0.0025467864639784682 -0.022972510245845401 0 -0.002498925711079094 -0.022921627250543194 0 -0.0024023284170373326 -0.022785821574763034 0 -0.0024487716379860344 -0.022652233565562091 0 -0.002498925711079094 -0.022921627250543194 0 -0.0024023284170373326 -0.022785821574763034 0 -0.0024487716379860344 -0.022652233565562091 0 -0.0025417222465707059 -0.022861353505130397 0 -0.002498925711079094 -0.022921627250543194 0 -0.0015527665667492085 -0.022813809939919327 0 -0.0030149976269111807 -0.018919653230148516 0 -0.0022559176803706306 -0.022382869649922657 0 -0.0024023284170373326 -0.022785821574763034 0 -0.0022880475207626145 -0.022877900247252544 0 -0.0025467864639784682 -0.022972510245845401 0 -0.0024023284170373326 -0.022785821574763034 0 -0.0024580448044157453 -0.022886156471535392 0 -0.0023074509155702827 -0.012277757380776175 0 -0.0018270074133756829 -0.0120462854404458 0 -0.0021151964493503614 -0.011870478198489723 0 -0.0023074509155702827 -0.012277757380776175 0 -0.0019279308822226122 -0.012505251686528083 0 -0.0018270074133756829 -0.0120462854404458 0 -0.0030149976269111807 -0.018919653230148516 0 -0.002815818432815656 -0.015038009183187399 0 -0.0036293438770275675 -0.019326866322639712 0 -0.0037179936383467506 -0.019276235546143567 0 -0.0036602312198216872 -0.019283250262542136 0 -0.0027862797803003465 -0.02303820958368142 0 -0.0025467864639784682 -0.022972510245845401 0 -0.0025110563385560393 -0.02295705352023086 0 -0.0025467864639784682 -0.022972510245845401 0 -0.0024580448044157453 -0.022886156471535392 0 -0.0025110563385560393 -0.02295705352023086 0 -0.0030149976269111807 -0.018919653230148516 0 -0.0030012806876543552 -0.021352996391043721 0 -0.0027862797803003465 -0.02303820958368142 0 -0.0025110563385560393 -0.02295705352023086 0 -0.0024764480075293574 -0.023087065011083364 0 -0.002572633813091336 -0.023298508324585882 0 -0.004040426224261223 -0.022013617590094299 0 -0.0027862797803003465 -0.02303820958368142 0 -0.0044938562785330309 -0.022978844447713156 0 -0.003979243322033219 -0.022447193215917927 0 -0.0037179936383467506 -0.019276235546143567 0 -0.0036602312198216872 -0.019283250262542136 0 -0.003687410596715829 -0.019237318333963967 0 -0.0030012806876543552 -0.021352996391043721 0 -0.004040426224261223 -0.022013617590094299 0 -0.0045124770095834633 -0.022877162268990843 0 -0.0046229037156535514 -0.022586198547573717 0 -0.0060287230358889677 -0.022607392394737746 0 -0.004040426224261223 -0.022013617590094299 0 -0.0041313360690972151 -0.022414444106392754 0 -0.0044938562785330309 -0.022978844447713156 0 -0.0046229037156535514 -0.022586198547573717 0 -0.003979243322033219 -0.022447193215917927 0 -0.0044800570825860161 -0.021806100150616174 0 -0.0046229037156535514 -0.022586198547573717 0 -0.003979243322033219 -0.022447193215917927 0 -0.0044800570825860161 -0.021806100150616174 0 -0.0046229037156535514 -0.022586198547573717 0 -0.0054818293892392282 -0.021911840373799271 0 -0.0035483494083431658 -0.021912513237352969 0 -0.0027862797803003465 -0.02303820958368142 0 -0.003979243322033219 -0.022447193215917927 0 -0.0035483494083431658 -0.021912513237352969 0 -0.0044800570825860161 -0.021806100150616174 0 -0.003979243322033219 -0.022447193215917927 0 -0.0066163490354480868 -0.021927228756273998 0 -0.0061612418580664075 -0.02177467228338556 0 -0.0060287230358889677 -0.022607392394737746 0 -0.0062277394458771325 -0.021852515364859226 0 -0.0044668293201214427 -0.019379737639388085 0 -0.0066586909824655049 -0.021287950459612022 0 -0.0066163490354480868 -0.021927228756273998 0 -0.0061612418580664075 -0.02177467228338556 0 -0.0059353697076966298 -0.02124110880873482 0 -0.0061612418580664075 -0.02177467228338556 0 -0.0054818293892392282 -0.021911840373799271 0 -0.0046229037156535514 -0.022586198547573717 0 -0.0054818293892392282 -0.021911840373799271 0 -0.0060287230358889677 -0.022607392394737746 0 -0.0061612418580664075 -0.02177467228338556 0 -0.0054818293892392282 -0.021911840373799271 0 -0.0060287230358889677 -0.022607392394737746 0 -0.004040426224261223 -0.022013617590094299 0 -0.0044668293201214427 -0.019379737639388085 0 -0.0037179936383467506 -0.019276235546143567 0 -0.003687410596715829 -0.019237318333963967 0 -0.0038041404765058046 -0.019223049376349926 0 -0.002815818432815656 -0.015038009183187399 0 -0.0044668293201214427 -0.019379737639388085 0 -0.0071323291988067963 -0.022085243859749804 0 -0.0066163490354480868 -0.021927228756273998 0 -0.0062171022921112531 -0.022206451042791654 0 -0.0012060826619826456 -0.012522672608318446 0 -0.0015269807718481226 -0.012837169675690955 0 -0.0014889427700533113 -0.012285790750004128 0 -0.0010512496760881147 -0.012098872673847001 0 -0.0012060826619826456 -0.012522672608318446 0 -0.0014889427700533113 -0.012285790750004128 0 -0.0019279308822226122 -0.012505251686528083 0 -0.0015269807718481226 -0.012837169675690955 0 -0.0014889427700533113 -0.012285790750004128 0 -0.0019279308822226122 -0.012505251686528083 0 -0.0014889427700533113 -0.012285790750004128 0 -0.0018270074133756829 -0.0120462854404458 0 -0.0014889427700533113 -0.012285790750004128 0 -0.0018270074133756829 -0.0120462854404458 0 -0.0013191609342901173 -0.011673758997825615 0 -0.0010512496760881147 -0.012098872673847001 0 -0.0014889427700533113 -0.012285790750004128 0 -0.0013191609342901173 -0.011673758997825615 0 -0.001317944442569494 -0.01161630822465109 0 -0.0012499388562631929 -0.010917126353177509 0 -0.0013191609342901173 -0.011673758997825615 0 -0.0011508694866322643 -0.011196223293648356 0 -0.0015872979783676754 -0.011204778594539437 0 -0.0017548689993085499 -0.011609275476176533 0 -0.002034357834501308 -0.011414644740467529 0 -0.0015872979783676754 -0.011204778594539437 0 -0.0013191609342901173 -0.011673758997825615 0 -0.0017548689993085499 -0.011609275476176533 0 -0.0015872979783676754 -0.011204778594539437 0 -0.0018270074133756829 -0.0120462854404458 0 -0.0013191609342901173 -0.011673758997825615 0 -0.0017548689993085499 -0.011609275476176533 0 -0.0017548689993085499 -0.011609275476176533 0 -0.0021151964493503614 -0.011870478198489723 0 -0.002034357834501308 -0.011414644740467529 0 -0.0018270074133756829 -0.0120462854404458 0 -0.0017548689993085499 -0.011609275476176533 0 -0.0021151964493503614 -0.011870478198489723 0 -0.0025500742641095656 -0.0117581917819584 0 -0.0023074509155702827 -0.012277757380776175 0 -0.0021151964493503614 -0.011870478198489723 0 -0.0024412943037630274 -0.016736987651586595 0 -0.0030149976269111807 -0.018919653230148516 0 -0.0025500742641095656 -0.0117581917819584 0 -0.0021151964493503614 -0.011870478198489723 0 -0.002034357834501308 -0.011414644740467529 0 -0.0025500742641095656 -0.0117581917819584 0 -0.002034357834501308 -0.011414644740467529 0 -0.0022875672056448856 -0.011125640874887446 0 -0.002034357834501308 -0.011414644740467529 0 -0.001903563764886597 -0.010860013922246503 0 -0.0022875672056448856 -0.011125640874887446 0 -0.001903563764886597 -0.010860013922246503 0 -0.0022875672056448856 -0.011125640874887446 0 -0.0023172378186818942 -0.010728984999873714 0 -0.002034357834501308 -0.011414644740467529 0 -0.001903563764886597 -0.010860013922246503 0 -0.0015872979783676754 -0.011204778594539437 0 -0.0025500742641095656 -0.0117581917819584 0 -0.0022875672056448856 -0.011125640874887446 0 -0.0025482687230585213 -0.011068608703749146 0 -0.0022875672056448856 -0.011125640874887446 0 -0.0025482687230585213 -0.011068608703749146 0 -0.0023172378186818942 -0.010728984999873714 0 -0.0026813343239648667 -0.010722044715004026 0 -0.0023172378186818942 -0.010728984999873714 0 -0.002326532415326996 -0.010271948281388206 0 -0.0026813343239648667 -0.010722044715004026 0 -0.0025482687230585213 -0.011068608703749146 0 -0.0023172378186818942 -0.010728984999873714 0 -0.001903563764886597 -0.010860013922246503 0 -0.0023172378186818942 -0.010728984999873714 0 -0.0019309510101883358 -0.01038729843465692 0 -0.0023172378186818942 -0.010728984999873714 0 -0.0019309510101883358 -0.01038729843465692 0 -0.002326532415326996 -0.010271948281388206 0 -0.0014378862517228929 -0.010690262582782826 0 -0.0012946251705352233 -0.010335757460110598 0 -0.0015735297565429688 -0.010160811649765863 0 -0.001903563764886597 -0.010860013922246503 0 -0.0019309510101883358 -0.01038729843465692 0 -0.0014378862517228929 -0.010690262582782826 0 -0.0019309510101883358 -0.01038729843465692 0 -0.0014378862517228929 -0.010690262582782826 0 -0.0015735297565429688 -0.010160811649765863 0 -0.0014378862517228929 -0.010690262582782826 0 -0.0012946251705352233 -0.010335757460110598 0 -0.00094091611070659751 -0.010458346585844141 0 -0.0014378862517228929 -0.010690262582782826 0 -0.00094091611070659751 -0.010458346585844141 0 -0.0011508694866322643 -0.011196223293648356 0 -0.0014378862517228929 -0.010690262582782826 0 -0.0011508694866322643 -0.011196223293648356 0 -0.0015872979783676754 -0.011204778594539437 0 -0.0010818621114764954 -0.010042519459610827 0 -0.0012499388562631929 -0.010917126353177509 0 -0.001903563764886597 -0.010860013922246503 0 -0.0014378862517228929 -0.010690262582782826 0 -0.0015872979783676754 -0.011204778594539437 0 -0.0011840020327979833 -0.0093895403875791511 0 -0.0013060346979315229 -0.009332892050764173 0 -0.0011826738892438168 -0.0092375047708335416 0 -0.0011840020327979833 -0.0093895403875791511 0 -0.0014964769530658416 -0.0097836443766357323 0 -0.0019754096143123818 -0.0096777252277136898 0 -0.0012127544296311776 -0.0094002323285094936 0 -0.0015711334940638018 -0.0095455808904597143 0 -0.0010560765595260099 -0.0092662456899149041 0 -0.0011840020327979833 -0.0093895403875791511 0 -0.0011826738892438168 -0.0092375047708335416 0 -0.00096698850610240457 -0.0093630487122276455 0 -0.0010560765595260099 -0.0092662456899149041 0 -0.0011840020327979833 -0.0093895403875791511 0 -0.00096698850610240457 -0.0093630487122276455 0 -0.0011840020327979833 -0.0093895403875791511 0 -0.0012494645284243167 -0.009898377924079986 0 -0.0011840020327979833 -0.0093895403875791511 0 -0.0012494645284243167 -0.009898377924079986 0 -0.0014964769530658416 -0.0097836443766357323 0 -0.00096698850610240457 -0.0093630487122276455 0 -0.00094091611070659751 -0.010458346585844141 0 -0.0012494645284243167 -0.009898377924079986 0 -0.0012946251705352233 -0.010335757460110598 0 -0.00094091611070659751 -0.010458346585844141 0 -0.0012494645284243167 -0.009898377924079986 0 -0.0012946251705352233 -0.010335757460110598 0 -0.0012494645284243167 -0.009898377924079986 0 -0.0015735297565429688 -0.010160811649765863 0 -0.0015735297565429688 -0.010160811649765863 0 -0.0014964769530658416 -0.0097836443766357323 0 -0.0019754096143123818 -0.0096777252277136898 0 -0.0019309510101883358 -0.01038729843465692 0 -0.0015735297565429688 -0.010160811649765863 0 -0.0019754096143123818 -0.0096777252277136898 0 -0.0012494645284243167 -0.009898377924079986 0 -0.0015735297565429688 -0.010160811649765863 0 -0.0014964769530658416 -0.0097836443766357323 0 -0.0019309510101883358 -0.01038729843465692 0 -0.002326532415326996 -0.010271948281388206 0 -0.0019754096143123818 -0.0096777252277136898 0 -0.002326532415326996 -0.010271948281388206 0 -0.0026261114393653848 -0.0098124529190525625 0 -0.0027345096902611507 -0.010233641709540159 0 -0.0026813343239648667 -0.010722044715004026 0 -0.002326532415326996 -0.010271948281388206 0 -0.0027345096902611507 -0.010233641709540159 0 -0.0013060346979315229 -0.009332892050764173 0 -0.0013414863238111073 -0.009267771367896414 0 -0.0013946146322518175 -0.0093450682083255337 0 -0.0015711334940638018 -0.0095455808904597143 0 -0.0022191840416102182 -0.0092191945694802598 0 -0.002326532415326996 -0.010271948281388206 0 -0.0019754096143123818 -0.0096777252277136898 0 -0.0026261114393653848 -0.0098124529190525625 0 -0.0013060346979315229 -0.009332892050764173 0 -0.0013414863238111073 -0.009267771367896414 0 -0.0012369341282078741 -0.0091906567901588899 0 -0.0013414863238111073 -0.009267771367896414 0 -0.0013930709136518954 -0.009249426690552157 0 -0.0013946146322518175 -0.0093450682083255337 0 -0.0013414863238111073 -0.009267771367896414 0 -0.0013234438030284373 -0.0091817835986770027 0 -0.0013930709136518954 -0.009249426690552157 0 -0.0013234438030284373 -0.0091817835986770027 0 -0.0013491876490614682 -0.0091523144368684736 0 -0.0013930709136518954 -0.009249426690552157 0 -0.0013414863238111073 -0.009267771367896414 0 -0.0013234438030284373 -0.0091817835986770027 0 -0.0012369341282078741 -0.0091906567901588899 0 -0.0013234438030284373 -0.0091817835986770027 0 -0.0012369341282078741 -0.0091906567901588899 0 -0.0012277395024633414 -0.009093890283322012 0 -0.0012369341282078741 -0.0091906567901588899 0 -0.0011221413081564404 -0.0090687288195182049 0 -0.0012277395024633414 -0.009093890283322012 0 -0.0012369341282078741 -0.0091906567901588899 0 -0.0011826738892438168 -0.0092375047708335416 0 -0.0011165385810583031 -0.0091300025118022602 0 -0.0013060346979315229 -0.009332892050764173 0 -0.0012369341282078741 -0.0091906567901588899 0 -0.0011826738892438168 -0.0092375047708335416 0 -0.0010296852562713568 -0.0091553703258141095 0 -0.0010560765595260099 -0.0092662456899149041 0 -0.0011826738892438168 -0.0092375047708335416 0 -0.0010296852562713568 -0.0091553703258141095 0 -0.0011826738892438168 -0.0092375047708335416 0 -0.0011165385810583031 -0.0091300025118022602 0 -0.001023637541153131 -0.0090458277590038192 0 -0.0011165385810583031 -0.0091300025118022602 0 -0.0011221413081564404 -0.0090687288195182049 0 -0.0012369341282078741 -0.0091906567901588899 0 -0.0011165385810583031 -0.0091300025118022602 0 -0.0011221413081564404 -0.0090687288195182049 0 -0.0010033751736446492 -0.0089596526682456847 0 -0.0011221413081564404 -0.0090687288195182049 0 -0.0011231314185071112 -0.008995518661993003 0 -0.0011221413081564404 -0.0090687288195182049 0 -0.0011231314185071112 -0.008995518661993003 0 -0.0012277395024633414 -0.009093890283322012 0 -0.0012277395024633414 -0.009093890283322012 0 -0.0012044656433876626 -0.0090023050667612115 0 -0.0013154840578707657 -0.0090780931799989747 0 -0.0011231314185071112 -0.008995518661993003 0 -0.0012277395024633414 -0.009093890283322012 0 -0.0012044656433876626 -0.0090023050667612115 0 -0.0011231314185071112 -0.008995518661993003 0 -0.0012044656433876626 -0.0090023050667612115 0 -0.0011476648075068746 -0.0089061500120916712 0 -0.0010033751736446492 -0.0089596526682456847 0 -0.0011231314185071112 -0.008995518661993003 0 -0.0010593458599979138 -0.00890922994543932 0 -0.0011231314185071112 -0.008995518661993003 0 -0.0010593458599979138 -0.00890922994543932 0 -0.0011476648075068746 -0.0089061500120916712 0 -0.0010411365285375668 -0.0088478714589521456 0 -0.0010593458599979138 -0.00890922994543932 0 -0.0011071287746042132 -0.0088470862468195011 0 -0.0010593458599979138 -0.00890922994543932 0 -0.0011071287746042132 -0.0088470862468195011 0 -0.0011476648075068746 -0.0089061500120916712 0 -0.0012044656433876626 -0.0090023050667612115 0 -0.0011476648075068746 -0.0089061500120916712 0 -0.0012534696169824381 -0.0088525380956115344 0 -0.0011476648075068746 -0.0089061500120916712 0 -0.0011640140214326542 -0.008810200401398469 0 -0.0012534696169824381 -0.0088525380956115344 0 -0.0011071287746042132 -0.0088470862468195011 0 -0.0011476648075068746 -0.0089061500120916712 0 -0.0011640140214326542 -0.008810200401398469 0 -0.0008880042081454519 -0.013172151897359839 0 0.00016423454693087811 -0.012466837102492986 0 -0.00014800587524816723 -0.014165488226635881 0 -0.00091346423673809084 -0.010946256022148309 0 -0.0012128779470771669 -0.011972513970177196 0 -0.0008880042081454519 -0.013172151897359839 0 -0.0019535793340695481 -0.013872149506002756 0 -0.0010162143189210613 -0.014195556240400664 0 -0.00091346423673809084 -0.010946256022148309 0 -0.0010662542723586849 -0.011140587441432027 0 -0.0011071287746042132 -0.0088470862468195011 0 -0.0011640140214326542 -0.008810200401398469 0 -0.0010966228652105033 -0.0087830759691144532 0 -0.00079640020891381589 -0.0091635068108076555 0 -0.00080324514918974211 -0.0090163377546794068 0 -0.00069858145076996127 -0.009203192443701531 0 -0.0010411365285375668 -0.0088478714589521456 0 -0.0011071287746042132 -0.0088470862468195011 0 -0.0010966228652105033 -0.0087830759691144532 0 -0.0010250229465119691 -0.0085519815509777688 0 -0.0010662542723586849 -0.011140587441432027 0 -0.0009821654358711043 -0.017662770656185486 0 -0.00076736905406692613 -0.016615106459754645 0 -0.00027450662890236258 -0.017532163834746428 0 -0.0009821654358711043 -0.017662770656185486 0 -0.00027450662890236258 -0.017532163834746428 0 -0.00045589605710472895 -0.018289600677263804 0 -0.0009821654358711043 -0.017662770656185486 0 -0.0015887153842418574 -0.017175946549340231 0 -0.0017358170870781192 -0.01802277571421617 0 -0.0012128779470771669 -0.011972513970177196 0 -0.0010403453149785934 -0.016712783230595558 0 -0.0013785205219764023 -0.0092282196671366005 0 -0.0013201920776635203 -0.0091422685882904756 0 -0.0013154840578707657 -0.0090780931799989747 0 -0.0009821654358711043 -0.017662770656185486 0 -0.0015887153842418574 -0.017175946549340231 0 -0.00076736905406692613 -0.016615106459754645 0 -0.0012128779470771669 -0.011972513970177196 0 -0.0012608046697596255 -0.0078109957118090937 0 -0.0012128779470771669 -0.011972513970177196 0 -0.0011782616788527408 -0.013114596631917221 0 -0.0013201920776635203 -0.0091422685882904756 0 -0.0013491876490614682 -0.0091523144368684736 0 -0.0014037009186567005 -0.0091722213705195833 0 -0.0013201920776635203 -0.0091422685882904756 0 -0.0013154840578707657 -0.0090780931799989747 0 -0.0013491876490614682 -0.0091523144368684736 0 -0.0012044656433876626 -0.0090023050667612115 0 -0.0012534696169824381 -0.0088525380956115344 0 -0.0013154840578707657 -0.0090780931799989747 0 -0.0013234438030284373 -0.0091817835986770027 0 -0.0012277395024633414 -0.009093890283322012 0 -0.0013154840578707657 -0.0090780931799989747 0 -0.0013234438030284373 -0.0091817835986770027 0 -0.0013154840578707657 -0.0090780931799989747 0 -0.0013491876490614682 -0.0091523144368684736 0 -0.0013491876490614682 -0.0091523144368684736 0 -0.0014037009186567005 -0.0091722213705195833 0 -0.0013930709136518954 -0.009249426690552157 0 -0.0014037009186567005 -0.0091722213705195833 0 -0.0014432792282233287 -0.0092643958222136131 0 -0.0013930709136518954 -0.009249426690552157 0 -0.0014037009186567005 -0.0091722213705195833 0 -0.001482120615261568 -0.0092613309881604267 0 -0.0014432792282233287 -0.0092643958222136131 0 -0.00057885851578848464 -0.012243348698285157 0 0.00018821876790086446 -0.014612418851192977 0 0.00085878479355284791 -0.016266710163642884 0 0.00010675417247305278 -0.01599419049801995 0 -2.630634948115525e-05 -0.016794350148960285 0 0.00085878479355284791 -0.016266710163642884 0 0.00010675417247305278 -0.01599419049801995 0 0.0010241520181532306 -0.015365817008717215 0 -0.0011782616788527408 -0.013114596631917221 0 -0.00057885851578848464 -0.012243348698285157 0 -0.00076736905406692613 -0.016615106459754645 0 0.00010675417247305278 -0.01599419049801995 0 -2.630634948115525e-05 -0.016794350148960285 0 -0.00076736905406692613 -0.016615106459754645 0 -2.630634948115525e-05 -0.016794350148960285 0 -0.00027450662890236258 -0.017532163834746428 0 -2.630634948115525e-05 -0.016794350148960285 0 0.00067910876416901094 -0.017156061901973864 0 -0.00027450662890236258 -0.017532163834746428 0 0.00085878479355284791 -0.016266710163642884 0 -2.630634948115525e-05 -0.016794350148960285 0 0.00067910876416901094 -0.017156061901973864 0 0.00072091630829489986 -0.017383860626300332 0 0.00062097348725747388 -0.017516473702674167 0 0.00067910876416901094 -0.017156061901973864 0 -0.00027450662890236258 -0.017532163834746428 0 0.0004536976927082377 -0.018095386208868559 0 0.00062097348725747388 -0.017516473702674167 0 0.00047495861616427259 -0.018081079753918539 0 0.00056209260443834945 -0.017996567125998293 0 0.00063329734321165225 -0.018100093727745542 0 0.0004536976927082377 -0.018095386208868559 0 -0.00027450662890236258 -0.017532163834746428 0 -4.2361685331045443e-05 -0.018104918568622199 0 0.0004536976927082377 -0.018095386208868559 0 0.00081670971187356161 -0.018180590718799319 0 0.00085577402019340067 -0.018339347821652686 0 0.00084322979879957708 -0.01825514152265301 0 0.00083166082508214325 -0.018171915654437557 0 0.00083873964864122528 -0.018196230055368894 0 0.00081670971187356161 -0.018180590718799319 0 0.00084322979879957708 -0.01825514152265301 0 0.00085064245724019946 -0.018259960464463623 0 0.00081670971187356161 -0.018180590718799319 0 0.00063329734321165225 -0.018100093727745542 0 0.00071561762367866469 -0.01827314141345061 0 0.00056209260443834945 -0.017996567125998293 0 0.00063329734321165225 -0.018100093727745542 0 0.00071688579910662864 -0.017973172079426884 0 0.00081670971187356161 -0.018180590718799319 0 0.00063329734321165225 -0.018100093727745542 0 0.00071688579910662864 -0.017973172079426884 0 0.00060947982127026068 -0.017814476055201259 0 0.00056209260443834945 -0.017996567125998293 0 0.00071688579910662864 -0.017973172079426884 0 0.00081670971187356161 -0.018180590718799319 0 0.00071688579910662864 -0.017973172079426884 0 0.000901439618626878 -0.017948434462175762 0 0.00071688579910662864 -0.017973172079426884 0 0.00077451328621237715 -0.017830886363661116 0 0.000901439618626878 -0.017948434462175762 0 0.00077451328621237715 -0.017830886363661116 0 0.00083540979856701607 -0.017700220979817466 0 0.00097765014951678138 -0.01779547392205966 0 0.00060947982127026068 -0.017814476055201259 0 0.00071688579910662864 -0.017973172079426884 0 0.00077451328621237715 -0.017830886363661116 0 0.00060947982127026068 -0.017814476055201259 0 0.00077451328621237715 -0.017830886363661116 0 0.00064975065954397222 -0.01764351798604959 0 0.00072091630829489986 -0.017383860626300332 0 0.00018821876790086446 -0.014612418851192977 0 0.00064975065954397222 -0.01764351798604959 0 0.00083540979856701607 -0.017700220979817466 0 0.00084003321899754732 -0.017544370646759851 0 0.00077451328621237715 -0.017830886363661116 0 0.00064975065954397222 -0.01764351798604959 0 0.00083540979856701607 -0.017700220979817466 0 0.00018821876790086446 -0.014612418851192977 0 -0.00052728406499526193 -0.018610269303711444 0 -0.0014570325192039422 -0.017168951845501799 0 -0.0017227019647603735 -0.017034395945488966 0 -0.00052950120847120572 -0.016699219701067365 0 -0.0014570325192039422 -0.017168951845501799 0 -0.00098302477332585006 -0.017483814263279312 0 -0.00052950120847120572 -0.016699219701067365 0 -0.0012702558383979267 -0.018029958438017853 0 -0.00052728406499526193 -0.018610269303711444 0 -0.0014570325192039422 -0.017168951845501799 0 -0.0017016826024036074 -0.017069655106674169 0 -0.0018018255919788663 -0.017643517482255369 0 -0.0014570325192039422 -0.017168951845501799 0 -0.0018018255919788663 -0.017643517482255369 0 -0.0014119454840601931 -0.017564882897258917 0 -0.00098302477332585006 -0.017483814263279312 0 -0.0013970376250038172 -0.017956977099301091 0 -0.00074846138917124435 -0.018478215724371826 0 -0.00098302477332585006 -0.017483814263279312 0 -0.0014119454840601931 -0.017564882897258917 0 -0.0013970376250038172 -0.017956977099301091 0 -0.0014570325192039422 -0.017168951845501799 0 -0.00098302477332585006 -0.017483814263279312 0 -0.0014119454840601931 -0.017564882897258917 0 -0.0018018255919788663 -0.017643517482255369 0 -0.0013970376250038172 -0.017956977099301091 0 -0.0020909334233831863 -0.018423417316220322 0 -0.0018018255919788663 -0.017643517482255369 0 -0.0014119454840601931 -0.017564882897258917 0 -0.0013970376250038172 -0.017956977099301091 0 -0.0010389671532611024 -0.013411826440521399 0 -0.0014717099855068212 -0.012447224126153756 0 -0.00098302477332585006 -0.017483814263279312 0 -0.00042652497003476623 -0.016996040705026062 0 -0.00074846138917124435 -0.018478215724371826 0 -0.00120171390555893 -0.013758949546664182 0 -0.00087999651395631075 -0.014639264803876551 0 -0.0013758306665348709 -0.014640962970398137 0 -0.0010389671532611024 -0.013411826440521399 0 -0.0011699202885898823 -0.01736645377849225 0 0.00018821876790086446 -0.014612418851192977 0 -0.0010389671532611024 -0.013411826440521399 0 -0.001482120615261568 -0.0092613309881604267 0 -0.0014907015830049797 -0.0093164833766506347 0 -0.0014432792282233287 -0.0092643958222136131 0 -0.00022262996314842507 -0.015976842137299142 0 -0.00041842801121505789 -0.016995075335656622 0 -0.00052950120847120572 -0.016699219701067365 0 -0.00022262996314842507 -0.015976842137299142 0 -0.0017227019647603735 -0.017034395945488966 0 -0.00052950120847120572 -0.016699219701067365 0 -0.0010389671532611024 -0.013411826440521399 0 -0.00044474339554155371 -0.015449240567877977 0 -0.00098302477332585006 -0.017483814263279312 0 -0.00042652497003476623 -0.016996040705026062 0 -0.00052950120847120572 -0.016699219701067365 0 -0.0014907015830049797 -0.0093164833766506347 0 -0.0014432792282233287 -0.0092643958222136131 0 -0.0014426142875748316 -0.0093155316271571181 0 -0.0014432792282233287 -0.0092643958222136131 0 -0.0013930709136518954 -0.009249426690552157 0 -0.0014426142875748316 -0.0093155316271571181 0 -0.0013930709136518954 -0.009249426690552157 0 -0.0014426142875748316 -0.0093155316271571181 0 -0.0013946146322518175 -0.0093450682083255337 0 -0.0014907015830049797 -0.0093164833766506347 0 -0.0014426142875748316 -0.0093155316271571181 0 -0.0014661318131339372 -0.0093810362766314458 0 -0.0014426142875748316 -0.0093155316271571181 0 -0.0014661318131339372 -0.0093810362766314458 0 -0.0013946146322518175 -0.0093450682083255337 0 -0.0014717099855068212 -0.012447224126153756 0 -0.0022191840416102182 -0.0092191945694802598 0 -0.0032938427140973381 -0.0098592270055255643 0 -0.0026261114393653848 -0.0098124529190525625 0 -0.0027345096902611507 -0.010233641709540159 0 -0.0026813343239648667 -0.010722044715004026 0 -0.0027345096902611507 -0.010233641709540159 0 -0.0031064090233186119 -0.010438149707997398 0 -0.0032938427140973381 -0.0098592270055255643 0 -0.0027345096902611507 -0.010233641709540159 0 -0.0031064090233186119 -0.010438149707997398 0 5.3382523041067094e-05 -0.017200128440678853 0 0.00072363296801822394 -0.019018518711888348 0 -0.00051577952372272476 -0.018612822352367862 0 -0.0014717099855068212 -0.012447224126153756 0 -0.0010499249536214969 -0.014883409977980473 0 0.00072363296801822394 -0.019018518711888348 0 -0.00027998040753322108 -0.019167872590061308 0 -0.00051577952372272476 -0.018612822352367862 0 -0.0014513587621102597 -0.019618370934484698 0 -0.00051577952372272476 -0.018612822352367862 0 -0.001106247944072753 -0.017194622235508897 0 -0.00079387550759004973 -0.019606589276838012 0 -0.00027998040753322108 -0.019167872590061308 0 -0.00051577952372272476 -0.018612822352367862 0 -0.0014500198559679791 -0.019735201795375926 0 -0.0011699202885898823 -0.01736645377849225 0 -0.0014513587621102597 -0.019618370934484698 0 -0.0017022752460267622 -0.019019431853981417 0 -0.0011952463105963014 -0.018453801804889976 0 -0.0014513587621102597 -0.019618370934484698 0 -0.0017890917732621265 -0.019381468815305437 0 -0.0017022752460267622 -0.019019431853981417 0 -0.0017890917732621265 -0.019381468815305437 0 -0.0017022752460267622 -0.019019431853981417 0 -0.0022061768044756122 -0.019296477125573273 0 -0.0017022752460267622 -0.019019431853981417 0 -0.0011952463105963014 -0.018453801804889976 0 -0.0020909334233831863 -0.018423417316220322 0 -0.0011699202885898823 -0.01736645377849225 0 -0.0019337671527073911 -0.018626961114905 0 -0.0013970376250038172 -0.017956977099301091 0 -0.00074846138917124435 -0.018478215724371826 0 -0.0020909334233831863 -0.018423417316220322 0 5.3382523041067094e-05 -0.017200128440678853 0 -0.00051577952372272476 -0.018612822352367862 0 -0.001106247944072753 -0.017194622235508897 0 -0.0014717099855068212 -0.012447224126153756 0 -0.0011699202885898823 -0.01736645377849225 0 -0.0027109789850551977 -0.018816831691541948 0 -0.0032019124721006944 -0.019217016973620223 0 -0.003286741600708474 -0.018365604630113906 0 -0.0027109789850551977 -0.018816831691541948 0 -0.003286741600708474 -0.018365604630113906 0 -0.0025848269463431212 -0.017794326988564986 0 -0.0027109789850551977 -0.018816831691541948 0 -0.0020909334233831863 -0.018423417316220322 0 -0.0025848269463431212 -0.017794326988564986 0 -0.0017022752460267622 -0.019019431853981417 0 -0.0020909334233831863 -0.018423417316220322 0 -0.0022061768044756122 -0.019296477125573273 0 -0.0027109789850551977 -0.018816831691541948 0 -0.0020909334233831863 -0.018423417316220322 0 -0.0022061768044756122 -0.019296477125573273 0 -0.0027787604144140542 -0.019564310863198934 0 -0.0027109789850551977 -0.018816831691541948 0 -0.0022061768044756122 -0.019296477125573273 0 -0.0027787604144140542 -0.019564310863198934 0 -0.0027109789850551977 -0.018816831691541948 0 -0.0032019124721006944 -0.019217016973620223 0 -0.0034796992686867683 -0.019542440962420225 0 -0.0031881591994779085 -0.019705301891112168 0 -0.0032019124721006944 -0.019217016973620223 0 -0.0034796992686867683 -0.019542440962420225 0 -0.0032019124721006944 -0.019217016973620223 0 -0.0036404849672626236 -0.019138001421966987 0 -0.0032019124721006944 -0.019217016973620223 0 -0.0036404849672626236 -0.019138001421966987 0 -0.003286741600708474 -0.018365604630113906 0 -0.0038521767492482582 -0.019673742388918898 0 -0.0034796992686867683 -0.019542440962420225 0 -0.0036404849672626236 -0.019138001421966987 0 -0.0012985599205522012 -0.022465403981194367 0 -0.00026796784958086148 -0.02436366837962774 0 -0.00068585848404354149 -0.023416879979713062 0 -0.00068045631252925168 -0.023391808992644484 0 -0.00072956575738988795 -0.023449766286598315 0 0.00010266412324038086 -0.024944214858213822 0 5.3383784537506276e-05 -0.024941667897792626 0 4.7351883879116499e-05 -0.024980694284040449 0 -0.0038521767492482582 -0.019673742388918898 0 -0.0036404849672626236 -0.019138001421966987 0 -0.0040548743651434675 -0.019132095218941988 0 -0.0036404849672626236 -0.019138001421966987 0 -0.0040548743651434675 -0.019132095218941988 0 -0.0039585969004808236 -0.018875192456743396 0 -0.0018418559860840312 -0.021398813849572176 0 -0.0012985599205522012 -0.022465403981194367 0 0.00010266412324038086 -0.024944214858213822 0 0.00014076475522872755 -0.02486289709669998 0 8.6274085547100295e-05 -0.024898743515073582 0 -0.0012985599205522012 -0.022465403981194367 0 -0.00056029019274939334 -0.023569844619601314 0 0.00010266412324038086 -0.024944214858213822 0 8.6274085547100295e-05 -0.024898743515073582 0 5.3383784537506276e-05 -0.024941667897792626 0 -0.0012985599205522012 -0.022465403981194367 0 -0.0020337860222826337 -0.019584099497978447 0 -0.0010561376419017982 -0.021373891201345144 0 -0.00073867948463331114 -0.021152689333117328 0 -0.00089043780710260014 -0.020985938165179522 0 -0.0012985599205522012 -0.022465403981194367 0 -0.00096574551459586977 -0.021217431983104166 0 -0.0036404849672626236 -0.019138001421966987 0 -0.0039585969004808236 -0.018875192456743396 0 -0.003286741600708474 -0.018365604630113906 0 -0.00089043780710260014 -0.020985938165179522 0 -0.00077242010889920878 -0.020872546632319019 0 -0.00072693187078622036 -0.020659896855732954 0 -0.0012557433906805254 -0.021364839179794856 0 -0.0010937265509493013 -0.021646094128630142 0 -0.00072693187078622036 -0.020659896855732954 0 -0.0014846158257843965 -0.022645038783856208 0 -0.0012557433906805254 -0.021364839179794856 0 -0.0010937265509493013 -0.021646094128630142 0 -0.00073867948463331114 -0.021152689333117328 0 -0.00089043780710260014 -0.020985938165179522 0 -0.00071705635351311189 -0.020982029270352084 0 -0.00089043780710260014 -0.020985938165179522 0 -0.00077242010889920878 -0.020872546632319019 0 -0.00071705635351311189 -0.020982029270352084 0 0.00014076475522872755 -0.02486289709669998 0 8.6274085547100295e-05 -0.024898743515073582 0 8.7283653841315248e-05 -0.0248241933723348 0 0.00013132362880842501 -0.024763674148749498 0 8.7283653841315248e-05 -0.0248241933723348 0 0.00010648533128116998 -0.024752539816087604 0 0.00014076475522872755 -0.02486289709669998 0 0.00013132362880842501 -0.024763674148749498 0 8.7283653841315248e-05 -0.0248241933723348 0 8.7283653841315248e-05 -0.0248241933723348 0 0.00010648533128116998 -0.024752539816087604 0 6.7113220125538151e-05 -0.024780587968056159 0 0.00014076475522872755 -0.02486289709669998 0 0.00013132362880842501 -0.024763674148749498 0 0.00020067661166555127 -0.024654112488486021 0 -0.00096574551459586977 -0.021217431983104166 0 -0.00075990219731589747 -0.020745446315467365 0 -0.00056029019274939334 -0.023569844619601314 0 3.150758836772283e-05 -0.02152222198558407 0 -0.0012557433906805254 -0.021364839179794856 0 -0.00072693187078622036 -0.020659896855732954 0 -0.00096788367568794451 -0.020097063689067787 0 -0.00077242010889920878 -0.020872546632319019 0 -0.00072693187078622036 -0.020659896855732954 0 -0.00071585341862361734 -0.020690454203687415 0 -0.00077242010889920878 -0.020872546632319019 0 -0.00071585341862361734 -0.020690454203687415 0 -0.00066856549285120113 -0.020778276959664447 0 -0.00056510404992349348 -0.020771834638782887 0 -0.00046346701178095367 -0.02094426296888531 0 -0.00041669978355350011 -0.020655522206664039 0 -0.00071585341862361734 -0.020690454203687415 0 -0.00060519171669844889 -0.020681411149397203 0 -0.00062991713598200302 -0.020553604368096626 0 -0.00072693187078622036 -0.020659896855732954 0 -0.00071585341862361734 -0.020690454203687415 0 -0.0004536683664932432 -0.020381873661187506 0 -0.00083623025941478141 -0.020685335376394387 0 4.5292452540860707e-05 -0.019149094781759267 0 -0.00060519171669844889 -0.020681411149397203 0 -0.00056510404992349348 -0.020771834638782887 0 -0.00041669978355350011 -0.020655522206664039 0 -0.00060519171669844889 -0.020681411149397203 0 -0.00041669978355350011 -0.020655522206664039 0 -0.00062991713598200302 -0.020553604368096626 0 0.00042516791190869353 -0.019212548930407237 0 4.5292452540860707e-05 -0.019149094781759267 0 -0.00071585341862361734 -0.020690454203687415 0 -0.00060519171669844889 -0.020681411149397203 0 -0.00066856549285120113 -0.020778276959664447 0 -0.00060519171669844889 -0.020681411149397203 0 -0.00056510404992349348 -0.020771834638782887 0 -0.00066856549285120113 -0.020778276959664447 0 -0.00056510404992349348 -0.020771834638782887 0 -0.00066856549285120113 -0.020778276959664447 0 -0.00064881349733622714 -0.02087493193785642 0 -0.00077242010889920878 -0.020872546632319019 0 -0.00066856549285120113 -0.020778276959664447 0 -0.00064881349733622714 -0.02087493193785642 0 -0.00064881349733622714 -0.02087493193785642 0 -0.00071705635351311189 -0.020982029270352084 0 -0.00046346701178095367 -0.02094426296888531 0 -0.00073867948463331114 -0.021152689333117328 0 -0.00071705635351311189 -0.020982029270352084 0 -0.00046346701178095367 -0.02094426296888531 0 -0.0020337860222826337 -0.019584099497978447 0 -0.0016055287472997708 -0.019433691012702786 0 -0.00077242010889920878 -0.020872546632319019 0 -0.00064881349733622714 -0.02087493193785642 0 -0.00071705635351311189 -0.020982029270352084 0 -0.00056510404992349348 -0.020771834638782887 0 -0.00064881349733622714 -0.02087493193785642 0 -0.00046346701178095367 -0.02094426296888531 0 -0.0017016826024036074 -0.017069655106674169 0 -0.0018018255919788663 -0.017643517482255369 0 -0.0025848269463431212 -0.017794326988564986 0 -0.00052728406499526193 -0.018610269303711444 0 -0.0016055287472997708 -0.019433691012702786 0 -0.0018018255919788663 -0.017643517482255369 0 -0.0020909334233831863 -0.018423417316220322 0 -0.0025848269463431212 -0.017794326988564986 0 -0.00052728406499526193 -0.018610269303711444 0 0.00042516791190869353 -0.019212548930407237 0 -0.00020362827638001289 -0.020752042090074495 0 -0.00046346701178095367 -0.02094426296888531 0 -0.00041669978355350011 -0.020655522206664039 0 0.00083540979856701607 -0.017700220979817466 0 0.00084003321899754732 -0.017544370646759851 0 0.00095315166904078367 -0.017608784551818399 0 0.00083540979856701607 -0.017700220979817466 0 0.00095315166904078367 -0.017608784551818399 0 0.00097765014951678138 -0.01779547392205966 0 4.5292452540860707e-05 -0.019149094781759267 0 0.0010310854180974683 -0.01797695541898538 0 0.00065077740879736679 -0.018784907146030146 0 0.00064248287411287615 -0.018611210417190844 0 0.00078610650246468104 -0.018551183381999511 0 0.00095315166904078367 -0.017608784551818399 0 0.001054728894881677 -0.017671025118909972 0 0.00097765014951678138 -0.01779547392205966 0 0.00065077740879736679 -0.018784907146030146 0 0.00064248287411287615 -0.018611210417190844 0 0.00050513217135107909 -0.018717181749294282 0 0.00064248287411287615 -0.018611210417190844 0 0.00078610650246468104 -0.018551183381999511 0 0.00071446192067485753 -0.018429455895411138 0 0.00064248287411287615 -0.018611210417190844 0 0.00071446192067485753 -0.018429455895411138 0 0.00056645278657033876 -0.018498103490658203 0 0.00077451328621237715 -0.017830886363661116 0 0.00097765014951678138 -0.01779547392205966 0 0.000901439618626878 -0.017948434462175762 0 0.0010310854180974683 -0.01797695541898538 0 0.00083873964864122528 -0.018196230055368894 0 0.00078610650246468104 -0.018551183381999511 0 0.00085577402019340067 -0.018339347821652686 0 0.00071446192067485753 -0.018429455895411138 0 0.00085577402019340067 -0.018339347821652686 0 0.00076654315893586497 -0.018331092817376351 0 0.00071446192067485753 -0.018429455895411138 0 0.00071446192067485753 -0.018429455895411138 0 0.00063534026607410445 -0.018318086946373744 0 0.00056645278657033876 -0.018498103490658203 0 0.00076654315893586497 -0.018331092817376351 0 0.00071446192067485753 -0.018429455895411138 0 0.00063534026607410445 -0.018318086946373744 0 0.00068020143584464961 -0.018405476887916616 0 0.00072485508707222286 -0.01827740392886687 0 0.00084322979879957708 -0.01825514152265301 0 0.00076654315893586497 -0.018331092817376351 0 0.00063534026607410445 -0.018318086946373744 0 0.00084322979879957708 -0.01825514152265301 0 0.00087868716608561148 -0.018685670950847135 0 0.00076241131983330595 -0.018191354699350754 0 0.000673480237707205 -0.018466322185177245 0 0.00068020143584464961 -0.018405476887916616 0 0.00084322979879957708 -0.01825514152265301 0 0.00087868716608561148 -0.018685670950847135 0 0.00083697541197830813 -0.018520533261865535 0 0.00067078027141799881 -0.018513651734664172 0 0.00068020143584464961 -0.018405476887916616 0 0.00060234490851025801 -0.018420079941403076 0 0.00068020143584464961 -0.018405476887916616 0 0.00072485508707222286 -0.01827740392886687 0 0.00060234490851025801 -0.018420079941403076 0 0.00085577402019340067 -0.018339347821652686 0 0.00076654315893586497 -0.018331092817376351 0 0.00084322979879957708 -0.01825514152265301 0 0.00010507605937094029 -0.02314885753038427 0 0.00022592911601526921 -0.023117864087230603 0 0.00037508375377635135 -0.02136472650513152 0 0.00052992145939321112 -0.021060513086570299 0 0.0003277843748182568 -0.020827910658677951 0 -0.00017466873325419733 -0.024883405182430974 0 -0.00012898934148155737 -0.024914238030029855 0 -0.00016593777340061919 -0.024937648466590866 0 0.00037508375377635135 -0.02136472650513152 0 0.00053493861366720136 -0.02129965500022276 0 0.00058107138148250667 -0.021411251668636628 0 0.00037508375377635135 -0.02136472650513152 0 0.00053493861366720136 -0.02129965500022276 0 0.00052992145939321112 -0.021060513086570299 0 0.00071959722860125684 -0.018843005920535349 0 0.00072039858132592785 -0.019959685518445885 0 0.00072485508707222286 -0.01827740392886687 0 0.00060234490851025801 -0.018420079941403076 0 0.00047191200814762218 -0.018423707560805243 0 0.00064527460857399734 -0.019612773867906792 0 0.00080838631492086502 -0.019514103996510501 0 0.00072374893127724116 -0.019649324725159976 0 0.00053493861366720136 -0.02129965500022276 0 0.00052992145939321112 -0.021060513086570299 0 0.00065374300698818209 -0.021363234813593 0 0.00060234490851025801 -0.018420079941403076 0 0.00056035477090168808 -0.018477394024478781 0 0.00047191200814762218 -0.018423707560805243 0 0.00067078027141799881 -0.018513651734664172 0 0.00060234490851025801 -0.018420079941403076 0 0.00056035477090168808 -0.018477394024478781 0 0.00053493861366720136 -0.02129965500022276 0 0.00065374300698818209 -0.021363234813593 0 0.00058107138148250667 -0.021411251668636628 0 0.00056035477090168808 -0.018477394024478781 0 0.00047191200814762218 -0.018423707560805243 0 0.0005022166491783158 -0.018555854399723588 0 0.00072039858132592785 -0.019959685518445885 0 0.0005719158490952649 -0.02015878388698495 0 0.00065565940886621417 -0.021363351772983361 0 0.00058107138148250667 -0.021411251668636628 0 0.00057118368691114034 -0.021830334069456721 0 0.00087868716608561148 -0.018685670950847135 0 0.00079198759343632457 -0.019410970411302575 0 0.0012334164367399664 -0.019262757966403157 0 1.7290040715225976e-05 -0.020018571471713913 0 0.0009176200587671441 -0.02069338230730856 0 0.00072039858132592785 -0.019959685518445885 0 0.00036362661831183628 -0.020702670061620871 0 0.00047191200814762218 -0.018423707560805243 0 0.0005022166491783158 -0.018555854399723588 0 0.00041615827290635395 -0.0186936006736837 0 0.00067078027141799881 -0.018513651734664172 0 0.00056035477090168808 -0.018477394024478781 0 0.0005022166491783158 -0.018555854399723588 0 0.00067078027141799881 -0.018513651734664172 0 0.0005022166491783158 -0.018555854399723588 0 0.00041615827290635395 -0.0186936006736837 0 0.00087868716608561148 -0.018685670950847135 0 0.00036362661831183628 -0.020702670061620871 0 0.00010507605937094029 -0.02314885753038427 0 -0.00015807774736362767 -0.023011951788886712 0 -0.00018203747358354498 -0.024821465052682064 0 -0.00013270596978056439 -0.024798311619452999 0 -0.00012278203242596555 -0.024868107552319964 0 0.00037508375377635135 -0.02136472650513152 0 0.00057118368691114034 -0.021830334069456721 0 0.00042004537851571223 -0.021925067710559021 0 0.00036362661831183628 -0.020702670061620871 0 -0.00015807774736362767 -0.023011951788886712 0 -0.00017466873325419733 -0.024883405182430974 0 -0.00018203747358354498 -0.024821465052682064 0 -0.00012278203242596555 -0.024868107552319964 0 0.00037508375377635135 -0.02136472650513152 0 0.00058107138148250667 -0.021411251668636628 0 0.00057118368691114034 -0.021830334069456721 0 0.00015343487659564656 -0.021805992038340931 0 -0.00014324015437968798 -0.021989438041727542 0 -5.1690775794233753e-05 -0.022985136935182279 0 8.744061332937133e-05 -0.024734824073586383 0 0.00011845839948728652 -0.024729693048721735 0 6.9539820586408867e-05 -0.024704641343687963 0 -3.6410440764715584e-05 -0.023579691991217774 0 -3.7406116342263881e-05 -0.02358573713729531 0 -0.00010350091730405966 -0.023556517270758231 0 -0.00015807774736362767 -0.023011951788886712 0 -4.7353265556359507e-05 -0.024441544511639563 0 -4.2637610831931014e-05 -0.023513409287875729 0 -3.6410440764715584e-05 -0.023579691991217774 0 -0.00010350091730405966 -0.023556517270758231 0 -0.00015807774736362767 -0.023011951788886712 0 2.2886100335373918e-05 -0.023000257761596674 0 3.2153404279338334e-05 -0.023574127616464578 0 -4.7353265556359507e-05 -0.024441544511639563 0 0.00036362661831183628 -0.020702670061620871 0 2.2886100335373918e-05 -0.023000257761596674 0 0.00079198759343632457 -0.019410970411302575 0 3.150758836772283e-05 -0.02152222198558407 0 1.7290040715225976e-05 -0.020018571471713913 0 -0.00024421331178500435 -0.021563493595933243 0 0.0009176200587671441 -0.02069338230730856 0 0.00064248287411287615 -0.018611210417190844 0 0.00056645278657033876 -0.018498103490658203 0 0.00050513217135107909 -0.018717181749294282 0 -0.00024421331178500435 -0.021563493595933243 0 0.0009176200587671441 -0.02069338230730856 0 0.00059916057572421651 -0.022121944222559125 0 0.00013132362880842501 -0.024763674148749498 0 0.00020067661166555127 -0.024654112488486021 0 0.00010303269713989152 -0.024595448472930197 0 -0.00024421331178500435 -0.021563493595933243 0 0.00059916057572421651 -0.022121944222559125 0 -0.00026463977457460199 -0.0216844163936597 0 3.150758836772283e-05 -0.02152222198558407 0 3.2153404279338334e-05 -0.023574127616464578 0 4.5292452540860707e-05 -0.019149094781759267 0 3.150758836772283e-05 -0.02152222198558407 0 -0.00072693187078622036 -0.020659896855732954 0 -0.0004536683664932432 -0.020381873661187506 0 -0.00096788367568794451 -0.020097063689067787 0 0.00013132362880842501 -0.024763674148749498 0 0.00011845839948728652 -0.024729693048721735 0 0.00010648533128116998 -0.024752539816087604 0 0.00017053139045635865 -0.025129059689088826 0 3.2153404279338334e-05 -0.023574127616464578 0 8.744061332937133e-05 -0.024734824073586383 0 0.00010769452155551563 -0.024737208007279785 0 0.00010648533128116998 -0.024752539816087604 0 0.00010769452155551563 -0.024737208007279785 0 0.00011845839948728652 -0.024729693048721735 0 0.00010648533128116998 -0.024752539816087604 0 8.744061332937133e-05 -0.024734824073586383 0 0.00010769452155551563 -0.024737208007279785 0 0.00011845839948728652 -0.024729693048721735 0 2.2886100335373918e-05 -0.023000257761596674 0 3.2153404279338334e-05 -0.023574127616464578 0 8.744061332937133e-05 -0.024734824073586383 0 0.00010648533128116998 -0.024752539816087604 0 6.7113220125538151e-05 -0.024780587968056159 0 6.7113220125538151e-05 -0.024780587968056159 0 5.8094891124348876e-05 -0.024750731270849365 0 1.373941542530115e-05 -0.02479689119906851 0 5.8094891124348876e-05 -0.024750731270849365 0 1.373941542530115e-05 -0.02479689119906851 0 3.6830845397947594e-05 -0.024727577848106631 0 8.744061332937133e-05 -0.024734824073586383 0 6.7113220125538151e-05 -0.024780587968056159 0 5.8094891124348876e-05 -0.024750731270849365 0 1.373941542530115e-05 -0.02479689119906851 0 -1.7394985958870615e-05 -0.024748857002733052 0 3.6830845397947594e-05 -0.024727577848106631 0 1.373941542530115e-05 -0.02479689119906851 0 -1.7394985958870615e-05 -0.024748857002733052 0 -6.4594821112709237e-05 -0.024805931126343914 0 5.4131039285000268e-09 -0.024711958638220607 0 6.749109247060334e-05 -0.024707654378570382 0 -1.4655072556463934e-05 -0.024671495857523144 0 5.4131039285000268e-09 -0.024711958638220607 0 -1.4655072556463934e-05 -0.024671495857523144 0 -7.7107619514202354e-05 -0.024712502377561046 0 -1.7394985958870615e-05 -0.024748857002733052 0 5.4131039285000268e-09 -0.024711958638220607 0 3.6830845397947594e-05 -0.024727577848106631 0 -4.7353265556359507e-05 -0.024441544511639563 0 -3.2895238245710292e-05 -0.024791673948378334 0 5.4131039285000268e-09 -0.024711958638220607 0 6.749109247060334e-05 -0.024707654378570382 0 3.6830845397947594e-05 -0.024727577848106631 0 8.744061332937133e-05 -0.024734824073586383 0 5.8094891124348876e-05 -0.024750731270849365 0 6.9539820586408867e-05 -0.024704641343687963 0 5.8094891124348876e-05 -0.024750731270849365 0 6.9539820586408867e-05 -0.024704641343687963 0 3.6830845397947594e-05 -0.024727577848106631 0 -4.7353265556359507e-05 -0.024441544511639563 0 -1.3768327846016374e-05 -0.024635445785873965 0 -0.00013270596978056439 -0.024798311619452999 0 -0.00012278203242596555 -0.024868107552319964 0 -6.2450997098363606e-05 -0.024855270224236396 0 -0.00012278203242596555 -0.024868107552319964 0 -6.2450997098363606e-05 -0.024855270224236396 0 -8.1198039528274782e-05 -0.024920095421472926 0 -6.2450997098363606e-05 -0.024855270224236396 0 -8.1198039528274782e-05 -0.024920095421472926 0 -3.6432014195573651e-05 -0.024938679056159648 0 -8.1198039528274782e-05 -0.024920095421472926 0 -0.00012898934148155737 -0.024914238030029855 0 -9.6662785127781247e-05 -0.024960265188332012 0 -0.00012278203242596555 -0.024868107552319964 0 -8.1198039528274782e-05 -0.024920095421472926 0 -0.00012898934148155737 -0.024914238030029855 0 -0.00017466873325419733 -0.024883405182430974 0 -0.00012278203242596555 -0.024868107552319964 0 -0.00012898934148155737 -0.024914238030029855 0 -2.0776490906157449e-08 -0.024999911610342079 0 1.6337598262143852e-06 -0.024973710349331206 0 3.110794046486891e-08 -0.025000015746489291 0 1.861732391604711e-06 -0.024970499719208578 0 -2.2151972128728087e-05 -0.024872320493444955 0 -2.0776490906157449e-08 -0.024999911610342079 0 1.6337598262143852e-06 -0.024973710349331206 0 2.8820479889668501e-06 -0.024979323253562346 0 4.7253984912321144e-08 -0.024999996233477626 0 -2.2151972128728087e-05 -0.024872320493444955 0 -8.1198039528274782e-05 -0.024920095421472926 0 -3.6432014195573651e-05 -0.024938679056159648 0 -2.5031578255936913e-05 -0.024982314308196397 0 1.6337598262143852e-06 -0.024973710349331206 0 -3.6432014195573651e-05 -0.024938679056159648 0 -2.5031578255936913e-05 -0.024982314308196397 0 1.6337598262143852e-06 -0.024973710349331206 0 -3.6432014195573651e-05 -0.024938679056159648 0 1.855795555771881e-06 -0.024923127353205381 0 -6.2450997098363606e-05 -0.024855270224236396 0 -3.6432014195573651e-05 -0.024938679056159648 0 1.855795555771881e-06 -0.024923127353205381 0 -3.2895238245710292e-05 -0.024791673948378334 0 -2.2151972128728087e-05 -0.024872320493444955 0 -1.4655072556463934e-05 -0.024671495857523144 0 -9.2794033497155482e-05 -0.024636082249874985 0 -7.7107619514202354e-05 -0.024712502377561046 0 -2.2151972128728087e-05 -0.024872320493444955 0 -4.4930555915331135e-05 -0.024844706972461883 0 -1.1150547233281282e-06 -0.024999965660624675 0 -6.1725603379779933e-09 -0.025000004308822182 0 -3.3354967934795581e-06 -0.025000143868166506 0 1.6636065292653086e-09 -0.024999998260125427 0 -1.1150547233281282e-06 -0.024999965660624675 0 -6.1725603379779933e-09 -0.025000004308822182 0 -6.1725603379779933e-09 -0.025000004308822182 0 -3.3354967934795581e-06 -0.025000143868166506 0 -3.3706267896246513e-06 -0.024999745644176785 0 -1.7394985958870615e-05 -0.024748857002733052 0 5.4131039285000268e-09 -0.024711958638220607 0 -7.7107619514202354e-05 -0.024712502377561046 0 -4.4930555915331135e-05 -0.024844706972461883 0 -3.5262784731685437e-05 -0.024903909210489145 0 -3.3354967934795581e-06 -0.025000143868166506 0 -3.3706267896246513e-06 -0.024999745644176785 0 -1.168365717147416e-05 -0.024996707967701141 0 -1.7394985958870615e-05 -0.024748857002733052 0 -7.7107619514202354e-05 -0.024712502377561046 0 -6.4594821112709237e-05 -0.024805931126343914 0 -6.1725603379779933e-09 -0.025000004308822182 0 -3.3706267896246513e-06 -0.024999745644176785 0 5.8020205251848053e-09 -0.024999987970166265 0 -3.3706267896246513e-06 -0.024999745644176785 0 5.8020205251848053e-09 -0.024999987970166265 0 -1.168365717147416e-05 -0.024996707967701141 0 5.8020205251848053e-09 -0.024999987970166265 0 -3.1420256382197472e-06 -0.024980945958729423 0 -1.168365717147416e-05 -0.024996707967701141 0 -3.1420256382197472e-06 -0.024980945958729423 0 -6.4528660060469916e-09 -0.024999951874530871 0 -8.0698057404475598e-06 -0.024976489992242803 0 5.8020205251848053e-09 -0.024999987970166265 0 -3.1420256382197472e-06 -0.024980945958729423 0 -6.4528660060469916e-09 -0.024999951874530871 0 -3.1420256382197472e-06 -0.024980945958729423 0 -1.9230024080757693e-05 -0.024941393807591465 0 -8.0698057404475598e-06 -0.024976489992242803 0 -3.1420256382197472e-06 -0.024980945958729423 0 -1.9230024080757693e-05 -0.024941393807591465 0 -1.168365717147416e-05 -0.024996707967701141 0 -2.2559409702864278e-05 -0.024937476854150757 0 -3.5262784731685437e-05 -0.024903909210489145 0 1.373941542530115e-05 -0.02479689119906851 0 -1.9230024080757693e-05 -0.024941393807591465 0 -6.4594821112709237e-05 -0.024805931126343914 0 1.373941542530115e-05 -0.02479689119906851 0 -1.9230024080757693e-05 -0.024941393807591465 0 4.0278429158250803e-05 -0.024845995402097226 0 8.7283653841315248e-05 -0.0248241933723348 0 4.0278429158250803e-05 -0.024845995402097226 0 4.8935369327418547e-05 -0.024891446360917439 0 6.7113220125538151e-05 -0.024780587968056159 0 1.373941542530115e-05 -0.02479689119906851 0 4.0278429158250803e-05 -0.024845995402097226 0 8.7283653841315248e-05 -0.0248241933723348 0 6.7113220125538151e-05 -0.024780587968056159 0 4.0278429158250803e-05 -0.024845995402097226 0 8.6274085547100295e-05 -0.024898743515073582 0 8.7283653841315248e-05 -0.0248241933723348 0 4.8935369327418547e-05 -0.024891446360917439 0 8.6274085547100295e-05 -0.024898743515073582 0 4.8935369327418547e-05 -0.024891446360917439 0 5.3383784537506276e-05 -0.024941667897792626 0 -1.9230024080757693e-05 -0.024941393807591465 0 4.0278429158250803e-05 -0.024845995402097226 0 4.8935369327418547e-05 -0.024891446360917439 0 -1.9230024080757693e-05 -0.024941393807591465 0 4.8935369327418547e-05 -0.024891446360917439 0 2.087898213728678e-05 -0.024937396129454878 0 -1.9230024080757693e-05 -0.024941393807591465 0 2.087898213728678e-05 -0.024937396129454878 0 7.2190968433064783e-06 -0.024969367628559478 0 2.087898213728678e-05 -0.024937396129454878 0 5.3383784537506276e-05 -0.024941667897792626 0 7.2190968433064783e-06 -0.024969367628559478 0 4.8935369327418547e-05 -0.024891446360917439 0 2.087898213728678e-05 -0.024937396129454878 0 5.3383784537506276e-05 -0.024941667897792626 0 5.3383784537506276e-05 -0.024941667897792626 0 4.7351883879116499e-05 -0.024980694284040449 0 7.2190968433064783e-06 -0.024969367628559478 0 1.326729338018844e-05 -0.024996143827480315 0 4.7351883879116499e-05 -0.024980694284040449 0 7.2190968433064783e-06 -0.024969367628559478 0 1.326729338018844e-05 -0.024996143827480315 0 7.2190968433064783e-06 -0.024969367628559478 0 -1.4235751702207996e-06 -0.024990938840466215 0 7.2190968433064783e-06 -0.024969367628559478 0 -1.4235751702207996e-06 -0.024990938840466215 0 -8.0698057404475598e-06 -0.024976489992242803 0 -1.4235751702207996e-06 -0.024990938840466215 0 -1.0690857333732419e-08 -0.024999978430651378 0 -8.0698057404475598e-06 -0.024976489992242803 0 -6.4528660060469916e-09 -0.024999951874530871 0 -1.0690857333732419e-08 -0.024999978430651378 0 -8.0698057404475598e-06 -0.024976489992242803 0 -1.9230024080757693e-05 -0.024941393807591465 0 7.2190968433064783e-06 -0.024969367628559478 0 -8.0698057404475598e-06 -0.024976489992242803 0 -1.2463976668986741e-05 -0.024993083187971027 0 -4.9426986032478802e-06 -0.025002486680299415 0 -6.2638850512182994e-06 -0.024991573161169529 0 -1.3992427300072938e-05 -0.024967890160304949 0 -2.3590317652087057e-06 -0.024983183318215696 0 -1.3005147263421386e-05 -0.0249840017678386 0 -4.7225027630985142e-05 -0.024624896360943421 0 2.3565154112288285e-05 -0.025022536129967066 0 -2.3639253079298971e-05 -0.024998365358955225 0 -1.2463976668986741e-05 -0.024993083187971027 0 -4.9426986032478802e-06 -0.025002486680299415 0 -6.7207196988791064e-10 -0.024999999623663838 0 -4.9426986032478802e-06 -0.025002486680299415 0 -6.2638850512182994e-06 -0.024991573161169529 0 -6.7207196988791064e-10 -0.024999999623663838 0 -4.9426986032478802e-06 -0.025002486680299415 0 -2.7181386758157067e-09 -0.025000007159727968 0 -2.3590317652087057e-06 -0.024983183318215696 0 1.0892805190652958e-08 -0.024999965265942285 0 -4.5222984146959107e-06 -0.024992821360950285 0 2.3565154112288285e-05 -0.025022536129967066 0 -3.5241318878182312e-08 -0.024999971430003882 0 -2.3590317652087057e-06 -0.024983183318215696 0 -1.3005147263421386e-05 -0.0249840017678386 0 -4.5222984146959107e-06 -0.024992821360950285 0 -0.00043941129153578505 -0.021538825724584119 0 -0.00025355162452081996 -0.021831484688488112 0 -0.00042130537575503583 -0.022136264031080495 0 -0.00061667665426760334 -0.021872636327791847 0 -0.00043941129153578505 -0.021538825724584119 0 -0.00042799052313752207 -0.021087197934000414 0 -0.00061667665426760334 -0.021872636327791847 0 -0.00043941129153578505 -0.021538825724584119 0 -0.00039301351627377872 -0.0222965223032521 0 -1.0181426803728073e-05 -0.023646537207972787 0 -0.00017219974165400421 -0.02357112973096091 0 9.6153157004771623e-05 -0.023193810716191917 0 -0.00031492866873456254 -0.022721698144481498 0 0.00010667279923603778 -0.021873255217901788 0 -0.00021906959096402081 -0.02404095384402263 0 -1.0181426803728073e-05 -0.023646537207972787 0 -0.00017219974165400421 -0.02357112973096091 0 -0.00043080549500868528 -0.021659014482164108 0 -0.00040889230753751222 -0.022120907494316326 0 -0.00043941129153578505 -0.021538825724584119 0 -2.2014392629685145e-05 -0.021717266870877817 0 -0.00042799052313752207 -0.021087197934000414 0 -2.2014392629685145e-05 -0.021717266870877817 0 0.00064469661729838889 -0.021504644546203617 0 -0.00042799052313752207 -0.021087197934000414 0 -0.00043941129153578505 -0.021538825724584119 0 -0.00025355162452081996 -0.021831484688488112 0 -2.2014392629685145e-05 -0.021717266870877817 0 -0.00025355162452081996 -0.021831484688488112 0 -2.2014392629685145e-05 -0.021717266870877817 0 -8.990777663109928e-05 -0.022111345783071331 0 -5.7464018956984502e-06 -0.022432541367769711 0 -0.00042130537575503583 -0.022136264031080495 0 -0.00042044179605094898 -0.022764117259106688 0 -2.2014392629685145e-05 -0.021717266870877817 0 -8.990777663109928e-05 -0.022111345783071331 0 0.00041622539174365975 -0.02218008547036111 0 -8.990777663109928e-05 -0.022111345783071331 0 -5.7464018956984502e-06 -0.022432541367769711 0 0.00041622539174365975 -0.02218008547036111 0 -0.00025355162452081996 -0.021831484688488112 0 -8.990777663109928e-05 -0.022111345783071331 0 -0.00042130537575503583 -0.022136264031080495 0 -8.990777663109928e-05 -0.022111345783071331 0 -5.7464018956984502e-06 -0.022432541367769711 0 -0.00042130537575503583 -0.022136264031080495 0 -5.7464018956984502e-06 -0.022432541367769711 0 0.00037776728411831117 -0.02276850256104232 0 0.00041622539174365975 -0.02218008547036111 0 -0.00039301351627377872 -0.0222965223032521 0 -0.00083114279048276507 -0.02278448461392172 0 -0.00036458845649538999 -0.023120097808065166 0 -0.00040889230753751222 -0.022120907494316326 0 -0.00024854850659447933 -0.023484199425789141 0 -0.00021906959096402081 -0.02404095384402263 0 -1.0181426803728073e-05 -0.023646537207972787 0 -0.00011924894058071624 -0.024112016451402183 0 -4.7225027630985142e-05 -0.024624896360943421 0 -9.1255674018607088e-05 -0.024169668461330767 0 -0.00061667665426760334 -0.021872636327791847 0 -0.00039301351627377872 -0.0222965223032521 0 -0.00083114279048276507 -0.02278448461392172 0 -0.00031492866873456254 -0.022721698144481498 0 -0.00024156503176651665 -0.024071246008240833 0 -4.7225027630985142e-05 -0.024624896360943421 0 -0.00024156503176651665 -0.024071246008240833 0 -1.8658251410520337e-06 -0.024740241166799522 0 3.610220587110654e-05 -0.024767443059491547 0 -1.6669090012866554e-05 -0.024957662459826446 0 -0.00024156503176651665 -0.024071246008240833 0 -1.0562232098792505e-05 -0.025221006640580721 0 1.4459439700960631e-06 -0.024854542878103854 0 4.6271259919890574e-05 -0.024890038120707725 0 -9.2684422773613188e-06 -0.02497047461097154 0 -0.00024156503176651665 -0.024071246008240833 0 -0.00024854850659447933 -0.023484199425789141 0 -5.7464018956984502e-06 -0.022432541367769711 0 -5.3123708815615294e-06 -0.023075831784367676 0 0.00037776728411831117 -0.02276850256104232 0 -0.00046470703796784319 -0.02274999422879169 0 -5.3123708815615294e-06 -0.023075831784367676 0 -5.1638096314021756e-05 -0.023503628009608851 0 -5.7464018956984502e-06 -0.022432541367769711 0 -0.00042044179605094898 -0.022764117259106688 0 -5.3123708815615294e-06 -0.023075831784367676 0 -0.00024854850659447933 -0.023484199425789141 0 -0.00024661069353257948 -0.023020063959296348 0 -5.3123708815615294e-06 -0.023075831784367676 0 0.0003664771284829061 -0.023346694326479976 0 0.00037776728411831117 -0.02276850256104232 0 -0.00046470703796784319 -0.02274999422879169 0 -5.1638096314021756e-05 -0.023503628009608851 0 -0.00044221148054919638 -0.023827802613860811 0 -5.1638096314021756e-05 -0.023503628009608851 0 -0.00044221148054919638 -0.023827802613860811 0 0.0003689181102919722 -0.023968551480483363 0 -0.00010444313806950013 -0.0244565987698213 0 0.00021239506513526848 -0.023928883717901278 0 -5.3123708815615294e-06 -0.023075831784367676 0 -5.1638096314021756e-05 -0.023503628009608851 0 0.0003664771284829061 -0.023346694326479976 0 -5.1638096314021756e-05 -0.023503628009608851 0 0.0003689181102919722 -0.023968551480483363 0 0.0003664771284829061 -0.023346694326479976 0 4.6271259919890574e-05 -0.024890038120707725 0 3.6881584312349917e-05 -0.024997146621521461 0 -9.2684422773613188e-06 -0.02497047461097154 0 3.6881584312349917e-05 -0.024997146621521461 0 -2.0715417587707795e-05 -0.02497778817885488 0 -9.2684422773613188e-06 -0.02497047461097154 0 -0.00024854850659447933 -0.023484199425789141 0 -0.00010444313806950013 -0.0244565987698213 0 -4.5493540554428407e-05 -0.024938278741415125 0 1.1615916509715949e-05 -0.024957146582578714 0 7.2045431562328914e-06 -0.024901241337336295 0 -0.00010444313806950013 -0.0244565987698213 0 2.678130095495346e-05 -0.025015290952861056 0 -2.0715417587707795e-05 -0.02497778817885488 0 -1.7458910094392685e-05 -0.024971081156362811 0 -1.3063544210898949e-05 -0.024980736732456526 0 -1.7458910094392685e-05 -0.024971081156362811 0 -1.5298193616216906e-05 -0.024972115299316162 0 -1.3063544210898949e-05 -0.024980736732456526 0 -2.0715417587707795e-05 -0.02497778817885488 0 -1.7458910094392685e-05 -0.024971081156362811 0 -9.2684422773613188e-06 -0.02497047461097154 0 -1.7458910094392685e-05 -0.024971081156362811 0 -1.6669090012866554e-05 -0.024957662459826446 0 -1.5298193616216906e-05 -0.024972115299316162 0 -1.7458910094392685e-05 -0.024971081156362811 0 -9.2684422773613188e-06 -0.02497047461097154 0 -1.6669090012866554e-05 -0.024957662459826446 0 -2.3639253079298971e-05 -0.024998365358955225 0 -1.6669090012866554e-05 -0.024957662459826446 0 -1.3194717802075815e-05 -0.024979955031903242 0 3.610220587110654e-05 -0.024767443059491547 0 -9.2684422773613188e-06 -0.02497047461097154 0 -1.6669090012866554e-05 -0.024957662459826446 0 -1.6669090012866554e-05 -0.024957662459826446 0 -1.5298193616216906e-05 -0.024972115299316162 0 -1.3194717802075815e-05 -0.024979955031903242 0 -4.7225027630985142e-05 -0.024624896360943421 0 -1.7212555814351006e-05 -0.025046262916058225 0 -1.5298193616216906e-05 -0.024972115299316162 0 -1.3063544210898949e-05 -0.024980736732456526 0 -1.3194717802075815e-05 -0.024979955031903242 0 -1.3063544210898949e-05 -0.024980736732456526 0 -1.3194717802075815e-05 -0.024979955031903242 0 -6.2638850512182994e-06 -0.024991573161169529 0 -1.2463976668986741e-05 -0.024993083187971027 0 -1.3194717802075815e-05 -0.024979955031903242 0 -6.2638850512182994e-06 -0.024991573161169529 0 -2.3639253079298971e-05 -0.024998365358955225 0 -1.2463976668986741e-05 -0.024993083187971027 0 -1.3194717802075815e-05 -0.024979955031903242 0 -1.3063544210898949e-05 -0.024980736732456526 0 -6.2638850512182994e-06 -0.024991573161169529 0 -7.0348866114633444e-09 -0.024999950495621349 0 -6.7207196988791064e-10 -0.024999999623663838 0 -6.2638850512182994e-06 -0.024991573161169529 0 -7.0348866114633444e-09 -0.024999950495621349 0 1.1615916509715949e-05 -0.024957146582578714 0 9.2928582695430895e-09 -0.024999972970244533 0 5.668246521768684e-06 -0.024955954311652661 0 -2.0715417587707795e-05 -0.02497778817885488 0 -1.3063544210898949e-05 -0.024980736732456526 0 -7.0348866114633444e-09 -0.024999950495621349 0 2.678130095495346e-05 -0.025015290952861056 0 -4.0298584786611363e-08 -0.024999965913650047 0 1.2404996560189812e-08 -0.024999921586895815 0 5.668246521768684e-06 -0.024955954311652661 0 -3.1453161071596901e-06 -0.024931237177940612 0 9.2928582695430895e-09 -0.024999972970244533 0 1.2404996560189812e-08 -0.024999921586895815 0 5.668246521768684e-06 -0.024955954311652661 0 1.1615916509715949e-05 -0.024957146582578714 0 5.668246521768684e-06 -0.024955954311652661 0 7.2045431562328914e-06 -0.024901241337336295 0 5.668246521768684e-06 -0.024955954311652661 0 7.2045431562328914e-06 -0.024901241337336295 0 -3.1453161071596901e-06 -0.024931237177940612 0 1.2404996560189812e-08 -0.024999921586895815 0 -3.1453161071596901e-06 -0.024931237177940612 0 -2.2125896987874312e-08 -0.024999955119733006 0 -2.2125896987874312e-08 -0.024999955119733006 0 -1.0820258811983626e-05 -0.02498380624791487 0 -2.625728851768254e-08 -0.025000013507895713 0 -3.1453161071596901e-06 -0.024931237177940612 0 -2.2125896987874312e-08 -0.024999955119733006 0 -1.0820258811983626e-05 -0.02498380624791487 0 -1.0820258811983626e-05 -0.02498380624791487 0 -1.3698260471153842e-05 -0.025027448699239292 0 1.3935500857612596e-05 -0.024951899585863857 0 -3.1453161071596901e-06 -0.024931237177940612 0 -1.0820258811983626e-05 -0.02498380624791487 0 1.3935500857612596e-05 -0.024951899585863857 0 -1.069293357070425e-05 -0.024992251339389739 0 -4.5693866697607355e-09 -0.025000006671831269 0 1.6337598262143852e-06 -0.024973710349331206 0 -2.5031578255936913e-05 -0.024982314308196397 0 3.110794046486891e-08 -0.025000015746489291 0 -1.0820258811983626e-05 -0.02498380624791487 0 -1.3698260471153842e-05 -0.025027448699239292 0 -2.625728851768254e-08 -0.025000013507895713 0 1.7076553567460185e-05 -0.025214152920444367 0 0.00022592911601526921 -0.023117864087230603 0 0.00014003181894160939 -0.02511915294129409 0 0.00048512265128645553 -0.025169698773843018 0 0.00044770982789089876 -0.025146087118360694 0 0.00014003181894160939 -0.02511915294129409 0 0.00034849250060027016 -0.025050891361799797 0 0.00044770982789089876 -0.025146087118360694 0 -0.00012898934148155737 -0.024914238030029855 0 -9.6662785127781247e-05 -0.024960265188332012 0 -0.00016593777340061919 -0.024937648466590866 0 -1.069293357070425e-05 -0.024992251339389739 0 1.7076553567460185e-05 -0.025214152920444367 0 -1.3698260471153842e-05 -0.025027448699239292 0 0.00014003181894160939 -0.02511915294129409 0 1.3935500857612596e-05 -0.024951899585863857 0 -8.1198039528274782e-05 -0.024920095421472926 0 -2.5031578255936913e-05 -0.024982314308196397 0 -9.6662785127781247e-05 -0.024960265188332012 0 1.3935500857612596e-05 -0.024951899585863857 0 0.00018088774127726845 -0.024956083053973194 0 2.4965823632508734e-06 -0.024763531360250661 0 0.00014003181894160939 -0.02511915294129409 0 1.3935500857612596e-05 -0.024951899585863857 0 0.00018088774127726845 -0.024956083053973194 0 0.00014003181894160939 -0.02511915294129409 0 0.00018088774127726845 -0.024956083053973194 0 0.00034849250060027016 -0.025050891361799797 0 0.00018088774127726845 -0.024956083053973194 0 0.00034849250060027016 -0.025050891361799797 0 0.00035734148043958396 -0.024959816341035574 0 0.00018088774127726845 -0.024956083053973194 0 0.00035734148043958396 -0.024959816341035574 0 0.00042736340188310979 -0.024803482300366286 0 0.00018088774127726845 -0.024956083053973194 0 2.4965823632508734e-06 -0.024763531360250661 0 0.00042736340188310979 -0.024803482300366286 0 2.4965823632508734e-06 -0.024763531360250661 0 0.0004717419470377725 -0.024441861899210059 0 0.00042736340188310979 -0.024803482300366286 0 -3.1453161071596901e-06 -0.024931237177940612 0 1.3935500857612596e-05 -0.024951899585863857 0 2.4965823632508734e-06 -0.024763531360250661 0 7.2045431562328914e-06 -0.024901241337336295 0 -3.1453161071596901e-06 -0.024931237177940612 0 2.4965823632508734e-06 -0.024763531360250661 0 -4.5493540554428407e-05 -0.024938278741415125 0 7.2045431562328914e-06 -0.024901241337336295 0 2.4965823632508734e-06 -0.024763531360250661 0 -0.00010444313806950013 -0.0244565987698213 0 -1.1009951522635208e-05 -0.024728664648447984 0 -0.00012939849422997151 -0.023918784506642626 0 2.4965823632508734e-06 -0.024763531360250661 0 0.0003689181102919722 -0.023968551480483363 0 2.4965823632508734e-06 -0.024763531360250661 0 0.0003689181102919722 -0.023968551480483363 0 0.0004717419470377725 -0.024441861899210059 0 0.0004717419470377725 -0.024441861899210059 0 0.00079201413049672417 -0.024653940535082363 0 0.0011562085079269931 -0.023814783954009659 0 0.0003689181102919722 -0.023968551480483363 0 0.0004717419470377725 -0.024441861899210059 0 0.0011562085079269931 -0.023814783954009659 0 0.00071059841738198813 -0.022213830248571508 0 0.00090290891588676043 -0.021978235057578652 0 0.00071154844073559309 -0.020036248135976237 0 0.00060070059498673058 -0.020071277718750339 0 0.00071389356111082203 -0.020118318370853618 0 0.00071154844073559309 -0.020036248135976237 0 0.00064654097493656477 -0.020053078875972775 0 0.00071389356111082203 -0.020118318370853618 0 0.00071154844073559309 -0.020036248135976237 0 0.00060070059498673058 -0.020071277718750339 0 0.00059576989517972734 -0.020365235699825242 0 0.0004717419470377725 -0.024441861899210059 0 0.00079201413049672417 -0.024653940535082363 0 0.00042736340188310979 -0.024803482300366286 0 0.00079201413049672417 -0.024653940535082363 0 0.00049374938303005378 -0.025024921402002537 0 0.00047437119473080187 -0.025109022167956206 0 0.00035734148043958396 -0.024959816341035574 0 0.00042736340188310979 -0.024803482300366286 0 0.00049374938303005378 -0.025024921402002537 0 0.00071059841738198813 -0.022213830248571508 0 0.00046156528679676471 -0.02357554815048786 0 0.00079201413049672417 -0.024653940535082363 0 0.00042736340188310979 -0.024803482300366286 0 0.00049374938303005378 -0.025024921402002537 0 0.00060070059498673058 -0.020071277718750339 0 0.00059576989517972734 -0.020365235699825242 0 0.00034677314710237166 -0.020607499707807966 0 0.00034849250060027016 -0.025050891361799797 0 0.00049374938303005378 -0.025024921402002537 0 0.00048260797029517279 -0.025071821006401322 0 0.00034849250060027016 -0.025050891361799797 0 0.00035734148043958396 -0.024959816341035574 0 0.00049374938303005378 -0.025024921402002537 0 0.0005178188064133112 -0.024388087715717686 0 0.00046156528679676471 -0.02357554815048786 0 0.00059576989517972734 -0.020365235699825242 0 0.00034677314710237166 -0.020607499707807966 0 0.00055004102017416337 -0.020597867430652731 0 0.00073083023537269911 -0.020006457156446753 0 0.00075079183854833299 -0.020291715114790644 0 0.00071154844073559309 -0.020036248135976237 0 0.00059576989517972734 -0.020365235699825242 0 0.00075838581275689237 -0.020615484878655735 0 0.00071154844073559309 -0.020036248135976237 0 0.00077749571229522921 -0.019741092287468391 0 0.0006914873816596729 -0.019843385412713264 0 0.00077749571229522921 -0.019741092287468391 0 0.0006593489887786857 -0.019734340787979563 0 0.0006914873816596729 -0.019843385412713264 0 0.00059576989517972734 -0.020365235699825242 0 0.00075838581275689237 -0.020615484878655735 0 0.00055004102017416337 -0.020597867430652731 0 0.00075838581275689237 -0.020615484878655735 0 0.00053730514613782902 -0.02082150822216217 0 0.00055004102017416337 -0.020597867430652731 0 0.00080838631492086502 -0.019514103996510501 0 0.00077749571229522921 -0.019741092287468391 0 0.00072374893127724116 -0.019649324725159976 0 0.00052992145939321112 -0.021060513086570299 0 0.00065374300698818209 -0.021363234813593 0 0.00075838581275689237 -0.020615484878655735 0 0.00072039858132592785 -0.019959685518445885 0 0.00075079183854833299 -0.020291715114790644 0 0.00077749571229522921 -0.019741092287468391 0 0.00072374893127724116 -0.019649324725159976 0 0.0006593489887786857 -0.019734340787979563 0 0.00052992145939321112 -0.021060513086570299 0 0.00075838581275689237 -0.020615484878655735 0 0.00053730514613782902 -0.02082150822216217 0 0.00052992145939321112 -0.021060513086570299 0 0.00053730514613782902 -0.02082150822216217 0 0.0003277843748182568 -0.020827910658677951 0 0.00043736772413994129 -0.022240072485028593 0 0.00022592911601526921 -0.023117864087230603 0 0.00027621821510363657 -0.024753802848000588 0 0.00046156528679676471 -0.02357554815048786 0 0.00048512265128645553 -0.025169698773843018 0 0.00044770982789089876 -0.025146087118360694 0 0.00048703471669956597 -0.025014590621528283 0 0.00034849250060027016 -0.025050891361799797 0 0.00044770982789089876 -0.025146087118360694 0 0.00048260797029517279 -0.025071821006401322 0 0.00035632292156560471 -0.020820330025555691 0 0.00034677314710237166 -0.020607499707807966 0 0.00055004102017416337 -0.020597867430652731 0 0.00053730514613782902 -0.02082150822216217 0 0.00035632292156560471 -0.020820330025555691 0 0.00055004102017416337 -0.020597867430652731 0 0.00022592911601526921 -0.023117864087230603 0 0.00046156528679676471 -0.02357554815048786 0 0.00072485508707222286 -0.01827740392886687 0 0.00084322979879957708 -0.01825514152265301 0 0.00086223049194057027 -0.018250692929345592 0 0.00076174957236659665 -0.019128143979205349 0 0.00043622330194599047 -0.019555291113041114 0 0.00048671437277967786 -0.019717126241960186 0 0.00056741788416659244 -0.019681894239549299 0 0.00058672549051761499 -0.019756274249618413 0 0.00084322979879957708 -0.01825514152265301 0 0.00086223049194057027 -0.018250692929345592 0 0.00085064245724019946 -0.018259960464463623 0 0.00071959722860125684 -0.018843005920535349 0 0.00076174957236659665 -0.019128143979205349 0 0.00064527460857399734 -0.019612773867906792 0 0.00048147641588026962 -0.01971457620076764 0 0.00056741788416659244 -0.019681894239549299 0 0.00064527460857399734 -0.019612773867906792 0 0.00056741788416659244 -0.019681894239549299 0 0.0006593489887786857 -0.019734340787979563 0 0.00064527460857399734 -0.019612773867906792 0 0.00072374893127724116 -0.019649324725159976 0 0.0006593489887786857 -0.019734340787979563 0 0.00056741788416659244 -0.019681894239549299 0 0.0006593489887786857 -0.019734340787979563 0 0.00058672549051761499 -0.019756274249618413 0 0.00058672549051761499 -0.019756274249618413 0 0.00061813089079518441 -0.019844122203167027 0 0.00053390229585523999 -0.019800898907214037 0 0.0006593489887786857 -0.019734340787979563 0 0.00058672549051761499 -0.019756274249618413 0 0.00061813089079518441 -0.019844122203167027 0 0.0006593489887786857 -0.019734340787979563 0 0.0006914873816596729 -0.019843385412713264 0 0.00061813089079518441 -0.019844122203167027 0 0.0006914873816596729 -0.019843385412713264 0 0.00065621355398056064 -0.019921318263665812 0 0.00061813089079518441 -0.019844122203167027 0 0.00065621355398056064 -0.019921318263665812 0 0.00061813089079518441 -0.019844122203167027 0 0.0006118493410862 -0.019961668092454043 0 0.00061813089079518441 -0.019844122203167027 0 0.00055933151254052493 -0.019882048809387626 0 0.00053390229585523999 -0.019800898907214037 0 0.00061813089079518441 -0.019844122203167027 0 0.00055933151254052493 -0.019882048809387626 0 0.0006118493410862 -0.019961668092454043 0 0.00055933151254052493 -0.019882048809387626 0 0.00053390229585523999 -0.019800898907214037 0 0.00049376548181752486 -0.019847578564083142 0 0.00048671437277967786 -0.019717126241960186 0 0.00058672549051761499 -0.019756274249618413 0 0.00053390229585523999 -0.019800898907214037 0 0.00053390229585523999 -0.019800898907214037 0 0.0004635654136852662 -0.019788028338466383 0 0.00049376548181752486 -0.019847578564083142 0 0.00048671437277967786 -0.019717126241960186 0 0.00053390229585523999 -0.019800898907214037 0 0.0004635654136852662 -0.019788028338466383 0 0.0004635654136852662 -0.019788028338466383 0 0.00049376548181752486 -0.019847578564083142 0 0.00043186799143856504 -0.019824037316049717 0 0.00049376548181752486 -0.019847578564083142 0 0.00044395115872720607 -0.019881755220862874 0 0.00043186799143856504 -0.019824037316049717 0 0.00044395115872720607 -0.019881755220862874 0 0.00051797603764715727 -0.019923583622980599 0 0.00045932375346198479 -0.019960751959079377 0 0.00049376548181752486 -0.019847578564083142 0 0.00044395115872720607 -0.019881755220862874 0 0.00051797603764715727 -0.019923583622980599 0 0.00055933151254052493 -0.019882048809387626 0 0.00049376548181752486 -0.019847578564083142 0 0.00051797603764715727 -0.019923583622980599 0 0.00051797603764715727 -0.019923583622980599 0 0.00055371616849102343 -0.020008242444570813 0 0.0006118493410862 -0.019961668092454043 0 0.00051797603764715727 -0.019923583622980599 0 0.00055371616849102343 -0.020008242444570813 0 0.00045932375346198479 -0.019960751959079377 0 0.00071154844073559309 -0.020036248135976237 0 0.0006914873816596729 -0.019843385412713264 0 0.00065621355398056064 -0.019921318263665812 0 0.00071154844073559309 -0.020036248135976237 0 0.00065621355398056064 -0.019921318263665812 0 0.0006118493410862 -0.019961668092454043 0 0.00055933151254052493 -0.019882048809387626 0 0.00051797603764715727 -0.019923583622980599 0 0.0006118493410862 -0.019961668092454043 0 0.00055371616849102343 -0.020008242444570813 0 0.0006118493410862 -0.019961668092454043 0 0.00064654097493656477 -0.020053078875972775 0 0.00071154844073559309 -0.020036248135976237 0 0.0006118493410862 -0.019961668092454043 0 0.00064654097493656477 -0.020053078875972775 0 0.00064654097493656477 -0.020053078875972775 0 0.00059340582634310112 -0.020089772778296412 0 0.00071389356111082203 -0.020118318370853618 0 0.00055371616849102343 -0.020008242444570813 0 0.00064654097493656477 -0.020053078875972775 0 0.00059340582634310112 -0.020089772778296412 0 0.00055371616849102343 -0.020008242444570813 0 0.00045932375346198479 -0.019960751959079377 0 0.00047844123520155514 -0.02006660309057752 0 0.00055371616849102343 -0.020008242444570813 0 0.00059340582634310112 -0.020089772778296412 0 0.00047844123520155514 -0.02006660309057752 0 0.00059340582634310112 -0.020089772778296412 0 0.00047844123520155514 -0.02006660309057752 0 0.00052632039022441825 -0.020226366895001919 0 0.00077644012804803343 -0.020653137681009907 0 0.000417998591172869 -0.021612687896290183 0 0.0012031218071667659 -0.02149145540752169 0 0.00077644012804803343 -0.020653137681009907 0 0.000417998591172869 -0.021612687896290183 0 4.7475812708086655e-05 -0.020895979111295215 0 0.00077644012804803343 -0.020653137681009907 0 0.0017623796878311624 -0.021171603803348184 0 0.0012031218071667659 -0.02149145540752169 0 0.00059855407085401097 -0.02029213097060548 0 0.0012383827743527071 -0.0216143314842249 0 0.00052632039022441825 -0.020226366895001919 0 0.00071389356111082203 -0.020118318370853618 0 0.00068355923924031899 -0.020311928970792155 0 0.00059340582634310112 -0.020089772778296412 0 0.00052632039022441825 -0.020226366895001919 0 0.00071389356111082203 -0.020118318370853618 0 0.0011562085079269931 -0.023814783954009659 0 0.0007500325571137942 -0.023452372991771765 0 0.0010379697120082106 -0.02293947663196777 0 0.00090290891588676043 -0.021978235057578652 0 0.0012383827743527071 -0.0216143314842249 0 0.0003689181102919722 -0.023968551480483363 0 0.0011562085079269931 -0.023814783954009659 0 0.0007500325571137942 -0.023452372991771765 0 0.0007500325571137942 -0.023452372991771765 0 0.0003664771284829061 -0.023346694326479976 0 0.00068506260805865232 -0.023042055481292276 0 0.0003689181102919722 -0.023968551480483363 0 0.0007500325571137942 -0.023452372991771765 0 0.0003664771284829061 -0.023346694326479976 0 0.0003664771284829061 -0.023346694326479976 0 0.00068506260805865232 -0.023042055481292276 0 0.00037776728411831117 -0.02276850256104232 0 0.0007500325571137942 -0.023452372991771765 0 0.00068506260805865232 -0.023042055481292276 0 0.0010379697120082106 -0.02293947663196777 0 0.00068506260805865232 -0.023042055481292276 0 0.0010379697120082106 -0.02293947663196777 0 0.00081671773288141691 -0.022571190279091817 0 0.00068506260805865232 -0.023042055481292276 0 0.00037776728411831117 -0.02276850256104232 0 0.00081671773288141691 -0.022571190279091817 0 0.0011562085079269931 -0.023814783954009659 0 0.0010379697120082106 -0.02293947663196777 0 0.0014679342971646758 -0.022719397764545235 0 0.0010379697120082106 -0.02293947663196777 0 0.0010791756743014701 -0.02263465010180923 0 0.00081671773288141691 -0.022571190279091817 0 0.0010379697120082106 -0.02293947663196777 0 0.0010791756743014701 -0.02263465010180923 0 0.0013007275626172302 -0.022636144135865226 0 0.0010791756743014701 -0.02263465010180923 0 0.0013007275626172302 -0.022636144135865226 0 0.0012623976461493326 -0.022473644361239317 0 0.0013007275626172302 -0.022636144135865226 0 0.0014578381840950579 -0.022707097324547145 0 0.0012623976461493326 -0.022473644361239317 0 0.0010379697120082106 -0.02293947663196777 0 0.0013007275626172302 -0.022636144135865226 0 0.0014679342971646758 -0.022719397764545235 0 0.0014119563721287482 -0.021846589368852257 0 0.0012383827743527071 -0.0216143314842249 0 0.0014578381840950579 -0.022707097324547145 0 0.0013216268785137153 -0.022228458830323483 0 0.0015158092222942539 -0.021917813137210182 0 0.0012383827743527071 -0.0216143314842249 0 0.0015315203733622994 -0.022008966154754873 0 0.0014578381840950579 -0.022707097324547145 0 0.0013216268785137153 -0.022228458830323483 0 0.0012623976461493326 -0.022473644361239317 0 0.0013216268785137153 -0.022228458830323483 0 0.0012623976461493326 -0.022473644361239317 0 0.0011164501196851027 -0.022390852474688448 0 0.0010791756743014701 -0.02263465010180923 0 0.0011164501196851027 -0.022390852474688448 0 0.00081671773288141691 -0.022571190279091817 0 0.0010791756743014701 -0.02263465010180923 0 0.0012623976461493326 -0.022473644361239317 0 0.0011164501196851027 -0.022390852474688448 0 0.0011164501196851027 -0.022390852474688448 0 0.0010862596841284915 -0.022093803111270696 0 0.00081671773288141691 -0.022571190279091817 0 0.0013216268785137153 -0.022228458830323483 0 0.0011164501196851027 -0.022390852474688448 0 0.0010862596841284915 -0.022093803111270696 0 0.0013216268785137153 -0.022228458830323483 0 0.0010862596841284915 -0.022093803111270696 0 0.0015158092222942539 -0.021917813137210182 0 0.0010862596841284915 -0.022093803111270696 0 0.0015378592531105312 -0.021946439516274355 0 0.0015158092222942539 -0.021917813137210182 0 0.0010862596841284915 -0.022093803111270696 0 0.00081671773288141691 -0.022571190279091817 0 0.00041622539174365975 -0.02218008547036111 0 0.00037776728411831117 -0.02276850256104232 0 0.00081671773288141691 -0.022571190279091817 0 0.00041622539174365975 -0.02218008547036111 0 0.0010862596841284915 -0.022093803111270696 0 0.00041622539174365975 -0.02218008547036111 0 0.00064469661729838889 -0.021504644546203617 0 -2.2014392629685145e-05 -0.021717266870877817 0 0.00041622539174365975 -0.02218008547036111 0 0.00064469661729838889 -0.021504644546203617 0 0.0010862596841284915 -0.022093803111270696 0 0.00064469661729838889 -0.021504644546203617 0 0.0015378592531105312 -0.021946439516274355 0 0.00046004367831573679 -0.019581851960720105 0 0.00041859201664822535 -0.020007047446336718 0 0.00016569369881634191 -0.018240867287365268 0 -0.00063453300515479451 -0.018013643129723641 0 -0.00053249778455839736 -0.018957607732592616 0 -0.00063453300515479451 -0.018013643129723641 0 -0.0013002177697622628 -0.017668877586547942 0 -0.0010658619147025925 -0.018388557708602142 0 0.00041859201664822535 -0.020007047446336718 0 -0.00041405810173115803 -0.019617364896735448 0 0.0015378592531105312 -0.021946439516274355 0 0.000417998591172869 -0.021612687896290183 0 0.0012031218071667659 -0.02149145540752169 0 0.0017623796878311624 -0.021171603803348184 0 0.0012031218071667659 -0.02149145540752169 0 0.0015158092222942539 -0.021917813137210182 0 0.0015378592531105312 -0.021946439516274355 0 0.0012031218071667659 -0.02149145540752169 0 0.0015158092222942539 -0.021917813137210182 0 -0.0013002177697622628 -0.017668877586547942 0 -0.0017352696222044496 -0.017634120152158744 0 -0.0010658619147025925 -0.018388557708602142 0 -0.0013002177697622628 -0.017668877586547942 0 -0.0017352696222044496 -0.017634120152158744 0 -0.001603689331693896 -0.017646440206084257 0 -0.00041405810173115803 -0.019617364896735448 0 -0.0012532866400869315 -0.019574705214090174 0 -0.0017352696222044496 -0.017634120152158744 0 -0.0013592195355818146 -0.017202185006761826 0 -0.0014260136525620418 -0.01752519149028926 0 -0.0017352696222044496 -0.017634120152158744 0 -0.0013592195355818146 -0.017202185006761826 0 -0.0014971925583483741 -0.017002535877262571 0 -0.0010738974006813278 -0.017092961872006956 0 -0.00089253180916703113 -0.016800218292018988 0 -0.0011335081022835344 -0.016928876058945982 0 -0.0013592195355818146 -0.017202185006761826 0 -0.0010738974006813278 -0.017092961872006956 0 -0.0011335081022835344 -0.016928876058945982 0 -0.0013592195355818146 -0.017202185006761826 0 -0.0010738974006813278 -0.017092961872006956 0 -0.0011873729989221162 -0.017333571653514533 0 -0.0013592195355818146 -0.017202185006761826 0 -0.0011873729989221162 -0.017333571653514533 0 -0.0014260136525620418 -0.01752519149028926 0 -0.0010738974006813278 -0.017092961872006956 0 -0.0010091038183390108 -0.017296003906826032 0 -0.00077580554535447443 -0.016995281632364152 0 -0.0010738974006813278 -0.017092961872006956 0 -0.0011873729989221162 -0.017333571653514533 0 -0.0010091038183390108 -0.017296003906826032 0 -0.0011873729989221162 -0.017333571653514533 0 -0.0010091038183390108 -0.017296003906826032 0 -0.001124022719446702 -0.017505066583191464 0 -0.00018115716097104879 -0.016545849347964398 0 -0.00021853799046188104 -0.016565214960421678 0 -0.0002355686573587143 -0.01657708310652397 0 -0.0012270174758407747 -0.017674963094033467 0 -0.0012279007991908271 -0.017930774735833054 0 -0.00086154307592131078 -0.017556332843347958 0 -0.001124022719446702 -0.017505066583191464 0 -0.0012270174758407747 -0.017674963094033467 0 -0.00086154307592131078 -0.017556332843347958 0 -0.0010091038183390108 -0.017296003906826032 0 -0.001124022719446702 -0.017505066583191464 0 -0.00086154307592131078 -0.017556332843347958 0 -0.001124022719446702 -0.017505066583191464 0 -0.0012270174758407747 -0.017674963094033467 0 -0.0014260136525620418 -0.01752519149028926 0 -0.0011873729989221162 -0.017333571653514533 0 -0.001124022719446702 -0.017505066583191464 0 -0.0014260136525620418 -0.01752519149028926 0 -0.0012270174758407747 -0.017674963094033467 0 -0.0014260136525620418 -0.01752519149028926 0 -0.001603689331693896 -0.017646440206084257 0 -0.0017352696222044496 -0.017634120152158744 0 -0.0014260136525620418 -0.01752519149028926 0 -0.001603689331693896 -0.017646440206084257 0 -0.0017399337136244787 -0.020702336441578033 0 -0.00086966036476285021 -0.020456345210655421 0 -0.00068308805118672867 -0.021143821190979052 0 -0.0012270174758407747 -0.017674963094033467 0 -0.0012279007991908271 -0.017930774735833054 0 -0.001603689331693896 -0.017646440206084257 0 -0.00073205480983810358 -0.018022164689551874 0 -0.0012532866400869315 -0.019574705214090174 0 -0.00073205480983810358 -0.018022164689551874 0 -0.00050963912799721818 -0.01687455053152255 0 -0.00018115716097104879 -0.016545849347964398 0 -0.00018674183280177847 -0.016541718949039771 0 -0.00021853799046188104 -0.016565214960421678 0 -0.00018115716097104879 -0.016545849347964398 0 -0.00017678115394060485 -0.016537871515231981 0 -0.00018674183280177847 -0.016541718949039771 0 -0.00073205480983810358 -0.018022164689551874 0 -0.00024077402852069871 -0.016684083498186075 0 -0.00022498422006260487 -0.0165321050961517 0 -0.00025068533305652274 -0.016574797475896495 0 -0.00019637266887758485 -0.0165811258962794 0 -0.00022498422006260487 -0.0165321050961517 0 -0.00019637266887758485 -0.0165811258962794 0 -0.00017678115394060485 -0.016537871515231981 0 -0.00073205480983810358 -0.018022164689551874 0 -0.00085491733913472677 -0.018425429991887399 0 -0.0017399337136244787 -0.020702336441578033 0 -0.0014502237512504634 -0.0201891868549357 0 -0.00086966036476285021 -0.020456345210655421 0 -0.0014502237512504634 -0.0201891868549357 0 -0.00086966036476285021 -0.020456345210655421 0 -0.0011588338349464219 -0.019661985603181963 0 -0.00086966036476285021 -0.020456345210655421 0 -0.0001976527277893795 -0.020146420854394602 0 -0.0011588338349464219 -0.019661985603181963 0 -0.00086966036476285021 -0.020456345210655421 0 4.7475812708086655e-05 -0.020895979111295215 0 -0.0001976527277893795 -0.020146420854394602 0 -0.00086966036476285021 -0.020456345210655421 0 -0.00068308805118672867 -0.021143821190979052 0 4.7475812708086655e-05 -0.020895979111295215 0 0.000417998591172869 -0.021612687896290183 0 -0.00068308805118672867 -0.021143821190979052 0 4.7475812708086655e-05 -0.020895979111295215 0 0.00047844123520155514 -0.02006660309057752 0 0.00052632039022441825 -0.020226366895001919 0 0.00033135075263560277 -0.020136398896202921 0 0.00059855407085401097 -0.02029213097060548 0 0.00011470489318432426 -0.020319237177468672 0 0.00077644012804803343 -0.020653137681009907 0 4.7475812708086655e-05 -0.020895979111295215 0 -0.0001976527277893795 -0.020146420854394602 0 0.00047844123520155514 -0.02006660309057752 0 0.00033135075263560277 -0.020136398896202921 0 0.00037903691759724593 -0.019994999146127079 0 0.00033135075263560277 -0.020136398896202921 0 0.00037903691759724593 -0.019994999146127079 0 0.00026914231842064547 -0.019961143151598165 0 0.00045932375346198479 -0.019960751959079377 0 0.00047844123520155514 -0.02006660309057752 0 0.00037903691759724593 -0.019994999146127079 0 0.00011470489318432426 -0.020319237177468672 0 -0.00050164752946117654 -0.018684266430727778 0 0.00033135075263560277 -0.020136398896202921 0 0.00026914231842064547 -0.019961143151598165 0 7.9729184646737917e-05 -0.019996527539544989 0 0.00026914231842064547 -0.019961143151598165 0 0.00016746618022958485 -0.019901678471111732 0 7.9729184646737917e-05 -0.019996527539544989 0 0.0002223522747353491 -0.019873980802889959 0 0.00016657696404991351 -0.01979804288206171 0 0.00016746618022958485 -0.019901678471111732 0 0.00026914231842064547 -0.019961143151598165 0 0.0002223522747353491 -0.019873980802889959 0 0.00016746618022958485 -0.019901678471111732 0 0.00026914231842064547 -0.019961143151598165 0 0.00028323907459582194 -0.019836419976567137 0 0.0003732780713555224 -0.01989549933359501 0 0.00026914231842064547 -0.019961143151598165 0 0.0002223522747353491 -0.019873980802889959 0 0.00028323907459582194 -0.019836419976567137 0 0.0002223522747353491 -0.019873980802889959 0 0.00028323907459582194 -0.019836419976567137 0 0.00016657696404991351 -0.01979804288206171 0 0.00045932375346198479 -0.019960751959079377 0 0.00037903691759724593 -0.019994999146127079 0 0.0003732780713555224 -0.01989549933359501 0 0.00037903691759724593 -0.019994999146127079 0 0.00026914231842064547 -0.019961143151598165 0 0.0003732780713555224 -0.01989549933359501 0 0.00028323907459582194 -0.019836419976567137 0 0.00034598867719424755 -0.01983752664339276 0 0.0003732780713555224 -0.01989549933359501 0 0.00034598867719424755 -0.01983752664339276 0 0.0003732780713555224 -0.01989549933359501 0 0.00038590255293183653 -0.019839960992301443 0 0.00044395115872720607 -0.019881755220862874 0 0.00045932375346198479 -0.019960751959079377 0 0.0003732780713555224 -0.01989549933359501 0 0.00044395115872720607 -0.019881755220862874 0 0.0003732780713555224 -0.01989549933359501 0 0.00038590255293183653 -0.019839960992301443 0 0.00038590255293183653 -0.019839960992301443 0 0.00043186799143856504 -0.019824037316049717 0 0.0003434519054113102 -0.019786115671565567 0 0.00076174957236659665 -0.019128143979205349 0 0.00053406092175036445 -0.019495851260255839 0 0.0010903145532886324 -0.018950017829368036 0 0.00074356353252146121 -0.019162342980892495 0 0.00065334366850451598 -0.019110191996780483 0 0.00048671437277967786 -0.019717126241960186 0 0.0004635654136852662 -0.019788028338466383 0 0.0003434519054113102 -0.019786115671565567 0 0.00076174957236659665 -0.019128143979205349 0 0.00078164129486436081 -0.018722153179118274 0 0.0004635654136852662 -0.019788028338466383 0 0.00043186799143856504 -0.019824037316049717 0 0.0003434519054113102 -0.019786115671565567 0 0.00044395115872720607 -0.019881755220862874 0 0.00038590255293183653 -0.019839960992301443 0 0.00043186799143856504 -0.019824037316049717 0 0.00034598867719424755 -0.01983752664339276 0 0.00038590255293183653 -0.019839960992301443 0 0.0003434519054113102 -0.019786115671565567 0 0.00028323907459582194 -0.019836419976567137 0 0.00034598867719424755 -0.01983752664339276 0 0.0003434519054113102 -0.019786115671565567 0 0.00081216309249359901 -0.01846555277065963 0 0.0005272084394127173 -0.018444033026311934 0 0.00034473792570508091 -0.018916041527555369 0 0.00065334366850451598 -0.019110191996780483 0 0.00011716242908569947 -0.0192987585270794 0 0.00034076692874827831 -0.019428678854110065 0 0.00028323907459582194 -0.019836419976567137 0 0.0003434519054113102 -0.019786115671565567 0 0.00016657696404991351 -0.01979804288206171 0 0.00078164129486436081 -0.018722153179118274 0 0.00018263633070672542 -0.019123162645341998 0 0.00053406092175036445 -0.019495851260255839 0 0.00023514668869325394 -0.019613855256708286 0 0.00074356353252146121 -0.019162342980892495 0 0.00065334366850451598 -0.019110191996780483 0 0.00034076692874827831 -0.019428678854110065 0 0.00081216309249359901 -0.01846555277065963 0 0.00071561762367866469 -0.01827314141345061 0 0.0005272084394127173 -0.018444033026311934 0 0.00063329734321165225 -0.018100093727745542 0 0.00071561762367866469 -0.01827314141345061 0 0.0004536976927082377 -0.018095386208868559 0 0.00081216309249359901 -0.01846555277065963 0 0.00071561762367866469 -0.01827314141345061 0 0.0008306141734570775 -0.018292892980778651 0 0.00086223049194057027 -0.018250692929345592 0 0.00081216309249359901 -0.01846555277065963 0 0.0008306141734570775 -0.018292892980778651 0 0.00081670971187356161 -0.018180590718799319 0 0.00071561762367866469 -0.01827314141345061 0 0.0008306141734570775 -0.018292892980778651 0 0.00081670971187356161 -0.018180590718799319 0 0.00085064245724019946 -0.018259960464463623 0 0.0008306141734570775 -0.018292892980778651 0 0.00086223049194057027 -0.018250692929345592 0 0.00085064245724019946 -0.018259960464463623 0 0.0008306141734570775 -0.018292892980778651 0 -0.00027450662890236258 -0.017532163834746428 0 -4.2361685331045443e-05 -0.018104918568622199 0 -0.00045589605710472895 -0.018289600677263804 0 -4.2361685331045443e-05 -0.018104918568622199 0 0.00013503246957367114 -0.018476885832612169 0 -0.00045589605710472895 -0.018289600677263804 0 -4.2361685331045443e-05 -0.018104918568622199 0 0.0004536976927082377 -0.018095386208868559 0 0.00013503246957367114 -0.018476885832612169 0 0.00071561762367866469 -0.01827314141345061 0 0.0004536976927082377 -0.018095386208868559 0 0.0005272084394127173 -0.018444033026311934 0 0.0004536976927082377 -0.018095386208868559 0 0.0005272084394127173 -0.018444033026311934 0 0.00013503246957367114 -0.018476885832612169 0 0.0005272084394127173 -0.018444033026311934 0 0.00034473792570508091 -0.018916041527555369 0 0.00013503246957367114 -0.018476885832612169 0 0.00034473792570508091 -0.018916041527555369 0 0.00013503246957367114 -0.018476885832612169 0 -0.00023285970439600241 -0.018806014007247872 0 0.00013503246957367114 -0.018476885832612169 0 -0.00023285970439600241 -0.018806014007247872 0 -0.00045589605710472895 -0.018289600677263804 0 0.00018263633070672542 -0.019123162645341998 0 -0.00051561438835983589 -0.019422657869995159 0 0.00034473792570508091 -0.018916041527555369 0 -0.00023285970439600241 -0.018806014007247872 0 -0.00055927484161506422 -0.019443775209895282 0 0.00011716242908569947 -0.0192987585270794 0 -0.00033344994961050453 -0.019682838943124437 0 -0.00055927484161506422 -0.019443775209895282 0 0.00011716242908569947 -0.0192987585270794 0 -0.00033344994961050453 -0.019682838943124437 0 -0.00016571013481097118 -0.019765471444863528 0 0.00011716242908569947 -0.0192987585270794 0 0.00034076692874827831 -0.019428678854110065 0 -0.00016571013481097118 -0.019765471444863528 0 0.00023514668869325394 -0.019613855256708286 0 -0.00013772089677577097 -0.019774600144463146 0 0.00016657696404991351 -0.01979804288206171 0 0.00016746618022958485 -0.019901678471111732 0 -0.00016571013481097118 -0.019765471444863528 0 0.00016746618022958485 -0.019901678471111732 0 7.9729184646737917e-05 -0.019996527539544989 0 -0.00016571013481097118 -0.019765471444863528 0 -0.00085491733913472677 -0.018425429991887399 0 -0.00050164752946117654 -0.018684266430727778 0 -0.00033344994961050453 -0.019682838943124437 0 7.9729184646737917e-05 -0.019996527539544989 0 -0.00016571013481097118 -0.019765471444863528 0 -0.00025068533305652274 -0.016574797475896495 0 -0.00027863002429446724 -0.01662879176263805 0 -0.00019637266887758485 -0.0165811258962794 0 -0.00020823211575322266 -0.018142924379437021 0 -0.00050164752946117654 -0.018684266430727778 0 -0.0002027494004661919 -0.016644951641817302 0 -0.00027863002429446724 -0.01662879176263805 0 -0.00019637266887758485 -0.0165811258962794 0 -0.0002027494004661919 -0.016644951641817302 0 -0.0001369853688532294 -0.016583952026181997 0 -9.0256603284303723e-05 -0.016602318965598911 0 -0.0002027494004661919 -0.016644951641817302 0 -0.00019637266887758485 -0.0165811258962794 0 -0.0001369853688532294 -0.016583952026181997 0 -0.00019637266887758485 -0.0165811258962794 0 -0.0001369853688532294 -0.016583952026181997 0 -0.00012771968747532598 -0.016544750352283727 0 -0.0001369853688532294 -0.016583952026181997 0 -6.2727624988816069e-05 -0.01655720542060166 0 -0.00012771968747532598 -0.016544750352283727 0 -0.0001369853688532294 -0.016583952026181997 0 -6.2727624988816069e-05 -0.01655720542060166 0 -9.0256603284303723e-05 -0.016602318965598911 0 -6.2727624988816069e-05 -0.01655720542060166 0 -9.0256603284303723e-05 -0.016602318965598911 0 -1.9442002975699447e-05 -0.016590967678141676 0 -0.00011638660464129867 -0.016669323462126691 0 2.0254747380454789e-05 -0.016675198563046542 0 -1.9442002975699447e-05 -0.016590967678141676 0 -9.0256603284303723e-05 -0.016602318965598911 0 -0.00011638660464129867 -0.016669323462126691 0 -1.9442002975699447e-05 -0.016590967678141676 0 -0.00011638660464129867 -0.016669323462126691 0 9.3706753656595407e-06 -0.016725896134046278 0 2.0254747380454789e-05 -0.016675198563046542 0 -0.0002027494004661919 -0.016644951641817302 0 -9.0256603284303723e-05 -0.016602318965598911 0 -0.00011638660464129867 -0.016669323462126691 0 -0.00033344994961050453 -0.019682838943124437 0 -0.0010830837715400717 -0.019252624647527011 0 -0.00055927484161506422 -0.019443775209895282 0 -0.00020823211575322266 -0.018142924379437021 0 -0.0006620671451307463 -0.018025318721746824 0 -0.0010830837715400717 -0.019252624647527011 0 -0.00055927484161506422 -0.019443775209895282 0 -0.00079474823920558998 -0.018804974237777609 0 -0.00023285970439600241 -0.018806014007247872 0 -0.00055927484161506422 -0.019443775209895282 0 -0.00079474823920558998 -0.018804974237777609 0 -0.00023285970439600241 -0.018806014007247872 0 -0.00079474823920558998 -0.018804974237777609 0 -0.00045589605710472895 -0.018289600677263804 0 -0.0013404086565358578 -0.01872442127731461 0 -0.0017358170870781192 -0.01802277571421617 0 -0.0018871729865361871 -0.018843130471630828 0 -0.0006620671451307463 -0.018025318721746824 0 -0.0004127152875675077 -0.016946387643670485 0 -0.0010830837715400717 -0.019252624647527011 0 -0.0013404086565358578 -0.01872442127731461 0 -0.0018871729865361871 -0.018843130471630828 0 -0.0010830837715400717 -0.019252624647527011 0 -0.00079474823920558998 -0.018804974237777609 0 -0.0013404086565358578 -0.01872442127731461 0 -0.00079474823920558998 -0.018804974237777609 0 -0.0013404086565358578 -0.01872442127731461 0 -0.0010749390976395603 -0.018304409782078576 0 -0.0013404086565358578 -0.01872442127731461 0 -0.0010749390976395603 -0.018304409782078576 0 -0.0017358170870781192 -0.01802277571421617 0 -0.0009821654358711043 -0.017662770656185486 0 -0.0010749390976395603 -0.018304409782078576 0 -0.0017358170870781192 -0.01802277571421617 0 -0.00079474823920558998 -0.018804974237777609 0 -0.0010749390976395603 -0.018304409782078576 0 -0.00045589605710472895 -0.018289600677263804 0 -0.0009821654358711043 -0.017662770656185486 0 -0.0010749390976395603 -0.018304409782078576 0 -0.00045589605710472895 -0.018289600677263804 0 -0.00039192326714126123 -0.012285081397837684 0 0.00059164974281989942 -0.014192103352923632 0 -0.0016222213003998303 -0.013101271947625892 0 -0.0019535793340695481 -0.013872149506002756 0 -0.0010162143189210613 -0.014195556240400664 0 -0.0010761997741215272 -0.015578613275406687 0 -0.0010662542723586849 -0.011140587441432027 0 2.4630838462551569e-05 -0.016014960299445075 0 -0.0010662542723586849 -0.011140587441432027 0 -0.00053305134899181948 -0.012052674312933128 0 -0.0010403453149785934 -0.016712783230595558 0 -0.0004127152875675077 -0.016946387643670485 0 -0.0010162143189210613 -0.014195556240400664 0 -0.00014800587524816723 -0.014165488226635881 0 -0.0010761997741215272 -0.015578613275406687 0 -0.0008880042081454519 -0.013172151897359839 0 -0.0010162143189210613 -0.014195556240400664 0 -0.00014800587524816723 -0.014165488226635881 0 -0.00014800587524816723 -0.014165488226635881 0 -0.0010761997741215272 -0.015578613275406687 0 -0.00046939260402960407 -0.015877314278286831 0 -0.0004127152875675077 -0.016946387643670485 0 -2.989209833223241e-05 -0.016628079332513632 0 4.2505046995538416e-05 -0.016610866419749917 0 2.6557264675925335e-05 -0.016571709257234467 0 5.4160181835502632e-05 -0.01657068796823322 0 -0.00014510484908832863 -0.016351889401156817 0 4.5427905130569064e-05 -0.016445154308819925 0 6.9130015532058838e-06 -0.016644395854316714 0 2.4630838462551569e-05 -0.016014960299445075 0 -2.989209833223241e-05 -0.016628079332513632 0 2.4630838462551569e-05 -0.016014960299445075 0 -0.0004127152875675077 -0.016946387643670485 0 4.2505046995538416e-05 -0.016610866419749917 0 0.00011276030162893281 -0.016582805049730222 0 5.4160181835502632e-05 -0.01657068796823322 0 2.4630838462551569e-05 -0.016014960299445075 0 -0.00053305134899181948 -0.012052674312933128 0 4.2505046995538416e-05 -0.016610866419749917 0 0.00011276030162893281 -0.016582805049730222 0 0.00021852813997964144 -0.016683447520643536 0 0.00011276030162893281 -0.016582805049730222 0 0.00012819415726482872 -0.016546649885506515 0 0.00018577658820258773 -0.016573341674955708 0 0.00011276030162893281 -0.016582805049730222 0 0.00012819415726482872 -0.016546649885506515 0 8.9061135554106995e-05 -0.016552507555130911 0 -3.7558207736351397e-05 -0.016589804175451545 0 0.00010396623199073687 -0.016543883328096972 0 0.00012819415726482872 -0.016546649885506515 0 0.00018577658820258773 -0.016573341674955708 0 0.00016251524812511376 -0.016527947912038189 0 0.00014411407459190699 -0.016504312213672299 0 7.1651425947445686e-05 -0.016511195100145665 0 0.00021336587215856369 -0.016482118467407894 0 0.00013516020419279459 -0.016522767517248019 0 0.00016251524812511376 -0.016527947912038189 0 0.00016398315647341108 -0.016509176235813501 0 0.00013516020419279459 -0.016522767517248019 0 0.00012819415726482872 -0.016546649885506515 0 0.00016251524812511376 -0.016527947912038189 0 0.00013516020419279459 -0.016522767517248019 0 0.00011792228502456158 -0.016536844587238374 0 0.00012819415726482872 -0.016546649885506515 0 0.00011792228502456158 -0.016536844587238374 0 0.00012819415726482872 -0.016546649885506515 0 8.9061135554106995e-05 -0.016552507555130911 0 0.00011792228502456158 -0.016536844587238374 0 0.00010063476833697926 -0.016539178072123101 0 0.00011287771331733848 -0.016530301537534313 0 0.00013516020419279459 -0.016522767517248019 0 0.00011792228502456158 -0.016536844587238374 0 0.00011287771331733848 -0.016530301537534313 0 0.00011276030162893281 -0.016582805049730222 0 8.9061135554106995e-05 -0.016552507555130911 0 5.4160181835502632e-05 -0.01657068796823322 0 5.7372324346287688e-05 -0.016560168979574044 0 8.9061135554106995e-05 -0.016552507555130911 0 5.4160181835502632e-05 -0.01657068796823322 0 5.7372324346287688e-05 -0.016560168979574044 0 6.8534162525953326e-05 -0.01655105999216076 0 8.9061135554106995e-05 -0.016552507555130911 0 5.7372324346287688e-05 -0.016560168979574044 0 6.8534162525953326e-05 -0.01655105999216076 0 5.2084695340800128e-05 -0.016555620759641718 0 6.8534162525953326e-05 -0.01655105999216076 0 8.9061135554106995e-05 -0.016552507555130911 0 8.4312292745688302e-05 -0.016542334212341303 0 0.00011792228502456158 -0.016536844587238374 0 8.9061135554106995e-05 -0.016552507555130911 0 0.00010063476833697926 -0.016539178072123101 0 8.9061135554106995e-05 -0.016552507555130911 0 0.00010063476833697926 -0.016539178072123101 0 8.4312292745688302e-05 -0.016542334212341303 0 0.00010063476833697926 -0.016539178072123101 0 9.9042092378605408e-05 -0.016533564138495219 0 8.4312292745688302e-05 -0.016542334212341303 0 9.9042092378605408e-05 -0.016533564138495219 0 8.4312292745688302e-05 -0.016542334212341303 0 8.7455925381605174e-05 -0.016533633634848215 0 8.4312292745688302e-05 -0.016542334212341303 0 8.7455925381605174e-05 -0.016533633634848215 0 6.6312360037178956e-05 -0.01654247829931188 0 9.9042092378605408e-05 -0.016533564138495219 0 8.7455925381605174e-05 -0.016533633634848215 0 0.00011070451527989958 -0.016522284411821395 0 6.8534162525953326e-05 -0.01655105999216076 0 6.6312360037178956e-05 -0.01654247829931188 0 5.2084695340800128e-05 -0.016555620759641718 0 6.8534162525953326e-05 -0.01655105999216076 0 8.4312292745688302e-05 -0.016542334212341303 0 6.6312360037178956e-05 -0.01654247829931188 0 6.6312360037178956e-05 -0.01654247829931188 0 8.209313011295161e-05 -0.016525341844653218 0 4.835653955387562e-05 -0.01653812683121916 0 6.6312360037178956e-05 -0.01654247829931188 0 4.4109801630694429e-05 -0.016551785300746046 0 4.835653955387562e-05 -0.01653812683121916 0 8.7455925381605174e-05 -0.016533633634848215 0 6.6312360037178956e-05 -0.01654247829931188 0 8.209313011295161e-05 -0.016525341844653218 0 8.7455925381605174e-05 -0.016533633634848215 0 8.209313011295161e-05 -0.016525341844653218 0 0.00011070451527989958 -0.016522284411821395 0 8.209313011295161e-05 -0.016525341844653218 0 0.00014411407459190699 -0.016504312213672299 0 0.00011070451527989958 -0.016522284411821395 0 0.00013516020419279459 -0.016522767517248019 0 0.00014411407459190699 -0.016504312213672299 0 0.00011070451527989958 -0.016522284411821395 0 0.00013516020419279459 -0.016522767517248019 0 0.00014411407459190699 -0.016504312213672299 0 0.00016398315647341108 -0.016509176235813501 0 0.00013516020419279459 -0.016522767517248019 0 0.00011287771331733848 -0.016530301537534313 0 0.00011070451527989958 -0.016522284411821395 0 9.9042092378605408e-05 -0.016533564138495219 0 0.00011287771331733848 -0.016530301537534313 0 0.00011070451527989958 -0.016522284411821395 0 0.00010063476833697926 -0.016539178072123101 0 9.9042092378605408e-05 -0.016533564138495219 0 0.00011287771331733848 -0.016530301537534313 0 2.6557264675925335e-05 -0.016571709257234467 0 3.100571629910295e-05 -0.016568274821138016 0 1.8436234029032553e-05 -0.016571375869970983 0 3.100571629910295e-05 -0.016568274821138016 0 4.3200598652394123e-05 -0.01656427552151243 0 3.5342669291337522e-05 -0.016562228520664257 0 3.100571629910295e-05 -0.016568274821138016 0 3.5458641321529389e-05 -0.016569344892569105 0 4.3200598652394123e-05 -0.01656427552151243 0 2.6557264675925335e-05 -0.016571709257234467 0 3.100571629910295e-05 -0.016568274821138016 0 3.5458641321529389e-05 -0.016569344892569105 0 2.6557264675925335e-05 -0.016571709257234467 0 3.5458641321529389e-05 -0.016569344892569105 0 5.4160181835502632e-05 -0.01657068796823322 0 5.7372324346287688e-05 -0.016560168979574044 0 5.4160181835502632e-05 -0.01657068796823322 0 4.3200598652394123e-05 -0.01656427552151243 0 3.5458641321529389e-05 -0.016569344892569105 0 5.4160181835502632e-05 -0.01657068796823322 0 4.3200598652394123e-05 -0.01656427552151243 0 4.3200598652394123e-05 -0.01656427552151243 0 5.2084695340800128e-05 -0.016555620759641718 0 3.5342669291337522e-05 -0.016562228520664257 0 5.7372324346287688e-05 -0.016560168979574044 0 4.3200598652394123e-05 -0.01656427552151243 0 5.2084695340800128e-05 -0.016555620759641718 0 6.6312360037178956e-05 -0.01654247829931188 0 5.2084695340800128e-05 -0.016555620759641718 0 4.4109801630694429e-05 -0.016551785300746046 0 5.2084695340800128e-05 -0.016555620759641718 0 4.4109801630694429e-05 -0.016551785300746046 0 3.5342669291337522e-05 -0.016562228520664257 0 4.4109801630694429e-05 -0.016551785300746046 0 2.3312865678949961e-05 -0.016558016344226434 0 3.5342669291337522e-05 -0.016562228520664257 0 4.4109801630694429e-05 -0.016551785300746046 0 2.3312865678949961e-05 -0.016558016344226434 0 4.835653955387562e-05 -0.01653812683121916 0 2.3312865678949961e-05 -0.016558016344226434 0 3.5342669291337522e-05 -0.016562228520664257 0 1.8436234029032553e-05 -0.016571375869970983 0 3.100571629910295e-05 -0.016568274821138016 0 3.5342669291337522e-05 -0.016562228520664257 0 1.8436234029032553e-05 -0.016571375869970983 0 2.6557264675925335e-05 -0.016571709257234467 0 1.8436234029032553e-05 -0.016571375869970983 0 -1.9442002975699447e-05 -0.016590967678141676 0 2.3312865678949961e-05 -0.016558016344226434 0 1.8436234029032553e-05 -0.016571375869970983 0 -1.9442002975699447e-05 -0.016590967678141676 0 -2.989209833223241e-05 -0.016628079332513632 0 -1.5281939209942795e-05 -0.016596901127303734 0 6.5318073475972204e-06 -0.016543351643056276 0 7.1651425947445686e-05 -0.016511195100145665 0 -3.2568598310165759e-05 -0.016515456485795492 0 -3.7558207736351397e-05 -0.016589804175451545 0 -0.00010330968485919278 -0.016580255972512947 0 2.3312865678949961e-05 -0.016558016344226434 0 -1.9442002975699447e-05 -0.016590967678141676 0 6.5318073475972204e-06 -0.016543351643056276 0 -6.2727624988816069e-05 -0.01655720542060166 0 -1.9442002975699447e-05 -0.016590967678141676 0 6.5318073475972204e-06 -0.016543351643056276 0 6.5318073475972204e-06 -0.016543351643056276 0 4.835653955387562e-05 -0.01653812683121916 0 7.1651425947445686e-05 -0.016511195100145665 0 2.3312865678949961e-05 -0.016558016344226434 0 6.5318073475972204e-06 -0.016543351643056276 0 4.835653955387562e-05 -0.01653812683121916 0 -6.2727624988816069e-05 -0.01655720542060166 0 6.5318073475972204e-06 -0.016543351643056276 0 -3.2568598310165759e-05 -0.016515456485795492 0 -0.00014740027438953039 -0.01666096416817622 0 -0.00013704408857826453 -0.016647298495822443 0 -0.00017873944037622162 -0.016642053379729856 0 -0.00014740027438953039 -0.01666096416817622 0 -0.00013704408857826453 -0.016647298495822443 0 -0.00011491337950286321 -0.016681020998772486 0 8.209313011295161e-05 -0.016525341844653218 0 0.00014411407459190699 -0.016504312213672299 0 7.1651425947445686e-05 -0.016511195100145665 0 8.209313011295161e-05 -0.016525341844653218 0 4.835653955387562e-05 -0.01653812683121916 0 7.1651425947445686e-05 -0.016511195100145665 0 4.8472344182373553e-05 -0.016398781464532823 0 4.173875262414857e-05 -0.016339362325180011 0 0.00023853675311430098 -0.016143301651194233 0 0.00024225908955090997 -0.016051743145287633 0 0.00027854684200920527 -0.016067707580274978 0 -0.00013704408857826453 -0.016647298495822443 0 -0.00015733497360798036 -0.016614905884560889 0 -0.00017873944037622162 -0.016642053379729856 0 0.00024225908955090997 -0.016051743145287633 0 0.00031710140219992118 -0.015997069990592409 0 0.00027854684200920527 -0.016067707580274978 0 0.00024225908955090997 -0.016051743145287633 0 0.00025979157370484914 -0.016066790857884022 0 0.00031710140219992118 -0.015997069990592409 0 -0.00015733497360798036 -0.016614905884560889 0 -0.00017873944037622162 -0.016642053379729856 0 -0.00018965161851966123 -0.01660761019479853 0 -3.2568598310165759e-05 -0.016515456485795492 0 -0.00012771968747532598 -0.016544750352283727 0 -0.00013887188026322534 -0.016513196278264947 0 -0.00010330968485919278 -0.016580255972512947 0 -0.00017373063220018733 -0.016568440538078825 0 -6.2727624988816069e-05 -0.01655720542060166 0 -3.2568598310165759e-05 -0.016515456485795492 0 -0.00012771968747532598 -0.016544750352283727 0 -0.00019637266887758485 -0.0165811258962794 0 -0.00012771968747532598 -0.016544750352283727 0 -0.00017678115394060485 -0.016537871515231981 0 -0.00012771968747532598 -0.016544750352283727 0 -0.00017678115394060485 -0.016537871515231981 0 -0.00013887188026322534 -0.016513196278264947 0 -0.00018674183280177847 -0.016541718949039771 0 -0.00013887188026322534 -0.016513196278264947 0 -0.00021853799046188104 -0.016565214960421678 0 -0.00021888825271466786 -0.016617222079411197 0 -0.00021853799046188104 -0.016565214960421678 0 -0.00022787116002639094 -0.016588576500371852 0 -0.00017373063220018733 -0.016568440538078825 0 -0.00020739444296713824 -0.016567109234328081 0 -0.00017678115394060485 -0.016537871515231981 0 -0.00018674183280177847 -0.016541718949039771 0 -0.00013887188026322534 -0.016513196278264947 0 -0.00017873944037622162 -0.016642053379729856 0 -0.00018965161851966123 -0.01660761019479853 0 -0.00021888825271466786 -0.016617222079411197 0 -0.00018965161851966123 -0.01660761019479853 0 -0.00021888825271466786 -0.016617222079411197 0 -0.00022787116002639094 -0.016588576500371852 0 -0.0002181414015355707 -0.016588534047537337 0 -0.00025545196269104696 -0.016555307485615366 0 -0.00015109059482270936 -0.01659580292452309 0 -0.00018965161851966123 -0.01660761019479853 0 -0.0002181414015355707 -0.016588534047537337 0 -0.00015109059482270936 -0.01659580292452309 0 -0.00018965161851966123 -0.01660761019479853 0 -0.0002181414015355707 -0.016588534047537337 0 -0.00022787116002639094 -0.016588576500371852 0 -0.0002181414015355707 -0.016588534047537337 0 -0.00022787116002639094 -0.016588576500371852 0 -0.00023852118348080759 -0.016576118482687082 0 -0.0002181414015355707 -0.016588534047537337 0 -0.00023852118348080759 -0.016576118482687082 0 -0.00025545196269104696 -0.016555307485615366 0 -0.00021853799046188104 -0.016565214960421678 0 -0.00023248054542090164 -0.016576304456930112 0 -0.0002355686573587143 -0.01657708310652397 0 -0.00021853799046188104 -0.016565214960421678 0 -0.00023248054542090164 -0.016576304456930112 0 -0.00022787116002639094 -0.016588576500371852 0 -0.00023248054542090164 -0.016576304456930112 0 -0.00022787116002639094 -0.016588576500371852 0 -0.00023852118348080759 -0.016576118482687082 0 -0.00023852118348080759 -0.016576118482687082 0 -0.0002355686573587143 -0.01657708310652397 0 -0.00025545196269104696 -0.016555307485615366 0 -0.00023248054542090164 -0.016576304456930112 0 -0.00023852118348080759 -0.016576118482687082 0 -0.0002355686573587143 -0.01657708310652397 0 -0.00086154307592131078 -0.017556332843347958 0 -0.00077580554535447443 -0.016995281632364152 0 -0.00035937381689216092 -0.01651664849531112 0 -0.0002355686573587143 -0.01657708310652397 0 -0.00025545196269104696 -0.016555307485615366 0 -0.00035937381689216092 -0.01651664849531112 0 -0.00050963912799721818 -0.01687455053152255 0 -0.00038174571857784221 -0.016622630543445857 0 -0.0010091038183390108 -0.017296003906826032 0 -0.00086154307592131078 -0.017556332843347958 0 -0.00077580554535447443 -0.016995281632364152 0 -0.00077580554535447443 -0.016995281632364152 0 -0.00035937381689216092 -0.01651664849531112 0 -0.00069471922782229629 -0.016698280265014784 0 -0.0010738974006813278 -0.017092961872006956 0 -0.00077580554535447443 -0.016995281632364152 0 -0.00089253180916703113 -0.016800218292018988 0 -0.00077580554535447443 -0.016995281632364152 0 -0.00089253180916703113 -0.016800218292018988 0 -0.00069471922782229629 -0.016698280265014784 0 -0.00025545196269104696 -0.016555307485615366 0 -0.00022000832421964115 -0.016497264127983042 0 -0.00035937381689216092 -0.01651664849531112 0 -0.00022000832421964115 -0.016497264127983042 0 -0.00015109059482270936 -0.01659580292452309 0 -0.00012362139559969162 -0.016303612792880923 0 -0.00025545196269104696 -0.016555307485615366 0 -0.00022000832421964115 -0.016497264127983042 0 -0.00015109059482270936 -0.01659580292452309 0 8.6673621053497538e-06 -0.016353356204771251 0 -0.00011185641567058662 -0.016275837347973464 0 0.00020462680007588552 -0.016142839924156025 0 0.00018740197633317939 -0.016159018826548702 0 -0.00012362139559969162 -0.016303612792880923 0 0.00025979157370484914 -0.016066790857884022 0 0.00020462680007588552 -0.016142839924156025 0 0.00018740197633317939 -0.016159018826548702 0 0.00025979157370484914 -0.016066790857884022 0 0.00018740197633317939 -0.016159018826548702 0 0.00027908846634226329 -0.016091949702352778 0 0.00024225908955090997 -0.016051743145287633 0 0.00025979157370484914 -0.016066790857884022 0 0.00020462680007588552 -0.016142839924156025 0 -0.00015733497360798036 -0.016614905884560889 0 -0.00018965161851966123 -0.01660761019479853 0 -0.00015109059482270936 -0.01659580292452309 0 4.173875262414857e-05 -0.016339362325180011 0 8.6673621053497538e-06 -0.016353356204771251 0 0.00010130485192495646 -0.015479337316680823 0 -0.00021613156691503574 -0.01512681546362038 0 0.00028948097063162683 -0.015957354201879513 0 5.4094679833646654e-05 -0.016080679952285796 0 -0.00022330465885986943 -0.015832472732808626 0 0.00028948097063162683 -0.015957354201879513 0 -0.00022330465885986943 -0.015832472732808626 0 -0.00022889698308081369 -0.01511505977101462 0 -3.7576620286577812e-05 -0.015043128980519595 0 -5.0431076716271775e-05 -0.014822110528816108 0 0.00023950405118805868 -0.014788541481085377 0 0.00028948097063162683 -0.015957354201879513 0 0.00018740197633317939 -0.016159018826548702 0 0.00027908846634226329 -0.016091949702352778 0 0.00010130485192495646 -0.015479337316680823 0 0.00024094367671469649 -0.015658609100752816 0 -3.7576620286577812e-05 -0.015043128980519595 0 0.00034832962054129254 -0.015026958713785808 0 0.00019028889666445912 -0.015234041942772048 0 0.00028948097063162683 -0.015957354201879513 0 5.4094679833646654e-05 -0.016080679952285796 0 0.00018740197633317939 -0.016159018826548702 0 5.4094679833646654e-05 -0.016080679952285796 0 0.00018740197633317939 -0.016159018826548702 0 -0.00012362139559969162 -0.016303612792880923 0 -0.00012362139559969162 -0.016303612792880923 0 -0.0005226962046407398 -0.016096248429605834 0 -0.00022330465885986943 -0.015832472732808626 0 5.4094679833646654e-05 -0.016080679952285796 0 -0.00012362139559969162 -0.016303612792880923 0 -0.00022330465885986943 -0.015832472732808626 0 -0.00022000832421964115 -0.016497264127983042 0 -0.00012362139559969162 -0.016303612792880923 0 -0.00035937381689216092 -0.01651664849531112 0 -0.00012362139559969162 -0.016303612792880923 0 -0.00035937381689216092 -0.01651664849531112 0 -0.0005226962046407398 -0.016096248429605834 0 -0.00089253180916703113 -0.016800218292018988 0 -0.00073453932012351026 -0.016481255415913384 0 -0.0010337202543934719 -0.016617382182222036 0 -0.00089253180916703113 -0.016800218292018988 0 -0.00069471922782229629 -0.016698280265014784 0 -0.00073453932012351026 -0.016481255415913384 0 -0.00035937381689216092 -0.01651664849531112 0 -0.00069471922782229629 -0.016698280265014784 0 -0.00073453932012351026 -0.016481255415913384 0 -0.00035937381689216092 -0.01651664849531112 0 -0.00073453932012351026 -0.016481255415913384 0 -0.0005226962046407398 -0.016096248429605834 0 -0.00073453932012351026 -0.016481255415913384 0 -0.00094239272272415831 -0.016228180417836705 0 -0.0010337202543934719 -0.016617382182222036 0 -0.00073453932012351026 -0.016481255415913384 0 -0.0005226962046407398 -0.016096248429605834 0 -0.00094239272272415831 -0.016228180417836705 0 -0.0005226962046407398 -0.016096248429605834 0 -0.00079338139271066467 -0.01585873208423981 0 -0.00094239272272415831 -0.016228180417836705 0 -0.0005226962046407398 -0.016096248429605834 0 -0.00063199137422964363 -0.015626838343092562 0 -0.00079338139271066467 -0.01585873208423981 0 -0.00079338139271066467 -0.01585873208423981 0 -0.00098096525294332935 -0.015867882628342832 0 -0.00094239272272415831 -0.016228180417836705 0 -0.00063199137422964363 -0.015626838343092562 0 -0.00079338139271066467 -0.01585873208423981 0 -0.00085405935873449177 -0.015639393860071481 0 -0.00079338139271066467 -0.01585873208423981 0 -0.00085405935873449177 -0.015639393860071481 0 -0.00098096525294332935 -0.015867882628342832 0 -0.00063199137422964363 -0.015626838343092562 0 -0.00022330465885986943 -0.015832472732808626 0 -0.00022889698308081369 -0.01511505977101462 0 -0.0005226962046407398 -0.016096248429605834 0 -0.00063199137422964363 -0.015626838343092562 0 -0.00022330465885986943 -0.015832472732808626 0 -0.00063199137422964363 -0.015626838343092562 0 -0.00022889698308081369 -0.01511505977101462 0 -0.00054250569604365163 -0.014609831261508105 0 -0.000637068267989613 -0.015549654304554062 0 -0.00047543174871122584 -0.014917630915803805 0 -0.00022889698308081369 -0.01511505977101462 0 -0.00054250569604365163 -0.014609831261508105 0 -0.00022586536621842162 -0.014760707694260165 0 -0.00077229298670716871 -0.015416779100545171 0 -0.00078241689994705066 -0.015098671007074753 0 -0.0011226956841439649 -0.015516997744043694 0 -0.00063199137422964363 -0.015626838343092562 0 -0.00077229298670716871 -0.015416779100545171 0 -0.00043470536944778174 -0.015233760780915298 0 -0.00085405935873449177 -0.015639393860071481 0 -0.00077229298670716871 -0.015416779100545171 0 -0.0011226956841439649 -0.015516997744043694 0 -0.00063199137422964363 -0.015626838343092562 0 -0.00085405935873449177 -0.015639393860071481 0 -0.00077229298670716871 -0.015416779100545171 0 -0.00077229298670716871 -0.015416779100545171 0 -0.00078241689994705066 -0.015098671007074753 0 -0.00043470536944778174 -0.015233760780915298 0 -0.00089905753538653608 -0.015445435177460054 0 -0.0012001913239260743 -0.015828175118439643 0 -0.0010384595976951625 -0.015844660521998018 0 -0.0010516981528969256 -0.015648270556808619 0 -0.0011924298926324396 -0.015849066032258229 0 -0.00043470536944778174 -0.015233760780915298 0 -0.00022486879931494941 -0.014778429326678211 0 -0.00048928709927323105 -0.014953248880052976 0 -0.00078241689994705066 -0.015098671007074753 0 -0.00043470536944778174 -0.015233760780915298 0 -0.00048928709927323105 -0.014953248880052976 0 -0.00047543174871122584 -0.014917630915803805 0 -0.00035875375961787393 -0.014421318878233355 0 -0.00054250569604365163 -0.014609831261508105 0 -0.00017951956640794347 -0.014457510524938039 0 -0.00046897220654519366 -0.013993888049987704 0 -0.00054250569604365163 -0.014609831261508105 0 -0.00017951956640794347 -0.014457510524938039 0 -0.00022586536621842162 -0.014760707694260165 0 -0.00017951956640794347 -0.014457510524938039 0 -0.00022586536621842162 -0.014760707694260165 0 -5.0431076716271775e-05 -0.014822110528816108 0 -3.7576620286577812e-05 -0.015043128980519595 0 -0.00022889698308081369 -0.01511505977101462 0 -5.0431076716271775e-05 -0.014822110528816108 0 -0.00022889698308081369 -0.01511505977101462 0 -0.00022586536621842162 -0.014760707694260165 0 -5.0431076716271775e-05 -0.014822110528816108 0 -5.0431076716271775e-05 -0.014822110528816108 0 0.00011577750413434725 -0.014526683893699207 0 0.00023950405118805868 -0.014788541481085377 0 -0.00017951956640794347 -0.014457510524938039 0 0.00011577750413434725 -0.014526683893699207 0 -2.3517022538651892e-05 -0.014256171313973106 0 -0.00017951956640794347 -0.014457510524938039 0 -5.0431076716271775e-05 -0.014822110528816108 0 0.00011577750413434725 -0.014526683893699207 0 -0.00017951956640794347 -0.014457510524938039 0 -2.3517022538651892e-05 -0.014256171313973106 0 -0.00018245235381813386 -0.014088548538897447 0 0.00011577750413434725 -0.014526683893699207 0 -2.3517022538651892e-05 -0.014256171313973106 0 0.00015651510148456739 -0.014176754752454388 0 -5.1165646871263872e-05 -0.013391170427572556 0 3.2745183479277812e-07 -0.015007212956369059 0 5.8372828940352262e-07 -0.011740518117133688 0 -2.3517022538651892e-05 -0.014256171313973106 0 -2.4451129882527985e-05 -0.013913745548566833 0 0.00015651510148456739 -0.014176754752454388 0 -2.3517022538651892e-05 -0.014256171313973106 0 -2.4451129882527985e-05 -0.013913745548566833 0 -0.00018245235381813386 -0.014088548538897447 0 -2.4451129882527985e-05 -0.013913745548566833 0 -0.00018245235381813386 -0.014088548538897447 0 -0.00022878204986791282 -0.013771845398581105 0 -0.00017951956640794347 -0.014457510524938039 0 -0.00018245235381813386 -0.014088548538897447 0 -0.00046897220654519366 -0.013993888049987704 0 -0.00018245235381813386 -0.014088548538897447 0 -0.00046897220654519366 -0.013993888049987704 0 -0.00022878204986791282 -0.013771845398581105 0 -0.00046897220654519366 -0.013993888049987704 0 -0.00022878204986791282 -0.013771845398581105 0 -0.00031831989796211044 -0.013431385973449294 0 -0.00022486879931494941 -0.014778429326678211 0 -1.2793386579620394e-05 -0.014306828940670703 0 -0.00020732863710429803 -0.01427528965831765 0 -0.00035875375961787393 -0.014421318878233355 0 -7.1206159549578311e-05 -0.013663120283475697 0 -2.4451129882527985e-05 -0.013913745548566833 0 -1.6194192428309419e-05 -0.013407653711976714 0 0.00026302152128268217 -0.01373015117851125 0 -7.1206159549578311e-05 -0.013663120283475697 0 -0.00010574435519036637 -0.013407609306274458 0 -0.00022878204986791282 -0.013771845398581105 0 -0.00031831989796211044 -0.013431385973449294 0 -1.6194192428309419e-05 -0.013407653711976714 0 -2.4451129882527985e-05 -0.013913745548566833 0 -0.00022878204986791282 -0.013771845398581105 0 -1.6194192428309419e-05 -0.013407653711976714 0 -1.6194192428309419e-05 -0.013407653711976714 0 -9.1952226262868999e-05 -0.013180343332992894 0 -4.335160831064897e-05 -0.012903081629658282 0 -9.1952226262868999e-05 -0.013180343332992894 0 -5.1165646871263872e-05 -0.013391170427572556 0 -4.335160831064897e-05 -0.012903081629658282 0 -0.00018016321666827827 -0.013346382774000539 0 -1.6194192428309419e-05 -0.013407653711976714 0 -9.1952226262868999e-05 -0.013180343332992894 0 -0.00028266947728644316 -0.014120804450390607 0 0.00010372810298055348 -0.013255706186170422 0 -7.1206159549578311e-05 -0.013663120283475697 0 -5.951321516795207e-06 -0.013087357069424292 0 -9.1952226262868999e-05 -0.013180343332992894 0 0.00020838509174382633 -0.012949014828074786 0 -5.1165646871263872e-05 -0.013391170427572556 0 -7.410530705975422e-05 -0.014286695918207762 0 -6.9728209405018764e-05 -0.014115152478119257 0 -5.1165646871263872e-05 -0.013391170427572556 0 2.1335070397479544e-05 -0.012920578744678963 0 -9.1952226262868999e-05 -0.013180343332992894 0 0.00020838509174382633 -0.012949014828074786 0 -7.1206159549578311e-05 -0.013663120283475697 0 -0.00028266947728644316 -0.014120804450390607 0 -6.9728209405018764e-05 -0.014115152478119257 0 -5.1165646871263872e-05 -0.013391170427572556 0 -3.2747106938536826e-05 -0.014258346492868708 0 -5.1165646871263872e-05 -0.013391170427572556 0 3.2745183479277812e-07 -0.015007212956369059 0 -3.2747106938536826e-05 -0.014258346492868708 0 3.2745183479277812e-07 -0.015007212956369059 0 7.2908590034774837e-05 -0.014836614369676098 0 4.9334298208693476e-05 -0.016058687067016072 0 3.2745183479277812e-07 -0.015007212956369059 0 -3.2747106938536826e-05 -0.014258346492868708 0 7.2908590034774837e-05 -0.014836614369676098 0 -3.2747106938536826e-05 -0.014258346492868708 0 7.2908590034774837e-05 -0.014836614369676098 0 -5.5779511058466041e-06 -0.01428646981472593 0 7.2908590034774837e-05 -0.014836614369676098 0 -5.5779511058466041e-06 -0.01428646981472593 0 0.00022796789956856683 -0.014192441339710734 0 -0.00028266947728644316 -0.014120804450390607 0 9.9526138550480234e-05 -0.01586214097203793 0 -7.410530705975422e-05 -0.014286695918207762 0 -5.5779511058466041e-06 -0.01428646981472593 0 0.00022796789956856683 -0.014192441339710734 0 -0.00050881076674324361 -0.015177966260258309 0 -0.00094093027708375078 -0.015114853261461303 0 -0.00075938159134872904 -0.015283746012012796 0 -6.9728209405018764e-05 -0.014115152478119257 0 -3.2747106938536826e-05 -0.014258346492868708 0 -5.5779511058466041e-06 -0.01428646981472593 0 -7.410530705975422e-05 -0.014286695918207762 0 -6.9728209405018764e-05 -0.014115152478119257 0 -5.5779511058466041e-06 -0.01428646981472593 0 7.2908590034774837e-05 -0.014836614369676098 0 0.00014254054396022758 -0.015828745285269945 0 4.9334298208693476e-05 -0.016058687067016072 0 0.00021106489406364979 -0.014687461618603553 0 9.9526138550480234e-05 -0.01586214097203793 0 -0.00094093027708375078 -0.015114853261461303 0 -0.00091519166212899463 -0.015398358682414896 0 -0.0011050265571142929 -0.015455413399214942 0 9.9526138550480234e-05 -0.01586214097203793 0 -3.0669756895856538e-05 -0.016866176699349329 0 -0.00094093027708375078 -0.015114853261461303 0 -0.00091519166212899463 -0.015398358682414896 0 -0.00075938159134872904 -0.015283746012012796 0 -0.00050881076674324361 -0.015177966260258309 0 -0.00075938159134872904 -0.015283746012012796 0 -0.00077121018764925078 -0.01553053773426597 0 -0.00028266947728644316 -0.014120804450390607 0 -0.000682688401291984 -0.015219741107637474 0 -0.00022486879931494941 -0.014778429326678211 0 -0.00020732863710429803 -0.01427528965831765 0 -0.00050557311204897182 -0.014699843408556887 0 -0.00091519166212899463 -0.015398358682414896 0 -0.00075938159134872904 -0.015283746012012796 0 -0.00077121018764925078 -0.01553053773426597 0 -0.00078241689994705066 -0.015098671007074753 0 -0.00050557311204897182 -0.014699843408556887 0 -0.00048928709927323105 -0.014953248880052976 0 -0.00022486879931494941 -0.014778429326678211 0 -0.00050557311204897182 -0.014699843408556887 0 -0.00048928709927323105 -0.014953248880052976 0 -0.00089905753538653608 -0.015445435177460054 0 -0.000682688401291984 -0.015219741107637474 0 -0.0010384595976951625 -0.015844660521998018 0 -0.00077121018764925078 -0.01553053773426597 0 -0.0010516981528969256 -0.015648270556808619 0 -0.0011050265571142929 -0.015455413399214942 0 -0.0010516981528969256 -0.015648270556808619 0 -0.0012338710447486615 -0.015748954198786622 0 -0.00091519166212899463 -0.015398358682414896 0 -0.0011050265571142929 -0.015455413399214942 0 -0.0010516981528969256 -0.015648270556808619 0 -0.00091519166212899463 -0.015398358682414896 0 -0.00077121018764925078 -0.01553053773426597 0 -0.0010516981528969256 -0.015648270556808619 0 -3.0669756895856538e-05 -0.016866176699349329 0 -0.0009647659994816239 -0.017566815802816882 0 0.00096247601891406831 -0.018315926996988897 0 0.00037748804311679018 -0.01870607143169261 0 0.00046735159329325319 -0.01900338590235396 0 0.00096247601891406831 -0.018315926996988897 0 0.00037748804311679018 -0.01870607143169261 0 0.00011808195040053958 -0.018454935546647139 0 -0.0011050265571142929 -0.015455413399214942 0 -0.0012338710447486615 -0.015748954198786622 0 -0.0012589747705801894 -0.015773149192557116 0 -0.0010516981528969256 -0.015648270556808619 0 -0.0012338710447486615 -0.015748954198786622 0 -0.0011924298926324396 -0.015849066032258229 0 -0.00089483263307440141 -0.017419374569700653 0 -0.0009647659994816239 -0.017566815802816882 0 0.0002577150741287988 -0.018915733961780559 0 0.00037748804311679018 -0.01870607143169261 0 8.7248762567506796e-05 -0.018853306482375997 0 0.0002577150741287988 -0.018915733961780559 0 0.00037748804311679018 -0.01870607143169261 0 0.00046735159329325319 -0.01900338590235396 0 0.00037748804311679018 -0.01870607143169261 0 8.7248762567506796e-05 -0.018853306482375997 0 0.00011808195040053958 -0.018454935546647139 0 -0.00023427230996897079 -0.018859549962997778 0 0.00011808195040053958 -0.018454935546647139 0 -0.00026395521169026895 -0.018458238769430726 0 -0.00023427230996897079 -0.018859549962997778 0 8.7248762567506796e-05 -0.018853306482375997 0 -0.00018001329656622191 -0.019058906199324925 0 0.0002577150741287988 -0.018915733961780559 0 8.7248762567506796e-05 -0.018853306482375997 0 6.3213742090706748e-05 -0.019036767482902908 0 -0.00023427230996897079 -0.018859549962997778 0 8.7248762567506796e-05 -0.018853306482375997 0 0.00011808195040053958 -0.018454935546647139 0 0.00011808195040053958 -0.018454935546647139 0 5.4596354380446175e-05 -0.017111494586348551 0 -0.00026395521169026895 -0.018458238769430726 0 0.00096247601891406831 -0.018315926996988897 0 0.00011808195040053958 -0.018454935546647139 0 5.4596354380446175e-05 -0.017111494586348551 0 3.2745183479277812e-07 -0.015007212956369059 0 4.9334298208693476e-05 -0.016058687067016072 0 -7.2314534540078239e-07 -0.017465835148869128 0 5.4596354380446175e-05 -0.017111494586348551 0 4.9334298208693476e-05 -0.016058687067016072 0 -7.2314534540078239e-07 -0.017465835148869128 0 0.0014122509147699676 -0.017356856183382747 0 0.00096247601891406831 -0.018315926996988897 0 5.4596354380446175e-05 -0.017111494586348551 0 0.00014254054396022758 -0.015828745285269945 0 5.4596354380446175e-05 -0.017111494586348551 0 4.9334298208693476e-05 -0.016058687067016072 0 9.9526138550480234e-05 -0.01586214097203793 0 0.00032854456047449592 -0.017209724904453841 0 5.4596354380446175e-05 -0.017111494586348551 0 -0.00021634362433950487 -0.018179959169690618 0 -0.00026395521169026895 -0.018458238769430726 0 -7.2314534540078239e-07 -0.017465835148869128 0 -0.00021634362433950487 -0.018179959169690618 0 -0.00024043105826974489 -0.019118794077883968 0 5.4596354380446175e-05 -0.017111494586348551 0 -7.2314534540078239e-07 -0.017465835148869128 0 -0.00021634362433950487 -0.018179959169690618 0 -0.00021634362433950487 -0.018179959169690618 0 -0.00040624181260063284 -0.01875575923082427 0 -0.00024043105826974489 -0.019118794077883968 0 -0.00021634362433950487 -0.018179959169690618 0 -0.00040624181260063284 -0.01875575923082427 0 -0.00026395521169026895 -0.018458238769430726 0 -0.00023427230996897079 -0.018859549962997778 0 -0.00026395521169026895 -0.018458238769430726 0 -0.00049094365496980927 -0.018967781342134046 0 -0.00040624181260063284 -0.01875575923082427 0 -0.00026395521169026895 -0.018458238769430726 0 -0.00049094365496980927 -0.018967781342134046 0 -0.00040624181260063284 -0.01875575923082427 0 -0.00049094365496980927 -0.018967781342134046 0 -0.00061164684896151077 -0.019090684585791183 0 -0.00040624181260063284 -0.01875575923082427 0 -0.00061164684896151077 -0.019090684585791183 0 -0.00068751929488979589 -0.019096509506179016 0 -0.00067132991417707467 -0.019190257707095343 0 -0.0006672674282462601 -0.019217870520310026 0 -0.00046530710886000357 -0.019117720191247349 0 -0.00049094365496980927 -0.018967781342134046 0 -0.00067132991417707467 -0.019190257707095343 0 -0.00046530710886000357 -0.019117720191247349 0 -0.00049094365496980927 -0.018967781342134046 0 -0.00061164684896151077 -0.019090684585791183 0 -0.00067132991417707467 -0.019190257707095343 0 -0.0006672674282462601 -0.019217870520310026 0 -0.00088703098537546007 -0.019145989714939443 0 -0.0008268238482172347 -0.019225194233331078 0 -0.00067132991417707467 -0.019190257707095343 0 -0.0006672674282462601 -0.019217870520310026 0 -0.0008268238482172347 -0.019225194233331078 0 -0.0006672674282462601 -0.019217870520310026 0 -0.00046530710886000357 -0.019117720191247349 0 -0.0003118193203865971 -0.019313345052477286 0 -0.0006672674282462601 -0.019217870520310026 0 -0.0003118193203865971 -0.019313345052477286 0 -0.00088703098537546007 -0.019145989714939443 0 -0.0010563746844524349 -0.019075576963601237 0 -0.0011546134354750708 -0.018655937331265134 0 -0.00046530710886000357 -0.019117720191247349 0 -0.00018001329656622191 -0.019058906199324925 0 -0.0003118193203865971 -0.019313345052477286 0 -0.00023427230996897079 -0.018859549962997778 0 -0.00049094365496980927 -0.018967781342134046 0 -0.00046530710886000357 -0.019117720191247349 0 -0.00023427230996897079 -0.018859549962997778 0 -0.00046530710886000357 -0.019117720191247349 0 -0.00018001329656622191 -0.019058906199324925 0 -0.0018809080400524569 -0.018490766150486473 0 -0.0018191279080837306 -0.018484467170830982 0 -0.0018700234286295905 -0.018460841366752502 0 -0.0009647659994816239 -0.017566815802816882 0 -0.0010563746844524349 -0.019075576963601237 0 6.3213742090706748e-05 -0.019036767482902908 0 0.00046735159329325319 -0.01900338590235396 0 -0.0003118193203865971 -0.019313345052477286 0 -0.00018001329656622191 -0.019058906199324925 0 6.3213742090706748e-05 -0.019036767482902908 0 -0.0003118193203865971 -0.019313345052477286 0 8.7248762567506796e-05 -0.018853306482375997 0 -0.00018001329656622191 -0.019058906199324925 0 6.3213742090706748e-05 -0.019036767482902908 0 -0.0010384595976951625 -0.015844660521998018 0 -0.0011924298926324396 -0.015849066032258229 0 -0.0012783622701834545 -0.016099127834161338 0 -0.0009647659994816239 -0.017566815802816882 0 -0.0017128525391838917 -0.017202481373301749 0 -0.0012563127631312185 -0.015771804259415045 0 -0.0012841707120988099 -0.015943448470759479 0 -0.0014348324389662497 -0.0160609600218817 0 -0.0011924298926324396 -0.015849066032258229 0 -0.0012841707120988099 -0.015943448470759479 0 -0.0012783622701834545 -0.016099127834161338 0 -0.0011924298926324396 -0.015849066032258229 0 -0.0012563127631312185 -0.015771804259415045 0 -0.0012841707120988099 -0.015943448470759479 0 -0.0012338710447486615 -0.015748954198786622 0 -0.0011924298926324396 -0.015849066032258229 0 -0.0012563127631312185 -0.015771804259415045 0 0.0002577150741287988 -0.018915733961780559 0 6.3213742090706748e-05 -0.019036767482902908 0 0.00046735159329325319 -0.01900338590235396 0 -0.0012783622701834545 -0.016099127834161338 0 -0.0014348324389662497 -0.0160609600218817 0 -0.0015282758737786618 -0.016358896674101026 0 -0.0012841707120988099 -0.015943448470759479 0 -0.0012783622701834545 -0.016099127834161338 0 -0.0014348324389662497 -0.0160609600218817 0 -0.00085405935873449177 -0.015639393860071481 0 -0.0011226956841439649 -0.015516997744043694 0 -0.00098096525294332935 -0.015867882628342832 0 -0.0018191279080837306 -0.018484467170830982 0 -0.0018700234286295905 -0.018460841366752502 0 -0.0018522219962189667 -0.018250406076885037 0 -0.0014348324389662497 -0.0160609600218817 0 -0.0015282758737786618 -0.016358896674101026 0 -0.0016958103785938558 -0.016379631615794747 0 -0.0017128525391838917 -0.017202481373301749 0 -0.0017395376133931069 -0.017332025306031083 0 -0.0015282758737786618 -0.016358896674101026 0 -0.0016958103785938558 -0.016379631615794747 0 -0.0014297619076230888 -0.01661352934653159 0 -0.0015282758737786618 -0.016358896674101026 0 -0.0013338051666758164 -0.016402999301317913 0 -0.0014297619076230888 -0.01661352934653159 0 -0.0011226956841439649 -0.015516997744043694 0 -0.0015282758737786618 -0.016358896674101026 0 -0.0011914673301963873 -0.016148399856800395 0 -0.0011226956841439649 -0.015516997744043694 0 -0.00098096525294332935 -0.015867882628342832 0 -0.0011914673301963873 -0.016148399856800395 0 -0.0012001913239260743 -0.015828175118439643 0 -0.0015028371479430531 -0.016298974397022922 0 -0.0015282758737786618 -0.016358896674101026 0 -0.0011914673301963873 -0.016148399856800395 0 -0.0013338051666758164 -0.016402999301317913 0 -0.0011914673301963873 -0.016148399856800395 0 -0.0013338051666758164 -0.016402999301317913 0 -0.0012193956698469909 -0.016519015639965128 0 -0.0011914673301963873 -0.016148399856800395 0 -0.00094239272272415831 -0.016228180417836705 0 -0.0012193956698469909 -0.016519015639965128 0 -0.00098096525294332935 -0.015867882628342832 0 -0.0011914673301963873 -0.016148399856800395 0 -0.00094239272272415831 -0.016228180417836705 0 -0.00094239272272415831 -0.016228180417836705 0 -0.0012193956698469909 -0.016519015639965128 0 -0.0010337202543934719 -0.016617382182222036 0 -0.0012193956698469909 -0.016519015639965128 0 -0.0013042355722976831 -0.016876073562557662 0 -0.0010337202543934719 -0.016617382182222036 0 -0.0013338051666758164 -0.016402999301317913 0 -0.0012193956698469909 -0.016519015639965128 0 -0.0014297619076230888 -0.01661352934653159 0 -0.0012193956698469909 -0.016519015639965128 0 -0.0013042355722976831 -0.016876073562557662 0 -0.0014297619076230888 -0.01661352934653159 0 -0.0013592195355818146 -0.017202185006761826 0 -0.0013042355722976831 -0.016876073562557662 0 -0.0011335081022835344 -0.016928876058945982 0 -0.0013042355722976831 -0.016876073562557662 0 -0.0010337202543934719 -0.016617382182222036 0 -0.0011335081022835344 -0.016928876058945982 0 -0.00089253180916703113 -0.016800218292018988 0 -0.0010337202543934719 -0.016617382182222036 0 -0.0011335081022835344 -0.016928876058945982 0 -0.0017352696222044496 -0.017634120152158744 0 -0.0016958103785938558 -0.016379631615794747 0 -0.0014971925583483741 -0.017002535877262571 0 -0.0016958103785938558 -0.016379631615794747 0 -0.0014297619076230888 -0.01661352934653159 0 -0.0014971925583483741 -0.017002535877262571 0 -0.0013592195355818146 -0.017202185006761826 0 -0.0013042355722976831 -0.016876073562557662 0 -0.0014971925583483741 -0.017002535877262571 0 -0.0013042355722976831 -0.016876073562557662 0 -0.0014297619076230888 -0.01661352934653159 0 -0.0014971925583483741 -0.017002535877262571 0 -0.0017457696548893085 -0.017556233857203007 0 -0.0017395376133931069 -0.017332025306031083 0 -0.0017352696222044496 -0.017634120152158744 0 -0.0018522219962189667 -0.018250406076885037 0 -0.0015922245994612972 -0.018099171147818855 0 -0.0017352696222044496 -0.017634120152158744 0 -0.0015922245994612972 -0.018099171147818855 0 -0.0010658619147025925 -0.018388557708602142 0 -0.0015922245994612972 -0.018099171147818855 0 -0.0015147579081900727 -0.018297804904892464 0 -0.0010658619147025925 -0.018388557708602142 0 -0.0011546134354750708 -0.018655937331265134 0 -0.0010346228184144944 -0.01839704553789474 0 -0.00088703098537546007 -0.019145989714939443 0 -0.0010658619147025925 -0.018388557708602142 0 -0.0008268238482172347 -0.019225194233331078 0 -0.0018191279080837306 -0.018484467170830982 0 -0.0018522219962189667 -0.018250406076885037 0 -0.0015147579081900727 -0.018297804904892464 0 -0.0018522219962189667 -0.018250406076885037 0 -0.0015922245994612972 -0.018099171147818855 0 -0.0015147579081900727 -0.018297804904892464 0 -0.00076647571211814675 -0.019221943910377251 0 -0.0010658619147025925 -0.018388557708602142 0 -0.00053249778455839736 -0.018957607732592616 0 -0.00076647571211814675 -0.019221943910377251 0 -0.00053249778455839736 -0.018957607732592616 0 -0.00065613717859506191 -0.019528992414187249 0 -0.00076647571211814675 -0.019221943910377251 0 -0.0010658619147025925 -0.018388557708602142 0 -0.0008268238482172347 -0.019225194233331078 0 -0.00063453300515479451 -0.018013643129723641 0 -0.0010658619147025925 -0.018388557708602142 0 -0.00053249778455839736 -0.018957607732592616 0 0.00016569369881634191 -0.018240867287365268 0 0.00042524525698887472 -0.01909760457714391 0 -0.00053249778455839736 -0.018957607732592616 0 0.00042524525698887472 -0.01909760457714391 0 0.0004157860051337242 -0.020016580393690774 0 -0.00059864004093196236 -0.019938668123389434 0 0.00042524525698887472 -0.01909760457714391 0 -0.00053249778455839736 -0.018957607732592616 0 -0.00059864004093196236 -0.019938668123389434 0 -0.00053249778455839736 -0.018957607732592616 0 -0.00065613717859506191 -0.019528992414187249 0 -0.00059864004093196236 -0.019938668123389434 0 -0.00065613717859506191 -0.019528992414187249 0 -0.00059864004093196236 -0.019938668123389434 0 -0.0006647468699507562 -0.019416784922172491 0 -0.00059864004093196236 -0.019938668123389434 0 -0.00029840815338746327 -0.022961168737535793 0 0.00041214693647541545 -0.021212517896127703 0 0.0004157860051337242 -0.020016580393690774 0 -0.00059864004093196236 -0.019938668123389434 0 0.00041214693647541545 -0.021212517896127703 0 -0.00064558475897923855 -0.020188364379964522 0 -0.00054385485615742965 -0.021118851852233639 0 -0.00059864004093196236 -0.019938668123389434 0 -0.00086185931307492176 -0.01950421773986272 0 -0.0006647468699507562 -0.019416784922172491 0 -0.00065613717859506191 -0.019528992414187249 0 -0.0006647468699507562 -0.019416784922172491 0 -0.00069815734674963099 -0.019313581868367204 0 -0.00076647571211814675 -0.019221943910377251 0 -0.00065613717859506191 -0.019528992414187249 0 -0.00069815734674963099 -0.019313581868367204 0 -0.00076647571211814675 -0.019221943910377251 0 -0.0008268238482172347 -0.019225194233331078 0 -0.00069815734674963099 -0.019313581868367204 0 -0.00067132991417707467 -0.019190257707095343 0 -0.0008268238482172347 -0.019225194233331078 0 -0.00069815734674963099 -0.019313581868367204 0 -0.00061164684896151077 -0.019090684585791183 0 -0.00067132991417707467 -0.019190257707095343 0 -0.00069815734674963099 -0.019313581868367204 0 -0.00061164684896151077 -0.019090684585791183 0 -0.00069815734674963099 -0.019313581868367204 0 -0.00068751929488979589 -0.019096509506179016 0 -7.2314534540078239e-07 -0.017465835148869128 0 -0.00024043105826974489 -0.019118794077883968 0 -1.667773041540636e-07 -0.020711796491882262 0 -0.0006647468699507562 -0.019416784922172491 0 -0.00069815734674963099 -0.019313581868367204 0 -0.00068751929488979589 -0.019096509506179016 0 -0.0006647468699507562 -0.019416784922172491 0 -0.00068751929488979589 -0.019096509506179016 0 -0.00072013382787180081 -0.019263352487607507 0 -0.00026945930283218679 -0.019540691301046496 0 -0.00019282099528475214 -0.020097853899551425 0 -0.0002276096000698211 -0.020246533198485236 0 -0.00048030866664076753 -0.019328150363369451 0 -0.00060225056882003537 -0.019495954178614244 0 -0.00040624181260063284 -0.01875575923082427 0 -0.00026945930283218679 -0.019540691301046496 0 -0.00024043105826974489 -0.019118794077883968 0 -0.00026945930283218679 -0.019540691301046496 0 -0.00024043105826974489 -0.019118794077883968 0 -0.00019282099528475214 -0.020097853899551425 0 -0.00043486695823572379 -0.018856078040270074 0 -0.00048030866664076753 -0.019328150363369451 0 -0.00024043105826974489 -0.019118794077883968 0 -0.00019282099528475214 -0.020097853899551425 0 -1.667773041540636e-07 -0.020711796491882262 0 -1.667773041540636e-07 -0.020711796491882262 0 -7.6019799258397969e-05 -0.020970916519623694 0 0.00022260230377859079 -0.022739377822483905 0 -0.00019282099528475214 -0.020097853899551425 0 -1.667773041540636e-07 -0.020711796491882262 0 -7.6019799258397969e-05 -0.020970916519623694 0 -7.6019799258397969e-05 -0.020970916519623694 0 -0.0002276096000698211 -0.020246533198485236 0 0.00020846682190499445 -0.020536846694035268 0 -0.00019282099528475214 -0.020097853899551425 0 -7.6019799258397969e-05 -0.020970916519623694 0 -0.0002276096000698211 -0.020246533198485236 0 -0.00086185931307492176 -0.01950421773986272 0 -0.0006647468699507562 -0.019416784922172491 0 -0.00072013382787180081 -0.019263352487607507 0 -0.00054385485615742965 -0.021118851852233639 0 0.00021685230867635061 -0.02203581015121674 0 -0.00060225056882003537 -0.019495954178614244 0 0.00021685230867635061 -0.02203581015121674 0 -0.00086185931307492176 -0.01950421773986272 0 -0.00072013382787180081 -0.019263352487607507 0 -0.00093193019027045388 -0.019340599099655409 0 -0.00029840815338746327 -0.022961168737535793 0 0.00061344982974424354 -0.024380249125319834 0 0.00090095966117913553 -0.023748341171814472 0 0.00061344982974424354 -0.024380249125319834 0 0.00071516954318185993 -0.024092823908974825 0 0.00090095966117913553 -0.023748341171814472 0 -1.667773041540636e-07 -0.020711796491882262 0 0.00022260230377859079 -0.022739377822483905 0 3.6025226233744073e-07 -0.024998942603966321 0 0.00021685230867635061 -0.02203581015121674 0 0.00063929864214887124 -0.024271858887592073 0 0.00048661193141642209 -0.024494212590656463 0 0.00027105687951215076 -0.024101093141609561 0 0.00018599694511973948 -0.024481109401643129 0 0.00063929864214887124 -0.024271858887592073 0 0.00026201336408793576 -0.024417978973628133 0 0.00071516954318185993 -0.024092823908974825 0 0.00018599694511973948 -0.024481109401643129 0 0.00048132031109381676 -0.024334673174494018 0 0.00071516954318185993 -0.024092823908974825 0 0.00048132031109381676 -0.024334673174494018 0 0.00090095966117913553 -0.023748341171814472 0 0.00048661193141642209 -0.024494212590656463 0 0.00027105687951215076 -0.024101093141609561 0 0.00084524642980513172 -0.023858886493332818 0 0.00021685230867635061 -0.02203581015121674 0 0.00057950571006720058 -0.022613339055342234 0 -7.6019799258397969e-05 -0.020970916519623694 0 0.00020846682190499445 -0.020536846694035268 0 0.00036284738616687486 -0.021171224138010713 0 0.0010734258222405894 -0.024428597150189729 0 0.00048661193141642209 -0.024494212590656463 0 0.00084524642980513172 -0.023858886493332818 0 0.00057950571006720058 -0.022613339055342234 0 0.00031430319717147033 -0.022595722709617964 0 -7.6019799258397969e-05 -0.020970916519623694 0 0.00036284738616687486 -0.021171224138010713 0 0.00022260230377859079 -0.022739377822483905 0 0.00027105687951215076 -0.024101093141609561 0 0.00084524642980513172 -0.023858886493332818 0 0.00022260230377859079 -0.022739377822483905 0 0.00027105687951215076 -0.024101093141609561 0 0.00022260230377859079 -0.022739377822483905 0 1.1051091949585019e-05 -0.024254005427085092 0 3.6025226233744073e-07 -0.024998942603966321 0 1.1051091949585019e-05 -0.024254005427085092 0 -2.0535068707817024e-07 -0.024998344155016363 0 0.00022260230377859079 -0.022739377822483905 0 3.6025226233744073e-07 -0.024998942603966321 0 1.1051091949585019e-05 -0.024254005427085092 0 0.00027105687951215076 -0.024101093141609561 0 1.1051091949585019e-05 -0.024254005427085092 0 0.00018599694511973948 -0.024481109401643129 0 1.1051091949585019e-05 -0.024254005427085092 0 -2.0535068707817024e-07 -0.024998344155016363 0 0.00018599694511973948 -0.024481109401643129 0 -2.0535068707817024e-07 -0.024998344155016363 0 0.00018599694511973948 -0.024481109401643129 0 6.9972542721499049e-05 -0.02482500798020441 0 -2.0535068707817024e-07 -0.024998344155016363 0 6.9972542721499049e-05 -0.02482500798020441 0 1.9726374143270352e-07 -0.025000340987572926 0 6.9972542721499049e-05 -0.02482500798020441 0 0.00014183327181874666 -0.02490672597778255 0 1.9726374143270352e-07 -0.025000340987572926 0 0.00014183327181874666 -0.02490672597778255 0 0.00040183219480201439 -0.024795759295505711 0 0.000217765585663395 -0.025000134959952972 0 6.9972542721499049e-05 -0.02482500798020441 0 0.00014183327181874666 -0.02490672597778255 0 0.00023413436576674026 -0.024647637189866137 0 0.00014183327181874666 -0.02490672597778255 0 0.00023413436576674026 -0.024647637189866137 0 0.00040183219480201439 -0.024795759295505711 0 0.00018599694511973948 -0.024481109401643129 0 6.9972542721499049e-05 -0.02482500798020441 0 0.00023413436576674026 -0.024647637189866137 0 0.00023413436576674026 -0.024647637189866137 0 0.00048132031109381676 -0.024334673174494018 0 0.00040183219480201439 -0.024795759295505711 0 0.00018599694511973948 -0.024481109401643129 0 0.00023413436576674026 -0.024647637189866137 0 0.00048132031109381676 -0.024334673174494018 0 0.00087473622869998862 -0.023691731812930803 0 0.001245537176960325 -0.022529400030740693 0 -0.00029840815338746327 -0.022961168737535793 0 0.00090095966117913553 -0.023748341171814472 0 0.00041214693647541545 -0.021212517896127703 0 0.00048132031109381676 -0.024334673174494018 0 0.00090095966117913553 -0.023748341171814472 0 0.00069961131201249391 -0.024923054952543527 0 0.00090095966117913553 -0.023748341171814472 0 0.00041214693647541545 -0.021212517896127703 0 0.0015762618771522768 -0.020053785387410261 0 0.0004157860051337242 -0.020016580393690774 0 0.00041214693647541545 -0.021212517896127703 0 0.0015762618771522768 -0.020053785387410261 0 0.00048132031109381676 -0.024334673174494018 0 0.00069961131201249391 -0.024923054952543527 0 0.00040183219480201439 -0.024795759295505711 0 0.00040183219480201439 -0.024795759295505711 0 0.00032013679054561936 -0.025186973835903556 0 0.000217765585663395 -0.025000134959952972 0 0.00069961131201249391 -0.024923054952543527 0 0.00040183219480201439 -0.024795759295505711 0 0.00040360138768287209 -0.025322375991626886 0 0.00069961131201249391 -0.024923054952543527 0 0.00040360138768287209 -0.025322375991626886 0 0.00055500111761581743 -0.025365159868653994 0 0.001245537176960325 -0.022529400030740693 0 0.00010667279923603778 -0.021873255217901788 0 0.00039215850810336833 -0.025093700677598283 0 0.0003610525456055372 -0.024604799384612939 0 0.00042524525698887472 -0.01909760457714391 0 0.0004157860051337242 -0.020016580393690774 0 0.0015762618771522768 -0.020053785387410261 0 0.00042524525698887472 -0.01909760457714391 0 0.0015762618771522768 -0.020053785387410261 0 0.0015503763192211352 -0.018523569898341211 0 0.00016569369881634191 -0.018240867287365268 0 0.00042524525698887472 -0.01909760457714391 0 0.0015503763192211352 -0.018523569898341211 0 0.00046004367831573679 -0.019581851960720105 0 0.00010667279923603778 -0.021873255217901788 0 -9.1255674018607088e-05 -0.024169668461330767 0 0.0003610525456055372 -0.024604799384612939 0 -0.00017219974165400421 -0.02357112973096091 0 -0.00012557171192968414 -0.023116353188479401 0 9.6153157004771623e-05 -0.023193810716191917 0 0.0003610525456055372 -0.024604799384612939 0 0.00010667279923603778 -0.021873255217901788 0 -1.3005147263421386e-05 -0.0249840017678386 0 -9.4855989487061039e-06 -0.024994172791141384 0 -4.5222984146959107e-06 -0.024992821360950285 0 0.0003610525456055372 -0.024604799384612939 0 6.0053631708851281e-05 -0.025047782698126634 0 -9.4855989487061039e-06 -0.024994172791141384 0 -4.5222984146959107e-06 -0.024992821360950285 0 -2.3449131201590816e-06 -0.024998421867432914 0 1.0892805190652958e-08 -0.024999965265942285 0 -7.3179353887763029e-09 -0.025000016470343663 0 -2.3449131201590816e-06 -0.024998421867432914 0 1.0892805190652958e-08 -0.024999965265942285 0 -4.5222984146959107e-06 -0.024992821360950285 0 -2.3449131201590816e-06 -0.024998421867432914 0 0.00014183327181874666 -0.02490672597778255 0 1.9726374143270352e-07 -0.025000340987572926 0 0.00012712983653901958 -0.025081032868942206 0 2.3158674885098831e-08 -0.025000017365074352 0 6.0053631708851281e-05 -0.025047782698126634 0 0.00032013679054561936 -0.025186973835903556 0 0.00012712983653901958 -0.025081032868942206 0 0.000217765585663395 -0.025000134959952972 0 0.00014183327181874666 -0.02490672597778255 0 0.00012712983653901958 -0.025081032868942206 0 0.000217765585663395 -0.025000134959952972 0 -0.0014609179427937399 -0.00011214558993622073 0 -0.0011216761782128642 -0.00054594362233920655 0 -0.0016649495886712695 -0.00078882302029304829 0 -0.0014609179427937399 -0.00011214558993622073 0 -0.0020887968767563819 9.308249872795691e-05 0 -0.0016649495886712695 -0.00078882302029304829 0 -0.0020887968767563819 9.308249872795691e-05 0 -0.0016649495886712695 -0.00078882302029304829 0 -0.0024109589433234731 -0.00051107443709319067 0 -0.0020887968767563819 9.308249872795691e-05 0 -0.0025211540947981241 0.00067110666676152 0 -0.0014146488565030405 0.00059126923876335561 0 -0.0014609179427937399 -0.00011214558993622073 0 -0.0010539081102962904 -4.1235663654209516e-05 0 -0.0014146488565030405 0.00059126923876335561 0 -0.0014609179427937399 -0.00011214558993622073 0 -0.0020887968767563819 9.308249872795691e-05 0 -0.0014146488565030405 0.00059126923876335561 0 -0.00055080874636896995 0.00014811646758087832 0 -0.0014146488565030405 0.00059126923876335561 0 -0.00030124408095773253 0.00053171540464067111 0 -0.0010539081102962904 -4.1235663654209516e-05 0 -0.00055080874636896995 0.00014811646758087832 0 -0.0014146488565030405 0.00059126923876335561 0 -0.00055080874636896995 0.00014811646758087832 0 -0.00031537666566026435 -0.00015212411912880628 0 -0.00030124408095773253 0.00053171540464067111 0 -0.00031537666566026435 -0.00015212411912880628 0 -0.00030124408095773253 0.00053171540464067111 0 0.00021111826123234575 -0.00033307138797080717 0 -0.00055080874636896995 0.00014811646758087832 0 -0.00031537666566026435 -0.00015212411912880628 0 -0.00071539242949765556 -0.00028236261781241302 0 -0.0012238412517300455 -0.00022087167656642217 0 -0.00045354195288816671 -0.0034305636504176487 0 -0.00031537666566026435 -0.00015212411912880628 0 -0.00071539242949765556 -0.00028236261781241302 0 -0.00034716965758181938 -0.0006985612975572694 0 -0.00045354195288816671 -0.0034305636504176487 0 -7.2369416595242594e-05 -0.0037755630097346666 0 -0.00031537666566026435 -0.00015212411912880628 0 -0.00034716965758181938 -0.0006985612975572694 0 0.00021111826123234575 -0.00033307138797080717 0 -0.00071539242949765556 -0.00028236261781241302 0 -0.0011216761782128642 -0.00054594362233920655 0 -0.00091145737350919087 -0.0010016885715892247 0 -0.0014609179427937399 -0.00011214558993622073 0 -0.0010539081102962904 -4.1235663654209516e-05 0 -0.0011216761782128642 -0.00054594362233920655 0 -0.0010539081102962904 -4.1235663654209516e-05 0 -0.00071539242949765556 -0.00028236261781241302 0 -0.0011216761782128642 -0.00054594362233920655 0 -0.0010539081102962904 -4.1235663654209516e-05 0 -0.00055080874636896995 0.00014811646758087832 0 -0.00071539242949765556 -0.00028236261781241302 0 -0.00020332348669677716 -0.001495313613646253 0 -0.00029668962703732879 -0.0015547065386402993 0 -0.0014782108507531415 -0.0011218216853807828 0 -0.0011216761782128642 -0.00054594362233920655 0 -0.00091145737350919087 -0.0010016885715892247 0 -0.0016649495886712695 -0.00078882302029304829 0 -0.0010526271825853448 -0.0044816761500156531 0 -0.00069621200616531227 -0.0045833906871748679 0 -0.0011392687423751402 -0.0045374678130940364 0 -0.00066221969649761763 -0.0024842849272106908 0 -0.00032296840179429594 -0.0023019428056741805 0 -0.00066221969649761763 -0.0024842849272106908 0 -0.00055502434905559919 -0.0031818307511402811 0 -0.00071539242949765556 -0.00028236261781241302 0 -0.00091145737350919087 -0.0010016885715892247 0 -0.00036884144848950222 -0.00065443411605840406 0 -0.00069621200616531227 -0.0045833906871748679 0 -0.0011392687423751402 -0.0045374678130940364 0 0.00019734609660117066 -0.0050119025401384465 0 -0.00032296840179429594 -0.0023019428056741805 0 -8.8799315831050767e-05 -0.0053916175897053328 0 -0.00045354195288816671 -0.0034305636504176487 0 0.00022810978905694768 -0.0064627500929838625 0 -0.00066221969649761763 -0.0024842849272106908 0 -0.00045354195288816671 -0.0034305636504176487 0 -0.0010518659663523746 -0.0044896506739677483 0 -0.00069621200616531227 -0.0045833906871748679 0 -0.000187313889468225 -0.0039220059963522031 0 -0.00069621200616531227 -0.0045833906871748679 0 -0.000187313889468225 -0.0039220059963522031 0 -2.752585990128979e-05 -0.0048037818244747316 0 -0.000187313889468225 -0.0039220059963522031 0 -2.752585990128979e-05 -0.0048037818244747316 0 0.00048785618608702562 -0.0046267463359115591 0 -0.00069621200616531227 -0.0045833906871748679 0 -2.752585990128979e-05 -0.0048037818244747316 0 0.00019734609660117066 -0.0050119025401384465 0 -2.752585990128979e-05 -0.0048037818244747316 0 0.00020135523530309142 -0.0050232371351777664 0 0.00048785618608702562 -0.0046267463359115591 0 0.00012204932356232073 -0.0042768704364871428 0 0.00032338906639187262 -0.0042912896680460345 0 0.00023932802202723192 -0.004429673514475126 0 -0.0001285665325691418 -0.0052100293756853905 0 -8.8799315831050767e-05 -0.0053916175897053328 0 0.00012204932356232073 -0.0042768704364871428 0 2.6402846418622886e-05 -0.0044206437853961606 0 0.00011453095400053822 -0.0044633956936342553 0 0.00012204932356232073 -0.0042768704364871428 0 0.00011453095400053822 -0.0044633956936342553 0 0.00023932802202723192 -0.004429673514475126 0 -0.00032296840179429594 -0.0023019428056741805 0 -0.00017389049704192425 -0.0019820014607096611 0 2.6402846418622886e-05 -0.0044206437853961606 0 4.5036572322846965e-05 -0.0044249765996284005 0 0.00011453095400053822 -0.0044633956936342553 0 -0.00041069071011385835 0.00035428687118333504 0 -0.00055819161255440519 0.00027825295379827728 0 -0.00054630799212343104 0.00042459493657755432 0 -0.00032296840179429594 -0.0023019428056741805 0 -0.0012274305972742483 -0.00015528362637932263 0 -0.00066221969649761763 -0.0024842849272106908 0 -0.0012274305972742483 -0.00015528362637932263 0 -0.0012274305972742483 -0.00015528362637932263 0 -0.0018937206283301026 0.00010489321354546233 0 -0.0012274305972742483 -0.00015528362637932263 0 -0.00095377822299370181 0.0006106698561612118 0 -0.00054630799212343104 0.00042459493657755432 0 -0.00065451340716367237 0.00034779647787118998 0 -0.00069128240508946879 0.00049268613370874871 0 -0.0010784201618631167 0.00052520246029231165 0 -0.0013623985068100758 0.00067680990018141216 0 -0.0013672871837776253 0.00070226080908464836 0 -0.00055819161255440519 0.00027825295379827728 0 -0.00065451340716367237 0.00034779647787118998 0 -0.00070817597995680799 0.0001876267252347851 0 -0.00055819161255440519 0.00027825295379827728 0 -0.00054630799212343104 0.00042459493657755432 0 -0.00065451340716367237 0.00034779647787118998 0 2.6402846418622886e-05 -0.0044206437853961606 0 4.5036572322846965e-05 -0.0044249765996284005 0 0.00015429916543412917 -0.0044452139596898674 0 -0.00065451340716367237 0.00034779647787118998 0 -0.0007750397147815349 0.00035587911774259093 0 -0.00070817597995680799 0.0001876267252347851 0 -0.0007750397147815349 0.00035587911774259093 0 -0.00083304015123311528 0.00022389915219796864 0 -0.00070817597995680799 0.0001876267252347851 0 -0.0007750397147815349 0.00035587911774259093 0 -0.00094857418441762742 0.00036350406487080416 0 -0.00083304015123311528 0.00022389915219796864 0 -0.0007750397147815349 0.00035587911774259093 0 -0.00094857418441762742 0.00036350406487080416 0 -0.00084643525688945739 0.00056133320345911264 0 -0.00094857418441762742 0.00036350406487080416 0 -0.0010137527294645696 0.0006273326779787687 0 -0.00084643525688945739 0.00056133320345911264 0 -0.00065451340716367237 0.00034779647787118998 0 -0.0007750397147815349 0.00035587911774259093 0 -0.00069128240508946879 0.00049268613370874871 0 -0.0007750397147815349 0.00035587911774259093 0 -0.00069128240508946879 0.00049268613370874871 0 -0.00084643525688945739 0.00056133320345911264 0 0.0006889628497802016 0.0046296561681949643 0 0.0013557136534222758 0.0045772725005758345 0 0.00077125153546408044 0.0050735665745233281 0 0.0012166665576125108 0.0045591466433345888 0 0.00071522244095789948 0.0048181771861472347 0 0.0012181013717484409 0.0044293655708818594 0 0.00098374813319020019 0.0040715105444753289 0 0.0006096423087568393 0.0046688670275814095 0 0.0012181013717484409 0.0044293655708818594 0 0.00081603679694513859 0.0049401743179132715 0 0.00098640357902996315 0.0052097572028655835 0 0.00017917185035547098 0.0024412843930954301 0 -0.00060983883888170924 0.0027581715975658746 0 0.0012181013717484409 0.0044293655708818594 0 0.0006096423087568393 0.0046688670275814095 0 0.00081603679694513859 0.0049401743179132715 0 0.00071522244095789948 0.0048181771861472347 0 0.00043968289608416195 0.0051788614439760286 0 0.0006096423087568393 0.0046688670275814095 0 0.00062768975443427944 0.005117434987186466 0 0.00041513390452717759 0.0052021541525584707 0 0.0006096423087568393 0.0046688670275814095 0 0.00081603679694513859 0.0049401743179132715 0 0.00062768975443427944 0.005117434987186466 0 0.00062768975443427944 0.005117434987186466 0 0.0005518000869248965 0.0053716604198168266 0 0.00041513390452717759 0.0052021541525584707 0 0.00062768975443427944 0.005117434987186466 0 0.00076392600849866342 0.0052424425474646716 0 0.0005518000869248965 0.0053716604198168266 0 0.00081603679694513859 0.0049401743179132715 0 0.00062768975443427944 0.005117434987186466 0 0.00076392600849866342 0.0052424425474646716 0 -0.0018951920540104701 0.00098930718833745526 0 -0.0018814161249437016 0.00092301141000706091 0 -0.0016385185294803533 0.00085842698072782124 0 0.00076392600849866342 0.0052424425474646716 0 0.00088679349138261491 0.0052786050243149455 0 0.00090292372086793807 0.0051945281094262002 0 0.00051366206691184869 0.0039251489287559348 0 -0.00060983883888170924 0.0027581715975658746 0 -0.0015607978735005729 0.0025702285927775123 0 -0.00060983883888170924 0.0027581715975658746 0 0.00081603679694513859 0.0049401743179132715 0 0.00076392600849866342 0.0052424425474646716 0 0.00098640357902996315 0.0052097572028655835 0 -0.0038524244999628742 3.1086372468602571e-05 0 -0.0039866651865920677 0.00061607124561821526 0 -0.0033511825380026167 0.00037576989925750443 0 -0.0015607978735005729 0.0025702285927775123 0 -0.0026588531084467291 0.0020046486052666666 0 0.00076392600849866342 0.0052424425474646716 0 0.00088679349138261491 0.0052786050243149455 0 0.0005518000869248965 0.0053716604198168266 0 -0.0015684786047220017 0.0042707169792456923 0 -0.0014270354441341996 0.0036490532676925476 0 -0.00083991297746909292 0.0040595585221252072 0 -0.0015607978735005729 0.0025702285927775123 0 1.2903048749867344e-05 0.0047166466936399525 0 -0.0014270354441341996 0.0036490532676925476 0 -0.00083991297746909292 0.0040595585221252072 0 -0.00069133726693279887 0.0034240982575336806 0 -0.0013672871837776253 0.00070226080908464836 0 -0.0016385185294803533 0.00085842698072782124 0 -0.0016290375688364674 0.00081192161967979148 0 -0.0013623985068100758 0.00067680990018141216 0 -0.0013672871837776253 0.00070226080908464836 0 -0.0016290375688364674 0.00081192161967979148 0 -0.0020887968767563819 9.308249872795691e-05 0 -0.0024109589433234731 -0.00051107443709319067 0 -0.003144661934292292 -0.00023505749172661621 0 -0.0018937206283301026 0.00010489321354546233 0 -0.0025508217245551138 0.00020372549802777782 0 -0.00095377822299370181 0.0006106698561612118 0 -0.0013360007758671079 0.00059133237281876042 0 -0.0015607978735005729 0.0025702285927775123 0 -0.0025508217245551138 0.00020372549802777782 0 -0.00060983883888170924 0.0027581715975658746 0 -0.0013360007758671079 0.00059133237281876042 0 -0.0018814161249437016 0.00092301141000706091 0 -0.0016385185294803533 0.00085842698072782124 0 -0.0016290375688364674 0.00081192161967979148 0 -0.003144661934292292 -0.00023505749172661621 0 -0.0033511825380026167 0.00037576989925750443 0 -0.0025211540947981241 0.00067110666676152 0 -0.0038524244999628742 3.1086372468602571e-05 0 -0.003144661934292292 -0.00023505749172661621 0 -0.0033511825380026167 0.00037576989925750443 0 -0.0020887968767563819 9.308249872795691e-05 0 -0.003144661934292292 -0.00023505749172661621 0 -0.0025211540947981241 0.00067110666676152 0 -0.0025211540947981241 0.00067110666676152 0 -0.0031287115637444684 0.00081563170301647721 0 -0.0031080282306028607 0.0012627102484918419 0 -0.0033511825380026167 0.00037576989925750443 0 -0.0031287115637444684 0.00081563170301647721 0 -0.0036508672787860844 0.0010526438788215195 0 -0.0031287115637444684 0.00081563170301647721 0 -0.0031080282306028607 0.0012627102484918419 0 -0.0036508672787860844 0.0010526438788215195 0 -0.0033511825380026167 0.00037576989925750443 0 -0.0025211540947981241 0.00067110666676152 0 -0.0031287115637444684 0.00081563170301647721 0 -0.0031080282306028607 0.0012627102484918419 0 -0.0036508672787860844 0.0010526438788215195 0 -0.0036477480419809319 0.0015130435447713393 0 -0.0031080282306028607 0.0012627102484918419 0 -0.0036477480419809319 0.0015130435447713393 0 -0.003133050930571439 0.0018261260369431779 0 -0.0025211540947981241 0.00067110666676152 0 -0.0031080282306028607 0.0012627102484918419 0 -0.0025624132285274608 0.0017014563300153062 0 -0.0031080282306028607 0.0012627102484918419 0 -0.0025624132285274608 0.0017014563300153062 0 -0.003133050930571439 0.0018261260369431779 0 -0.0014270354441341996 0.0036490532676925476 0 -0.0012851727562649229 0.0030127204192025108 0 -0.00069133726693279887 0.0034240982575336806 0 -0.0026165130128642826 0.0051650861222314942 0 -0.00087805450519704822 0.0055449098923412796 0 -0.0012009885957910455 0.0061454782318131089 0 -0.0024227588367346188 0.0028747061184934497 0 -0.00085022397143894989 0.004860694707233177 0 -0.0039866651865920677 0.00061607124561821526 0 -0.0036508672787860844 0.0010526438788215195 0 -0.0041154398553248338 0.0012080423644707842 0 -0.0039866651865920677 0.00061607124561821526 0 -0.0033511825380026167 0.00037576989925750443 0 -0.0036508672787860844 0.0010526438788215195 0 -0.0026588531084467291 0.0020046486052666666 0 -0.0024227588367346188 0.0028747061184934497 0 -0.0036508672787860844 0.0010526438788215195 0 -0.0040340512149928355 0.0012640695451275592 0 -0.0041154398553248338 0.0012080423644707842 0 -0.0036508672787860844 0.0010526438788215195 0 -0.0036477480419809319 0.0015130435447713393 0 -0.0038126141624975685 0.0013320435014683076 0 -0.0036477480419809319 0.0015130435447713393 0 -0.0040486994632526179 0.0017400822479844643 0 -0.0035737468734242188 0.0018466605328967714 0 -0.0036477480419809319 0.0015130435447713393 0 -0.0039508053578103481 0.001499407576866163 0 -0.004062898963080863 0.0017648108102805615 0 -0.0034674124621267982 0.0018006791817802793 0 -0.0035034561618367322 0.0036596236227892337 0 -0.0036508672787860844 0.0010526438788215195 0 -0.0038126141624975685 0.0013320435014683076 0 -0.0040340512149928355 0.0012640695451275592 0 -0.0039508053578103481 0.001499407576866163 0 -0.0038126141624975685 0.0013320435014683076 0 -0.0040340512149928355 0.0012640695451275592 0 -0.0036477480419809319 0.0015130435447713393 0 -0.0039508053578103481 0.001499407576866163 0 -0.0038126141624975685 0.0013320435014683076 0 -0.0026075890124136829 0.0049067789323889218 0 -0.001115723764243178 0.0073863371042268691 0 -0.0026165130128642826 0.0051650861222314942 0 -0.0023671380015516689 0.0040931128904435508 0 -0.00087805450519704822 0.0055449098923412796 0 -0.0019513589880574965 0.0083626499306108538 0 -0.001511194384187678 0.0081125183071232686 0 -0.0012290663953126195 0.0083925752325393239 0 -0.0024227588367346188 0.0028747061184934497 0 -0.0026075890124136829 0.0049067789323889218 0 -0.0039508053578103481 0.001499407576866163 0 -0.0040340512149928355 0.0012640695451275592 0 -0.0042074000092201394 0.0016242569881306974 0 -0.0040340512149928355 0.0012640695451275592 0 -0.0041132459964909268 0.0012105751955527704 0 -0.0042074000092201394 0.0016242569881306974 0 -0.0028882771573930563 0.0025170253795281615 0 -0.0024227588367346188 0.0028747061184934497 0 -0.0039508053578103481 0.001499407576866163 0 -0.0042074000092201394 0.0016242569881306974 0 -0.004062898963080863 0.0017648108102805615 0 -0.0029354965674127705 0.0044318226115837179 0 -0.0030136680404996021 0.0047613500812472634 0 -0.0027477068394595743 0.0046153149605677847 0 -0.0026075890124136829 0.0049067789323889218 0 -0.0035034561618367322 0.0036596236227892337 0 -0.0026075890124136829 0.0049067789323889218 0 -0.0031378632775332644 0.0055936119950842139 0 -0.0031863807512657058 0.0052684402708382495 0 -0.0032721331721820078 0.0054030098476736694 0 -0.002925474202476722 0.0052400028934682878 0 -0.0031378632775332644 0.0055936119950842139 0 -0.0018785682554235937 0.0077091495423871319 0 -0.001895742229073269 0.008109354244542023 0 -0.0012953010687569903 0.0077899964615268562 0 -0.001511194384187678 0.0081125183071232686 0 -0.0031323815394525578 0.0051835014272135849 0 -0.0031863807512657058 0.0052684402708382495 0 -0.002925474202476722 0.0052400028934682878 0 -0.0031323815394525578 0.0051835014272135849 0 -0.0031863807512657058 0.0052684402708382495 0 -0.0033034167692234081 0.005222284029108821 0 -0.0019513589880574965 0.0083626499306108538 0 -0.001895742229073269 0.008109354244542023 0 -0.001511194384187678 0.0081125183071232686 0 -0.0032721331721820078 0.0054030098476736694 0 -0.0033362298655926718 0.0053294734460279701 0 -0.0032735313506180122 0.0053018867160002058 0 -0.0031863807512657058 0.0052684402708382495 0 -0.0032721331721820078 0.0054030098476736694 0 -0.0032735313506180122 0.0053018867160002058 0 -0.0031378632775332644 0.0055936119950842139 0 -0.0035034561618367322 0.0036596236227892337 0 -0.0032721331721820078 0.0054030098476736694 0 -0.0033916327766598271 0.0054616360974659214 0 -0.0033362298655926718 0.0053294734460279701 0 -0.0033362298655926718 0.0053294734460279701 0 -0.0033034167692234081 0.005222284029108821 0 -0.0034807706404418976 0.0051923801114744277 0 -0.0033362298655926718 0.0053294734460279701 0 -0.0032735313506180122 0.0053018867160002058 0 -0.0033034167692234081 0.005222284029108821 0 -0.0031863807512657058 0.0052684402708382495 0 -0.0032735313506180122 0.0053018867160002058 0 -0.0033034167692234081 0.005222284029108821 0 -0.0035034561618367322 0.0036596236227892337 0 -0.0034566620420112396 0.003222485262534104 0 -0.0033916327766598271 0.0054616360974659214 0 -0.0034807706404418976 0.0051923801114744277 0 -0.003752279216050646 0.0051011328089123993 0 -0.0040486994632526179 0.0017400822479844643 0 -0.0035737468734242188 0.0018466605328967714 0 -0.0034660004572866798 0.0023079665927823686 0 -0.0033916327766598271 0.0054616360974659214 0 -0.0033362298655926718 0.0053294734460279701 0 -0.0034807706404418976 0.0051923801114744277 0 -0.003980487643387585 0.0029636349617099297 0 -0.0037786156893455164 0.0028194272336923309 0 -0.0031885533065391112 0.0026480097018409176 0 -0.0034807706404418976 0.0051923801114744277 0 -0.0035878444887064514 0.0048780989229822097 0 -0.003752279216050646 0.0051011328089123993 0 -0.0036208412607661804 0.0048077841175119054 0 -0.0034566620420112396 0.003222485262534104 0 -0.0037786156893455164 0.0028194272336923309 0 -0.0038665210640491695 0.0027879254051089439 0 -0.0035554082609748077 0.0023414367535747622 0 -0.003980487643387585 0.0029636349617099297 0 -0.0037786156893455164 0.0028194272336923309 0 -0.0038647075610988564 0.002790539453938287 0 -0.0037473265222966868 0.0046555077438005616 0 -0.0036208412607661804 0.0048077841175119054 0 -0.003657820986567503 0.007047654798090169 0 -0.0036355256530500573 0.0070132044014788106 0 -0.0037494251197290598 0.0069849352513930135 0 -0.0036208412607661804 0.0048077841175119054 0 -0.003611852972944812 0.0059648496365341521 0 -0.0038023608825682818 0.0046061823453845269 0 -0.0036208412607661804 0.0048077841175119054 0 -0.0034807706404418976 0.0051923801114744277 0 -0.0035878444887064514 0.0048780989229822097 0 -0.0032642787539087005 0.0050102521497470149 0 -0.0033034167692234081 0.005222284029108821 0 -0.0034807706404418976 0.0051923801114744277 0 -0.0032642787539087005 0.0050102521497470149 0 -0.0031323815394525578 0.0051835014272135849 0 -0.0033034167692234081 0.005222284029108821 0 -0.0032642787539087005 0.0050102521497470149 0 -0.003611852972944812 0.0059648496365341521 0 -0.0029194172793838378 0.0078883158844383124 0 -0.0031323815394525578 0.0051835014272135849 0 -0.0032642787539087005 0.0050102521497470149 0 -0.0029353166360130546 0.0051494918446604336 0 -0.0025624132285274608 0.0017014563300153062 0 -0.0029300455544854121 0.0021871191790435954 0 -0.003133050930571439 0.0018261260369431779 0 -0.0025624132285274608 0.0017014563300153062 0 -0.0029300455544854121 0.0021871191790435954 0 -0.0024568215468901071 0.0023050807058106839 0 -0.0029300455544854121 0.0021871191790435954 0 -0.003133050930571439 0.0018261260369431779 0 -0.0035381018593668013 0.0023371466781957604 0 -0.0036477480419809319 0.0015130435447713393 0 -0.0035737468734242188 0.0018466605328967714 0 -0.003133050930571439 0.0018261260369431779 0 -0.0030397821289900942 0.0016986712547670151 0 -0.0034566620420112396 0.003222485262534104 0 -0.0035737468734242188 0.0018466605328967714 0 -0.003133050930571439 0.0018261260369431779 0 -0.0034660004572866798 0.0023079665927823686 0 -0.0029300455544854121 0.0021871191790435954 0 -0.0031543729661798713 0.0024453623839753918 0 -0.0035381018593668013 0.0023371466781957604 0 -0.0031543729661798713 0.0024453623839753918 0 -0.0031885533065391112 0.0026480097018409176 0 -0.0028190726053334112 0.0025602411930016121 0 -0.0038023608825682818 0.0046061823453845269 0 -0.0032270534405109143 0.0024249098435928733 0 -0.0031543729661798713 0.0024453623839753918 0 -0.0033369450148688115 0.0025475514976063263 0 -0.0031885533065391112 0.0026480097018409176 0 -0.0037786156893455164 0.0028194272336923309 0 -0.0035554082609748077 0.0023414367535747622 0 -0.0033369450148688115 0.0025475514976063263 0 -0.0031543729661798713 0.0024453623839753918 0 -0.0035381018593668013 0.0023371466781957604 0 -0.0033369450148688115 0.0025475514976063263 0 -0.0034566620420112396 0.003222485262534104 0 -0.0036051229711102136 0.0027315001212397986 0 -0.0037786156893455164 0.0028194272336923309 0 -0.0033369450148688115 0.0025475514976063263 0 -0.0031885533065391112 0.0026480097018409176 0 -0.0031496939696542387 0.0029323874976978233 0 -0.0031885533065391112 0.0026480097018409176 0 -0.0029806490752637264 0.0028048239860690096 0 -0.0031885533065391112 0.0026480097018409176 0 -0.0029806490752637264 0.0028048239860690096 0 -0.0028190726053334112 0.0025602411930016121 0 -0.0027418351917808128 0.0030287167270324523 0 -0.0029806490752637264 0.0028048239860690096 0 -0.0028190726053334112 0.0025602411930016121 0 -0.0027418351917808128 0.0030287167270324523 0 -0.0028190726053334112 0.0025602411930016121 0 -0.0024568215468901071 0.0023050807058106839 0 -0.0029300455544854121 0.0021871191790435954 0 -0.0031543729661798713 0.0024453623839753918 0 -0.0028190726053334112 0.0025602411930016121 0 -0.0029300455544854121 0.0021871191790435954 0 -0.0028190726053334112 0.0025602411930016121 0 -0.0024568215468901071 0.0023050807058106839 0 -0.0029267775435617657 0.0030407387423223397 0 -0.0020423437735605475 0.002423016543400719 0 -0.0027418351917808128 0.0030287167270324523 0 -0.0024568215468901071 0.0023050807058106839 0 -0.0018461673406144992 0.0024476282760776897 0 -0.0015789291359120624 0.0029112173843564436 0 -0.0022549932683812476 0.0024130520530077984 0 -0.0015390424125079323 0.0023773231518485526 0 -0.0019172318857202714 0.0018784056652308119 0 -0.0015072440258396935 0.0014626341941094182 0 -0.0013836497869292299 0.0019882522314711255 0 -0.0018461673406144992 0.0024476282760776897 0 -0.0019172318857202714 0.0018784056652308119 0 -0.0013836497869292299 0.0019882522314711255 0 -0.0018461673406144992 0.0024476282760776897 0 -0.0013836497869292299 0.0019882522314711255 0 -0.0010291168763766644 0.0018992092066848463 0 -0.0020423437735605475 0.002423016543400719 0 -0.0011295925438970875 0.0018723019109046254 0 -0.0025624132285274608 0.0017014563300153062 0 -0.0024568215468901071 0.0023050807058106839 0 -0.0019172318857202714 0.0018784056652308119 0 -0.0024568215468901071 0.0023050807058106839 0 -0.0018461673406144992 0.0024476282760776897 0 -0.0019172318857202714 0.0018784056652308119 0 -0.0025211540947981241 0.00067110666676152 0 -0.0025624132285274608 0.0017014563300153062 0 -0.0019860981419689058 0.0012839992248799927 0 -0.0025624132285274608 0.0017014563300153062 0 -0.0019172318857202714 0.0018784056652308119 0 -0.0019860981419689058 0.0012839992248799927 0 -0.0019172318857202714 0.0018784056652308119 0 -0.0019860981419689058 0.0012839992248799927 0 -0.0015072440258396935 0.0014626341941094182 0 -0.0019860981419689058 0.0012839992248799927 0 -0.0015072440258396935 0.0014626341941094182 0 -0.0015341498134974934 0.00066621175264388146 0 -0.0025211540947981241 0.00067110666676152 0 -0.0019860981419689058 0.0012839992248799927 0 -0.0015341498134974934 0.00066621175264388146 0 -0.0025051392656854471 0.00063040137053461129 0 -0.0014230297674815385 0.00076234465950587177 0 -0.00061050819452273175 0.00039863237920549329 0 -0.001029769435512796 0.0011635413110730288 0 -0.00033089440132388171 0.00085364896801180476 0 -0.00069992724543480208 -0.000324908361458364 0 -0.0010277331235228541 0.0014054108567411777 0 -0.0014230297674815385 0.00076234465950587177 0 -0.00069992724543480208 -0.000324908361458364 0 -0.0015072440258396935 0.0014626341941094182 0 -0.0015341498134974934 0.00066621175264388146 0 -0.00096378254992129215 0.0013244832367084473 0 -0.0015341498134974934 0.00066621175264388146 0 -0.00055449335498323484 0.00063265818701557883 0 -0.00096378254992129215 0.0013244832367084473 0 -0.0010277331235228541 0.0014054108567411777 0 -0.0013378946162829215 0.0018708708159189146 0 -0.0015072440258396935 0.0014626341941094182 0 -0.00096378254992129215 0.0013244832367084473 0 -0.0013836497869292299 0.0019882522314711255 0 -0.00063968571711873795 0.0013120392379016648 0 -0.0010291168763766644 0.0018992092066848463 0 -0.00017461092962941553 0.0013402164164801056 0 -0.001029769435512796 0.0011635413110730288 0 -0.00063968571711873795 0.0013120392379016648 0 -0.00033089440132388171 0.00085364896801180476 0 -0.001029769435512796 0.0011635413110730288 0 -0.00063968571711873795 0.0013120392379016648 0 -0.0010291168763766644 0.0018992092066848463 0 -0.00055388026569518317 0.001977929979457132 0 -0.0012398155104022775 0.0018439055328107177 0 -0.00017461092962941553 0.0013402164164801056 0 -0.00055388026569518317 0.001977929979457132 0 -0.0012398155104022775 0.0018439055328107177 0 -0.0010741096410285074 0.0023354078721067061 0 -0.0011295925438970875 0.0018723019109046254 0 -0.0002224388592057685 0.0013708748243742863 0 -0.001029769435512796 0.0011635413110730288 0 -0.0013836497869292299 0.0019882522314711255 0 -0.0010291168763766644 0.0018992092066848463 0 -0.0022549932683812476 0.0024130520530077984 0 -0.0012398155104022775 0.0018439055328107177 0 -0.0015390424125079323 0.0023773231518485526 0 -0.0012398155104022775 0.0018439055328107177 0 -0.0015390424125079323 0.0023773231518485526 0 -0.0010741096410285074 0.0023354078721067061 0 -0.0015789291359120624 0.0029112173843564436 0 -0.0015390424125079323 0.0023773231518485526 0 -0.0010741096410285074 0.0023354078721067061 0 -0.0015789291359120624 0.0029112173843564436 0 -0.0010741096410285074 0.0023354078721067061 0 -0.00049763072594570946 0.0025712726081960897 0 -0.00055388026569518317 0.001977929979457132 0 -0.0010741096410285074 0.0023354078721067061 0 -0.00049763072594570946 0.0025712726081960897 0 -0.00089739534510759273 0.002806457295149781 0 -0.00027767792431710673 0.00017583833792003843 0 -0.00055388026569518317 0.001977929979457132 0 -0.00049763072594570946 0.0025712726081960897 0 1.7125130009917958e-05 0.0018533120768391442 0 -0.00049763072594570946 0.0025712726081960897 0 1.7125130009917958e-05 0.0018533120768391442 0 0.0005332721405907168 0.0022040957251966012 0 -0.00055388026569518317 0.001977929979457132 0 1.7125130009917958e-05 0.0018533120768391442 0 -0.00017461092962941553 0.0013402164164801056 0 1.7125130009917958e-05 0.0018533120768391442 0 -0.00017461092962941553 0.0013402164164801056 0 0.00016481589587555751 0.0014373263491775344 0 1.7125130009917958e-05 0.0018533120768391442 0 0.00057965580696278912 0.0015900479372814994 0 0.0005332721405907168 0.0022040957251966012 0 -5.6168651155403985e-05 -0.0023287843227611654 0 -0.00010065236304488888 -0.0018801732026734886 0 0.0001381450742807943 -0.0019601533365635995 0 1.5200762175365088e-05 -0.0022984224913470161 0 -0.00027767792431710673 0.00017583833792003843 0 1.7125130009917958e-05 0.0018533120768391442 0 0.00057965580696278912 0.0015900479372814994 0 0.00016481589587555751 0.0014373263491775344 0 1.5200762175365088e-05 -0.0022984224913470161 0 -0.00031720157194689769 -0.003892784541107054 0 -0.00061003267644388793 0.0025914443083767448 0 -0.0013116138362634193 0.0024853414304172373 0 -0.00056858333188162722 0.0021928649546737377 0 -0.00027767792431710673 0.00017583833792003843 0 -0.00031720157194689769 -0.003892784541107054 0 -0.00075641249557161937 -0.0029351903351895062 0 -0.00047481938974151567 -0.0027265204291776128 0 -0.00024632440788154475 -0.0031011631895261319 0 -0.00083296961423199125 -0.002107660669915818 0 -0.00047481938974151567 -0.0027265204291776128 0 -6.3529344051755382e-05 -0.0027621702386301083 0 -0.00043021247728506652 -0.0015539888845750422 0 -0.00027767792431710673 0.00017583833792003843 0 -0.00083296961423199125 -0.002107660669915818 0 -0.00075641249557161937 -0.0029351903351895062 0 -0.00047481938974151567 -0.0027265204291776128 0 -0.00070284163798516345 -0.0052954819645756237 0 -0.00055215430054251472 -0.0050151278743733093 0 7.2490232452828977e-05 -0.0055429076385912742 0 -0.00055740539008610119 -0.0074998883640915431 0 -0.00044398751292598865 -0.0072983672404468456 0 -0.00067487491671750746 -0.0074200300402323506 0 -0.00055740539008610119 -0.0074998883640915431 0 -0.00057591613670780317 -0.0075365670977150965 0 -0.00056602834203984035 -0.0075066483902762266 0 -0.00043021247728506652 -0.0015539888845750422 0 -0.00045214222746186406 -0.0057611987771928096 0 -0.00078684267186143449 -0.0079078135598500913 0 -0.00045214222746186406 -0.0057611987771928096 0 -0.00045214222746186406 -0.0057611987771928096 0 -0.0001533454396873275 -0.0062422142951177517 0 -0.00031720157194689769 -0.003892784541107054 0 -0.00045214222746186406 -0.0057611987771928096 0 -0.00047481938974151567 -0.0027265204291776128 0 -0.00024632440788154475 -0.0031011631895261319 0 -6.3529344051755382e-05 -0.0027621702386301083 0 -0.00044398751292598865 -0.0072983672404468456 0 -0.00067487491671750746 -0.0074200300402323506 0 -0.00065537269311976469 -0.0072592490938876439 0 -0.00044398751292598865 -0.0072983672404468456 0 -0.00065537269311976469 -0.0072592490938876439 0 -0.00061126788753119706 -0.007153372979678321 0 -0.00083946997702359768 -0.007513312875584704 0 -0.00067487491671750746 -0.0074200300402323506 0 -0.00080278446812742969 -0.0073511066387494496 0 -0.00067487491671750746 -0.0074200300402323506 0 -0.00065537269311976469 -0.0072592490938876439 0 -0.00080278446812742969 -0.0073511066387494496 0 -0.00065537269311976469 -0.0072592490938876439 0 -0.00077612192592383766 -0.0071962570387151112 0 -0.00080278446812742969 -0.0073511066387494496 0 -0.00077612192592383766 -0.0071962570387151112 0 -0.00065911076503848663 -0.0071360676448874527 0 -0.00084090524357040102 -0.0069561539519621849 0 -0.00065911076503848663 -0.0071360676448874527 0 -0.00060600652424375385 -0.0071524318578932676 0 -0.00084090524357040102 -0.0069561539519621849 0 -0.0001533454396873275 -0.0062422142951177517 0 -0.00044769442542954744 -0.0070231808998765573 0 0.00015225241230018129 -0.005658473507247839 0 0.00028338633908464117 -0.0062032286926251507 0 0.00092327328748372916 -0.0063108507128756255 0 -0.00065537269311976469 -0.0072592490938876439 0 -0.00077612192592383766 -0.0071962570387151112 0 -0.00065911076503848663 -0.0071360676448874527 0 -0.00065537269311976469 -0.0072592490938876439 0 -0.00065911076503848663 -0.0071360676448874527 0 -0.00061126788753119706 -0.007153372979678321 0 -0.0002696369248196445 -0.0063402606418702162 0 -0.0001533454396873275 -0.0062422142951177517 0 0.00015225241230018129 -0.005658473507247839 0 0.00028338633908464117 -0.0062032286926251507 0 -1.0827305879711046e-05 -0.0060640043333207707 0 -0.00031720157194689769 -0.003892784541107054 0 -0.0001533454396873275 -0.0062422142951177517 0 -0.00062050090438263146 -0.0054009752490276194 0 0.00015225241230018129 -0.005658473507247839 0 -0.00035565668090517413 -0.0059260702515493936 0 -0.0009686986942945119 -0.0060516800864734849 0 -0.00062050090438263146 -0.0054009752490276194 0 -0.00035565668090517413 -0.0059260702515493936 0 0.00015225241230018129 -0.005658473507247839 0 -1.0827305879711046e-05 -0.0060640043333207707 0 -0.00035565668090517413 -0.0059260702515493936 0 -1.0827305879711046e-05 -0.0060640043333207707 0 -0.00035565668090517413 -0.0059260702515493936 0 -0.00012388636724791093 -0.0064690778333749708 0 -0.0009686986942945119 -0.0060516800864734849 0 -0.00035565668090517413 -0.0059260702515493936 0 -0.00053146905927743313 -0.0065694474334411493 0 -0.00035565668090517413 -0.0059260702515493936 0 -0.00053146905927743313 -0.0065694474334411493 0 -0.00012388636724791093 -0.0064690778333749708 0 -0.00053146905927743313 -0.0065694474334411493 0 -0.00012388636724791093 -0.0064690778333749708 0 -0.00028944464000417208 -0.0069021635810073909 0 -0.00012388636724791093 -0.0064690778333749708 0 -0.00028944464000417208 -0.0069021635810073909 0 6.9108018267696292e-05 -0.006993688754193603 0 -0.00053146905927743313 -0.0065694474334411493 0 -0.00028944464000417208 -0.0069021635810073909 0 -0.0005294261471629505 -0.0070677454775979701 0 -0.00053146905927743313 -0.0065694474334411493 0 -0.0005294261471629505 -0.0070677454775979701 0 -0.00088265028735904423 -0.0069311822328593882 0 0.00028338633908464117 -0.0062032286926251507 0 0.00036425368266205127 -0.0066082034281760701 0 0.00092327328748372916 -0.0063108507128756255 0 0.00028338633908464117 -0.0062032286926251507 0 -0.00012388636724791093 -0.0064690778333749708 0 0.00036425368266205127 -0.0066082034281760701 0 0.00028338633908464117 -0.0062032286926251507 0 -1.0827305879711046e-05 -0.0060640043333207707 0 -0.00012388636724791093 -0.0064690778333749708 0 -0.00012388636724791093 -0.0064690778333749708 0 0.00036425368266205127 -0.0066082034281760701 0 6.9108018267696292e-05 -0.006993688754193603 0 0.00036425368266205127 -0.0066082034281760701 0 6.9108018267696292e-05 -0.006993688754193603 0 0.0007034444695102381 -0.0070749698372883762 0 0.00036425368266205127 -0.0066082034281760701 0 0.0007034444695102381 -0.0070749698372883762 0 0.00092327328748372916 -0.0063108507128756255 0 0.00043869127601482938 -0.011914319046872046 0 0.0012800472339166455 -0.016195447130275775 0 6.9108018267696292e-05 -0.006993688754193603 0 0.0007034444695102381 -0.0070749698372883762 0 -0.00025024074757696592 -0.0077016662331916338 0 0.00043869127601482938 -0.011914319046872046 0 0.0003571169000809535 -0.010522283902210845 0 0.0016878397537995274 -0.01419362158502183 0 0.0010511164530368044 -0.014664497908847645 0 0.0014517092604007258 -0.015031369123726376 0 -0.00053932376245939811 -0.0074256596101450372 0 -0.00088265028735904423 -0.0069311822328593882 0 -0.00078123604470144126 -0.0077586334402472319 0 -0.0005294261471629505 -0.0070677454775979701 0 -0.00053932376245939811 -0.0074256596101450372 0 -0.00088265028735904423 -0.0069311822328593882 0 -0.0005294261471629505 -0.0070677454775979701 0 -0.00028039442282242459 -0.0073479588714874186 0 -0.00053932376245939811 -0.0074256596101450372 0 -0.00028944464000417208 -0.0069021635810073909 0 6.9108018267696292e-05 -0.006993688754193603 0 -0.00028039442282242459 -0.0073479588714874186 0 6.9108018267696292e-05 -0.006993688754193603 0 -0.00028039442282242459 -0.0073479588714874186 0 -0.00025024074757696592 -0.0077016662331916338 0 -0.00028944464000417208 -0.0069021635810073909 0 -0.0005294261471629505 -0.0070677454775979701 0 -0.00028039442282242459 -0.0073479588714874186 0 -0.00028039442282242459 -0.0073479588714874186 0 -0.00026047305646977417 -0.0076617595386585689 0 -0.00053932376245939811 -0.0074256596101450372 0 1.675484403747367e-06 -0.0078943656599351052 0 0.0003571169000809535 -0.010522283902210845 0 -0.00026047305646977417 -0.0076617595386585689 0 -0.00053932376245939811 -0.0074256596101450372 0 -0.00052628781581414515 -0.0077625054573627061 0 -0.00053932376245939811 -0.0074256596101450372 0 -0.00078123604470144126 -0.0077586334402472319 0 -0.00052628781581414515 -0.0077625054573627061 0 0.00016761420513306235 -0.0033788136885395635 0 4.0855319411472648e-05 -0.003113503640725645 0 -0.00021057947507566912 -0.0035883144425645571 0 0.00016761420513306235 -0.0033788136885395635 0 -0.00021057947507566912 -0.0035883144425645571 0 0.00038485579480756712 -0.0036220892811000501 0 0.00016761420513306235 -0.0033788136885395635 0 0.0003413653725162964 -0.0031289911727807014 0 0.00038485579480756712 -0.0036220892811000501 0 -0.00024017557980620145 -0.0054063565167898672 0 -6.7891370405522787e-05 -0.0054389556089853436 0 0.00016761420513306235 -0.0033788136885395635 0 0.0003413653725162964 -0.0031289911727807014 0 4.0855319411472648e-05 -0.003113503640725645 0 -0.00033089440132388171 0.00085364896801180476 0 0.00023540676328886025 0.0009799551901093276 0 -8.0192650215774513e-05 0.00037800391317658607 0 0.0003149628533433295 -0.00065341943478114373 0 2.4758271611603893e-06 -0.0024360537155753577 0 -0.00061050819452273175 0.00039863237920549329 0 -0.00033089440132388171 0.00085364896801180476 0 -8.0192650215774513e-05 0.00037800391317658607 0 -0.00033089440132388171 0.00085364896801180476 0 -0.00017461092962941553 0.0013402164164801056 0 0.00023540676328886025 0.0009799551901093276 0 -0.00063968571711873795 0.0013120392379016648 0 -0.00033089440132388171 0.00085364896801180476 0 -0.00017461092962941553 0.0013402164164801056 0 -0.00017461092962941553 0.0013402164164801056 0 0.00016481589587555751 0.0014373263491775344 0 0.00023540676328886025 0.0009799551901093276 0 0.00057965580696278912 0.0015900479372814994 0 0.00016481589587555751 0.0014373263491775344 0 0.00023540676328886025 0.0009799551901093276 0 0.00028984766176294775 -0.0026279669053698627 0 0.0003413653725162964 -0.0031289911727807014 0 4.0855319411472648e-05 -0.003113503640725645 0 1.5200762175365088e-05 -0.0022984224913470161 0 -0.00024017557980620145 -0.0054063565167898672 0 1.5200762175365088e-05 -0.0022984224913470161 0 0.0003149628533433295 -0.00065341943478114373 0 -0.0009686986942945119 -0.0060516800864734849 0 -0.00053146905927743313 -0.0065694474334411493 0 -0.00088265028735904423 -0.0069311822328593882 0 0.00018577658820258773 -0.016573341674955708 0 0.00029141051213724882 -0.016590372796978278 0 0.00021852813997964144 -0.016683447520643536 0 -0.00053305134899181948 -0.012052674312933128 0 -0.00041304893882181202 -0.01153695129419386 0 0.00029141051213724882 -0.016590372796978278 0 0.00021852813997964144 -0.016683447520643536 0 0.00040642464810933384 -0.01660206533818355 0 0.00011276030162893281 -0.016582805049730222 0 0.00018577658820258773 -0.016573341674955708 0 0.00021852813997964144 -0.016683447520643536 0 0.00018577658820258773 -0.016573341674955708 0 0.00023941219187226392 -0.016549236073187798 0 0.00029141051213724882 -0.016590372796978278 0 0.00018577658820258773 -0.016573341674955708 0 0.00023941219187226392 -0.016549236073187798 0 0.0002000640822835929 -0.016531737839150663 0 0.00023941219187226392 -0.016549236073187798 0 0.00031484651587673231 -0.016552815590478862 0 0.00027922922361655732 -0.016512540083745829 0 0.00031484651587673231 -0.016552815590478862 0 0.00034484183176730648 -0.016499380461609439 0 0.00027922922361655732 -0.016512540083745829 0 0.00023941219187226392 -0.016549236073187798 0 0.00031484651587673231 -0.016552815590478862 0 0.00029141051213724882 -0.016590372796978278 0 -0.00079640020891381589 -0.0091635068108076555 0 -0.00069858145076996127 -0.009203192443701531 0 -0.00081133358007216242 -0.0092695566760986423 0 -0.00086932676953867152 -0.0091594591343526349 0 -0.00079640020891381589 -0.0091635068108076555 0 -0.00081133358007216242 -0.0092695566760986423 0 -0.00097291385942415776 -0.0091978366540639688 0 -0.00047864547773040372 -0.009473434080759598 0 -0.00084571608772270924 -0.0096999339804130173 0 -0.0010582055761798874 -0.009088014843480657 0 -0.00097291385942415776 -0.0091978366540639688 0 -0.00084571608772270924 -0.0096999339804130173 0 -0.0012156473677608231 -0.008535462515080184 0 -0.00053305134899181948 -0.012052674312933128 0 -0.0010669288195144359 -0.0078110865896007138 0 -0.00041304893882181202 -0.01153695129419386 0 -0.000854583299350904 -0.0075813825075101695 0 -0.00041582138732896716 -0.0083091426643604836 0 -0.00077646327617385594 -0.0082027928304672006 0 -0.00097291385942415776 -0.0091978366540639688 0 -0.00086932676953867152 -0.0091594591343526349 0 -0.00081133358007216242 -0.0092695566760986423 0 0.00041278270076051937 -0.016605489113744373 0 0.00069509992439815039 -0.016454824509543994 0 0.00049188311326506511 -0.016441473288757436 0 0.00029141051213724882 -0.016590372796978278 0 0.00040642464810933384 -0.01660206533818355 0 0.00040071656086320588 -0.016582418257480972 0 -0.00041304893882181202 -0.01153695129419386 0 -9.264620439061551e-05 -0.012462050031902325 0 0.00040071656086320588 -0.016582418257480972 0 0.00037643863774770397 -0.016540341396545529 0 0.00041997455743626738 -0.016501304643682727 0 0.00031484651587673231 -0.016552815590478862 0 0.00029141051213724882 -0.016590372796978278 0 0.00040071656086320588 -0.016582418257480972 0 0.00041278270076051937 -0.016605489113744373 0 0.00040071656086320588 -0.016582418257480972 0 0.00041997455743626738 -0.016501304643682727 0 0.00031484651587673231 -0.016552815590478862 0 0.00040071656086320588 -0.016582418257480972 0 0.00037643863774770397 -0.016540341396545529 0 0.00031484651587673231 -0.016552815590478862 0 0.00037643863774770397 -0.016540341396545529 0 0.00034484183176730648 -0.016499380461609439 0 0.00037643863774770397 -0.016540341396545529 0 0.00041997455743626738 -0.016501304643682727 0 0.00034484183176730648 -0.016499380461609439 0 0.00041278270076051937 -0.016605489113744373 0 0.00041997455743626738 -0.016501304643682727 0 0.00049188311326506511 -0.016441473288757436 0 -0.00041582138732896716 -0.0083091426643604836 0 -0.00077646327617385594 -0.0082027928304672006 0 -0.00097242501811076187 -0.0087217299684728671 0 -0.00041304893882181202 -0.01153695129419386 0 -0.00028257952189514909 -0.012835381451211764 0 -0.00099987591270374863 -0.0083491292420663533 0 -0.00077646327617385594 -0.0082027928304672006 0 -0.00097242501811076187 -0.0087217299684728671 0 -0.00099987591270374863 -0.0083491292420663533 0 -0.00077646327617385594 -0.0082027928304672006 0 -0.0009677792577214916 -0.0079868831975718462 0 -0.000854583299350904 -0.0075813825075101695 0 -0.00077646327617385594 -0.0082027928304672006 0 -0.0009677792577214916 -0.0079868831975718462 0 -0.00099359133676730333 -0.0075759112053432843 0 -0.0009677792577214916 -0.0079868831975718462 0 -0.0013482067642569243 -0.0082955895105017996 0 -0.0010184877687356895 -0.0075519853581186057 0 -0.0010776438535037844 -0.0077961002208571627 0 -0.00099359133676730333 -0.0075759112053432843 0 -0.00080278446812742969 -0.0073511066387494496 0 -0.00089402523149228639 -0.0071245760566503403 0 -0.00077612192592383766 -0.0071962570387151112 0 -0.00080278446812742969 -0.0073511066387494496 0 -0.00089402523149228639 -0.0071245760566503403 0 -0.00077612192592383766 -0.0071962570387151112 0 -0.00089402523149228639 -0.0071245760566503403 0 -0.00084090524357040102 -0.0069561539519621849 0 -0.0013482067642569243 -0.0082955895105017996 0 -0.001455754192205904 -0.0086648910499707368 0 -0.00097242501811076187 -0.0087217299684728671 0 -0.00099987591270374863 -0.0083491292420663533 0 -0.0009677792577214916 -0.0079868831975718462 0 -0.0013482067642569243 -0.0082955895105017996 0 -0.00099987591270374863 -0.0083491292420663533 0 -0.0013482067642569243 -0.0082955895105017996 0 -0.00097242501811076187 -0.0087217299684728671 0 -0.0010776438535037844 -0.0077961002208571627 0 -0.00044769442542954744 -0.0070231808998765573 0 0.00098071057935641124 -0.016298082500548958 0 0.00073989662608053624 -0.016226593225245368 0 0.00069509992439815039 -0.016454824509543994 0 0.00043869127601482938 -0.011914319046872046 0 -0.00028257952189514909 -0.012835381451211764 0 -0.0015819534628868075 -0.0091847685376757002 0 -0.001455754192205904 -0.0086648910499707368 0 -0.00097242501811076187 -0.0087217299684728671 0 0.00043869127601482938 -0.011914319046872046 0 -0.00044769442542954744 -0.0070231808998765573 0 0.00098071057935641124 -0.016298082500548958 0 0.00073989662608053624 -0.016226593225245368 0 0.0008799257972721328 -0.016085496253016883 0 0.00098071057935641124 -0.016298082500548958 0 0.0008799257972721328 -0.016085496253016883 0 0.0011305785890956806 -0.016002671967949803 0 0.00073989662608053624 -0.016226593225245368 0 0.00052169211324530618 -0.01615845780425396 0 0.00068466641429155842 -0.016029826198155565 0 0.00073989662608053624 -0.016226593225245368 0 0.00056115077462017557 -0.016315428723963247 0 0.00052169211324530618 -0.01615845780425396 0 0.00073989662608053624 -0.016226593225245368 0 0.00056115077462017557 -0.016315428723963247 0 0.00069509992439815039 -0.016454824509543994 0 0.00056115077462017557 -0.016315428723963247 0 0.00069509992439815039 -0.016454824509543994 0 0.00049188311326506511 -0.016441473288757436 0 0.00041997455743626738 -0.016501304643682727 0 0.00049188311326506511 -0.016441473288757436 0 0.00038643599591044468 -0.016428962001420553 0 0.00049188311326506511 -0.016441473288757436 0 0.00038643599591044468 -0.016428962001420553 0 0.00044619633738895097 -0.016360159335584355 0 0.00041997455743626738 -0.016501304643682727 0 0.00034484183176730648 -0.016499380461609439 0 0.00038643599591044468 -0.016428962001420553 0 0.00034484183176730648 -0.016499380461609439 0 0.00038643599591044468 -0.016428962001420553 0 0.00030456369848262091 -0.016463091511132236 0 0.00044619633738895097 -0.016360159335584355 0 0.00043564929230666415 -0.016268585933035758 0 0.00035628983917781901 -0.016348896724694795 0 0.00038643599591044468 -0.016428962001420553 0 0.00044619633738895097 -0.016360159335584355 0 0.00035628983917781901 -0.016348896724694795 0 0.00056115077462017557 -0.016315428723963247 0 0.00049188311326506511 -0.016441473288757436 0 0.00044619633738895097 -0.016360159335584355 0 0.00056115077462017557 -0.016315428723963247 0 0.00052169211324530618 -0.01615845780425396 0 0.00043564929230666415 -0.016268585933035758 0 0.00056115077462017557 -0.016315428723963247 0 0.00044619633738895097 -0.016360159335584355 0 0.00043564929230666415 -0.016268585933035758 0 0.00052169211324530618 -0.01615845780425396 0 0.00043564929230666415 -0.016268585933035758 0 0.00037229074008169265 -0.016195513171693165 0 0.00043564929230666415 -0.016268585933035758 0 0.00034897053715667839 -0.016271856108966771 0 0.00037229074008169265 -0.016195513171693165 0 0.00043564929230666415 -0.016268585933035758 0 0.00034897053715667839 -0.016271856108966771 0 0.00035628983917781901 -0.016348896724694795 0 4.8472344182373553e-05 -0.016398781464532823 0 0.00010396623199073687 -0.016543883328096972 0 0.00034897053715667839 -0.016271856108966771 0 0.00030060735397541505 -0.016320376913444151 0 0.00035628983917781901 -0.016348896724694795 0 0.00023853675311430098 -0.016143301651194233 0 0.000291067300505009 -0.016247517392049111 0 0.0002703652165134485 -0.016393507677294705 0 0.00034897053715667839 -0.016271856108966771 0 0.00037229074008169265 -0.016195513171693165 0 0.000291067300505009 -0.016247517392049111 0 0.00034897053715667839 -0.016271856108966771 0 0.000291067300505009 -0.016247517392049111 0 0.00030060735397541505 -0.016320376913444151 0 0.00037229074008169265 -0.016195513171693165 0 0.000291067300505009 -0.016247517392049111 0 0.00030274383198554969 -0.016150167633584848 0 0.00023853675311430098 -0.016143301651194233 0 0.000291067300505009 -0.016247517392049111 0 0.00030274383198554969 -0.016150167633584848 0 0.00014411407459190699 -0.016504312213672299 0 0.00018600294038810696 -0.01649335899324934 0 0.00021336587215856369 -0.016482118467407894 0 0.00014411407459190699 -0.016504312213672299 0 0.00018600294038810696 -0.01649335899324934 0 0.00016398315647341108 -0.016509176235813501 0 0.00018600294038810696 -0.01649335899324934 0 0.00021336587215856369 -0.016482118467407894 0 0.00020999307581758141 -0.016489078771909471 0 0.000291067300505009 -0.016247517392049111 0 0.00030060735397541505 -0.016320376913444151 0 0.0002703652165134485 -0.016393507677294705 0 0.00030060735397541505 -0.016320376913444151 0 0.00035628983917781901 -0.016348896724694795 0 0.00031108605169301963 -0.016365370144014464 0 0.00035628983917781901 -0.016348896724694795 0 0.0003204645949633657 -0.016397939546403954 0 0.00031108605169301963 -0.016365370144014464 0 0.00038643599591044468 -0.016428962001420553 0 0.00035628983917781901 -0.016348896724694795 0 0.0003204645949633657 -0.016397939546403954 0 0.00030060735397541505 -0.016320376913444151 0 0.00031108605169301963 -0.016365370144014464 0 0.0002703652165134485 -0.016393507677294705 0 0.0003204645949633657 -0.016397939546403954 0 0.00031108605169301963 -0.016365370144014464 0 0.0002703652165134485 -0.016393507677294705 0 0.0003204645949633657 -0.016397939546403954 0 0.0002703652165134485 -0.016393507677294705 0 0.00030456369848262091 -0.016463091511132236 0 0.00021479781235199508 -0.016464861458251753 0 0.00023414193119291197 -0.016475031137598767 0 0.00030456369848262091 -0.016463091511132236 0 0.00010396623199073687 -0.016543883328096972 0 0.0001090460975336194 -0.016540704444926928 0 0.00010396623199073687 -0.016543883328096972 0 0.00019713941586478923 -0.016548139808790979 0 0.00023414193119291197 -0.016475031137598767 0 0.00030456369848262091 -0.016463091511132236 0 0.00025791202760656851 -0.016489442768408538 0 0.00023414193119291197 -0.016475031137598767 0 0.00025791202760656851 -0.016489442768408538 0 0.00022775677057927592 -0.016509555869739637 0 0.00038643599591044468 -0.016428962001420553 0 0.0003204645949633657 -0.016397939546403954 0 0.00030456369848262091 -0.016463091511132236 0 0.00034484183176730648 -0.016499380461609439 0 0.00030456369848262091 -0.016463091511132236 0 0.00027922922361655732 -0.016512540083745829 0 0.00023941219187226392 -0.016549236073187798 0 0.00027922922361655732 -0.016512540083745829 0 0.00022775677057927592 -0.016509555869739637 0 0.00025791202760656851 -0.016489442768408538 0 0.00027922922361655732 -0.016512540083745829 0 0.00022775677057927592 -0.016509555869739637 0 0.00030456369848262091 -0.016463091511132236 0 0.00025791202760656851 -0.016489442768408538 0 0.00027922922361655732 -0.016512540083745829 0 0.00023941219187226392 -0.016549236073187798 0 0.0002000640822835929 -0.016531737839150663 0 0.00022775677057927592 -0.016509555869739637 0 0.00018577658820258773 -0.016573341674955708 0 0.0002000640822835929 -0.016531737839150663 0 0.00016251524812511376 -0.016527947912038189 0 0.0002000640822835929 -0.016531737839150663 0 0.00022775677057927592 -0.016509555869739637 0 0.00019150950206519148 -0.016503904120321027 0 0.0002000640822835929 -0.016531737839150663 0 0.00016251524812511376 -0.016527947912038189 0 0.00019150950206519148 -0.016503904120321027 0 0.00016251524812511376 -0.016527947912038189 0 0.00016398315647341108 -0.016509176235813501 0 0.00019150950206519148 -0.016503904120321027 0 0.00018600294038810696 -0.01649335899324934 0 0.00016398315647341108 -0.016509176235813501 0 0.00019150950206519148 -0.016503904120321027 0 0.00018600294038810696 -0.01649335899324934 0 0.00020999307581758141 -0.016489078771909471 0 0.00019150950206519148 -0.016503904120321027 0 0.00021336587215856369 -0.016482118467407894 0 0.00023414193119291197 -0.016475031137598767 0 0.00020999307581758141 -0.016489078771909471 0 0.00022775677057927592 -0.016509555869739637 0 0.00020999307581758141 -0.016489078771909471 0 0.00019150950206519148 -0.016503904120321027 0 0.00023414193119291197 -0.016475031137598767 0 0.00022775677057927592 -0.016509555869739637 0 0.00020999307581758141 -0.016489078771909471 0 0.00031710140219992118 -0.015997069990592409 0 0.00027854684200920527 -0.016067707580274978 0 0.00035739059706495284 -0.016093010756388481 0 0.00023853675311430098 -0.016143301651194233 0 0.00027854684200920527 -0.016067707580274978 0 0.00030274383198554969 -0.016150167633584848 0 0.00027854684200920527 -0.016067707580274978 0 0.00030274383198554969 -0.016150167633584848 0 0.00035739059706495284 -0.016093010756388481 0 0.00037229074008169265 -0.016195513171693165 0 0.00030274383198554969 -0.016150167633584848 0 0.00035739059706495284 -0.016093010756388481 0 0.00031710140219992118 -0.015997069990592409 0 0.00035739059706495284 -0.016093010756388481 0 0.00047262946215282953 -0.016014952048587761 0 0.00052169211324530618 -0.01615845780425396 0 0.00037229074008169265 -0.016195513171693165 0 0.00035739059706495284 -0.016093010756388481 0 0.00052169211324530618 -0.01615845780425396 0 0.00035739059706495284 -0.016093010756388481 0 0.00047262946215282953 -0.016014952048587761 0 0.00031710140219992118 -0.015997069990592409 0 0.00047262946215282953 -0.016014952048587761 0 0.00055921416231465145 -0.015830988147335617 0 0.00055921416231465145 -0.015830988147335617 0 0.00068466641429155842 -0.016029826198155565 0 0.00086904325950555713 -0.015877434705491123 0 0.00047262946215282953 -0.016014952048587761 0 0.00055921416231465145 -0.015830988147335617 0 0.00068466641429155842 -0.016029826198155565 0 0.00052169211324530618 -0.01615845780425396 0 0.00047262946215282953 -0.016014952048587761 0 0.00068466641429155842 -0.016029826198155565 0 0.00073989662608053624 -0.016226593225245368 0 0.00068466641429155842 -0.016029826198155565 0 0.0008799257972721328 -0.016085496253016883 0 0.00068466641429155842 -0.016029826198155565 0 0.0008799257972721328 -0.016085496253016883 0 0.00086904325950555713 -0.015877434705491123 0 0.0008799257972721328 -0.016085496253016883 0 0.00086904325950555713 -0.015877434705491123 0 0.0011305785890956806 -0.016002671967949803 0 0.00055921416231465145 -0.015830988147335617 0 0.00086904325950555713 -0.015877434705491123 0 0.00093087048360963995 -0.015621732341192476 0 0.00086904325950555713 -0.015877434705491123 0 0.00093087048360963995 -0.015621732341192476 0 0.0010638650277969657 -0.015707354815201878 0 0.00093087048360963995 -0.015621732341192476 0 0.0010638650277969657 -0.015707354815201878 0 0.0011302803480741207 -0.015549352340309675 0 0.00093087048360963995 -0.015621732341192476 0 0.001049398883520641 -0.015440893637244083 0 0.0011302803480741207 -0.015549352340309675 0 0.00093087048360963995 -0.015621732341192476 0 0.00082539008333277662 -0.01547499233076453 0 0.001049398883520641 -0.015440893637244083 0 0.001049398883520641 -0.015440893637244083 0 0.0009486420606158463 -0.015268846911046316 0 0.0011389950422447256 -0.015187170150091283 0 0.0009486420606158463 -0.015268846911046316 0 0.0011389950422447256 -0.015187170150091283 0 0.0010601872551167263 -0.015071883850307322 0 0.00082539008333277662 -0.01547499233076453 0 0.001049398883520641 -0.015440893637244083 0 0.0009486420606158463 -0.015268846911046316 0 0.00082539008333277662 -0.01547499233076453 0 0.0009486420606158463 -0.015268846911046316 0 0.00065233603864444062 -0.015361028349076848 0 0.0009486420606158463 -0.015268846911046316 0 0.00065233603864444062 -0.015361028349076848 0 0.00089950177804375402 -0.015061392759398695 0 0.00055921416231465145 -0.015830988147335617 0 0.00082539008333277662 -0.01547499233076453 0 0.00065233603864444062 -0.015361028349076848 0 0.00055921416231465145 -0.015830988147335617 0 0.00093087048360963995 -0.015621732341192476 0 0.00082539008333277662 -0.01547499233076453 0 0.00031710140219992118 -0.015997069990592409 0 0.00055921416231465145 -0.015830988147335617 0 0.00033394110118906676 -0.015971922130896928 0 0.00055921416231465145 -0.015830988147335617 0 0.00065233603864444062 -0.015361028349076848 0 0.00037565520839083174 -0.015480334954361449 0 0.00055004817204855685 -0.015846400058457579 0 0.00037139076987633671 -0.015737835737093666 0 0.00065233603864444062 -0.015361028349076848 0 0.00037565520839083174 -0.015480334954361449 0 0.00043847279723233725 -0.015231014544943902 0 0.00037139076987633671 -0.015737835737093666 0 0.00024094367671469649 -0.015658609100752816 0 0.00037565520839083174 -0.015480334954361449 0 0.00019028889666445912 -0.015234041942772048 0 0.00043847279723233725 -0.015231014544943902 0 0.00025979157370484914 -0.016066790857884022 0 0.00033394110118906676 -0.015971922130896928 0 0.00027908846634226329 -0.016091949702352778 0 0.00025979157370484914 -0.016066790857884022 0 0.00031710140219992118 -0.015997069990592409 0 0.00033394110118906676 -0.015971922130896928 0 0.00055853894594072649 -0.0070090450272337181 0 -0.00019831145524837817 -0.0067661599635193363 0 0.0011576691838006664 -0.0058931308155354299 0 0.00055853894594072649 -0.0070090450272337181 0 0.0011576691838006664 -0.0058931308155354299 0 0.0013203917368246208 -0.0074738986471911354 0 -0.0010398811175673221 -0.0072869869713442373 0 -3.7439928852368988e-05 -0.0070384491622662399 0 -0.00020413246852734004 -0.006747410860359169 0 0.00055853894594072649 -0.0070090450272337181 0 -3.7439928852368988e-05 -0.0070384491622662399 0 -0.00019831145524837817 -0.0067661599635193363 0 0.00051403224037960249 -0.005598646005523975 0 -7.2369416595242594e-05 -0.0037755630097346666 0 -0.00067658553428329735 -0.0032945717275141492 0 -0.00036267870518074779 -0.0038219832801052872 0 -0.00038404934360422469 -0.0034403107454383393 0 -0.00036267870518074779 -0.0038219832801052872 0 -0.00038404934360422469 -0.0034403107454383393 0 0.00017209769735264787 -0.0034851298920516131 0 -0.00038404934360422469 -0.0034403107454383393 0 -0.00032162779888054874 -0.0033307828107614476 0 0.00017209769735264787 -0.0034851298920516131 0 -0.00069992724543480208 -0.000324908361458364 0 -7.2369416595242594e-05 -0.0037755630097346666 0 -0.00067658553428329735 -0.0032945717275141492 0 -0.00038404934360422469 -0.0034403107454383393 0 -0.00031553517199279141 -0.0033101779645318863 0 -0.00069992724543480208 -0.000324908361458364 0 2.4758271611603893e-06 -0.0024360537155753577 0 -0.0003124445767884223 -0.0031047693271488226 0 2.4758271611603893e-06 -0.0024360537155753577 0 2.4758271611603893e-06 -0.0024360537155753577 0 -6.7891370405522787e-05 -0.0054389556089853436 0 -0.00032162779888054874 -0.0033307828107614476 0 0.00016121298380975349 -0.0033730413968828038 0 0.00017209769735264787 -0.0034851298920516131 0 -7.2369416595242594e-05 -0.0037755630097346666 0 0.00046425736392507192 -0.0071507722627059322 0 -6.7891370405522787e-05 -0.0054389556089853436 0 0.00046425736392507192 -0.0071507722627059322 0 0.0011781079744160748 -0.010050431333573548 0 0.00035345626315277196 -0.010595646008676126 0 0.0013252351632537203 -0.011835246233977447 0 -0.00026047305646977417 -0.0076617595386585689 0 -0.00073895353677420092 -0.0079691318500641917 0 -0.00052628781581414515 -0.0077625054573627061 0 -6.7891370405522787e-05 -0.0054389556089853436 0 -0.00040159611317100089 -0.0060121374716839262 0 0.0003571169000809535 -0.010522283902210845 0 0.0013494429049550028 -0.013982371506296979 0 0.0003571169000809535 -0.010522283902210845 0 0.00046425736392507192 -0.0071507722627059322 0 -0.00075678039163272731 -0.007750987286791371 0 -0.00073895353677420092 -0.0079691318500641917 0 -0.00052628781581414515 -0.0077625054573627061 0 0.0010511164530368044 -0.014664497908847645 0 0.0014517092604007258 -0.015031369123726376 0 0.0011984944308817088 -0.015362988637345266 0 0.0011305785890956806 -0.016002671967949803 0 0.0010638650277969657 -0.015707354815201878 0 0.0012570460217871796 -0.015491114117111727 0 0.00086904325950555713 -0.015877434705491123 0 0.0011305785890956806 -0.016002671967949803 0 0.0010638650277969657 -0.015707354815201878 0 0.0014517092604007258 -0.015031369123726376 0 0.0011984944308817088 -0.015362988637345266 0 0.0012570460217871796 -0.015491114117111727 0 0.0012800472339166455 -0.016195447130275775 0 0.0013056873049915266 -0.015221756688306928 0 0.00035345626315277196 -0.010595646008676126 0 0.0013252351632537203 -0.011835246233977447 0 0.0005729983888744163 -0.012663690538302633 0 0.00046425736392507192 -0.0071507722627059322 0 0.0009777730447211527 -0.010385877869848207 0 0.0013494429049550028 -0.013982371506296979 0 0.0013360289587445223 -0.014402322295826562 0 0.0013252351632537203 -0.011835246233977447 0 0.0005729983888744163 -0.012663690538302633 0 0.0014119822402674275 -0.013514542491984327 0 0.0011984944308817088 -0.015362988637345266 0 0.0013092239948527728 -0.015510372617979881 0 0.0012570460217871796 -0.015491114117111727 0 0.001049398883520641 -0.015440893637244083 0 0.0013092239948527728 -0.015510372617979881 0 0.0011302803480741207 -0.015549352340309675 0 0.0010638650277969657 -0.015707354815201878 0 0.0011302803480741207 -0.015549352340309675 0 0.0012570460217871796 -0.015491114117111727 0 0.0013092239948527728 -0.015510372617979881 0 0.0011302803480741207 -0.015549352340309675 0 0.0012570460217871796 -0.015491114117111727 0 0.001049398883520641 -0.015440893637244083 0 0.0013092239948527728 -0.015510372617979881 0 0.0011389950422447256 -0.015187170150091283 0 0.0013092239948527728 -0.015510372617979881 0 0.0011389950422447256 -0.015187170150091283 0 0.0013309495823667355 -0.014893051930287528 0 0.0013360289587445223 -0.014402322295826562 0 0.0013466393016151941 -0.014894596641298134 0 0.0005729983888744163 -0.012663690538302633 0 0.0014119822402674275 -0.013514542491984327 0 0.00083122326917143489 -0.014466664042152614 0 0.0014119822402674275 -0.013514542491984327 0 0.00083122326917143489 -0.014466664042152614 0 0.0013309495823667355 -0.014893051930287528 0 0.0009777730447211527 -0.010385877869848207 0 0.0013108592276897522 -0.011384299183168514 0 0.0018554163146625099 -0.0096771698099588771 0 -0.000433767000329372 -0.008919218543624553 0 0.00079208903776330393 -0.010203905560759502 0 0.0014793295820015714 -0.0091051083436221678 0 0.00055386296976387209 -0.007891974661683716 0 0.00026604120611722974 -0.0086893608052301275 0 0.0013108592276897522 -0.011384299183168514 0 0.00033385405296114927 -0.007373401529060554 0 0.00033385405296114927 -0.007373401529060554 0 0.00091284202334506186 -0.0089061103870383858 0 0.0013203917368246208 -0.0074738986471911354 0 0.0014793295820015714 -0.0091051083436221678 0 0.00055386296976387209 -0.007891974661683716 0 0.00055853894594072649 -0.0070090450272337181 0 -3.7439928852368988e-05 -0.0070384491622662399 0 0.00055386296976387209 -0.007891974661683716 0 0.00055853894594072649 -0.0070090450272337181 0 0.0013203917368246208 -0.0074738986471911354 0 0.00055386296976387209 -0.007891974661683716 0 -0.0010398811175673221 -0.0072869869713442373 0 -3.7439928852368988e-05 -0.0070384491622662399 0 -0.00038549369864942097 -0.0079890947848981399 0 0.00055386296976387209 -0.007891974661683716 0 -0.00038549369864942097 -0.0079890947848981399 0 0.00026604120611722974 -0.0086893608052301275 0 -3.7439928852368988e-05 -0.0070384491622662399 0 0.00055386296976387209 -0.007891974661683716 0 -0.00038549369864942097 -0.0079890947848981399 0 -8.8799315831050767e-05 -0.0053916175897053328 0 0.00060579151275110151 -0.0059742226028546737 0 -0.0010998702638715474 -0.0062866016073282061 0 0.00031163339875183501 -0.006761099920188327 0 0.00083997132381820382 -0.0080541090266589115 0 0.00020135523530309142 -0.0050232371351777664 0 0.00048785618608702562 -0.0046267463359115591 0 0.0011765566683295333 -0.005367478974577621 0 -8.8799315831050767e-05 -0.0053916175897053328 0 0.00033385405296114927 -0.007373401529060554 0 0.00022810978905694768 -0.0064627500929838625 0 0.00033385405296114927 -0.007373401529060554 0 0.00032338906639187262 -0.0042912896680460345 0 0.0006637719583347365 -0.0044606427800558106 0 0.00032223264129007133 -0.0045671400176156363 0 0.00074838605996619073 -0.0048123936438065002 0 0.0006637719583347365 -0.0044606427800558106 0 0.00032223264129007133 -0.0045671400176156363 0 0.00071154971638694121 -0.0047747460277946796 0 0.00019927033469428231 -0.0045257414956238065 0 0.00032102491399150525 -0.0046901341583606478 0 3.934405212051247e-05 -0.0044446611818191855 0 0.00013648618674193583 -0.0046441306527630535 0 0.00032102491399150525 -0.0046901341583606478 0 0.00032484419816632837 -0.0047116674182469242 0 0.00013648618674193583 -0.0046441306527630535 0 0.00032102491399150525 -0.0046901341583606478 0 0.00074838605996619073 -0.0048123936438065002 0 3.934405212051247e-05 -0.0044446611818191855 0 0.00030875287273038381 -0.0047909409115410081 0 0.0003232769385523006 -0.0050639996058275457 0 0.00074838605996619073 -0.0048123936438065002 0 0.0006637719583347365 -0.0044606427800558106 0 0.0014335470008164026 -0.0048823902285038611 0 0.00074838605996619073 -0.0048123936438065002 0 0.00035773188336629647 -0.0055071583997229525 0 0.0010359682689461502 -0.0055728022102261776 0 0.00032102491399150525 -0.0046901341583606478 0 0.00074838605996619073 -0.0048123936438065002 0 0.00035773188336629647 -0.0055071583997229525 0 0.00083997132381820382 -0.0080541090266589115 0 0.0013011584164724611 -0.0077930362053520051 0 0.0023255834208398829 -0.0088680544582603153 0 0.00060579151275110151 -0.0059742226028546737 0 0.0017550972979159913 -0.0094808059845212459 0 0.00031163339875183501 -0.006761099920188327 0 0.00083997132381820382 -0.0080541090266589115 0 0.0013011584164724611 -0.0077930362053520051 0 0.0018554163146625099 -0.0096771698099588771 0 0.00079208903776330393 -0.010203905560759502 0 0.0020198375433116999 -0.011485013545424402 0 0.00083997132381820382 -0.0080541090266589115 0 0.0023594477819134825 -0.0094370073288432051 0 0.0023255834208398829 -0.0088680544582603153 0 0.0013108592276897522 -0.011384299183168514 0 0.0015740621843091059 -0.012285556702236827 0 0.00083122326917143489 -0.014466664042152614 0 0.0013309495823667355 -0.014893051930287528 0 0.001108655176115826 -0.014969329820057201 0 0.0013309495823667355 -0.014893051930287528 0 0.001108655176115826 -0.014969329820057201 0 0.0012330906680447546 -0.014919328647070611 0 0.00091284202334506186 -0.0089061103870383858 0 0.0015740621843091059 -0.012285556702236827 0 0.0011389950422447256 -0.015187170150091283 0 0.0011889174531379768 -0.014945428857273233 0 0.0010601872551167263 -0.015071883850307322 0 0.0011389950422447256 -0.015187170150091283 0 0.0013309495823667355 -0.014893051930287528 0 0.0011889174531379768 -0.014945428857273233 0 0.0013309495823667355 -0.014893051930287528 0 0.0012497831575761843 -0.014899089464411541 0 0.0011889174531379768 -0.014945428857273233 0 0.0012497831575761843 -0.014899089464411541 0 0.0011889174531379768 -0.014945428857273233 0 0.0011924284858042756 -0.014874583885889728 0 0.0013309495823667355 -0.014893051930287528 0 0.0012497831575761843 -0.014899089464411541 0 0.0012330906680447546 -0.014919328647070611 0 0.001104348098634929 -0.014925074631055479 0 0.0011889174531379768 -0.014945428857273233 0 0.0010601872551167263 -0.015071883850307322 0 0.001104348098634929 -0.014925074631055479 0 0.0011889174531379768 -0.014945428857273233 0 0.0011924284858042756 -0.014874583885889728 0 0.001160798954616479 -0.014756127025419329 0 0.0012804142228279775 -0.014808422471008534 0 0.0011211419604713142 -0.014653694193714923 0 0.001104348098634929 -0.014925074631055479 0 0.0011236890178849112 -0.014832017707778615 0 0.0011924284858042756 -0.014874583885889728 0 0.0011236890178849112 -0.014832017707778615 0 0.0011924284858042756 -0.014874583885889728 0 0.0012114542416962119 -0.014828335679823399 0 0.0011924284858042756 -0.014874583885889728 0 0.0012337791964468243 -0.014880357420187205 0 0.0012114542416962119 -0.014828335679823399 0 0.0012497831575761843 -0.014899089464411541 0 0.0011924284858042756 -0.014874583885889728 0 0.0012337791964468243 -0.014880357420187205 0 0.0012497831575761843 -0.014899089464411541 0 0.0012337791964468243 -0.014880357420187205 0 0.0012330906680447546 -0.014919328647070611 0 0.0012337791964468243 -0.014880357420187205 0 0.0012114542416962119 -0.014828335679823399 0 0.0012653260737385485 -0.014851463373223253 0 0.0012114542416962119 -0.014828335679823399 0 0.001160798954616479 -0.014756127025419329 0 0.0012804142228279775 -0.014808422471008534 0 0.0012114542416962119 -0.014828335679823399 0 0.0012653260737385485 -0.014851463373223253 0 0.0012804142228279775 -0.014808422471008534 0 0.0011236890178849112 -0.014832017707778615 0 0.0012114542416962119 -0.014828335679823399 0 0.001160798954616479 -0.014756127025419329 0 0.00074838605996619073 -0.0048123936438065002 0 0.0014335470008164026 -0.0048823902285038611 0 0.0017347422505178973 -0.0051439465956256755 0 0.00074838605996619073 -0.0048123936438065002 0 0.0017347422505178973 -0.0051439465956256755 0 0.0010359682689461502 -0.0055728022102261776 0 0.0017550972979159913 -0.0094808059845212459 0 0.0015740621843091059 -0.012285556702236827 0 0.0015740621843091059 -0.012285556702236827 0 0.0018982327200675084 -0.014393072988265721 0 0.001108655176115826 -0.014969329820057201 0 0.0012330906680447546 -0.014919328647070611 0 0.0012653260737385485 -0.014851463373223253 0 0.0012337791964468243 -0.014880357420187205 0 0.0012330906680447546 -0.014919328647070611 0 0.0012653260737385485 -0.014851463373223253 0 0.0012558603298115708 -0.014824680825467814 0 0.0012535606542473196 -0.014785997489427835 0 0.0012653260737385485 -0.014851463373223253 0 0.0017550972979159913 -0.0094808059845212459 0 0.0016255321370819576 -0.0095725574826563617 0 0.0012558603298115708 -0.014824680825467814 0 0.0012653260737385485 -0.014851463373223253 0 0.0012804142228279775 -0.014808422471008534 0 0.001727390732734967 -0.0062506473689106041 0 0.0005481675931877253 -0.0063741547814171193 0 0.0010359682689461502 -0.0055728022102261776 0 0.0017347422505178973 -0.0051439465956256755 0 0.001727390732734967 -0.0062506473689106041 0 0.0010359682689461502 -0.0055728022102261776 0 0.0012804142228279775 -0.014808422471008534 0 0.0011211419604713142 -0.014653694193714923 0 0.0011088036548907259 -0.014508518706466007 0 0.0016255321370819576 -0.0095725574826563617 0 0.0014901538002415119 -0.011887155205372693 0 0.0017347422505178973 -0.0051439465956256755 0 0.001727390732734967 -0.0062506473689106041 0 0.0030320506817086892 -0.0062981988121755929 0 0.001727390732734967 -0.0062506473689106041 0 0.0023518123629799 -0.0068287316117601991 0 0.0030320506817086892 -0.0062981988121755929 0 0.0023518123629799 -0.0068287316117601991 0 0.0030320506817086892 -0.0062981988121755929 0 0.0029765750697250755 -0.0073955356372386255 0 0.001727390732734967 -0.0062506473689106041 0 0.0023518123629799 -0.0068287316117601991 0 0.0016826932388866369 -0.0074509908688604205 0 0.001727390732734967 -0.0062506473689106041 0 0.0005481675931877253 -0.0063741547814171193 0 0.0016826932388866369 -0.0074509908688604205 0 0.00016805703122987076 -0.0061657145352718669 0 0.00073800115363979605 -0.0071685919906182023 0 0.00016805703122987076 -0.0061657145352718669 0 -5.7036246364654609e-05 -0.0068228940404513943 0 0.00041076994792113737 -0.0048781158739933609 0 0.0003023250020432423 -0.0049666888874311706 0 0.00050339484564938016 -0.0051051638624608018 0 -0.00036026844233927238 -0.0073358479967434321 0 -0.00049059952525696085 -0.0070706617534462991 0 -0.00038716003472088844 -0.0074110951760612224 0 -0.00036026844233927238 -0.0073358479967434321 0 -0.00049059952525696085 -0.0070706617534462991 0 -7.5983543377827455e-05 -0.0074432121302238311 0 0.0003023250020432423 -0.0049666888874311706 0 0.00024966240831675741 -0.0048003502483314666 0 9.6298453980475085e-05 -0.0048302236578678156 0 0.0003023250020432423 -0.0049666888874311706 0 9.5486040125783474e-05 -0.0051123643663296596 0 9.6298453980475085e-05 -0.0048302236578678156 0 0.00041076994792113737 -0.0048781158739933609 0 0.0003023250020432423 -0.0049666888874311706 0 0.00024966240831675741 -0.0048003502483314666 0 0.00024966240831675741 -0.0048003502483314666 0 0.00032484419816632837 -0.0047116674182469242 0 0.00013648618674193583 -0.0046441306527630535 0 0.00024966240831675741 -0.0048003502483314666 0 9.6298453980475085e-05 -0.0048302236578678156 0 0.00013648618674193583 -0.0046441306527630535 0 0.00041076994792113737 -0.0048781158739933609 0 0.00024966240831675741 -0.0048003502483314666 0 0.00032484419816632837 -0.0047116674182469242 0 0.00016805703122987076 -0.0061657145352718669 0 0.0003232769385523006 -0.0050639996058275457 0 0.0005481675931877253 -0.0063741547814171193 0 0.00035773188336629647 -0.0055071583997229525 0 0.0010359682689461502 -0.0055728022102261776 0 0.00034832962054129254 -0.015026958713785808 0 0.00066389186817901371 -0.014757275760425154 0 0.00023950405118805868 -0.014788541481085377 0 -3.7576620286577812e-05 -0.015043128980519595 0 0.00034832962054129254 -0.015026958713785808 0 0.00023950405118805868 -0.014788541481085377 0 0.00034832962054129254 -0.015026958713785808 0 0.00019028889666445912 -0.015234041942772048 0 0.00043847279723233725 -0.015231014544943902 0 0.00034832962054129254 -0.015026958713785808 0 0.00043847279723233725 -0.015231014544943902 0 0.00065068763996506255 -0.015055087979507125 0 0.00065233603864444062 -0.015361028349076848 0 0.00043847279723233725 -0.015231014544943902 0 0.00065068763996506255 -0.015055087979507125 0 0.00034832962054129254 -0.015026958713785808 0 0.00065068763996506255 -0.015055087979507125 0 0.00066389186817901371 -0.014757275760425154 0 0.00086609300731841428 -0.0148913198952699 0 0.00065068763996506255 -0.015055087979507125 0 0.00066389186817901371 -0.014757275760425154 0 0.00086609300731841428 -0.0148913198952699 0 0.00089196242335159211 -0.014721145755308557 0 0.00066389186817901371 -0.014757275760425154 0 0.00065233603864444062 -0.015361028349076848 0 0.00065068763996506255 -0.015055087979507125 0 0.00089950177804375402 -0.015061392759398695 0 0.00086609300731841428 -0.0148913198952699 0 0.00065068763996506255 -0.015055087979507125 0 0.00089950177804375402 -0.015061392759398695 0 0.0009486420606158463 -0.015268846911046316 0 0.00089950177804375402 -0.015061392759398695 0 0.0010601872551167263 -0.015071883850307322 0 0.001104348098634929 -0.014925074631055479 0 0.00089950177804375402 -0.015061392759398695 0 0.0010601872551167263 -0.015071883850307322 0 0.001104348098634929 -0.014925074631055479 0 0.00089950177804375402 -0.015061392759398695 0 0.0010067929907467237 -0.014875954672899995 0 0.001104348098634929 -0.014925074631055479 0 0.0011236890178849112 -0.014832017707778615 0 0.0010067929907467237 -0.014875954672899995 0 0.00086609300731841428 -0.0148913198952699 0 0.00089950177804375402 -0.015061392759398695 0 0.0010067929907467237 -0.014875954672899995 0 0.00086609300731841428 -0.0148913198952699 0 0.0010364589648252198 -0.014735836492273112 0 0.00089196242335159211 -0.014721145755308557 0 0.00086609300731841428 -0.0148913198952699 0 0.0010067929907467237 -0.014875954672899995 0 0.0010364589648252198 -0.014735836492273112 0 0.0011236890178849112 -0.014832017707778615 0 0.0010067929907467237 -0.014875954672899995 0 0.0010364589648252198 -0.014735836492273112 0 0.0011236890178849112 -0.014832017707778615 0 0.001160798954616479 -0.014756127025419329 0 0.0010364589648252198 -0.014735836492273112 0 0.001012679940382639 -0.014613539694929498 0 0.0011193809936720649 -0.014504284852065416 0 0.00090256254372251827 -0.014530053453141982 0 0.0010364589648252198 -0.014735836492273112 0 0.0011211419604713142 -0.014653694193714923 0 0.001012679940382639 -0.014613539694929498 0 0.001160798954616479 -0.014756127025419329 0 0.0010364589648252198 -0.014735836492273112 0 0.0011211419604713142 -0.014653694193714923 0 0.0010364589648252198 -0.014735836492273112 0 0.001012679940382639 -0.014613539694929498 0 0.00089196242335159211 -0.014721145755308557 0 0.0011211419604713142 -0.014653694193714923 0 0.001012679940382639 -0.014613539694929498 0 0.0011017346934914902 -0.014556509838717455 0 0.0011211419604713142 -0.014653694193714923 0 0.0011017346934914902 -0.014556509838717455 0 0.0011088036548907259 -0.014508518706466007 0 0.001012679940382639 -0.014613539694929498 0 0.0011017346934914902 -0.014556509838717455 0 0.0011193809936720649 -0.014504284852065416 0 0.0014071272793536502 -0.012871695725010981 0 0.0014901538002415119 -0.011887155205372693 0 0.0015898691624261707 -0.0145936671906237 0 0.00095108167742683327 -0.01411495821092603 0 0.0016307183526342408 -0.014044146576701179 0 0.0014901538002415119 -0.011887155205372693 0 0.0023665541831472095 -0.010540117124650937 0 0.0014901538002415119 -0.011887155205372693 0 0.0011428837653097504 -0.014991688350597663 0 0.00074379086822500202 -0.01439887069249428 0 0.00090256254372251827 -0.014530053453141982 0 0.00095108167742683327 -0.01411495821092603 0 0.0011193809936720649 -0.014504284852065416 0 0.00090256254372251827 -0.014530053453141982 0 0.00095108167742683327 -0.01411495821092603 0 0.00074379086822500202 -0.01439887069249428 0 0.00090256254372251827 -0.014530053453141982 0 0.00066389186817901371 -0.014757275760425154 0 0.00090256254372251827 -0.014530053453141982 0 0.00089196242335159211 -0.014721145755308557 0 0.00066389186817901371 -0.014757275760425154 0 0.001012679940382639 -0.014613539694929498 0 0.00090256254372251827 -0.014530053453141982 0 0.00089196242335159211 -0.014721145755308557 0 0.00066389186817901371 -0.014757275760425154 0 0.00042533403928512385 -0.014407920744749225 0 0.00023950405118805868 -0.014788541481085377 0 0.00074379086822500202 -0.01439887069249428 0 0.00066389186817901371 -0.014757275760425154 0 0.00042533403928512385 -0.014407920744749225 0 0.00074379086822500202 -0.01439887069249428 0 0.00042533403928512385 -0.014407920744749225 0 0.00066787228517274188 -0.013930228533190446 0 0.00011577750413434725 -0.014526683893699207 0 0.00042533403928512385 -0.014407920744749225 0 0.00015651510148456739 -0.014176754752454388 0 0.00042533403928512385 -0.014407920744749225 0 0.00015651510148456739 -0.014176754752454388 0 0.00038144847259255303 -0.014065575686120874 0 0.00011577750413434725 -0.014526683893699207 0 0.00042533403928512385 -0.014407920744749225 0 0.00023950405118805868 -0.014788541481085377 0 -1.6194192428309419e-05 -0.013407653711976714 0 0.00026302152128268217 -0.01373015117851125 0 0.0002234883060449651 -0.013295776659792905 0 0.00026302152128268217 -0.01373015117851125 0 0.00056274106291276653 -0.013509266506146384 0 0.0002234883060449651 -0.013295776659792905 0 -2.4451129882527985e-05 -0.013913745548566833 0 0.00026302152128268217 -0.01373015117851125 0 0.00015651510148456739 -0.014176754752454388 0 0.00026302152128268217 -0.01373015117851125 0 0.00015651510148456739 -0.014176754752454388 0 0.00038144847259255303 -0.014065575686120874 0 0.00042533403928512385 -0.014407920744749225 0 0.00038144847259255303 -0.014065575686120874 0 0.00066787228517274188 -0.013930228533190446 0 0.00026302152128268217 -0.01373015117851125 0 0.00038144847259255303 -0.014065575686120874 0 0.00066787228517274188 -0.013930228533190446 0 0.00026302152128268217 -0.01373015117851125 0 0.00066787228517274188 -0.013930228533190446 0 0.00056274106291276653 -0.013509266506146384 0 0.00066787228517274188 -0.013930228533190446 0 0.00056274106291276653 -0.013509266506146384 0 0.00086327985481971274 -0.013699784846115332 0 0.00056274106291276653 -0.013509266506146384 0 0.00092640086959208244 -0.01328664594292326 0 0.00086327985481971274 -0.013699784846115332 0 0.00092640086959208244 -0.01328664594292326 0 0.0011898517592605204 -0.013625652020197231 0 0.0012567366217833499 -0.013080402001736652 0 0.00092640086959208244 -0.01328664594292326 0 0.0011898517592605204 -0.013625652020197231 0 0.00086327985481971274 -0.013699784846115332 0 0.0011898517592605204 -0.013625652020197231 0 0.00086327985481971274 -0.013699784846115332 0 0.00095108167742683327 -0.01411495821092603 0 0.0011898517592605204 -0.013625652020197231 0 0.00095108167742683327 -0.01411495821092603 0 0.0013990369157869404 -0.013797164266500626 0 0.00074379086822500202 -0.01439887069249428 0 0.00066787228517274188 -0.013930228533190446 0 0.00095108167742683327 -0.01411495821092603 0 0.00066787228517274188 -0.013930228533190446 0 0.00086327985481971274 -0.013699784846115332 0 0.00095108167742683327 -0.01411495821092603 0 0.00095108167742683327 -0.01411495821092603 0 0.0013990369157869404 -0.013797164266500626 0 0.0016307183526342408 -0.014044146576701179 0 0.0023665541831472095 -0.010540117124650937 0 0.0014584477869073759 -0.010481681031549259 0 0.0013990369157869404 -0.013797164266500626 0 0.0016307183526342408 -0.014044146576701179 0 0.001683209604923601 -0.013480725869788695 0 0.0011898517592605204 -0.013625652020197231 0 0.0013990369157869404 -0.013797164266500626 0 0.001683209604923601 -0.013480725869788695 0 0.0014584477869073759 -0.010481681031549259 0 0.0017140673878518666 -0.01378908957595836 0 0.0011898517592605204 -0.013625652020197231 0 0.001683209604923601 -0.013480725869788695 0 0.0012567366217833499 -0.013080402001736652 0 0.0015419918412643528 -0.013408391261584381 0 0.0015477824174601298 -0.013352573561805832 0 0.0012567366217833499 -0.013080402001736652 0 0.0014584477869073759 -0.010481681031549259 0 0.00096354448300791013 -0.010095543940261353 0 0.00010217977421816669 -0.010187361369015336 0 -7.022555267725414e-05 -0.010065318131964986 0 -4.4420554582258621e-05 -0.010222635382184739 0 0.0015477824174601298 -0.013352573561805832 0 0.0011426459762750264 -0.012856497341941808 0 0.0012567366217833499 -0.013080402001736652 0 0.00096354448300791013 -0.010095543940261353 0 0.00053223116141431018 -0.011837957817874211 0 0.00010284750541626029 -0.010306214035215555 0 0.00010217977421816669 -0.010187361369015336 0 -4.4420554582258621e-05 -0.010222635382184739 0 0.00096354448300791013 -0.010095543940261353 0 0.00016184396856533715 -0.0090378235778278207 0 -7.022555267725414e-05 -0.010065318131964986 0 -5.3993742419927702e-07 -0.010532156224182626 0 5.6653935510876404e-07 -0.0093282725206049501 0 0.00010217977421816669 -0.010187361369015336 0 -7.022555267725414e-05 -0.010065318131964986 0 5.6653935510876404e-07 -0.0093282725206049501 0 -7.022555267725414e-05 -0.010065318131964986 0 -5.3993742419927702e-07 -0.010532156224182626 0 -4.4420554582258621e-05 -0.010222635382184739 0 0.00092640086959208244 -0.01328664594292326 0 0.0011426459762750264 -0.012856497341941808 0 0.0012567366217833499 -0.013080402001736652 0 0.00056274106291276653 -0.013509266506146384 0 0.00043297286461202358 -0.012997291465461726 0 0.0002234883060449651 -0.013295776659792905 0 0.00056274106291276653 -0.013509266506146384 0 0.00092640086959208244 -0.01328664594292326 0 0.00043297286461202358 -0.012997291465461726 0 0.00092640086959208244 -0.01328664594292326 0 0.0011426459762750264 -0.012856497341941808 0 0.00043297286461202358 -0.012997291465461726 0 0.00053223116141431018 -0.011837957817874211 0 -2.4787052315203378e-07 -0.011736933627252234 0 0.0011426459762750264 -0.012856497341941808 0 0.00043297286461202358 -0.012997291465461726 0 5.8372828940352262e-07 -0.011740518117133688 0 -5.3993742419927702e-07 -0.010532156224182626 0 -4.4420554582258621e-05 -0.010222635382184739 0 5.4372170921785355e-07 -0.011736153324038698 0 0.00043297286461202358 -0.012997291465461726 0 5.8372828940352262e-07 -0.011740518117133688 0 -4.335160831064897e-05 -0.012903081629658282 0 -5.1165646871263872e-05 -0.013391170427572556 0 5.8372828940352262e-07 -0.011740518117133688 0 -4.335160831064897e-05 -0.012903081629658282 0 0.00043297286461202358 -0.012997291465461726 0 -4.335160831064897e-05 -0.012903081629658282 0 0.0002234883060449651 -0.013295776659792905 0 -1.6194192428309419e-05 -0.013407653711976714 0 -4.335160831064897e-05 -0.012903081629658282 0 0.0002234883060449651 -0.013295776659792905 0 -1.9169415742001319e-06 -0.008113813313279393 0 -5.8330225249602931e-05 -0.0081988962838886997 0 -9.7721537755026566e-05 -0.0081158641631708817 0 -1.9169415742001319e-06 -0.008113813313279393 0 -9.7721537755026566e-05 -0.0081158641631708817 0 -6.6934815643457363e-05 -0.0080076748603414693 0 0.00042729081163436533 -0.0053905780637804913 0 0.00028086908818193625 -0.0051937215040803557 0 6.5039804006053749e-05 -0.0054187780868363254 0 0.00042729081163436533 -0.0053905780637804913 0 0.00035183681093112727 -0.0057186796501152021 0 6.5039804006053749e-05 -0.0054187780868363254 0 0.00028086908818193625 -0.0051937215040803557 0 6.5039804006053749e-05 -0.0054187780868363254 0 9.5486040125783474e-05 -0.0051123643663296596 0 0.0003023250020432423 -0.0049666888874311706 0 0.00028086908818193625 -0.0051937215040803557 0 9.5486040125783474e-05 -0.0051123643663296596 0 0.00024724341767640271 -0.0067033497950718052 0 -5.7036246364654609e-05 -0.0068228940404513943 0 0.0003023250020432423 -0.0049666888874311706 0 0.00028086908818193625 -0.0051937215040803557 0 0.00050339484564938016 -0.0051051638624608018 0 -5.7036246364654609e-05 -0.0068228940404513943 0 -0.00013683987595203008 -0.0080995077756742181 0 0.00042729081163436533 -0.0053905780637804913 0 0.00028086908818193625 -0.0051937215040803557 0 0.00050339484564938016 -0.0051051638624608018 0 -0.00015929926032866084 -0.0070677292600908222 0 -5.7036246364654609e-05 -0.0068228940404513943 0 -0.00036026844233927238 -0.0073358479967434321 0 -0.00038701241556739191 -0.0074144178166552638 0 -7.5983543377827455e-05 -0.0074432121302238311 0 -0.00038701241556739191 -0.0074144178166552638 0 -7.5983543377827455e-05 -0.0074432121302238311 0 -0.00014493569119456516 -0.007618841007816222 0 -0.00038701241556739191 -0.0074144178166552638 0 -0.00014493569119456516 -0.007618841007816222 0 -0.00025908629881237275 -0.0077706045846505194 0 -7.5983543377827455e-05 -0.0074432121302238311 0 -0.00014493569119456516 -0.007618841007816222 0 9.8168074208224431e-05 -0.0076743046029522739 0 0.0029765750697250755 -0.0073955356372386255 0 0.0029043199219474934 -0.0085334252118941904 0 0.0016826932388866369 -0.0074509908688604205 0 0.0014584477869073759 -0.010481681031549259 0 0.00073800115363979605 -0.0071685919906182023 0 0.00035137088886721946 -0.007850301266413234 0 -7.5983543377827455e-05 -0.0074432121302238311 0 9.8168074208224431e-05 -0.0076743046029522739 0 0.0023518123629799 -0.0068287316117601991 0 0.0029765750697250755 -0.0073955356372386255 0 0.0016826932388866369 -0.0074509908688604205 0 9.8168074208224431e-05 -0.0076743046029522739 0 4.585953683869597e-05 -0.0079469417180414847 0 -7.092058184093255e-05 -0.0077810575209527905 0 0.00031344096782827402 -0.0078440228837027906 0 9.8168074208224431e-05 -0.0076743046029522739 0 4.585953683869597e-05 -0.0079469417180414847 0 0.00096354448300791013 -0.010095543940261353 0 -0.00036941693818466083 -0.0074106906631113967 0 0.00035137088886721946 -0.007850301266413234 0 0.0003478492895745255 -0.0079100721575550304 0 9.8168074208224431e-05 -0.0076743046029522739 0 -9.7721537755026566e-05 -0.0081158641631708817 0 -0.00015729531682949434 -0.0080427517718367585 0 -6.6934815643457363e-05 -0.0080076748603414693 0 -0.00013683987595203008 -0.0080995077756742181 0 -0.00017604441568773389 -0.0079747341811960727 0 -0.00025908629881237275 -0.0077706045846505194 0 -7.092058184093255e-05 -0.0077810575209527905 0 -0.00015729531682949434 -0.0080427517718367585 0 4.585953683869597e-05 -0.0079469417180414847 0 -7.092058184093255e-05 -0.0077810575209527905 0 -0.00015729531682949434 -0.0080427517718367585 0 -0.00014493569119456516 -0.007618841007816222 0 -0.00025908629881237275 -0.0077706045846505194 0 -7.092058184093255e-05 -0.0077810575209527905 0 -0.00014493569119456516 -0.007618841007816222 0 9.8168074208224431e-05 -0.0076743046029522739 0 -7.092058184093255e-05 -0.0077810575209527905 0 -0.00015729531682949434 -0.0080427517718367585 0 -0.00010787050561218257 -0.0082874975101922509 0 -0.00010852051680801993 -0.0078477378815523264 0 4.585953683869597e-05 -0.0079469417180414847 0 -0.00015729531682949434 -0.0080427517718367585 0 -0.00010787050561218257 -0.0082874975101922509 0 0.00031344096782827402 -0.0078440228837027906 0 0.00030290752745565125 -0.0082494280553536536 0 4.585953683869597e-05 -0.0079469417180414847 0 0.00030290752745565125 -0.0082494280553536536 0 4.585953683869597e-05 -0.0079469417180414847 0 -0.00010787050561218257 -0.0082874975101922509 0 0.00016184396856533715 -0.0090378235778278207 0 1.0277904168834005e-07 -0.0093269343524535319 0 0.00030290752745565125 -0.0082494280553536536 0 1.0816700602996182e-06 -0.0093250108809705169 0 -0.00010787050561218257 -0.0082874975101922509 0 1.0816700602996182e-06 -0.0093250108809705169 0 -0.00010787050561218257 -0.0082874975101922509 0 -1.0276865855772545e-06 -0.0079477479696369764 0 -0.00010787050561218257 -0.0082874975101922509 0 -1.0276865855772545e-06 -0.0079477479696369764 0 -0.00010852051680801993 -0.0078477378815523264 0 -0.00010852051680801993 -0.0078477378815523264 0 0.00014792502504047957 -0.0078191740397108387 0 1.0283107747045612e-06 -0.0065704477207543304 0 -1.0276865855772545e-06 -0.0079477479696369764 0 -0.00010852051680801993 -0.0078477378815523264 0 1.0283107747045612e-06 -0.0065704477207543304 0 -1.9169415742001319e-06 -0.008113813313279393 0 -6.6934815643457363e-05 -0.0080076748603414693 0 0.00014792502504047957 -0.0078191740397108387 0 0.00024724341767640271 -0.0067033497950718052 0 0.00019884918197556731 -0.0067793515985306039 0 -0.00015729531682949434 -0.0080427517718367585 0 -0.00010852051680801993 -0.0078477378815523264 0 -6.6934815643457363e-05 -0.0080076748603414693 0 -0.00010852051680801993 -0.0078477378815523264 0 -6.6934815643457363e-05 -0.0080076748603414693 0 0.00014792502504047957 -0.0078191740397108387 0 0.00035183681093112727 -0.0057186796501152021 0 -4.025685998989027e-05 -0.0057105692819030404 0 6.5039804006053749e-05 -0.0054187780868363254 0 0.00035183681093112727 -0.0057186796501152021 0 9.747509058014042e-07 -0.0065671000811202696 0 -4.025685998989027e-05 -0.0057105692819030404 0 0.00019884918197556731 -0.0067793515985306039 0 1.0816952817898438e-07 -0.0065688307933391577 0 9.747509058014042e-07 -0.0065671000811202696 0 -8.8178996238482049e-07 -0.0056371737044633181 0 -4.025685998989027e-05 -0.0057105692819030404 0 -8.8178996238482049e-07 -0.0056371737044633181 0 -0.00014435183150776135 -0.0054940789723387923 0 -4.025685998989027e-05 -0.0057105692819030404 0 -8.8178996238482049e-07 -0.0056371737044633181 0 7.8487538243225071e-07 -0.0047086191250275359 0 -0.00014435183150776135 -0.0054940789723387923 0 -1.0584567901891982e-08 -0.004706336701852264 0 -4.0198953158101929e-05 -0.0045775175286437092 0 -0.00014435183150776135 -0.0054940789723387923 0 -4.025685998989027e-05 -0.0057105692819030404 0 6.5039804006053749e-05 -0.0054187780868363254 0 7.1239207886692277e-08 -0.0047042298844675607 0 5.7149571478555981e-07 -0.0032543659867873376 0 -5.9056205783623538e-05 -0.0034795054095869914 0 -5.9056205783623538e-05 -0.0034795054095869914 0 4.5986906545997792e-05 -0.0035094443215310483 0 0.00025031112195368854 -0.0027518261794511937 0 5.7149571478555981e-07 -0.0032543659867873376 0 -5.9056205783623538e-05 -0.0034795054095869914 0 0.00025031112195368854 -0.0027518261794511937 0 7.1239207886692277e-08 -0.0047042298844675607 0 8.3913661501420597e-05 -0.0036504069997412339 0 -9.0911362321451241e-05 -0.0036409035812363841 0 7.1239207886692277e-08 -0.0047042298844675607 0 -5.9056205783623538e-05 -0.0034795054095869914 0 -9.0911362321451241e-05 -0.0036409035812363841 0 8.3913661501420597e-05 -0.0036504069997412339 0 -9.0911362321451241e-05 -0.0036409035812363841 0 -1.0477263872487791e-05 -0.0036858000656232602 0 -9.0911362321451241e-05 -0.0036409035812363841 0 4.5986906545997792e-05 -0.0035094443215310483 0 -1.0477263872487791e-05 -0.0036858000656232602 0 -5.9056205783623538e-05 -0.0034795054095869914 0 -9.0911362321451241e-05 -0.0036409035812363841 0 4.5986906545997792e-05 -0.0035094443215310483 0 0.00017648605829346232 -0.0038280304763563811 0 -1.0477263872487791e-05 -0.0036858000656232602 0 6.2057652778939944e-05 -0.0039245678977862042 0 4.5986906545997792e-05 -0.0035094443215310483 0 0.00017648605829346232 -0.0038280304763563811 0 -1.0477263872487791e-05 -0.0036858000656232602 0 -1.0477263872487791e-05 -0.0036858000656232602 0 6.2057652778939944e-05 -0.0039245678977862042 0 -0.00011710974125399677 -0.0038047512346248099 0 8.3913661501420597e-05 -0.0036504069997412339 0 -1.0477263872487791e-05 -0.0036858000656232602 0 -0.00011710974125399677 -0.0038047512346248099 0 6.2057652778939944e-05 -0.0039245678977862042 0 -0.00011710974125399677 -0.0038047512346248099 0 -2.8171189026252206e-07 -0.0040825747457605404 0 6.2057652778939944e-05 -0.0039245678977862042 0 0.00018778418336036333 -0.0039816345098277351 0 0.00011742388082571893 -0.0040822967765085059 0 0.00017648605829346232 -0.0038280304763563811 0 6.2057652778939944e-05 -0.0039245678977862042 0 0.00018778418336036333 -0.0039816345098277351 0 6.5039804006053749e-05 -0.0054187780868363254 0 -0.00018335931563054797 -0.0052827393467995525 0 9.5486040125783474e-05 -0.0051123643663296596 0 -0.00014435183150776135 -0.0054940789723387923 0 6.5039804006053749e-05 -0.0054187780868363254 0 -0.00018335931563054797 -0.0052827393467995525 0 -4.0198953158101929e-05 -0.0045775175286437092 0 -0.00014082248995906139 -0.0045489703503076981 0 -0.00011710974125399677 -0.0038047512346248099 0 -0.00017605130761161591 -0.0041144032568145479 0 -2.8171189026252206e-07 -0.0040825747457605404 0 -0.00014082248995906139 -0.0045489703503076981 0 -0.000168216471928455 -0.0045278713624605157 0 -0.00018335931563054797 -0.0052827393467995525 0 9.5486040125783474e-05 -0.0051123643663296596 0 -0.00018393858365269223 -0.0049484065254698124 0 9.5486040125783474e-05 -0.0051123643663296596 0 9.6298453980475085e-05 -0.0048302236578678156 0 -0.00018393858365269223 -0.0049484065254698124 0 9.6298453980475085e-05 -0.0048302236578678156 0 -0.00010975719381223295 -0.0045029992563162431 0 0.00013648618674193583 -0.0046441306527630535 0 -0.00012613156810516022 -0.0044994540647413884 0 -0.000168216471928455 -0.0045278713624605157 0 9.6298453980475085e-05 -0.0048302236578678156 0 -0.00010975719381223295 -0.0045029992563162431 0 -0.00018393858365269223 -0.0049484065254698124 0 -0.00010975719381223295 -0.0045029992563162431 0 -0.00017605130761161591 -0.0041144032568145479 0 -2.0061132347970948e-05 -0.0042750497327324064 0 6.2057652778939944e-05 -0.0039245678977862042 0 -2.8171189026252206e-07 -0.0040825747457605404 0 0.00011742388082571893 -0.0040822967765085059 0 -2.8171189026252206e-07 -0.0040825747457605404 0 9.1529037876288745e-05 -0.0042298879239723265 0 -2.0061132347970948e-05 -0.0042750497327324064 0 -0.00017605130761161591 -0.0041144032568145479 0 -2.8171189026252206e-07 -0.0040825747457605404 0 -2.0061132347970948e-05 -0.0042750497327324064 0 0.00011742388082571893 -0.0040822967765085059 0 9.1529037876288745e-05 -0.0042298879239723265 0 0.0002294998911715713 -0.0041246631423085085 0 0.00018778418336036333 -0.0039816345098277351 0 0.00011742388082571893 -0.0040822967765085059 0 0.0002294998911715713 -0.0041246631423085085 0 -2.8171189026252206e-07 -0.0040825747457605404 0 0.00011742388082571893 -0.0040822967765085059 0 9.1529037876288745e-05 -0.0042298879239723265 0 9.1529037876288745e-05 -0.0042298879239723265 0 0.0001909438094803372 -0.0042344522618816835 0 0.0002294998911715713 -0.0041246631423085085 0 9.1529037876288745e-05 -0.0042298879239723265 0 0.00012780452276043636 -0.0042964664196239325 0 0.0001909438094803372 -0.0042344522618816835 0 9.1529037876288745e-05 -0.0042298879239723265 0 0.00012780452276043636 -0.0042964664196239325 0 2.6842484960476926e-05 -0.0043604148233909379 0 -0.00010975719381223295 -0.0045029992563162431 0 -2.0061132347970948e-05 -0.0042750497327324064 0 2.6842484960476926e-05 -0.0043604148233909379 0 9.1529037876288745e-05 -0.0042298879239723265 0 -2.0061132347970948e-05 -0.0042750497327324064 0 2.6842484960476926e-05 -0.0043604148233909379 0 2.6842484960476926e-05 -0.0043604148233909379 0 -1.1316008793948884e-05 -0.0044168736142101359 0 0.00010657827645867653 -0.0043254383352526711 0 -0.00010975719381223295 -0.0045029992563162431 0 2.6842484960476926e-05 -0.0043604148233909379 0 -1.1316008793948884e-05 -0.0044168736142101359 0 -1.1316008793948884e-05 -0.0044168736142101359 0 0.00010657827645867653 -0.0043254383352526711 0 6.6370165070297725e-05 -0.0044143086531195815 0 0.00012780452276043636 -0.0042964664196239325 0 2.6842484960476926e-05 -0.0043604148233909379 0 0.00010657827645867653 -0.0043254383352526711 0 0.00012780452276043636 -0.0042964664196239325 0 0.00010657827645867653 -0.0043254383352526711 0 0.00024199484517572215 -0.0042962108347640035 0 4.5036572322846965e-05 -0.0044249765996284005 0 6.6370165070297725e-05 -0.0044143086531195815 0 0.00015429916543412917 -0.0044452139596898674 0 -0.00017389049704192425 -0.0019820014607096611 0 -0.00043045683106011202 -0.0023006944628733558 0 0.00010657827645867653 -0.0043254383352526711 0 6.6370165070297725e-05 -0.0044143086531195815 0 0.00015429916543412917 -0.0044452139596898674 0 4.5036572322846965e-05 -0.0044249765996284005 0 6.6370165070297725e-05 -0.0044143086531195815 0 1.2241329116781685e-05 -0.0044253884042070434 0 -1.1316008793948884e-05 -0.0044168736142101359 0 1.2241329116781685e-05 -0.0044253884042070434 0 -3.8584471236829291e-05 -0.0044388129918485324 0 4.1396709798200164e-05 -0.0044300443052444878 0 3.9729356444812243e-05 -0.0044475534020328661 0 4.5036572322846965e-05 -0.0044249765996284005 0 1.2241329116781685e-05 -0.0044253884042070434 0 -3.8584471236829291e-05 -0.0044388129918485324 0 -1.1316008793948884e-05 -0.0044168736142101359 0 6.6370165070297725e-05 -0.0044143086531195815 0 1.2241329116781685e-05 -0.0044253884042070434 0 -1.1316008793948884e-05 -0.0044168736142101359 0 -3.8584471236829291e-05 -0.0044388129918485324 0 -3.9780748104344621e-05 -0.0044677295243416562 0 3.9729356444812243e-05 -0.0044475534020328661 0 0.00019927033469428231 -0.0045257414956238065 0 -3.8584471236829291e-05 -0.0044388129918485324 0 3.934405212051247e-05 -0.0044446611818191855 0 -3.9780748104344621e-05 -0.0044677295243416562 0 0.00011453095400053822 -0.0044633956936342553 0 0.00032223264129007133 -0.0045671400176156363 0 0.00023932802202723192 -0.004429673514475126 0 0.00032338906639187262 -0.0042912896680460345 0 0.00032223264129007133 -0.0045671400176156363 0 0.00023932802202723192 -0.004429673514475126 0 3.934405212051247e-05 -0.0044446611818191855 0 -3.9780748104344621e-05 -0.0044677295243416562 0 0.00013648618674193583 -0.0046441306527630535 0 -0.00010975719381223295 -0.0045029992563162431 0 -3.9780748104344621e-05 -0.0044677295243416562 0 0.00013648618674193583 -0.0046441306527630535 0 -0.00010975719381223295 -0.0045029992563162431 0 -1.1316008793948884e-05 -0.0044168736142101359 0 -3.9780748104344621e-05 -0.0044677295243416562 0 0.0017383031472635137 0.0034076302035773985 0 0.0013149267319492229 0.003564831880314027 0 0.0013665302689465631 0.0039637570721991278 0 0.0017383031472635137 0.0034076302035773985 0 0.0013665302689465631 0.0039637570721991278 0 0.0019969319473658715 0.0038234712393107402 0 0.0017383031472635137 0.0034076302035773985 0 0.0013149267319492229 0.003564831880314027 0 0.0010874416855674155 0.0032062643523575809 0 0.00080186300133455247 0.0038205642112593917 0 0.0010874416855674155 0.0032062643523575809 0 0.00024921098308338155 0.0027934979695409387 0 0.0013149267319492229 0.003564831880314027 0 0.00080186300133455247 0.0038205642112593917 0 0.0010874416855674155 0.0032062643523575809 0 0.0013149267319492229 0.003564831880314027 0 0.00080186300133455247 0.0038205642112593917 0 0.0013665302689465631 0.0039637570721991278 0 0.00080186300133455247 0.0038205642112593917 0 0.0010521268600273241 0.0042506340243899437 0 0.0013665302689465631 0.0039637570721991278 0 0.0006889628497802016 0.0046296561681949643 0 0.0013557136534222758 0.0045772725005758345 0 0.0010521268600273241 0.0042506340243899437 0 0.0006889628497802016 0.0046296561681949643 0 0.00080186300133455247 0.0038205642112593917 0 0.0010521268600273241 0.0042506340243899437 0 0.0012166665576125108 0.0045591466433345888 0 0.00055050159241494816 0.0016891862036948787 0 0.0012181013717484409 0.0044293655708818594 0 0.00098374813319020019 0.0040715105444753289 0 0.0014556308460199688 0.003431351748901617 0 0.0013557136534222758 0.0045772725005758345 0 0.0013665302689465631 0.0039637570721991278 0 0.0019969319473658715 0.0038234712393107402 0 0.0013557136534222758 0.0045772725005758345 0 0.0010521268600273241 0.0042506340243899437 0 0.0013665302689465631 0.0039637570721991278 0 -0.00094857418441762742 0.00036350406487080416 0 -0.00083304015123311528 0.00022389915219796864 0 -0.00087948066002760752 0.00012331661375726482 0 0.00017917185035547098 0.0024412843930954301 0 0.00055050159241494816 0.0016891862036948787 0 -0.00083304015123311528 0.00022389915219796864 0 -0.00085660348055152397 9.3751707030585043e-05 0 -0.00087948066002760752 0.00012331661375726482 0 -0.00083304015123311528 0.00022389915219796864 0 -0.00070817597995680799 0.0001876267252347851 0 -0.00085660348055152397 9.3751707030585043e-05 0 -0.00043045683106011202 -0.0023006944628733558 0 0.00038354217839739528 -0.0010511268640258655 0 0.00015429916543412917 -0.0044452139596898674 0 0.00027990765995487474 -0.0042645380319688668 0 0.00056875325416065592 -0.0042338086751277596 0 0.00010657827645867653 -0.0043254383352526711 0 0.00015429916543412917 -0.0044452139596898674 0 0.00027990765995487474 -0.0042645380319688668 0 0.00010657827645867653 -0.0043254383352526711 0 0.00027990765995487474 -0.0042645380319688668 0 0.00031641414510727071 -0.0041344863113882413 0 0.00027990765995487474 -0.0042645380319688668 0 0.00031641414510727071 -0.0041344863113882413 0 0.00056875325416065592 -0.0042338086751277596 0 0.00031641414510727071 -0.0041344863113882413 0 0.00026800536551774132 -0.0039754101644523905 0 0.00042281214032380802 -0.0039985655958208318 0 0.00010657827645867653 -0.0043254383352526711 0 0.00031641414510727071 -0.0041344863113882413 0 0.00026800536551774132 -0.0039754101644523905 0 0.00022802273040586329 -0.0041878796401279162 0 -4.3014938758199104e-05 -0.0044257818109493018 0 0.0017383031472635137 0.0034076302035773985 0 0.0020465248169964341 0.0036165203821147732 0 0.0019969319473658715 0.0038234712393107402 0 0.0011030647106136254 0.00021463239788319929 0 0.00055050159241494816 0.0016891862036948787 0 0.0013782412460506437 -0.00041028175180101914 0 0.00074938938788422023 -0.00082693068663954321 0 0.00034334091394604154 0.00090820694552920598 0 0.00038354217839739528 -0.0010511268640258655 0 0.0011030647106136254 0.00021463239788319929 0 0.00038354217839739528 -0.0010511268640258655 0 0.00055050159241494816 0.0016891862036948787 0 0.00038354217839739528 -0.0010511268640258655 0 0.0010951715362532146 -0.0042931983687689943 0 0.00031641414510727071 -0.0041344863113882413 0 0.00056875325416065592 -0.0042338086751277596 0 0.00042281214032380802 -0.0039985655958208318 0 0.00058100151077507224 -0.0041726582510975743 0 0.00061290606901659428 -0.0041533790415845141 0 0.00042281214032380802 -0.0039985655958208318 0 0.0017383031472635137 0.0034076302035773985 0 0.0020755695129420098 0.0036201849913273711 0 0.0019270455903232981 0.0030153108532727994 0 0.0024993892521443435 0.0025935503965356893 0 0.0011030647106136254 0.00021463239788319929 0 0.0011030647106136254 0.00021463239788319929 0 0.00099521389490865196 -0.0010278048753915867 0 0.0020755695129420098 0.0036201849913273711 0 0.0019270455903232981 0.0030153108532727994 0 0.0023387050620187785 0.0025500431926425821 0 0.00061290606901659428 -0.0041533790415845141 0 0.00052131884273867257 -0.0037000765125359074 0 0.00042281214032380802 -0.0039985655958208318 0 0.0019270455903232981 0.0030153108532727994 0 0.0023387050620187785 0.0025500431926425821 0 0.0015155093089204757 0.0026293486350697564 0 0.0003833226728439204 -0.0041699590643903385 0 0.00026923279116339023 -0.0042035855724183715 0 0.0002294998911715713 -0.0041246631423085085 0 0.00012780452276043636 -0.0042964664196239325 0 0.00024199484517572215 -0.0042962108347640035 0 0.0001909438094803372 -0.0042344522618816835 0 0.00024199484517572215 -0.0042962108347640035 0 0.00026923279116339023 -0.0042035855724183715 0 0.0001909438094803372 -0.0042344522618816835 0 0.00052131884273867257 -0.0037000765125359074 0 0.00026800536551774132 -0.0039754101644523905 0 0.00042281214032380802 -0.0039985655958208318 0 0.00099521389490865196 -0.0010278048753915867 0 -4.3014938758199104e-05 -0.0044257818109493018 0 0.0003833226728439204 -0.0041699590643903385 0 0.00024199484517572215 -0.0042962108347640035 0 0.00026923279116339023 -0.0042035855724183715 0 0.00026923279116339023 -0.0042035855724183715 0 0.0001909438094803372 -0.0042344522618816835 0 0.0002294998911715713 -0.0041246631423085085 0 0.0003833226728439204 -0.0041699590643903385 0 0.0002294998911715713 -0.0041246631423085085 0 0.00035221188115277369 -0.0039432108661585112 0 0.00099521389490865196 -0.0010278048753915867 0 0.001167575241516072 0.0015735169300762919 0 0.00055938975069750501 0.00071537255959495038 0 0.0003218638098661773 0.00050251495449152555 0 0.00064834305687891001 0.00040129980413203394 0 0.00099521389490865196 -0.0010278048753915867 0 0.00046545207163331754 -0.0019101097803813291 0 0.0023387050620187785 0.0025500431926425821 0 0.0015667281975066958 0.0017554454804841184 0 0.0015155093089204757 0.0026293486350697564 0 0.0015667281975066958 0.0017554454804841184 0 0.0015155093089204757 0.0026293486350697564 0 0.00058946046082184453 0.0020839299865594236 0 0.0017383031472635137 0.0034076302035773985 0 0.0015155093089204757 0.0026293486350697564 0 0.0010874416855674155 0.0032062643523575809 0 0.0015155093089204757 0.0026293486350697564 0 0.0010874416855674155 0.0032062643523575809 0 0.00058946046082184453 0.0020839299865594236 0 0.0017383031472635137 0.0034076302035773985 0 0.0019270455903232981 0.0030153108532727994 0 0.0015155093089204757 0.0026293486350697564 0 0.0010874416855674155 0.0032062643523575809 0 0.00058946046082184453 0.0020839299865594236 0 0.00024921098308338155 0.0027934979695409387 0 0.00058946046082184453 0.0020839299865594236 0 0.00035968872223197875 0.00077977841375580161 0 -6.8843058514264426e-06 0.0011845116720850496 0 0.0015667281975066958 0.0017554454804841184 0 0.00058946046082184453 0.0020839299865594236 0 0.00035968872223197875 0.00077977841375580161 0 0.0003218638098661773 0.00050251495449152555 0 0.00035968872223197875 0.00077977841375580161 0 0.00033212716246631177 0.00024406456210277153 0 0.001167575241516072 0.0015735169300762919 0 0.00030438962397352 0.00063193686549212083 0 0.00035968872223197875 0.00077977841375580161 0 0.00033212716246631177 0.00024406456210277153 0 7.2447985743638238e-05 -0.00037727667557679092 0 0.00035968872223197875 0.00077977841375580161 0 1.9942612571393329e-05 0.00041161048409094552 0 7.2447985743638238e-05 -0.00037727667557679092 0 0.00035968872223197875 0.00077977841375580161 0 1.9942612571393329e-05 0.00041161048409094552 0 -6.8843058514264426e-06 0.0011845116720850496 0 0.00017648605829346232 -0.0038280304763563811 0 0.00018778418336036333 -0.0039816345098277351 0 0.00035221188115277369 -0.0039432108661585112 0 0.00018778418336036333 -0.0039816345098277351 0 0.0002294998911715713 -0.0041246631423085085 0 0.00035221188115277369 -0.0039432108661585112 0 0.0003218638098661773 0.00050251495449152555 0 0.00064834305687891001 0.00040129980413203394 0 0.00033212716246631177 0.00024406456210277153 0 0.00033212716246631177 0.00024406456210277153 0 0.00076497494418879223 -0.00046273208239959804 0 7.2447985743638238e-05 -0.00037727667557679092 0 0.00064834305687891001 0.00040129980413203394 0 0.00033212716246631177 0.00024406456210277153 0 0.00076497494418879223 -0.00046273208239959804 0 0.00046545207163331754 -0.0019101097803813291 0 0.0005077245357553268 -0.0020526028994779359 0 0.00017648605829346232 -0.0038280304763563811 0 0.00035221188115277369 -0.0039432108661585112 0 0.00036443901969346218 -0.0037078193460260904 0 4.5986906545997792e-05 -0.0035094443215310483 0 0.00017648605829346232 -0.0038280304763563811 0 0.00036443901969346218 -0.0037078193460260904 0 4.5986906545997792e-05 -0.0035094443215310483 0 0.00036443901969346218 -0.0037078193460260904 0 0.00025031112195368854 -0.0027518261794511937 0 0.00076497494418879223 -0.00046273208239959804 0 0.00021010084488891245 -0.0013747521608325202 0 0.00025031112195368854 -0.0027518261794511937 0 0.0005077245357553268 -0.0020526028994779359 0 0.00032637030782870543 -0.0026354637081330693 0 0.00076497494418879223 -0.00046273208239959804 0 0.00021010084488891245 -0.0013747521608325202 0 7.2447985743638238e-05 -0.00037727667557679092 0 0.00021010084488891245 -0.0013747521608325202 0 3.3278887402341908e-07 -0.0018013701920274567 0 7.2447985743638238e-05 -0.00037727667557679092 0 0.00021010084488891245 -0.0013747521608325202 0 3.3278887402341908e-07 -0.0018013701920274567 0 0.00025031112195368854 -0.0027518261794511937 0 5.7149571478555981e-07 -0.0032543659867873376 0 3.3278887402341908e-07 -0.0018013701920274567 0 0.00025031112195368854 -0.0027518261794511937 0 1.9942612571393329e-05 0.00041161048409094552 0 7.2447985743638238e-05 -0.00037727667557679092 0 -2.4580509869227554e-07 -0.00034994163990912194 0 3.3278887402341908e-07 -0.0018013701920274567 0 7.2447985743638238e-05 -0.00037727667557679092 0 -2.4580509869227554e-07 -0.00034994163990912194 0 1.9942612571393329e-05 0.00041161048409094552 0 -2.4580509869227554e-07 -0.00034994163990912194 0 -0.00011278192647670939 0.00076890769770638972 0 -2.4580509869227554e-07 -0.00034994163990912194 0 -0.00011278192647670939 0.00076890769770638972 0 -3.6621749340571376e-07 0.0011020370335562296 0 1.9942612571393329e-05 0.00041161048409094552 0 -0.00011278192647670939 0.00076890769770638972 0 -0.00022228454922691652 0.0011433203408613135 0 -0.00026894242596811087 0.0015520700397786255 0 -0.00044618356107524698 0.0015686043223706462 0 -0.00022228454922691652 0.0011433203408613135 0 -0.00011278192647670939 0.00076890769770638972 0 -0.00026894242596811087 0.0015520700397786255 0 -0.00022228454922691652 0.0011433203408613135 0 -0.00011278192647670939 0.00076890769770638972 0 -3.6621749340571376e-07 0.0011020370335562296 0 -0.00026894242596811087 0.0015520700397786255 0 -5.1865930427779904e-07 0.0025538137519122667 0 -0.00019557563825415693 0.0021973729672332292 0 -0.00026894242596811087 0.0015520700397786255 0 -3.6621749340571376e-07 0.0011020370335562296 0 -5.1865930427779904e-07 0.0025538137519122667 0 -0.00026894242596811087 0.0015520700397786255 0 -5.1865930427779904e-07 0.0025538137519122667 0 -0.00019557563825415693 0.0021973729672332292 0 -0.00010329460973154659 0.0027706553891991485 0 -0.00038768631605675644 0.0018981271448959456 0 -0.00010329460973154659 0.0027706553891991485 0 -5.7229574899478585e-05 0.0020694201843263834 0 -0.00019557563825415693 0.0021973729672332292 0 -0.00038768631605675644 0.0018981271448959456 0 -0.00010329460973154659 0.0027706553891991485 0 -0.00019557563825415693 0.0021973729672332292 0 -0.00026894242596811087 0.0015520700397786255 0 -0.00038768631605675644 0.0018981271448959456 0 -0.00026894242596811087 0.0015520700397786255 0 -0.00044618356107524698 0.0015686043223706462 0 -0.00038768631605675644 0.0018981271448959456 0 -0.00044618356107524698 0.0015686043223706462 0 -0.00038768631605675644 0.0018981271448959456 0 -0.00068147556008358592 0.0018396174678664268 0 -0.00038768631605675644 0.0018981271448959456 0 -0.00068147556008358592 0.0018396174678664268 0 -0.00030478257513619282 0.0018802314486306229 0 -0.0013147098191633184 0.0010051293972856681 0 0.0003855588626244488 0.0039136702626507043 0 -0.00027714416104648827 0.0021441334476706747 0 0.0003855588626244488 0.0039136702626507043 0 -0.0013486469772158488 0.0020073422385364745 0 -0.00068147556008358592 0.0018396174678664268 0 -0.0012900011831939266 0.0025855916045698733 0 -0.0013486469772158488 0.0020073422385364745 0 -0.00068147556008358592 0.0018396174678664268 0 -0.0014347341414493856 0.001422767518212876 0 -0.00044618356107524698 0.0015686043223706462 0 -0.00068147556008358592 0.0018396174678664268 0 -0.00022341381366434063 0.0018341446782882186 0 -0.00022341381366434063 0.0018341446782882186 0 -6.8843058514264426e-06 0.0011845116720850496 0 -0.00022228454922691652 0.0011433203408613135 0 0.00058946046082184453 0.0020839299865594236 0 -0.00022341381366434063 0.0018341446782882186 0 -6.8843058514264426e-06 0.0011845116720850496 0 1.9942612571393329e-05 0.00041161048409094552 0 -6.8843058514264426e-06 0.0011845116720850496 0 -0.00022228454922691652 0.0011433203408613135 0 -0.00044618356107524698 0.0015686043223706462 0 -0.00022341381366434063 0.0018341446782882186 0 -0.00022228454922691652 0.0011433203408613135 0 0.00049401171322360565 0.0076152983238758536 0 4.1454398473488263e-06 0.0054614596244881341 0 -1.2181368331137558e-06 0.0066738435269094922 0 -3.8983868103106783e-07 0.0054574494191014832 0 0.0017419672278310705 0.005605104767271725 0 0.00049401171322360565 0.0076152983238758536 0 4.1454398473488263e-06 0.0054614596244881341 0 0.0013818886619348294 0.007649589842571628 0 4.1454398473488263e-06 0.0054614596244881341 0 0.0013818886619348294 0.007649589842571628 0 0.0027174384967176795 0.0072737789899944161 0 0.00049401171322360565 0.0076152983238758536 0 0.0013818886619348294 0.007649589842571628 0 0.0015119497462480229 0.009009080694825344 0 0.0013818886619348294 0.007649589842571628 0 0.0027174384967176795 0.0072737789899944161 0 0.0021704292748500722 0.0083467748985104617 0 0.0027174384967176795 0.0072737789899944161 0 0.0041582877872573479 0.0086234466425362984 0 0.0029060186348682988 0.0084151333811980367 0 0.0027174384967176795 0.0072737789899944161 0 0.0029060186348682988 0.0084151333811980367 0 0.0021704292748500722 0.0083467748985104617 0 9.100697396347721e-07 0.0054568572475569383 0 0.00024080518762858394 0.0033405912390431333 0 -5.856781480103098e-10 0.0040057901272430654 0 0.00024080518762858394 0.0033405912390431333 0 -5.856781480103098e-10 0.0040057901272430654 0 -0.00010329460973154659 0.0027706553891991485 0 -5.1865930427779904e-07 0.0025538137519122667 0 -5.856781480103098e-10 0.0040057901272430654 0 -0.00010329460973154659 0.0027706553891991485 0 0.00024080518762858394 0.0033405912390431333 0 -0.00010329460973154659 0.0027706553891991485 0 -5.7229574899478585e-05 0.0020694201843263834 0 0.0017419672278310705 0.005605104767271725 0 0.0003855588626244488 0.0039136702626507043 0 -0.0014347341414493856 0.001422767518212876 0 -0.0017823165950370864 0.0019510333741360039 0 -0.0022708340314862032 0.0017973827893602475 0 -0.0013486469772158488 0.0020073422385364745 0 -0.0014347341414493856 0.001422767518212876 0 -0.0017823165950370864 0.0019510333741360039 0 -0.0013486469772158488 0.0020073422385364745 0 -0.0017823165950370864 0.0019510333741360039 0 -0.0017689033649513294 0.0023415490472759501 0 -0.0017823165950370864 0.0019510333741360039 0 -0.0021396902245383272 0.0022156997520420257 0 -0.0022708340314862032 0.0017973827893602475 0 -0.0017823165950370864 0.0019510333741360039 0 -0.0021396902245383272 0.0022156997520420257 0 -0.0017689033649513294 0.0023415490472759501 0 -0.0021396902245383272 0.0022156997520420257 0 -0.0022708340314862032 0.0017973827893602475 0 -0.0025616222383249383 0.0022782772188193064 0 0.0003855588626244488 0.0039136702626507043 0 -4.2459721380722452e-06 0.0053876937506145209 0 0.0041582877872573479 0.0086234466425362984 0 0.0023324919648158066 0.0092925831620915157 0 0.0029060186348682988 0.0084151333811980367 0 0.0023324919648158066 0.0092925831620915157 0 0.0029060186348682988 0.0084151333811980367 0 0.0021704292748500722 0.0083467748985104617 0 0.0013818886619348294 0.007649589842571628 0 0.0021704292748500722 0.0083467748985104617 0 0.0015119497462480229 0.009009080694825344 0 0.0023324919648158066 0.0092925831620915157 0 0.0021704292748500722 0.0083467748985104617 0 0.0015119497462480229 0.009009080694825344 0 0.0023324919648158066 0.0092925831620915157 0 0.0015119497462480229 0.009009080694825344 0 0.00071177419787679349 0.0098476183897254974 0 -4.2459721380722452e-06 0.0053876937506145209 0 0.0001356498001888111 0.008315100976284755 0 -0.0022708340314862032 0.0017973827893602475 0 -0.0025616222383249383 0.0022782772188193064 0 -0.0031075520768431763 0.00217239560548704 0 0.0013556756738275027 0.0094265666973169741 0 0.0001356498001888111 0.008315100976284755 0 -0.0025616222383249383 0.0022782772188193064 0 -0.0031075520768431763 0.00217239560548704 0 -0.0029265891337452599 0.0024094163122844129 0 -0.0031075520768431763 0.00217239560548704 0 -0.0031612787753121283 0.0024754591095838018 0 -0.0029265891337452599 0.0024094163122844129 0 0.0001356498001888111 0.008315100976284755 0 0.00065197352967197417 0.01011405258142359 0 0.0001356498001888111 0.008315100976284755 0 0.00056248078851945586 0.008750955067670145 0 0.0017266384019610486 0.010356842940549959 0 0.00088652612104309634 0.011173818121772483 0 0.00062274731911206684 0.010762925583868169 0 0.0017266384019610486 0.010356842940549959 0 0.00085923120104645023 0.011339574781189002 0 0.00088652612104309634 0.011173818121772483 0 -0.0031075520768431763 0.00217239560548704 0 -0.0031612787753121283 0.0024754591095838018 0 -0.0034226039591951102 0.0025276653366336672 0 0.0010572821876701859 0.010149478903964813 0 0.00065802919523835768 0.0098944600693630837 0 0.00062274731911206684 0.010762925583868169 0 0.0010572821876701859 0.010149478903964813 0 0.00085314921256760521 0.0091739689904802423 0 0.00065802919523835768 0.0098944600693630837 0 0.00049401171322360565 0.0076152983238758536 0 0.0015119497462480229 0.009009080694825344 0 0.00085314921256760521 0.0091739689904802423 0 0.00085314921256760521 0.0091739689904802423 0 0.00025930092031479249 0.0089335684840151502 0 0.00065802919523835768 0.0098944600693630837 0 0.00049401171322360565 0.0076152983238758536 0 0.00085314921256760521 0.0091739689904802423 0 0.00025930092031479249 0.0089335684840151502 0 0.0015119497462480229 0.009009080694825344 0 0.0010572821876701859 0.010149478903964813 0 0.00085314921256760521 0.0091739689904802423 0 -0.003181159824174024 0.0034415472937134738 0 -0.0031938633609275339 0.0030422322304476395 0 -0.0035698551257390505 0.0032929189391358248 0 -0.003181159824174024 0.0034415472937134738 0 -0.0029771775439342563 0.0030909895803038004 0 -0.0027833331557795254 0.0032914681720435774 0 -0.0029771775439342563 0.0030909895803038004 0 -0.0029924585887015141 0.0028189689720934789 0 -0.0027505098064288811 0.0028787925336288666 0 -0.0029771775439342563 0.0030909895803038004 0 -0.0031938633609275339 0.0030422322304476395 0 -0.0029924585887015141 0.0028189689720934789 0 -0.003181159824174024 0.0034415472937134738 0 -0.0029771775439342563 0.0030909895803038004 0 -0.0031938633609275339 0.0030422322304476395 0 -0.0031938633609275339 0.0030422322304476395 0 -0.0032339868865159755 0.0027848057447357158 0 -0.0035698551257390505 0.0032929189391358248 0 -0.0031938633609275339 0.0030422322304476395 0 -0.0032339868865159755 0.0027848057447357158 0 -0.0029924585887015141 0.0028189689720934789 0 -0.0032339868865159755 0.0027848057447357158 0 -0.0031612787753121283 0.0024754591095838018 0 -0.0034226039591951102 0.0025276653366336672 0 -0.0032339868865159755 0.0027848057447357158 0 -0.0031612787753121283 0.0024754591095838018 0 -0.0030221852705814576 0.0025628498770277511 0 -0.0029265891337452599 0.0024094163122844129 0 -0.0030221852705814576 0.0025628498770277511 0 -0.00277981915585489 0.0025598689529506757 0 -0.0031612787753121283 0.0024754591095838018 0 -0.0029265891337452599 0.0024094163122844129 0 -0.0030221852705814576 0.0025628498770277511 0 -0.0030221852705814576 0.0025628498770277511 0 -0.0029924585887015141 0.0028189689720934789 0 -0.00277981915585489 0.0025598689529506757 0 -0.0032339868865159755 0.0027848057447357158 0 -0.0030221852705814576 0.0025628498770277511 0 -0.0029924585887015141 0.0028189689720934789 0 -0.0029924585887015141 0.0028189689720934789 0 -0.0027505098064288811 0.0028787925336288666 0 -0.00277981915585489 0.0025598689529506757 0 -0.0027505098064288811 0.0028787925336288666 0 -0.00277981915585489 0.0025598689529506757 0 -0.0025550317604043291 0.0026697002950556753 0 -0.0025616222383249383 0.0022782772188193064 0 -0.00277981915585489 0.0025598689529506757 0 -0.0025550317604043291 0.0026697002950556753 0 -0.0025616222383249383 0.0022782772188193064 0 -0.0029265891337452599 0.0024094163122844129 0 -0.00277981915585489 0.0025598689529506757 0 -0.0025616222383249383 0.0022782772188193064 0 -0.0025550317604043291 0.0026697002950556753 0 -0.002220173633072719 0.0026358075055736298 0 -0.0027505098064288811 0.0028787925336288666 0 -0.0025550317604043291 0.0026697002950556753 0 -0.0024646751895806441 0.002999367337827792 0 -0.0025550317604043291 0.0026697002950556753 0 -0.0024646751895806441 0.002999367337827792 0 -0.002220173633072719 0.0026358075055736298 0 -0.0027505098064288811 0.0028787925336288666 0 -0.0024646751895806441 0.002999367337827792 0 -0.0027833331557795254 0.0032914681720435774 0 -0.0029771775439342563 0.0030909895803038004 0 -0.0027505098064288811 0.0028787925336288666 0 -0.0027833331557795254 0.0032914681720435774 0 -0.0024646751895806441 0.002999367337827792 0 -0.0027833331557795254 0.0032914681720435774 0 -0.0023617028483707736 0.0034724380970479122 0 -0.0020862611250757369 0.0033286275615163475 0 -0.0021557498332421651 0.0030968620738101279 0 -0.0023617028483707736 0.0034724380970479122 0 -0.0024646751895806441 0.002999367337827792 0 -0.0021557498332421651 0.0030968620738101279 0 -0.0023617028483707736 0.0034724380970479122 0 -0.0020862611250757369 0.0033286275615163475 0 -0.0021557498332421651 0.0030968620738101279 0 -0.0018619254228245546 0.003248056530183497 0 -0.0020862611250757369 0.0033286275615163475 0 -0.0018619254228245546 0.003248056530183497 0 -0.0019888211050167956 0.0034794575180841854 0 -0.0021557498332421651 0.0030968620738101279 0 -0.002220173633072719 0.0026358075055736298 0 -0.0018179575047890376 0.0028486215194845972 0 -0.0021557498332421651 0.0030968620738101279 0 -0.0018179575047890376 0.0028486215194845972 0 -0.0018619254228245546 0.003248056530183497 0 -0.0024646751895806441 0.002999367337827792 0 -0.0021557498332421651 0.0030968620738101279 0 -0.002220173633072719 0.0026358075055736298 0 -0.0021396902245383272 0.0022156997520420257 0 -0.0025616222383249383 0.0022782772188193064 0 -0.002220173633072719 0.0026358075055736298 0 -0.0021396902245383272 0.0022156997520420257 0 -0.002220173633072719 0.0026358075055736298 0 -0.0017689033649513294 0.0023415490472759501 0 -0.002220173633072719 0.0026358075055736298 0 -0.0017689033649513294 0.0023415490472759501 0 -0.0018179575047890376 0.0028486215194845972 0 -0.0017689033649513294 0.0023415490472759501 0 -0.0018179575047890376 0.0028486215194845972 0 -0.0012900011831939266 0.0025855916045698733 0 -0.0013486469772158488 0.0020073422385364745 0 -0.0017689033649513294 0.0023415490472759501 0 -0.0012900011831939266 0.0025855916045698733 0 -0.0018179575047890376 0.0028486215194845972 0 -0.0016162513121546988 0.0031553857183637792 0 -0.0012900011831939266 0.0025855916045698733 0 -0.0018619254228245546 0.003248056530183497 0 -0.0016162513121546988 0.0031553857183637792 0 -0.001833089664155179 0.0035998796534010584 0 -0.0018179575047890376 0.0028486215194845972 0 -0.0018619254228245546 0.003248056530183497 0 -0.0016162513121546988 0.0031553857183637792 0 -0.0016162513121546988 0.0031553857183637792 0 -0.0019003569434507537 0.0035723350021206164 0 -0.0011667200185260967 0.0032948352529357555 0 -0.00079303927970037034 0.0060086127904915715 0 -0.00039642657480889635 0.0044063269923919771 0 -0.0012688314847209908 0.0029528190978051943 0 -0.00079303927970037034 0.0060086127904915715 0 0.00030275109018907407 0.0052086893045010839 0 0.00040377947979701088 0.0054966173052827406 0 0.00036127585798881328 0.0053977491733480758 0 0.00030275109018907407 0.0052086893045010839 0 0.00040377947979701088 0.0054966173052827406 0 0.00046630221810739888 0.0058924834985366716 0 -0.00079303927970037034 0.0060086127904915715 0 -0.00081398437042326792 0.0092889007362409893 0 0.00030275109018907407 0.0052086893045010839 0 0.00046630221810739888 0.0058924834985366716 0 -0.00040258241189058264 0.0059218978264185705 0 -0.00049225974530664896 0.010650741876433932 0 -0.0013229696128422774 0.011058859433998841 0 -0.0012893832532459022 0.011882669291715589 0 -0.00049225974530664896 0.010650741876433932 0 -0.00092124009450956753 0.010521363934362638 0 -0.0013229696128422774 0.011058859433998841 0 -0.001833089664155179 0.0035998796534010584 0 -0.0021083842300362882 0.003512450229757515 0 -0.0019888211050167956 0.0034794575180841854 0 -0.0018619254228245546 0.003248056530183497 0 -0.001833089664155179 0.0035998796534010584 0 -0.0019888211050167956 0.0034794575180841854 0 -0.00079303927970037034 0.0060086127904915715 0 -0.0016263711744392314 0.0053228373665150349 0 -0.0016263711744392314 0.0053228373665150349 0 -0.001673117218290044 0.0050534579651723768 0 -0.0020862611250757369 0.0033286275615163475 0 -0.0021032155110684314 0.0035172240521145889 0 -0.0019888211050167956 0.0034794575180841854 0 -0.0020862611250757369 0.0033286275615163475 0 -0.0021032155110684314 0.0035172240521145889 0 -0.0023617028483707736 0.0034724380970479122 0 -0.0016263711744392314 0.0053228373665150349 0 -0.002547150517069538 0.0041268572037198451 0 -0.0016263711744392314 0.0053228373665150349 0 -0.0028653537077129891 0.00735442346032757 0 -0.00092124009450956753 0.010521363934362638 0 -0.0013229696128422774 0.011058859433998841 0 -0.0020048845570561995 0.010881720087118326 0 -0.0020649638120571277 0.0035668308050968815 0 -0.0023617028483707736 0.0034724380970479122 0 -0.0028788841085374021 0.003836337574740183 0 -0.0027833331557795254 0.0032914681720435774 0 -0.0023617028483707736 0.0034724380970479122 0 -0.0028788841085374021 0.003836337574740183 0 -0.0013229696128422774 0.011058859433998841 0 -0.001839913972451903 0.011357275120059509 0 -0.0012893832532459022 0.011882669291715589 0 -0.0013229696128422774 0.011058859433998841 0 -0.001839913972451903 0.011357275120059509 0 -0.0020048845570561995 0.010881720087118326 0 -0.001839913972451903 0.011357275120059509 0 -0.0012893832532459022 0.011882669291715589 0 -0.0019736882779696012 0.011850722408774111 0 -0.001839913972451903 0.011357275120059509 0 -0.0023459375859343494 0.011545472244376397 0 -0.0020048845570561995 0.010881720087118326 0 -0.0023459375859343494 0.011545472244376397 0 -0.0020048845570561995 0.010881720087118326 0 -0.0029371422936822688 0.011162624259507745 0 -0.001839913972451903 0.011357275120059509 0 -0.0023459375859343494 0.011545472244376397 0 -0.0019736882779696012 0.011850722408774111 0 -0.003181159824174024 0.0034415472937134738 0 -0.0028788841085374021 0.003836337574740183 0 -0.0036943173768275266 0.0041159891383386014 0 -0.0028653537077129891 0.00735442346032757 0 -0.0010398094262065484 0.0098138033571118673 0 -0.003181159824174024 0.0034415472937134738 0 -0.0027833331557795254 0.0032914681720435774 0 -0.0028788841085374021 0.003836337574740183 0 0.00024921098308338155 0.0027934979695409387 0 -0.00055612421297042305 0.00258903487059627 0 -0.0002866087825286191 0.0034951266816144557 0 0.00058946046082184453 0.0020839299865594236 0 -0.00022341381366434063 0.0018341446782882186 0 0.00024921098308338155 0.0027934979695409387 0 -0.00022341381366434063 0.0018341446782882186 0 0.00024921098308338155 0.0027934979695409387 0 -0.00055612421297042305 0.00258903487059627 0 -0.00068147556008358592 0.0018396174678664268 0 -0.00055612421297042305 0.00258903487059627 0 -0.0012900011831939266 0.0025855916045698733 0 -0.00068147556008358592 0.0018396174678664268 0 -0.00022341381366434063 0.0018341446782882186 0 -0.00055612421297042305 0.00258903487059627 0 -0.0016162513121546988 0.0031553857183637792 0 -0.0012900011831939266 0.0025855916045698733 0 -0.0011667200185260967 0.0032948352529357555 0 -0.00055612421297042305 0.00258903487059627 0 -0.0012900011831939266 0.0025855916045698733 0 -0.0011667200185260967 0.0032948352529357555 0 -0.00055612421297042305 0.00258903487059627 0 -0.0011667200185260967 0.0032948352529357555 0 -0.0002866087825286191 0.0034951266816144557 0 -0.0011667200185260967 0.0032948352529357555 0 -0.0011024814346193704 0.003949609067648175 0 -0.0002866087825286191 0.0034951266816144557 0 -0.0019003569434507537 0.0035723350021206164 0 -0.0011667200185260967 0.0032948352529357555 0 -0.0011024814346193704 0.003949609067648175 0 0.00036127585798881328 0.0053977491733480758 0 0.00018968507390787313 0.0051528629150750993 0 0.00036175081218147261 0.005458124182555822 0 0.00040377947979701088 0.0054966173052827406 0 0.00036127585798881328 0.0053977491733480758 0 0.00036175081218147261 0.005458124182555822 0 -0.0011024814346193704 0.003949609067648175 0 3.6221988676021536e-05 0.0046494325989621414 0 -0.0002866087825286191 0.0034951266816144557 0 0.00036127585798881328 0.0053977491733480758 0 3.6221988676021536e-05 0.0046494325989621414 0 0.00018968507390787313 0.0051528629150750993 0 -0.00039642657480889635 0.0044063269923919771 0 9.0352766717571476e-05 0.0047632510566043692 0 0.00080186300133455247 0.0038205642112593917 0 3.6221988676021536e-05 0.0046494325989621414 0 -0.0002866087825286191 0.0034951266816144557 0 0.00080186300133455247 0.0038205642112593917 0 0.00024921098308338155 0.0027934979695409387 0 -0.0002866087825286191 0.0034951266816144557 0 0.0006889628497802016 0.0046296561681949643 0 0.00080186300133455247 0.0038205642112593917 0 3.6221988676021536e-05 0.0046494325989621414 0 0.0006889628497802016 0.0046296561681949643 0 0.00077125153546408044 0.0050735665745233281 0 0.00036426521163406337 0.0050380576668542509 0 0.0006889628497802016 0.0046296561681949643 0 3.6221988676021536e-05 0.0046494325989621414 0 0.00036426521163406337 0.0050380576668542509 0 3.6221988676021536e-05 0.0046494325989621414 0 0.00018356443165983284 0.0050852606839202445 0 0.00036426521163406337 0.0050380576668542509 0 3.6221988676021536e-05 0.0046494325989621414 0 0.00018356443165983284 0.0050852606839202445 0 0.00018968507390787313 0.0051528629150750993 0 0.00018356443165983284 0.0050852606839202445 0 0.0002646856907354033 0.0051795026920794874 0 0.00020349595929883399 0.0051430255191592857 0 0.00018356443165983284 0.0050852606839202445 0 0.00036426521163406337 0.0050380576668542509 0 0.0002646856907354033 0.0051795026920794874 0 0.00077125153546408044 0.0050735665745233281 0 0.00036426521163406337 0.0050380576668542509 0 0.00041513390452717759 0.0052021541525584707 0 0.00036426521163406337 0.0050380576668542509 0 0.00041513390452717759 0.0052021541525584707 0 0.0002646856907354033 0.0051795026920794874 0 0.00041513390452717759 0.0052021541525584707 0 0.0002646856907354033 0.0051795026920794874 0 0.00033119113788964664 0.0054019717189637152 0 0.0002646856907354033 0.0051795026920794874 0 0.00033119113788964664 0.0054019717189637152 0 0.00019933622425041253 0.0052404455476291883 0 0.00023175766868853423 0.0059007253959031522 0 0.0024313110338419555 0.0079315715453317417 0 0.00060520892480684957 0.0067415180206187118 0 0.00099489471259438548 0.0066177134776388685 0 0.002365380957839273 0.0079495396742117249 0 0.00095486097618138288 0.0080358635041738215 0 0.0024313110338419555 0.0079315715453317417 0 0.00023175766868853423 0.0059007253959031522 0 0.00095486097618138288 0.0080358635041738215 0 1.2903048749867344e-05 0.0047166466936399525 0 0.00023175766868853423 0.0059007253959031522 0 0.0005518000869248965 0.0053716604198168266 0 0.00041513390452717759 0.0052021541525584707 0 0.00033119113788964664 0.0054019717189637152 0 -0.00083991297746909292 0.0040595585221252072 0 -9.5187096787286893e-05 0.0038439794443134775 0 -0.00069133726693279887 0.0034240982575336806 0 0.0024170411190053568 0.0096689625753158988 0 0.0014723164952358896 0.010190822678097813 0 0.0029653080428037938 0.010735613722670281 0 0.0024170411190053568 0.0096689625753158988 0 0.0015937786068192638 0.0092769593902833469 0 0.0014723164952358896 0.010190822678097813 0 0.004267227212464168 0.010263621810071543 0 0.0034115156191864512 0.0093922267206523243 0 0.0029653080428037938 0.010735613722670281 0 0.0024170411190053568 0.0096689625753158988 0 0.0034115156191864512 0.0093922267206523243 0 0.0029653080428037938 0.010735613722670281 0 0.0002646856907354033 0.0051795026920794874 0 0.00019933622425041253 0.0052404455476291883 0 0.00020349595929883399 0.0051430255191592857 0 0.0024170411190053568 0.0096689625753158988 0 0.0034115156191864512 0.0093922267206523243 0 0.0025807229908245185 0.0087390025640769337 0 0.0024313110338419555 0.0079315715453317417 0 0.0012217651754694277 0.0063884089284349261 0 0.0024313110338419555 0.0079315715453317417 0 0.0029710565803460856 0.0088580731290676725 0 0.0039443952012573197 0.0093874005029939804 0 0.0028934168261610963 0.0086597469015220561 0 0.0024159142330300088 0.0078874332904689468 0 0.00019933622425041253 0.0052404455476291883 0 0.00028096682692252054 0.0051494665932293434 0 0.00020349595929883399 0.0051430255191592857 0 0.0025807229908245185 0.0087390025640769337 0 0.0015937786068192638 0.0092769593902833469 0 0.0014881577669562439 0.0085641222604277666 0 0.0024170411190053568 0.0096689625753158988 0 0.0025807229908245185 0.0087390025640769337 0 0.0015937786068192638 0.0092769593902833469 0 0.0029710565803460856 0.0088580731290676725 0 0.0017187546020291686 0.007962091307098065 0 0.0025807229908245185 0.0087390025640769337 0 0.001705977752045591 0.0079352189005521736 0 0.0014881577669562439 0.0085641222604277666 0 0.0028934168261610963 0.0086597469015220561 0 0.0024159142330300088 0.0078874332904689468 0 0.001705977752045591 0.0079352189005521736 0 0.0024159142330300088 0.0078874332904689468 0 0.001705977752045591 0.0079352189005521736 0 0.001263842883906707 0.0074491115340523887 0 0.00028096682692252054 0.0051494665932293434 0 0.00020349595929883399 0.0051430255191592857 0 0.00018968507390787313 0.0051528629150750993 0 0.00018356443165983284 0.0050852606839202445 0 0.00020349595929883399 0.0051430255191592857 0 0.00018968507390787313 0.0051528629150750993 0 0.00028096682692252054 0.0051494665932293434 0 0.00018968507390787313 0.0051528629150750993 0 0.00036175081218147261 0.005458124182555822 0 0.00028096682692252054 0.0051494665932293434 0 0.00036175081218147261 0.005458124182555822 0 0.00046630221810739888 0.0058924834985366716 0 0.00040377947979701088 0.0054966173052827406 0 0.00036175081218147261 0.005458124182555822 0 0.00046630221810739888 0.0058924834985366716 0 0.0012217651754694277 0.0063884089284349261 0 0.00055231907160456885 0.0059420118587591875 0 0.00046630221810739888 0.0058924834985366716 0 0.001263842883906707 0.0074491115340523887 0 0.00060477407483144495 0.0074893050859721252 0 0.00046630221810739888 0.0058924834985366716 0 -4.9991674479114544e-05 0.0069714354432802881 0 0.00060477407483144495 0.0074893050859721252 0 0.00046630221810739888 0.0058924834985366716 0 -0.00040258241189058264 0.0059218978264185705 0 -4.9991674479114544e-05 0.0069714354432802881 0 -0.00040258241189058264 0.0059218978264185705 0 -4.9991674479114544e-05 0.0069714354432802881 0 -0.00053137113475403431 0.007576388312915714 0 -4.9991674479114544e-05 0.0069714354432802881 0 3.0337318966538292e-05 0.0080797930032999368 0 0.00060477407483144495 0.0074893050859721252 0 -4.9991674479114544e-05 0.0069714354432802881 0 3.0337318966538292e-05 0.0080797930032999368 0 -0.00053137113475403431 0.007576388312915714 0 3.0337318966538292e-05 0.0080797930032999368 0 -0.00053137113475403431 0.007576388312915714 0 -0.00068591023009099148 0.0086638573244310121 0 3.0337318966538292e-05 0.0080797930032999368 0 0.00060477407483144495 0.0074893050859721252 0 0.00087857826965728389 0.0085523511128599902 0 0.0024159142330300088 0.0078874332904689468 0 0.00046630221810739888 0.0058924834985366716 0 0.001263842883906707 0.0074491115340523887 0 0.0011921510588098437 0.0079927088017253418 0 0.00060477407483144495 0.0074893050859721252 0 0.00087857826965728389 0.0085523511128599902 0 0.001705977752045591 0.0079352189005521736 0 0.0011921510588098437 0.0079927088017253418 0 0.0014881577669562439 0.0085641222604277666 0 0.0011921510588098437 0.0079927088017253418 0 0.0014881577669562439 0.0085641222604277666 0 0.00087857826965728389 0.0085523511128599902 0 0.001705977752045591 0.0079352189005521736 0 0.0011921510588098437 0.0079927088017253418 0 0.001263842883906707 0.0074491115340523887 0 0.0011921510588098437 0.0079927088017253418 0 0.001263842883906707 0.0074491115340523887 0 0.00060477407483144495 0.0074893050859721252 0 -0.0023850444470720576 0.012058361096831101 0 -0.0020002140045102695 0.012360161619680694 0 -0.0025849609002417204 0.012473387128573397 0 -0.0023459375859343494 0.011545472244376397 0 -0.0023850444470720576 0.012058361096831101 0 -0.0019736882779696012 0.011850722408774111 0 -0.0023850444470720576 0.012058361096831101 0 -0.0019736882779696012 0.011850722408774111 0 -0.0020002140045102695 0.012360161619680694 0 -0.00081398437042326792 0.0092889007362409893 0 -0.0017790642699228221 0.01027248601420209 0 -0.0012893832532459022 0.011882669291715589 0 -0.0019736882779696012 0.011850722408774111 0 -0.0020002140045102695 0.012360161619680694 0 -0.0012893832532459022 0.011882669291715589 0 -0.0020002140045102695 0.012360161619680694 0 -0.0021200967859905015 0.012500607137109874 0 -0.00040258241189058264 0.0059218978264185705 0 -0.00053137113475403431 0.007576388312915714 0 -0.0016239213366920418 0.0083129100478826073 0 -0.00053137113475403431 0.007576388312915714 0 -0.0016239213366920418 0.0083129100478826073 0 -0.00068591023009099148 0.0086638573244310121 0 -0.0021200967859905015 0.012500607137109874 0 -0.0015293370958939119 0.012037659879071034 0 -0.0015929694531552003 0.012725908383842651 0 -0.0020002140045102695 0.012360161619680694 0 -0.0021200967859905015 0.012500607137109874 0 -0.0015929694531552003 0.012725908383842651 0 -0.001897463275815512 0.012418344117239235 0 -0.0022713636432484269 0.012637226549242171 0 -0.0016239213366920418 0.0083129100478826073 0 -0.0012745144697590338 0.0095277303485482023 0 -0.0016664702448971798 0.010804318865743011 0 -0.0021200967859905015 0.012500607137109874 0 -0.0016664702448971798 0.010804318865743011 0 -0.0015293370958939119 0.012037659879071034 0 -0.0017790642699228221 0.01027248601420209 0 -0.001688963102004361 0.010733774423935079 0 -0.0012745144697590338 0.0095277303485482023 0 -0.00075340369756184773 0.0094900691774486342 0 -0.0012656666483208115 0.010267286374359896 0 -0.0016239213366920418 0.0083129100478826073 0 -0.0012745144697590338 0.0095277303485482023 0 -0.00068591023009099148 0.0086638573244310121 0 -0.0012745144697590338 0.0095277303485482023 0 -0.00068591023009099148 0.0086638573244310121 0 -0.00075340369756184773 0.0094900691774486342 0 -0.00068591023009099148 0.0086638573244310121 0 -0.00075340369756184773 0.0094900691774486342 0 -7.1767234071479748e-05 0.0091413452761629488 0 -0.00049747435568602515 0.010111930086910956 0 -0.00096612753355285956 0.010646639858947283 0 -4.6982771691113556e-05 0.010679146597673378 0 -0.00075340369756184773 0.0094900691774486342 0 -0.00049747435568602515 0.010111930086910956 0 -0.0012656666483208115 0.010267286374359896 0 -0.00049747435568602515 0.010111930086910956 0 -0.00096612753355285956 0.010646639858947283 0 -0.0012656666483208115 0.010267286374359896 0 -0.00096612753355285956 0.010646639858947283 0 -0.0012656666483208115 0.010267286374359896 0 -0.0016343691056755593 0.010774707952170769 0 -0.0012745144697590338 0.0095277303485482023 0 -0.0012656666483208115 0.010267286374359896 0 -0.0016664702448971798 0.010804318865743011 0 -0.0012656666483208115 0.010267286374359896 0 -0.0016343691056755593 0.010774707952170769 0 -0.0016664702448971798 0.010804318865743011 0 0.0015937786068192638 0.0092769593902833469 0 0.00087857826965728389 0.0085523511128599902 0 0.00059535142032390821 0.009718429454211204 0 0.0015937786068192638 0.0092769593902833469 0 0.0014881577669562439 0.0085641222604277666 0 0.00087857826965728389 0.0085523511128599902 0 0.00087857826965728389 0.0085523511128599902 0 -7.1767234071479748e-05 0.0091413452761629488 0 0.00059535142032390821 0.009718429454211204 0 3.0337318966538292e-05 0.0080797930032999368 0 0.00087857826965728389 0.0085523511128599902 0 -7.1767234071479748e-05 0.0091413452761629488 0 3.0337318966538292e-05 0.0080797930032999368 0 -0.00068591023009099148 0.0086638573244310121 0 -7.1767234071479748e-05 0.0091413452761629488 0 -0.00075340369756184773 0.0094900691774486342 0 -0.00049747435568602515 0.010111930086910956 0 -7.1767234071479748e-05 0.0091413452761629488 0 -0.00049747435568602515 0.010111930086910956 0 -7.1767234071479748e-05 0.0091413452761629488 0 0.00059535142032390821 0.009718429454211204 0 -0.00049747435568602515 0.010111930086910956 0 0.00059535142032390821 0.009718429454211204 0 -4.6982771691113556e-05 0.010679146597673378 0 0.00051406486657487626 0.0098434562452051344 0 9.8714889728634074e-05 0.010585732068784708 0 0.00059535142032390821 0.009718429454211204 0 0.0014723164952358896 0.010190822678097813 0 9.6008468432754682e-05 0.010576393391159972 0 0.0015937786068192638 0.0092769593902833469 0 0.00059535142032390821 0.009718429454211204 0 0.0014723164952358896 0.010190822678097813 0 0.0014723164952358896 0.010190822678097813 0 0.0015652889449027864 0.011228565877491391 0 9.6008468432754682e-05 0.010576393391159972 0 0.0011136162260788061 0.010004985153563717 0 0.0004257808451682332 0.011088555756683502 0 9.6008468432754682e-05 0.010576393391159972 0 0.00018164253494825245 0.011682546682678624 0 -0.00041862074118960673 0.011456727629404466 0 0.0015652889449027864 0.011228565877491391 0 9.6008468432754682e-05 0.010576393391159972 0 0.00018164253494825245 0.011682546682678624 0 9.8714889728634074e-05 0.010585732068784708 0 0.0012340347171005146 0.012722929419176649 0 -4.6012761934519234e-05 0.0122129280044371 0 0.00038090115923539077 0.012086014100160252 0 -2.5384543638896486e-05 0.011570965034985859 0 0.0004257808451682332 0.011088555756683502 0 0.0012340347171005146 0.012722929419176649 0 0.0004257808451682332 0.011088555756683502 0 0.001937988840106916 0.013223355344128843 0 0.00052644660224952279 0.0089836794773390551 0 0.0011607381043230065 0.0088047822806539347 0 0.00043721156083944987 0.0084868320223532908 0 -4.6012761934519234e-05 0.0122129280044371 0 -2.5384543638896486e-05 0.011570965034985859 0 -0.00076680773814119768 0.011929179419485037 0 0.0004257808451682332 0.011088555756683502 0 -0.00018728591688246999 0.010123306332247513 0 0.0041535874466667672 0.014732705883341149 0 0.0042621098387731846 0.015018751332320791 0 0.0039480671877948721 0.0149320838466446 0 0.0041535874466667672 0.014732705883341149 0 0.0045962048355591119 0.014928558658782924 0 0.0042621098387731846 0.015018751332320791 0 -0.00096612753355285956 0.010646639858947283 0 -0.0016343691056755593 0.010774707952170769 0 -0.0005600454250868506 0.011386476089430617 0 0.001477094369737073 0.012831219266268906 0 0.0012340347171005146 0.012722929419176649 0 -0.00096612753355285956 0.010646639858947283 0 -4.6982771691113556e-05 0.010679146597673378 0 -0.0005600454250868506 0.011386476089430617 0 0.0045962048355591119 0.014928558658782924 0 0.004502826159760203 0.015100492080753649 0 0.0042621098387731846 0.015018751332320791 0 0.0012340347171005146 0.012722929419176649 0 0.001937988840106916 0.013223355344128843 0 0.00088290078725007724 0.012315060365464356 0 0.0012211304262441738 0.012447121920118823 0 0.0013991765638996032 0.012159689710287564 0 0.001937988840106916 0.013223355344128843 0 0.0015981299614885299 0.012662208839453843 0 0.001937988840106916 0.013223355344128843 0 0.0035604743865929296 0.014674937603662584 0 0.0022254212430387189 0.014089267274973078 0 0.0026049456490895096 0.013982719083689634 0 0.002383498870641482 0.01383406589074905 0 0.004502826159760203 0.015100492080753649 0 0.0042621098387731846 0.015018751332320791 0 0.0041218031831789922 0.01530486908178854 0 0.0042621098387731846 0.015018751332320791 0 0.0041218031831789922 0.01530486908178854 0 0.0039480671877948721 0.0149320838466446 0 0.0026049456490895096 0.013982719083689634 0 0.0026296440334446065 0.013813888242164195 0 0.002383498870641482 0.01383406589074905 0 0.0015981299614885299 0.012662208839453843 0 0.0016272153291048716 0.01367858764948517 0 0.0026296440334446065 0.013813888242164195 0 0.002383498870641482 0.01383406589074905 0 0.0025403305968614881 0.013568203668892786 0 0.00038090115923539077 0.012086014100160252 0 0.0006197303485111689 0.011698306803597732 0 -2.5384543638896486e-05 0.011570965034985859 0 0.0006197303485111689 0.011698306803597732 0 0.00041864637187867418 0.011365815327948054 0 -2.5384543638896486e-05 0.011570965034985859 0 0.0006197303485111689 0.011698306803597732 0 0.00041864637187867418 0.011365815327948054 0 0.00086438542131924605 0.011312081669541346 0 0.00041864637187867418 0.011365815327948054 0 -2.5384543638896486e-05 0.011570965034985859 0 0.00021628740919597012 0.010879432158304675 0 0.00041864637187867418 0.011365815327948054 0 0.00086438542131924605 0.011312081669541346 0 0.00021628740919597012 0.010879432158304675 0 0.0016272153291048716 0.01367858764948517 0 -0.00010841817908942685 0.012399877111790133 0 0.0013994049847519793 0.015175314652874906 0 -0.00038049537551150157 0.013957254176634777 0 0.0010312173778468776 0.013581192399242083 0 0.0016272153291048716 0.01367858764948517 0 0.0020543570099295101 0.014420596085739302 0 -2.5384543638896486e-05 0.011570965034985859 0 -0.00046209980049800035 0.01108890835456937 0 -0.00076680773814119768 0.011929179419485037 0 -2.5384543638896486e-05 0.011570965034985859 0 -0.00046209980049800035 0.01108890835456937 0 0.00021628740919597012 0.010879432158304675 0 -0.00046209980049800035 0.01108890835456937 0 -0.0010677580026673501 0.011296934631042655 0 -0.0010200096658875273 0.010764217691897254 0 -0.00077619947750555537 0.0099611526887501845 0 -0.00018728591688246999 0.010123306332247513 0 -0.0010677580026673501 0.011296934631042655 0 -0.0014799435260666118 0.011641631334329824 0 -0.00076680773814119768 0.011929179419485037 0 -0.00046209980049800035 0.01108890835456937 0 -0.0010677580026673501 0.011296934631042655 0 -0.00076680773814119768 0.011929179419485037 0 -0.0010677580026673501 0.011296934631042655 0 -0.0016031265978777988 0.011064371568917307 0 -0.0010200096658875273 0.010764217691897254 0 -0.0010677580026673501 0.011296934631042655 0 -0.0014799435260666118 0.011641631334329824 0 -0.0016031265978777988 0.011064371568917307 0 -0.0025705389728404235 0.010818467280708252 0 -0.0019156922215060896 0.010285275583603459 0 -0.0031775016823260452 0.010153964175474369 0 -0.0033153055739591946 0.01010896767621954 0 -0.0033311197439781105 0.010209563974259647 0 -0.0025705389728404235 0.010818467280708252 0 -0.0022519561007781665 0.0093221014324486734 0 -0.0029194172793838378 0.0078883158844383124 0 -0.0047379366303428004 0.0090618792796937908 0 -0.0037494251197290598 0.0069849352513930135 0 -0.0038587839566992469 0.0069534608132999229 0 -0.0038490771177153329 0.0071359297395299729 0 -0.0033153055739591946 0.01010896767621954 0 -0.0033673304251940566 0.010193821291713305 0 -0.003400653462018404 0.010022581511331648 0 -0.0033153055739591946 0.01010896767621954 0 -0.0033673304251940566 0.010193821291713305 0 -0.0033311197439781105 0.010209563974259647 0 -0.0012837051498286319 0.007905765665638019 0 -0.0010005099489580932 0.0081648982324960991 0 -0.0012290663953126195 0.0083925752325393239 0 -0.0012953010687569903 0.0077899964615268562 0 -0.001511194384187678 0.0081125183071232686 0 -0.0012290663953126195 0.0083925752325393239 0 -0.0018785682554235937 0.0077091495423871319 0 -0.0012611271337355648 0.0083880986735089553 0 -0.0031323815394525578 0.0051835014272135849 0 -0.0029353166360130546 0.0051494918446604336 0 -0.002925474202476722 0.0052400028934682878 0 -0.0029194172793838378 0.0078883158844383124 0 -0.0018785682554235937 0.0077091495423871319 0 -0.0012837051498286319 0.007905765665638019 0 -0.0011418977521129778 0.0078280509738702757 0 -0.0010005099489580932 0.0081648982324960991 0 -0.0029194172793838378 0.0078883158844383124 0 -0.0022519561007781665 0.0093221014324486734 0 -0.002378492807913564 0.008645253278818826 0 -0.0023696141510027992 0.0087144501483909197 0 -0.0022974942657286342 0.0086778807787514442 0 -0.0018785682554235937 0.0077091495423871319 0 -0.0022519561007781665 0.0093221014324486734 0 -0.00077619947750555537 0.0099611526887501845 0 -0.0022519561007781665 0.0093221014324486734 0 -0.0003372831135118468 0.0081497661694593781 0 -0.0011418977521129778 0.0078280509738702757 0 -0.0010005099489580932 0.0081648982324960991 0 -0.0014799435260666118 0.011641631334329824 0 -0.0016031265978777988 0.011064371568917307 0 -0.0021824137583474428 0.011354270920991862 0 -0.0003372831135118468 0.0081497661694593781 0 -0.0010005099489580932 0.0081648982324960991 0 -0.0006878897136784422 0.0087113770382316307 0 -0.0010005099489580932 0.0081648982324960991 0 -0.0006878897136784422 0.0087113770382316307 0 -0.0012290663953126195 0.0083925752325393239 0 -0.0019513589880574965 0.0083626499306108538 0 -0.0012290663953126195 0.0083925752325393239 0 -0.001367160013788866 0.008911190051236511 0 -0.0006878897136784422 0.0087113770382316307 0 -0.0012290663953126195 0.0083925752325393239 0 -0.001367160013788866 0.008911190051236511 0 0.00021904145410437672 0.0071271453287120798 0 0.00061555697560586168 0.0070022759206114513 0 -0.00087805450519704822 0.0055449098923412796 0 0.00095486097618138288 0.0080358635041738215 0 -0.001115723764243178 0.0073863371042268691 0 0.00021904145410437672 0.0071271453287120798 0 -0.00087805450519704822 0.0055449098923412796 0 -0.0012009885957910455 0.0061454782318131089 0 0.00023175766868853423 0.0059007253959031522 0 -0.00085022397143894989 0.004860694707233177 0 -0.00083391993448639139 0.0094093402834521077 0 -0.0006878897136784422 0.0087113770382316307 0 -0.00013643789189756814 0.0091895917271651254 0 -0.00083391993448639139 0.0094093402834521077 0 -0.0006878897136784422 0.0087113770382316307 0 -0.001367160013788866 0.008911190051236511 0 0.00095486097618138288 0.0080358635041738215 0 0.0014757556215979695 0.010119400173985141 0 -0.0006878897136784422 0.0087113770382316307 0 -0.00013643789189756814 0.0091895917271651254 0 -3.3864905999993005e-05 0.0087065068247315705 0 0.0014723164952358896 0.010190822678097813 0 0.0015652889449027864 0.011228565877491391 0 0.0029653080428037938 0.010735613722670281 0 0.0011136162260788061 0.010004985153563717 0 0.0014757556215979695 0.010119400173985141 0 0.00052644660224952279 0.0089836794773390551 0 -0.00013643789189756814 0.0091895917271651254 0 -3.3864905999993005e-05 0.0087065068247315705 0 -0.0003372831135118468 0.0081497661694593781 0 0.00043721156083944987 0.0084868320223532908 0 -3.3864905999993005e-05 0.0087065068247315705 0 0.00052644660224952279 0.0089836794773390551 0 0.00043721156083944987 0.0084868320223532908 0 -3.3864905999993005e-05 0.0087065068247315705 0 -0.0003372831135118468 0.0081497661694593781 0 -0.0006878897136784422 0.0087113770382316307 0 -3.3864905999993005e-05 0.0087065068247315705 0 0.001639593480405334 0.015827092826193535 0 0.0014897222187512881 0.014893778077162838 0 0.0007098603351593742 0.015571453890266176 0 0.001639593480405334 0.015827092826193535 0 0.0007098603351593742 0.015571453890266176 0 0.0011090500803843618 0.016301029487161965 0 0.001639593480405334 0.015827092826193535 0 0.0020767703769428653 0.015070308224217243 0 0.0014897222187512881 0.014893778077162838 0 0.001639593480405334 0.015827092826193535 0 0.0020767703769428653 0.015070308224217243 0 0.0024261448933268321 0.015602591424577775 0 0.0020767703769428653 0.015070308224217243 0 0.0014897222187512881 0.014893778077162838 0 0.0020084480100643785 0.014150646965755612 0 0.0014897222187512881 0.014893778077162838 0 0.00076335922806694784 0.014706475633595107 0 0.0007098603351593742 0.015571453890266176 0 0.00076335922806694784 0.014706475633595107 0 -0.00022100767700235728 0.015072106949244886 0 0.0007098603351593742 0.015571453890266176 0 -0.00022100767700235728 0.015072106949244886 0 -0.00016400503259405663 0.015681118935081374 0 0.0007098603351593742 0.015571453890266176 0 -0.00016400503259405663 0.015681118935081374 0 0.0007098603351593742 0.015571453890266176 0 0.00028398353299290108 0.016443687583421109 0 0.0007098603351593742 0.015571453890266176 0 0.0011090500803843618 0.016301029487161965 0 0.00028398353299290108 0.016443687583421109 0 0.0011090500803843618 0.016301029487161965 0 0.00028398353299290108 0.016443687583421109 0 0.00088757676287840417 0.017486062648147956 0 -0.00016400503259405663 0.015681118935081374 0 0.00028398353299290108 0.016443687583421109 0 -0.00041003470088339059 0.016427724258418916 0 0.00088757676287840417 0.017486062648147956 0 -2.0938645875741594e-05 0.017471729528960617 0 0.00044101174457613029 0.018458410020760502 0 0.00028398353299290108 0.016443687583421109 0 0.00088757676287840417 0.017486062648147956 0 -2.0938645875741594e-05 0.017471729528960617 0 0.0011090500803843618 0.016301029487161965 0 0.00088757676287840417 0.017486062648147956 0 0.0017237038408585367 0.016823159984760354 0 0.00088757676287840417 0.017486062648147956 0 0.0017237038408585367 0.016823159984760354 0 0.0017550979077779261 0.018362579166492202 0 0.0017237038408585367 0.016823159984760354 0 0.0019987317163589501 0.016714140159487609 0 0.0016674927474323571 0.017016184566395212 0 0.001639593480405334 0.015827092826193535 0 0.0011090500803843618 0.016301029487161965 0 0.0017237038408585367 0.016823159984760354 0 0.001639593480405334 0.015827092826193535 0 0.0021032218560153009 0.016183271056394166 0 0.0024261448933268321 0.015602591424577775 0 0.001639593480405334 0.015827092826193535 0 0.0017237038408585367 0.016823159984760354 0 0.0021032218560153009 0.016183271056394166 0 0.0021032218560153009 0.016183271056394166 0 0.0019987317163589501 0.016714140159487609 0 0.0023656412635488576 0.016338037303065853 0 0.0017237038408585367 0.016823159984760354 0 0.0021032218560153009 0.016183271056394166 0 0.0019987317163589501 0.016714140159487609 0 0.0019987317163589501 0.016714140159487609 0 0.0023888964496197357 0.016609339512970573 0 0.0023656412635488576 0.016338037303065853 0 0.0023888964496197357 0.016609339512970573 0 0.0023656412635488576 0.016338037303065853 0 0.0026537535852338636 0.016274653876352688 0 0.0023656412635488576 0.016338037303065853 0 0.0026537535852338636 0.016274653876352688 0 0.0025693806767471813 0.015974012954870224 0 0.0023888964496197357 0.016609339512970573 0 0.0026537535852338636 0.016274653876352688 0 0.0028351463705069786 0.016617496208847154 0 0.0026537535852338636 0.016274653876352688 0 0.0030319885006075157 0.015865322797543019 0 0.0028351463705069786 0.016617496208847154 0 0.0033717333930833185 0.015388658459402698 0 0.0038606816125970416 0.015279546222869604 0 0.0030319885006075157 0.015865322797543019 0 0.0033642667065428627 0.015362570701949178 0 0.0028351463705069786 0.016617496208847154 0 0.0026537535852338636 0.016274653876352688 0 0.0030319885006075157 0.015865322797543019 0 0.0025693806767471813 0.015974012954870224 0 0.0030319885006075157 0.015865322797543019 0 0.0028211223957114117 0.015662115513506648 0 0.0025693806767471813 0.015974012954870224 0 0.0030319885006075157 0.015865322797543019 0 0.0031413777923385072 0.015614912838579608 0 0.003240793649899011 0.015661685376365173 0 0.0030319885006075157 0.015865322797543019 0 0.0031413777923385072 0.015614912838579608 0 0.0028211223957114117 0.015662115513506648 0 0.0028211223957114117 0.015662115513506648 0 0.0025693806767471813 0.015974012954870224 0 0.0024261448933268321 0.015602591424577775 0 0.0021032218560153009 0.016183271056394166 0 0.0025693806767471813 0.015974012954870224 0 0.0024261448933268321 0.015602591424577775 0 0.0021032218560153009 0.016183271056394166 0 0.0023656412635488576 0.016338037303065853 0 0.0025693806767471813 0.015974012954870224 0 0.0025635901703557852 0.015093667230935769 0 0.0033642667065428627 0.015362570701949178 0 0.0022817185092666257 0.01381864072468145 0 0.0016590690195489276 0.015293798454524868 0 0.0025635901703557852 0.015093667230935769 0 0.0022817185092666257 0.01381864072468145 0 0.0030319885006075157 0.015865322797543019 0 0.0033642667065428627 0.015362570701949178 0 0.003240793649899011 0.015661685376365173 0 0.0033642667065428627 0.015362570701949178 0 0.003329824627357713 0.015761140384988236 0 0.0031735188610189495 0.01589766925577148 0 0.0031413777923385072 0.015614912838579608 0 0.003240793649899011 0.015661685376365173 0 0.0033050343947512236 0.015675577190766714 0 0.0031413777923385072 0.015614912838579608 0 0.0033050343947512236 0.015675577190766714 0 0.0032698096909862056 0.015568037827486482 0 0.0031413777923385072 0.015614912838579608 0 0.0032698096909862056 0.015568037827486482 0 0.0032325941336783705 0.015389022710018697 0 0.0032698096909862056 0.015568037827486482 0 0.0033268330010004939 0.015618084950465494 0 0.0033322808455241849 0.015470114749163575 0 0.0033050343947512236 0.015675577190766714 0 0.0032698096909862056 0.015568037827486482 0 0.0033268330010004939 0.015618084950465494 0 0.0033050343947512236 0.015675577190766714 0 0.0033268330010004939 0.015618084950465494 0 0.003329824627357713 0.015761140384988236 0 0.0033268330010004939 0.015618084950465494 0 0.0034392720111744053 0.015478390866173967 0 0.0033322808455241849 0.015470114749163575 0 0.0033268330010004939 0.015618084950465494 0 0.0034079311680156512 0.015613161793032798 0 0.003329824627357713 0.015761140384988236 0 0.0033268330010004939 0.015618084950465494 0 0.0034079311680156512 0.015613161793032798 0 0.0034392720111744053 0.015478390866173967 0 0.0034079311680156512 0.015613161793032798 0 0.0035916106891219898 0.015623416604781495 0 0.0034392720111744053 0.015478390866173967 0 0.0034079311680156512 0.015613161793032798 0 0.003329824627357713 0.015761140384988236 0 0.0035916106891219898 0.015623416604781495 0 0.0032216092621295727 0.015124661791492171 0 0.0032961825436609929 0.014955075120513214 0 0.0033642667065428627 0.015362570701949178 0 0.0033050343947512236 0.015675577190766714 0 0.003329824627357713 0.015761140384988236 0 0.0033642667065428627 0.015362570701949178 0 0.003240793649899011 0.015661685376365173 0 0.0033050343947512236 0.015675577190766714 0 0.0016590690195489276 0.015293798454524868 0 0.0025635901703557852 0.015093667230935769 0 0.0031735188610189495 0.01589766925577148 0 0.0026296440334446065 0.013813888242164195 0 0.0025403305968614881 0.013568203668892786 0 0.0029938155315580848 0.013870263434499168 0 0.0026049456490895096 0.013982719083689634 0 0.0026296440334446065 0.013813888242164195 0 0.0029938155315580848 0.013870263434499168 0 0.0016272153291048716 0.01367858764948517 0 0.0032961825436609929 0.014955075120513214 0 0.0035604743865929296 0.014674937603662584 0 0.0032961825436609929 0.014955075120513214 0 0.0025635901703557852 0.015093667230935769 0 0.0033642667065428627 0.015362570701949178 0 0.0031735188610189495 0.01589766925577148 0 0.0041218031831789922 0.01530486908178854 0 0.0035916106891219898 0.015623416604781495 0 0.0037994894754558575 0.015201461837976092 0 0.0041218031831789922 0.01530486908178854 0 0.0037994894754558575 0.015201461837976092 0 0.0039480671877948721 0.0149320838466446 0 0.0037994894754558575 0.015201461837976092 0 0.0035443201759573165 0.015112366616434621 0 0.0035544106656852162 0.015376206333067237 0 0.0035916106891219898 0.015623416604781495 0 0.0037994894754558575 0.015201461837976092 0 0.0035544106656852162 0.015376206333067237 0 0.0037994894754558575 0.015201461837976092 0 0.0035443201759573165 0.015112366616434621 0 0.0036549122900593508 0.014841325215216153 0 0.0037994894754558575 0.015201461837976092 0 0.0036549122900593508 0.014841325215216153 0 0.0039480671877948721 0.0149320838466446 0 0.0035443201759573165 0.015112366616434621 0 0.0034106337792639821 0.015293685884614416 0 0.0033414177309029156 0.015012794412027986 0 0.0035443201759573165 0.015112366616434621 0 0.0035544106656852162 0.015376206333067237 0 0.0034106337792639821 0.015293685884614416 0 0.0035544106656852162 0.015376206333067237 0 0.0034392720111744053 0.015478390866173967 0 0.0034106337792639821 0.015293685884614416 0 0.0035916106891219898 0.015623416604781495 0 0.0035544106656852162 0.015376206333067237 0 0.0034392720111744053 0.015478390866173967 0 0.0034392720111744053 0.015478390866173967 0 0.0033322808455241849 0.015470114749163575 0 0.0034106337792639821 0.015293685884614416 0 0.0033322808455241849 0.015470114749163575 0 0.0034106337792639821 0.015293685884614416 0 0.0032325941336783705 0.015389022710018697 0 0.0032698096909862056 0.015568037827486482 0 0.0033322808455241849 0.015470114749163575 0 0.0032325941336783705 0.015389022710018697 0 0.0032325941336783705 0.015389022710018697 0 0.0033414177309029156 0.015012794412027986 0 0.0029924632399406146 0.01524316753254332 0 0.0034106337792639821 0.015293685884614416 0 0.0032325941336783705 0.015389022710018697 0 0.0033414177309029156 0.015012794412027986 0 0.0033414177309029156 0.015012794412027986 0 0.0032639556536384891 0.014575200791248391 0 0.0029924632399406146 0.01524316753254332 0 0.0032639556536384891 0.014575200791248391 0 0.0036549122900593508 0.014841325215216153 0 0.0036506296760160095 0.014427441223412437 0 0.0033414177309029156 0.015012794412027986 0 0.0032639556536384891 0.014575200791248391 0 0.0036549122900593508 0.014841325215216153 0 0.0035443201759573165 0.015112366616434621 0 0.0033414177309029156 0.015012794412027986 0 0.0036549122900593508 0.014841325215216153 0 0.0036549122900593508 0.014841325215216153 0 0.0039480671877948721 0.0149320838466446 0 0.0036506296760160095 0.014427441223412437 0 0.001477094369737073 0.012831219266268906 0 0.0013501901712760929 0.012549282292155607 0 0.0041535874466667672 0.014732705883341149 0 0.0039480671877948721 0.0149320838466446 0 0.0036506296760160095 0.014427441223412437 0 0.0020767703769428653 0.015070308224217243 0 0.0024261448933268321 0.015602591424577775 0 0.0026702096914426121 0.01478904649190901 0 0.0024261448933268321 0.015602591424577775 0 0.0029924632399406146 0.01524316753254332 0 0.0026702096914426121 0.01478904649190901 0 0.0028211223957114117 0.015662115513506648 0 0.0024261448933268321 0.015602591424577775 0 0.0029924632399406146 0.01524316753254332 0 0.0031413777923385072 0.015614912838579608 0 0.0028211223957114117 0.015662115513506648 0 0.0029924632399406146 0.01524316753254332 0 0.0031413777923385072 0.015614912838579608 0 0.0032325941336783705 0.015389022710018697 0 0.0029924632399406146 0.01524316753254332 0 0.0032639556536384891 0.014575200791248391 0 0.0026702096914426121 0.01478904649190901 0 0.0030693747103583513 0.013914340175848016 0 0.0032639556536384891 0.014575200791248391 0 0.0029924632399406146 0.01524316753254332 0 0.0026702096914426121 0.01478904649190901 0 0.0020767703769428653 0.015070308224217243 0 0.0026702096914426121 0.01478904649190901 0 0.0020084480100643785 0.014150646965755612 0 0.0026702096914426121 0.01478904649190901 0 0.0030693747103583513 0.013914340175848016 0 0.0020084480100643785 0.014150646965755612 0 0.0030693747103583513 0.013914340175848016 0 0.0018998545206181075 0.013058544045997765 0 0.0020084480100643785 0.014150646965755612 0 0.00077125747715800627 0.011611529758606885 0 0.0001966485912372284 0.012287165436581725 0 0.0010915293600217851 0.013003225165530524 0 0.00077125747715800627 0.011611529758606885 0 0.0018998545206181075 0.013058544045997765 0 0.0010915293600217851 0.013003225165530524 0 0.0017625903920742043 0.01295454148464076 0 0.0016878175638298555 0.013055025494652612 0 0.0018998545206181075 0.013058544045997765 0 0.0010915293600217851 0.013003225165530524 0 0.001811235145789304 0.013093763556610901 0 0.0018494976429488906 0.012768699818811005 0 0.0018504088766496576 0.012971240181228669 0 -0.00087751996769229825 0.010643988060989019 0 -0.0016664702448971798 0.010804318865743011 0 -0.00072032765456395826 0.011802560166689456 0 -0.0016343691056755593 0.010774707952170769 0 -0.00087751996769229825 0.010643988060989019 0 -0.0016664702448971798 0.010804318865743011 0 0.00077125747715800627 0.011611529758606885 0 -0.00087751996769229825 0.010643988060989019 0 -0.00072032765456395826 0.011802560166689456 0 0.0018494976429488906 0.012768699818811005 0 0.0013501901712760929 0.012549282292155607 0 0.0032639556536384891 0.014575200791248391 0 0.0030693747103583513 0.013914340175848016 0 0.0036506296760160095 0.014427441223412437 0 0.00077125747715800627 0.011611529758606885 0 0.0001966485912372284 0.012287165436581725 0 -0.00072032765456395826 0.011802560166689456 0 0.0001966485912372284 0.012287165436581725 0 -0.00072032765456395826 0.011802560166689456 0 -0.000685571500059551 0.012878752639799332 0 -0.00072032765456395826 0.011802560166689456 0 -0.0011076496089738939 0.01230949945650928 0 -0.000685571500059551 0.012878752639799332 0 -0.0016664702448971798 0.010804318865743011 0 -0.00072032765456395826 0.011802560166689456 0 -0.0015293370958939119 0.012037659879071034 0 -0.00072032765456395826 0.011802560166689456 0 -0.0015293370958939119 0.012037659879071034 0 -0.0011076496089738939 0.01230949945650928 0 -0.0015293370958939119 0.012037659879071034 0 -0.0015929694531552003 0.012725908383842651 0 -0.0011076496089738939 0.01230949945650928 0 -0.0015929694531552003 0.012725908383842651 0 -0.0011076496089738939 0.01230949945650928 0 -0.000685571500059551 0.012878752639799332 0 -0.0022713636432484269 0.012637226549242171 0 -0.00041819872389423454 0.01227048741989808 0 0.0001966485912372284 0.012287165436581725 0 -0.000685571500059551 0.012878752639799332 0 0.0010915293600217851 0.013003225165530524 0 -0.00041819872389423454 0.01227048741989808 0 0.0017625903920742043 0.01295454148464076 0 0.0021105034242487179 0.01273733885466094 0 0.0019307751563629745 0.012823111484352471 0 0.0019831953527651536 0.012662116868687387 0 0.0021105034242487179 0.01273733885466094 0 0.0020492911563054104 0.012537702335031145 0 0.002137178523334267 0.012561057662666426 0 0.0021105034242487179 0.01273733885466094 0 0.0020492911563054104 0.012537702335031145 0 0.0019831953527651536 0.012662116868687387 0 0.0020492911563054104 0.012537702335031145 0 0.0019831953527651536 0.012662116868687387 0 0.0019535110510471758 0.012544569790954524 0 -0.0025849609002417204 0.012473387128573397 0 -0.0031414793401891646 0.012606123401838984 0 -0.0030443532596221884 0.011901744402549371 0 -0.00041819872389423454 0.01227048741989808 0 -0.00049772695901589923 0.012624586919586641 0 -0.0023459375859343494 0.011545472244376397 0 -0.0023850444470720576 0.012058361096831101 0 -0.0030443532596221884 0.011901744402549371 0 -0.0023850444470720576 0.012058361096831101 0 -0.0025849609002417204 0.012473387128573397 0 -0.0030443532596221884 0.011901744402549371 0 0.0018094792938830825 0.012788292658676072 0 0.0019307751563629745 0.012823111484352471 0 0.001811235145789304 0.013093763556610901 0 0.0018094792938830825 0.012788292658676072 0 0.0019307751563629745 0.012823111484352471 0 0.0018739045419506727 0.01265583445607286 0 0.0019307751563629745 0.012823111484352471 0 0.0018739045419506727 0.01265583445607286 0 0.0019831953527651536 0.012662116868687387 0 0.0018739045419506727 0.01265583445607286 0 0.0019535110510471758 0.012544569790954524 0 0.0018187688875767863 0.012432015325556258 0 0.0018739045419506727 0.01265583445607286 0 0.0019831953527651536 0.012662116868687387 0 0.0019535110510471758 0.012544569790954524 0 0.0018739045419506727 0.01265583445607286 0 0.0017499604623154427 0.012565683970949364 0 0.0018187688875767863 0.012432015325556258 0 0.0018094792938830825 0.012788292658676072 0 0.0018739045419506727 0.01265583445607286 0 0.0017499604623154427 0.012565683970949364 0 -0.00074451097365558496 0.014453987278710221 0 -0.00078846371975804894 0.014545232664227621 0 -0.00070295412888741918 0.014732816695288663 0 -0.00074451097365558496 0.014453987278710221 0 -0.00078846371975804894 0.014545232664227621 0 -0.00084051982369803141 0.014356485821822168 0 0.00049323697089217349 0.013521009189831582 0 0.00038468611378243017 0.013768513047726626 0 0.0018094792938830825 0.012788292658676072 0 0.0017499604623154427 0.012565683970949364 0 0.0015012304766939678 0.012780723288701263 0 -0.00076288759429254916 0.014647337280427272 0 -0.00073909550995357486 0.014763613869113974 0 -0.00084211379495674552 0.01449560183977636 0 -0.00078846371975804894 0.014545232664227621 0 -0.00076288759429254916 0.014647337280427272 0 -0.00070295412888741918 0.014732816695288663 0 -0.00078846371975804894 0.014545232664227621 0 -0.00076288759429254916 0.014647337280427272 0 -0.00084211379495674552 0.01449560183977636 0 -0.00070295412888741918 0.014732816695288663 0 -0.00060845819159347316 0.01496951258790459 0 -0.00073909550995357486 0.014763613869113974 0 -0.00076288759429254916 0.014647337280427272 0 -0.00070295412888741918 0.014732816695288663 0 -0.00073909550995357486 0.014763613869113974 0 0.0018094792938830825 0.012788292658676072 0 0.0015012304766939678 0.012780723288701263 0 0.001811235145789304 0.013093763556610901 0 0.0015012304766939678 0.012780723288701263 0 0.001811235145789304 0.013093763556610901 0 0.0017111636190138594 0.013407489746909553 0 0.0015012304766939678 0.012780723288701263 0 0.0017111636190138594 0.013407489746909553 0 0.0013720499483994915 0.013857142251992227 0 0.0018998545206181075 0.013058544045997765 0 0.001811235145789304 0.013093763556610901 0 0.0017111636190138594 0.013407489746909553 0 0.0015012304766939678 0.012780723288701263 0 0.0013720499483994915 0.013857142251992227 0 0.00068892904640033921 0.013625463244696325 0 0.00038468611378243017 0.013768513047726626 0 4.8672028857422485e-05 0.014327315376981384 0 0.0014897222187512881 0.014893778077162838 0 0.00076335922806694784 0.014706475633595107 0 0.0013720499483994915 0.013857142251992227 0 0.00076335922806694784 0.014706475633595107 0 0.0013720499483994915 0.013857142251992227 0 0.00068892904640033921 0.013625463244696325 0 0.0017111636190138594 0.013407489746909553 0 0.0013720499483994915 0.013857142251992227 0 0.0020084480100643785 0.014150646965755612 0 0.0018998545206181075 0.013058544045997765 0 0.0017111636190138594 0.013407489746909553 0 0.0020084480100643785 0.014150646965755612 0 0.0014897222187512881 0.014893778077162838 0 0.0013720499483994915 0.013857142251992227 0 0.0020084480100643785 0.014150646965755612 0 -0.00022100767700235728 0.015072106949244886 0 -0.00060801383047221391 0.015030858545141244 0 -0.00069520812441275733 0.015168311507760195 0 -0.00022100767700235728 0.015072106949244886 0 -0.00060845819159347316 0.01496951258790459 0 -0.00060801383047221391 0.015030858545141244 0 0.00076335922806694784 0.014706475633595107 0 -0.00022100767700235728 0.015072106949244886 0 0.00068892904640033921 0.013625463244696325 0 -0.00023938438054134156 0.015004370459626555 0 4.8672028857422485e-05 0.014327315376981384 0 -0.00060845819159347316 0.01496951258790459 0 -0.00060801383047221391 0.015030858545141244 0 -0.00068193523453452607 0.014917443964096198 0 -0.00060801383047221391 0.015030858545141244 0 -0.00076764060543662433 0.014893694625204911 0 -0.00068193523453452607 0.014917443964096198 0 -0.00060845819159347316 0.01496951258790459 0 -0.00068193523453452607 0.014917443964096198 0 -0.00073909550995357486 0.014763613869113974 0 -0.00076764060543662433 0.014893694625204911 0 -0.00068193523453452607 0.014917443964096198 0 -0.00073909550995357486 0.014763613869113974 0 -0.00073909550995357486 0.014763613869113974 0 -0.00080175785719913497 0.01465440530023924 0 -0.00084211379495674552 0.01449560183977636 0 -0.00076764060543662433 0.014893694625204911 0 -0.00073909550995357486 0.014763613869113974 0 -0.00080175785719913497 0.01465440530023924 0 -0.00076764060543662433 0.014893694625204911 0 -0.00080175785719913497 0.01465440530023924 0 -0.00081737104903805281 0.014714259976499703 0 -0.00076764060543662433 0.014893694625204911 0 -0.00081737104903805281 0.014714259976499703 0 -0.00084730156012774427 0.014791813923829776 0 -0.00081737104903805281 0.014714259976499703 0 -0.0008311781589405374 0.014728301670983953 0 -0.00083657651092605234 0.014569090273893909 0 -0.00080175785719913497 0.01465440530023924 0 -0.00081737104903805281 0.014714259976499703 0 -0.00083657651092605234 0.014569090273893909 0 -0.00081737104903805281 0.014714259976499703 0 -0.0008311781589405374 0.014728301670983953 0 -0.00084730156012774427 0.014791813923829776 0 -0.0008311781589405374 0.014728301670983953 0 -0.00081530859572070328 0.01471156408310282 0 -0.00083657651092605234 0.014569090273893909 0 -0.00081530859572070328 0.01471156408310282 0 -0.00083657651092605234 0.014569090273893909 0 -0.00080493647921412532 0.014640865235388644 0 -0.00083657651092605234 0.014569090273893909 0 -0.00090243922129777708 0.014302194774596098 0 -0.00083216456664649756 0.014502890977276603 0 -0.00083657651092605234 0.014569090273893909 0 -0.00080493647921412532 0.014640865235388644 0 -0.00083216456664649756 0.014502890977276603 0 -0.00083657651092605234 0.014569090273893909 0 -0.00084211379495674552 0.01449560183977636 0 -0.00090243922129777708 0.014302194774596098 0 -0.00080175785719913497 0.01465440530023924 0 -0.00083657651092605234 0.014569090273893909 0 -0.00084211379495674552 0.01449560183977636 0 -0.00078846371975804894 0.014545232664227621 0 -0.00084211379495674552 0.01449560183977636 0 -0.00084051982369803141 0.014356485821822168 0 -0.00084211379495674552 0.01449560183977636 0 -0.00084051982369803141 0.014356485821822168 0 -0.00095071222464203483 0.014091222027530135 0 -0.00084051982369803141 0.014356485821822168 0 -0.00095071222464203483 0.014091222027530135 0 -0.00080541218121116991 0.014131208110334297 0 -0.00095071222464203483 0.014091222027530135 0 -0.00090243922129777708 0.014302194774596098 0 -0.00097979051158132409 0.014061312087421651 0 -0.00095071222464203483 0.014091222027530135 0 -0.00097979051158132409 0.014061312087421651 0 -0.0010640110153324579 0.013337575235786216 0 -0.00084211379495674552 0.01449560183977636 0 -0.00095071222464203483 0.014091222027530135 0 -0.00090243922129777708 0.014302194774596098 0 -0.00087538566930486555 0.014373312692623154 0 -0.00097979051158132409 0.014061312087421651 0 -0.00098756001536390542 0.014385079487020953 0 -0.00090243922129777708 0.014302194774596098 0 -0.00087538566930486555 0.014373312692623154 0 -0.00097979051158132409 0.014061312087421651 0 -0.00097979051158132409 0.014061312087421651 0 -0.00098756001536390542 0.014385079487020953 0 -0.0010640110153324579 0.013337575235786216 0 -0.0011886726576273066 0.013240552345342242 0 -0.0010126562623010865 0.013370528572824926 0 -0.0015611436420571545 0.012032348903615738 0 -0.0013145248656965039 0.012111824004721484 0 -0.0014323184903624192 0.011974942620396046 0 -0.0015611436420571545 0.012032348903615738 0 -0.0010640110153324579 0.013337575235786216 0 -0.0013145248656965039 0.012111824004721484 0 -0.0011886726576273066 0.013240552345342242 0 -0.00071586136339725883 0.013624942687343461 0 -0.00098756001536390542 0.014385079487020953 0 -0.00084421737583601983 0.014541029462528308 0 -0.0007865420172880667 0.014752276464262278 0 -0.00087538566930486555 0.014373312692623154 0 -0.00098756001536390542 0.014385079487020953 0 -0.00084421737583601983 0.014541029462528308 0 -0.00087538566930486555 0.014373312692623154 0 -0.00084421737583601983 0.014541029462528308 0 -0.00081020369937813484 0.014559443646995195 0 -0.00084421737583601983 0.014541029462528308 0 -0.00081020369937813484 0.014559443646995195 0 -0.00078540959622541782 0.014646140840878877 0 -0.00081020369937813484 0.014559443646995195 0 -0.0007635700318515137 0.014675208881577625 0 -0.00078624177252471816 0.014638797967744747 0 -0.00081020369937813484 0.014559443646995195 0 -0.00078540959622541782 0.014646140840878877 0 -0.0007635700318515137 0.014675208881577625 0 -0.00078540959622541782 0.014646140840878877 0 -0.00075334558805613741 0.014708613040499374 0 -0.0007865420172880667 0.014752276464262278 0 -0.00084421737583601983 0.014541029462528308 0 -0.00078540959622541782 0.014646140840878877 0 -0.0007865420172880667 0.014752276464262278 0 -0.00078540959622541782 0.014646140840878877 0 -0.00075334558805613741 0.014708613040499374 0 -0.0007635700318515137 0.014675208881577625 0 -0.00075334558805613741 0.014708613040499374 0 -0.00073835684060449412 0.01472988015807499 0 -0.00072858150564404113 0.014732903287596695 0 -0.00073835684060449412 0.01472988015807499 0 -0.00075551483620358445 0.014723645186283819 0 -0.0007635700318515137 0.014675208881577625 0 -0.00075334558805613741 0.014708613040499374 0 -0.00073835684060449412 0.01472988015807499 0 -0.0007635700318515137 0.014675208881577625 0 -0.00073661113920586816 0.014769538376606684 0 -0.00072061273233265798 0.01475428024285474 0 -0.00072080098571975881 0.014788086107507729 0 -0.00073835684060449412 0.01472988015807499 0 -0.00073661113920586816 0.014769538376606684 0 -0.00072061273233265798 0.01475428024285474 0 -0.00073835684060449412 0.01472988015807499 0 -0.00073661113920586816 0.014769538376606684 0 -0.00075551483620358445 0.014723645186283819 0 -0.00075551483620358445 0.014723645186283819 0 -0.00077775608095303431 0.01472402034954322 0 -0.00075896821215936457 0.014790015506545101 0 -0.00073661113920586816 0.014769538376606684 0 -0.00075551483620358445 0.014723645186283819 0 -0.00075896821215936457 0.014790015506545101 0 -0.00075551483620358445 0.014723645186283819 0 -0.00078624177252471816 0.014638797967744747 0 -0.00077775608095303431 0.01472402034954322 0 -0.00075551483620358445 0.014723645186283819 0 -0.0007635700318515137 0.014675208881577625 0 -0.00078624177252471816 0.014638797967744747 0 -0.00078624177252471816 0.014638797967744747 0 -0.00077775608095303431 0.01472402034954322 0 -0.00080493647921412532 0.014640865235388644 0 -0.00077775608095303431 0.01472402034954322 0 -0.00080493647921412532 0.014640865235388644 0 -0.00079673753033722037 0.014749339221127811 0 -0.00081530859572070328 0.01471156408310282 0 -0.00080493647921412532 0.014640865235388644 0 -0.00079673753033722037 0.014749339221127811 0 -0.00078624177252471816 0.014638797967744747 0 -0.00080493647921412532 0.014640865235388644 0 -0.00083216456664649756 0.014502890977276603 0 -0.00090243922129777708 0.014302194774596098 0 -0.00087538566930486555 0.014373312692623154 0 -0.00083216456664649756 0.014502890977276603 0 -0.00087538566930486555 0.014373312692623154 0 -0.00081020369937813484 0.014559443646995195 0 -0.00083216456664649756 0.014502890977276603 0 -0.00081020369937813484 0.014559443646995195 0 -0.00078624177252471816 0.014638797967744747 0 -0.00083216456664649756 0.014502890977276603 0 0.0022556255675822653 0.01220980412116318 0 0.002063071424172187 0.012056652735581453 0 0.0023495143845200699 0.01175333008001243 0 -0.003181159824174024 0.0034415472937134738 0 -0.0036943173768275266 0.0041159891383386014 0 -0.0035698551257390505 0.0032929189391358248 0 -0.0010398094262065484 0.0098138033571118673 0 -0.0006068559198929808 0.0068384000766453261 0 -0.0023459375859343494 0.011545472244376397 0 -0.0030443532596221884 0.011901744402549371 0 -0.0029371422936822688 0.011162624259507745 0 -0.00049772695901589923 0.012624586919586641 0 -0.0010398094262065484 0.0098138033571118673 0 0.0020492911563054104 0.012537702335031145 0 0.0021475746275962404 0.012384412094614572 0 0.0020175029863160462 0.012430758643091927 0 -0.0010398094262065484 0.0098138033571118673 0 0.002488082003997907 0.012352152821262358 0 0.0020492911563054104 0.012537702335031145 0 0.002137178523334267 0.012561057662666426 0 0.0021475746275962404 0.012384412094614572 0 0.0020492911563054104 0.012537702335031145 0 0.0019535110510471758 0.012544569790954524 0 0.0020175029863160462 0.012430758643091927 0 0.002063071424172187 0.012056652735581453 0 0.0018196282022163619 0.012228938014883416 0 0.0020288277915433846 0.011741067117442178 0 0.0019614397918528655 0.012306617704396873 0 0.002063071424172187 0.012056652735581453 0 0.0018196282022163619 0.012228938014883416 0 0.0022556255675822653 0.01220980412116318 0 0.0019614397918528655 0.012306617704396873 0 0.002063071424172187 0.012056652735581453 0 0.0006682969200646837 0.01300836903991851 0 0.0011308337055599184 0.012700302795551191 0 -0.00050286750833662024 0.013952940181977494 0 -0.00059089604021585228 0.013167364417666831 0 0.00011358315651955643 0.012826584282112089 0 -0.00050286750833662024 0.013952940181977494 0 -0.00081803852744773142 0.013758634913519608 0 -0.00059089604021585228 0.013167364417666831 0 0.0019614397918528655 0.012306617704396873 0 0.0018196282022163619 0.012228938014883416 0 0.0018187688875767863 0.012432015325556258 0 0.0019535110510471758 0.012544569790954524 0 0.0020175029863160462 0.012430758643091927 0 0.0018187688875767863 0.012432015325556258 0 0.002488082003997907 0.012352152821262358 0 0.0016494992139095509 0.012460107572068424 0 -0.00074451097365558496 0.014453987278710221 0 -0.00050286750833662024 0.013952940181977494 0 -0.00080541218121116991 0.014131208110334297 0 0.0017499604623154427 0.012565683970949364 0 0.0018196282022163619 0.012228938014883416 0 0.0018187688875767863 0.012432015325556258 0 -0.00074451097365558496 0.014453987278710221 0 -0.00084051982369803141 0.014356485821822168 0 -0.00080541218121116991 0.014131208110334297 0 0.00049323697089217349 0.013521009189831582 0 0.0006682969200646837 0.01300836903991851 0 -0.00095071222464203483 0.014091222027530135 0 -0.00081803852744773142 0.013758634913519608 0 -0.0010640110153324579 0.013337575235786216 0 -0.00095071222464203483 0.014091222027530135 0 -0.00080541218121116991 0.014131208110334297 0 -0.00081803852744773142 0.013758634913519608 0 -0.00050286750833662024 0.013952940181977494 0 -0.00080541218121116991 0.014131208110334297 0 -0.00081803852744773142 0.013758634913519608 0 -0.00081803852744773142 0.013758634913519608 0 -0.0010640110153324579 0.013337575235786216 0 -0.00059089604021585228 0.013167364417666831 0 -0.0010640110153324579 0.013337575235786216 0 -0.00083773270772781396 0.012572973205032579 0 -0.00059089604021585228 0.013167364417666831 0 -0.0013145248656965039 0.012111824004721484 0 -0.00083773270772781396 0.012572973205032579 0 -0.00086333613107278493 0.0119202854260268 0 -0.0013145248656965039 0.012111824004721484 0 -0.00086333613107278493 0.0119202854260268 0 -0.0011627161311516916 0.011800301734908475 0 -0.0010640110153324579 0.013337575235786216 0 -0.0013145248656965039 0.012111824004721484 0 -0.00083773270772781396 0.012572973205032579 0 -0.00086333613107278493 0.0119202854260268 0 -0.00039750526267752137 0.012331820495866105 0 -0.00049521966612342278 0.011391663621080664 0 -0.00083773270772781396 0.012572973205032579 0 -0.00086333613107278493 0.0119202854260268 0 -0.00039750526267752137 0.012331820495866105 0 -0.00039750526267752137 0.012331820495866105 0 -0.00059089604021585228 0.013167364417666831 0 0.00011358315651955643 0.012826584282112089 0 -0.00083773270772781396 0.012572973205032579 0 -0.00039750526267752137 0.012331820495866105 0 -0.00059089604021585228 0.013167364417666831 0 0.002063071424172187 0.012056652735581453 0 0.0020288277915433846 0.011741067117442178 0 0.0023495143845200699 0.01175333008001243 0 -0.00039750526267752137 0.012331820495866105 0 0.00011358315651955643 0.012826584282112089 0 5.8823685813319643e-05 0.011629966888425216 0 -0.00039750526267752137 0.012331820495866105 0 5.8823685813319643e-05 0.011629966888425216 0 -0.00049521966612342278 0.011391663621080664 0 -0.0032339868865159755 0.0027848057447357158 0 -0.0034226039591951102 0.0025276653366336672 0 -0.0035698551257390505 0.0032929189391358248 0 0.00011358315651955643 0.012826584282112089 0 5.8823685813319643e-05 0.011629966888425216 0 0.00083761784782549788 0.011297945896517812 0 5.8823685813319643e-05 0.011629966888425216 0 0.00083761784782549788 0.011297945896517812 0 0.00056769914740841215 0.011197662255678772 0 0.0011308337055599184 0.012700302795551191 0 0.00056248078851945586 0.008750955067670145 0 0.00056248078851945586 0.008750955067670145 0 -0.0006068559198929808 0.0068384000766453261 0 0.00056248078851945586 0.008750955067670145 0 0.00053678768726732838 0.009037718988274079 0 0.00083761784782549788 0.011297945896517812 0 0.00088652612104309634 0.011173818121772483 0 0.00072494226733376527 0.011148489133595011 0 0.00083761784782549788 0.011297945896517812 0 0.00072494226733376527 0.011148489133595011 0 0.00056769914740841215 0.011197662255678772 0 0.0020288277915433846 0.011741067117442178 0 0.002417289686580143 0.011180443553374119 0 0.0023495143845200699 0.01175333008001243 0 0.00025930092031479249 0.0089335684840151502 0 0.00065802919523835768 0.0098944600693630837 0 0.00037669046485558995 0.010103889062079457 0 0.00025930092031479249 0.0089335684840151502 0 0.00037669046485558995 0.010103889062079457 0 -5.0586322278906137e-05 0.010774791667832287 0 0.00065802919523835768 0.0098944600693630837 0 0.00037669046485558995 0.010103889062079457 0 0.00062274731911206684 0.010762925583868169 0 0.00072494226733376527 0.011148489133595011 0 0.00056769914740841215 0.011197662255678772 0 0.00062274731911206684 0.010762925583868169 0 0.00088652612104309634 0.011173818121772483 0 0.00072494226733376527 0.011148489133595011 0 0.00062274731911206684 0.010762925583868169 0 0.00037669046485558995 0.010103889062079457 0 0.00062274731911206684 0.010762925583868169 0 -5.0586322278906137e-05 0.010774791667832287 0 0.00056769914740841215 0.011197662255678772 0 0.00062274731911206684 0.010762925583868169 0 -5.0586322278906137e-05 0.010774791667832287 0 5.8823685813319643e-05 0.011629966888425216 0 0.00056769914740841215 0.011197662255678772 0 -5.0586322278906137e-05 0.010774791667832287 0 -5.0586322278906137e-05 0.010774791667832287 0 -0.0006841703046595103 0.010579976187791567 0 -0.00049521966612342278 0.011391663621080664 0 5.8823685813319643e-05 0.011629966888425216 0 -5.0586322278906137e-05 0.010774791667832287 0 -0.00049521966612342278 0.011391663621080664 0 0.00032599990082799135 0.0090425536880806984 0 -0.00045114766174333103 0.0094141181516965641 0 0.00025930092031479249 0.0089335684840151502 0 -0.00032616688593015527 0.0085697922580049955 0 -0.00017368774888207016 0.0080256797890600837 0 0.00025930092031479249 0.0089335684840151502 0 -5.0586322278906137e-05 0.010774791667832287 0 -0.0006841703046595103 0.010579976187791567 0 -0.0006841703046595103 0.010579976187791567 0 -0.00049521966612342278 0.011391663621080664 0 -0.0010722062364233716 0.011501300362853292 0 -0.00086333613107278493 0.0119202854260268 0 -0.00049521966612342278 0.011391663621080664 0 -0.0010722062364233716 0.011501300362853292 0 -0.0006841703046595103 0.010579976187791567 0 -0.0010722062364233716 0.011501300362853292 0 -0.0014231000222367149 0.011617296219842315 0 -0.00086333613107278493 0.0119202854260268 0 -0.0010722062364233716 0.011501300362853292 0 -0.0011627161311516916 0.011800301734908475 0 -0.0010722062364233716 0.011501300362853292 0 -0.0011627161311516916 0.011800301734908475 0 -0.0012572448014048433 0.011712470690685605 0 -0.0013145248656965039 0.012111824004721484 0 -0.0011627161311516916 0.011800301734908475 0 -0.0013322778385572451 0.011863661598026168 0 -0.0011627161311516916 0.011800301734908475 0 -0.0012572448014048433 0.011712470690685605 0 -0.0013322778385572451 0.011863661598026168 0 -0.0010722062364233716 0.011501300362853292 0 -0.0013943844285501184 0.011693505258119623 0 -0.0014231000222367149 0.011617296219842315 0 -0.0010722062364233716 0.011501300362853292 0 -0.0012572448014048433 0.011712470690685605 0 -0.0013943844285501184 0.011693505258119623 0 -0.0012572448014048433 0.011712470690685605 0 -0.0013322778385572451 0.011863661598026168 0 -0.0013943844285501184 0.011693505258119623 0 -0.00060827638848119962 0.011088685223245106 0 -0.00057444799831588662 0.010983977070309205 0 -0.00032616688593015527 0.0085697922580049955 0 -0.00012440459429076436 0.0085013295678117891 0 -0.00024222335214521109 0.0085582728993753559 0 -0.00012440459429076436 0.0085013295678117891 0 -0.00024222335214521109 0.0085582728993753559 0 5.8801625249731169e-05 0.0088610027252609205 0 -0.00045114766174333103 0.0094141181516965641 0 -0.00057444799831588662 0.010983977070309205 0 -0.00024222335214521109 0.0085582728993753559 0 -7.8172307348573223e-07 0.0091056239084293545 0 5.8801625249731169e-05 0.0088610027252609205 0 -0.00024222335214521109 0.0085582728993753559 0 -7.8172307348573223e-07 0.0091056239084293545 0 -1.71551014214522e-07 0.007890031421917295 0 -0.00024222335214521109 0.0085582728993753559 0 -1.71551014214522e-07 0.007890031421917295 0 -0.00017368774888207016 0.0080256797890600837 0 -0.00032616688593015527 0.0085697922580049955 0 -0.00024222335214521109 0.0085582728993753559 0 -0.00017368774888207016 0.0080256797890600837 0 -1.71551014214522e-07 0.007890031421917295 0 -0.00017368774888207016 0.0080256797890600837 0 -1.2181368331137558e-06 0.0066738435269094922 0 0.00049401171322360565 0.0076152983238758536 0 -0.00017368774888207016 0.0080256797890600837 0 -1.2181368331137558e-06 0.0066738435269094922 0 0.00049401171322360565 0.0076152983238758536 0 0.00025930092031479249 0.0089335684840151502 0 -0.00017368774888207016 0.0080256797890600837 0 -0.00040272246202533964 0.012309654985797244 0 -0.00033200403935498938 0.012410067737393914 0 -0.00042889297264786112 0.012508394744973181 0 -0.00040272246202533964 0.012309654985797244 0 -0.00044803319033530359 0.012419848332264425 0 -0.00042889297264786112 0.012508394744973181 0 -0.00040272246202533964 0.012309654985797244 0 -0.00033200403935498938 0.012410067737393914 0 -0.00015713043128069845 0.012168688828547903 0 -0.00040272246202533964 0.012309654985797244 0 -0.00015713043128069845 0.012168688828547903 0 -0.00035338575482873224 0.012116987978902734 0 -0.00040272246202533964 0.012309654985797244 0 -0.00040798176850300616 0.012230185343656554 0 -0.00043530102302335164 0.012293014690896038 0 -0.00040272246202533964 0.012309654985797244 0 -0.00040798176850300616 0.012230185343656554 0 -0.00035338575482873224 0.012116987978902734 0 -0.00040798176850300616 0.012230185343656554 0 -0.00029604972668848613 0.01235264482170146 0 -0.00044985734447099748 0.012215636344384939 0 -0.00040798176850300616 0.012230185343656554 0 -0.00043530102302335164 0.012293014690896038 0 -0.00044985734447099748 0.012215636344384939 0 -0.00043530102302335164 0.012293014690896038 0 -0.00044803319033530359 0.012419848332264425 0 -0.00044985734447099748 0.012215636344384939 0 -0.00040272246202533964 0.012309654985797244 0 -0.00043530102302335164 0.012293014690896038 0 -0.00044803319033530359 0.012419848332264425 0 -0.00070542862013238611 0.01472221531364227 0 -0.0007865420172880667 0.014752276464262278 0 -0.00064935706662468877 0.014656829335985702 0 -0.00050127087416443762 0.012795997292579159 0 -0.00069552809907274073 0.014759328081966561 0 -0.00064935706662468877 0.014656829335985702 0 -0.00044803319033530359 0.012419848332264425 0 -0.00050127087416443762 0.012795997292579159 0 -0.00044985734447099748 0.012215636344384939 0 -0.00045737204425783226 0.012366914715971331 0 -0.00050127087416443762 0.012795997292579159 0 -0.00064935706662468877 0.014656829335985702 0 -0.00071586136339725883 0.013624942687343461 0 -0.00068426149657388989 0.0144295055044459 0 -0.00047129144096341789 0.012999436809946136 0 -0.00047042251515234696 0.013477646580771857 0 -0.00070542862013238611 0.01472221531364227 0 -0.00072858150564404113 0.014732903287596695 0 -0.0007865420172880667 0.014752276464262278 0 -0.00070542862013238611 0.01472221531364227 0 -0.00070234472301791901 0.014762498560861705 0 -0.00068592896021225729 0.014734456049769066 0 -0.00071360107644388856 0.014742079097217078 0 -0.00072061273233265798 0.01475428024285474 0 -0.00070234472301791901 0.014762498560861705 0 -0.00070542862013238611 0.01472221531364227 0 -0.00071360107644388856 0.014742079097217078 0 -0.00070234472301791901 0.014762498560861705 0 -0.00070542862013238611 0.01472221531364227 0 -0.00071360107644388856 0.014742079097217078 0 -0.00072858150564404113 0.014732903287596695 0 -0.00073835684060449412 0.01472988015807499 0 -0.00072061273233265798 0.01475428024285474 0 -0.00072858150564404113 0.014732903287596695 0 -0.00071360107644388856 0.014742079097217078 0 -0.00072061273233265798 0.01475428024285474 0 -0.00072858150564404113 0.014732903287596695 0 -0.00075334558805613741 0.014708613040499374 0 -0.00072858150564404113 0.014732903287596695 0 -0.0007865420172880667 0.014752276464262278 0 -0.0015611436420571545 0.012032348903615738 0 -0.00045737204425783226 0.012366914715971331 0 -0.00051797766104899959 0.012568701424968675 0 -0.00045737204425783226 0.012366914715971331 0 -0.00050127087416443762 0.012795997292579159 0 -0.00051797766104899959 0.012568701424968675 0 -0.00050127087416443762 0.012795997292579159 0 -0.00042889297264786112 0.012508394744973181 0 -0.00051797766104899959 0.012568701424968675 0 -0.00044803319033530359 0.012419848332264425 0 -0.00050127087416443762 0.012795997292579159 0 -0.00042889297264786112 0.012508394744973181 0 -0.00033200403935498938 0.012410067737393914 0 -0.00042889297264786112 0.012508394744973181 0 -0.00051797766104899959 0.012568701424968675 0 -0.0015611436420571545 0.012032348903615738 0 -0.00051797766104899959 0.012568701424968675 0 -0.0013032944379829125 0.012319550270939492 0 -0.00050702629573512817 0.012534879308380587 0 -0.00044290244020334265 0.012465495758853482 0 -0.00033200403935498938 0.012410067737393914 0 -0.00051797766104899959 0.012568701424968675 0 0.0002438979449230121 0.012605616427431059 0 -0.0014038374154974652 0.011721843414159255 0 -0.0013032944379829125 0.012319550270939492 0 -0.0014323184903624192 0.011974942620396046 0 -0.00057444799831588662 0.010983977070309205 0 -0.00044290244020334265 0.012465495758853482 0 -0.0015611436420571545 0.012032348903615738 0 -0.0013032944379829125 0.012319550270939492 0 -0.0014323184903624192 0.011974942620396046 0 -0.0013145248656965039 0.012111824004721484 0 -0.0013322778385572451 0.011863661598026168 0 -0.0014323184903624192 0.011974942620396046 0 -0.0013322778385572451 0.011863661598026168 0 -0.0013943844285501184 0.011693505258119623 0 -0.0014323184903624192 0.011974942620396046 0 -0.0013943844285501184 0.011693505258119623 0 -0.0014038374154974652 0.011721843414159255 0 -0.0014323184903624192 0.011974942620396046 0 -0.00057444799831588662 0.010983977070309205 0 0.00042235254969326538 0.010238711715384598 0 0.00088360472490304261 0.01251836053750993 0 0.0002438979449230121 0.012605616427431059 0 0.00033746884123603472 0.012179615330860023 0 0.00088360472490304261 0.01251836053750993 0 0.00033746884123603472 0.012179615330860023 0 0.00067041553517426704 0.011737721550826124 0 -0.00033200403935498938 0.012410067737393914 0 -0.00015713043128069845 0.012168688828547903 0 0.0002438979449230121 0.012605616427431059 0 -0.00015713043128069845 0.012168688828547903 0 0.0002438979449230121 0.012605616427431059 0 0.00033746884123603472 0.012179615330860023 0 -0.00015713043128069845 0.012168688828547903 0 0.00033746884123603472 0.012179615330860023 0 4.9712911975467482e-05 0.011754735171875808 0 0.00033746884123603472 0.012179615330860023 0 4.9712911975467482e-05 0.011754735171875808 0 0.00067041553517426704 0.011737721550826124 0 0.00042235254969326538 0.010238711715384598 0 7.5653694954678763e-08 0.01032095670700026 0 -7.8172307348573223e-07 0.0091056239084293545 0 5.8801625249731169e-05 0.0088610027252609205 0 1.1822887264976635e-06 0.010318701145484379 0 1.1894945754582721e-06 0.010323312011716939 0 -9.7271079053003182e-05 0.011278695185915013 0 -7.3937100984282842e-07 0.011525508646741742 0 4.9712911975467482e-05 0.011754735171875808 0 0.00067041553517426704 0.011737721550826124 0 1.1894945754582721e-06 0.010323312011716939 0 4.9712911975467482e-05 0.011754735171875808 0 1.1894945754582721e-06 0.010323312011716939 0 -9.7271079053003182e-05 0.011278695185915013 0 -9.7271079053003182e-05 0.011278695185915013 0 -7.3937100984282842e-07 0.011525508646741742 0 -0.00022695263985053775 0.011826203230444258 0 -7.3937100984282842e-07 0.011525508646741742 0 -0.00022695263985053775 0.011826203230444258 0 -0.00031839585841163351 0.012223017492926135 0 4.9712911975467482e-05 0.011754735171875808 0 -9.7271079053003182e-05 0.011278695185915013 0 -0.00022695263985053775 0.011826203230444258 0 -0.00015713043128069845 0.012168688828547903 0 4.9712911975467482e-05 0.011754735171875808 0 -0.00022695263985053775 0.011826203230444258 0 -0.00015713043128069845 0.012168688828547903 0 -0.00022695263985053775 0.011826203230444258 0 -0.00035338575482873224 0.012116987978902734 0 -0.00022695263985053775 0.011826203230444258 0 -0.00035338575482873224 0.012116987978902734 0 -0.00031839585841163351 0.012223017492926135 0 -0.00040798176850300616 0.012230185343656554 0 -0.00031839585841163351 0.012223017492926135 0 -0.00029604972668848613 0.01235264482170146 0 -0.00040798176850300616 0.012230185343656554 0 -0.00035338575482873224 0.012116987978902734 0 -0.00031839585841163351 0.012223017492926135 0 -7.3937100984282842e-07 0.011525508646741742 0 -0.00031839585841163351 0.012223017492926135 0 -7.9021655233750618e-07 0.0127306678124906 0 -0.00031839585841163351 0.012223017492926135 0 -7.9021655233750618e-07 0.0127306678124906 0 -0.00012387240015801441 0.012887631743564406 0 1.2315424778281367e-06 0.013933233333017594 0 -0.00012387240015801441 0.012887631743564406 0 0.00051331648417048798 0.013199106787706453 0 -7.9021655233750618e-07 0.0127306678124906 0 1.2315424778281367e-06 0.013933233333017594 0 -0.00012387240015801441 0.012887631743564406 0 -0.00068481974218383341 0.014904445200821698 0 -0.00070836132334443946 0.014935718351393091 0 -0.00070940069872058812 0.014883387286925053 0 -0.00012387240015801441 0.012887631743564406 0 -2.1456569363736435e-05 0.012420339546028801 0 0.00051331648417048798 0.013199106787706453 0 -0.00041571282101987236 0.013588292320142061 0 -4.6150657202224807e-05 0.014633526865174039 0 -2.1456569363736435e-05 0.012420339546028801 0 -0.00029604972668848613 0.01235264482170146 0 -0.00044985734447099748 0.012215636344384939 0 -0.00031839585841163351 0.012223017492926135 0 -0.00012387240015801441 0.012887631743564406 0 -0.00029604972668848613 0.01235264482170146 0 -0.00012387240015801441 0.012887631743564406 0 -2.1456569363736435e-05 0.012420339546028801 0 -0.00029604972668848613 0.01235264482170146 0 -0.00068481974218383341 0.014904445200821698 0 -0.00069552809907274073 0.014759328081966561 0 -0.00067947722687362357 0.014865685338313757 0 -0.00069552809907274073 0.014759328081966561 0 -0.00064935706662468877 0.014656829335985702 0 -0.00067947722687362357 0.014865685338313757 0 -0.00041571282101987236 0.013588292320142061 0 -0.00047042251515234696 0.013477646580771857 0 -0.00064935706662468877 0.014656829335985702 0 -0.00067947722687362357 0.014865685338313757 0 -0.00070345018134015621 0.014798972217506142 0 -0.00068481974218383341 0.014904445200821698 0 -0.00067947722687362357 0.014865685338313757 0 -0.00070836132334443946 0.014935718351393091 0 -0.00067947722687362357 0.014865685338313757 0 -0.00071463116741665082 0.015028066672582659 0 -0.00070836132334443946 0.014935718351393091 0 -0.00067947722687362357 0.014865685338313757 0 -0.00071392507791186394 0.014920311205842229 0 -0.00070345018134015621 0.014798972217506142 0 -0.00067947722687362357 0.014865685338313757 0 -0.00071392507791186394 0.014920311205842229 0 -0.00071463116741665082 0.015028066672582659 0 -0.00071392507791186394 0.014920311205842229 0 -0.00074225140346590205 0.015027320404584613 0 -0.00071463116741665082 0.015028066672582659 0 -0.00071392507791186394 0.014920311205842229 0 -0.00073753821610205892 0.014940342991395583 0 -0.00072464959593220826 0.014868603423320208 0 -0.00071392507791186394 0.014920311205842229 0 -0.00074225140346590205 0.015027320404584613 0 -0.00073753821610205892 0.014940342991395583 0 -0.00073753821610205892 0.014940342991395583 0 -0.00072464959593220826 0.014868603423320208 0 -0.00074269434004911106 0.014895869524038858 0 -0.00072464959593220826 0.014868603423320208 0 -0.00074269434004911106 0.014895869524038858 0 -0.00073176520130993476 0.014832345193393423 0 -0.00072464959593220826 0.014868603423320208 0 -0.00071721636232975096 0.014817947520183684 0 -0.00070345018134015621 0.014798972217506142 0 -0.00072464959593220826 0.014868603423320208 0 -0.00071721636232975096 0.014817947520183684 0 -0.00073176520130993476 0.014832345193393423 0 -0.00072080098571975881 0.014788086107507729 0 -0.00071721636232975096 0.014817947520183684 0 -0.00073176520130993476 0.014832345193393423 0 -0.00072061273233265798 0.01475428024285474 0 -0.00072080098571975881 0.014788086107507729 0 -0.00070234472301791901 0.014762498560861705 0 -0.00072080098571975881 0.014788086107507729 0 -0.00070234472301791901 0.014762498560861705 0 -0.00071721636232975096 0.014817947520183684 0 -0.00070234472301791901 0.014762498560861705 0 -0.00071721636232975096 0.014817947520183684 0 -0.00070345018134015621 0.014798972217506142 0 -0.00070542862013238611 0.01472221531364227 0 -0.00064935706662468877 0.014656829335985702 0 -0.00068592896021225729 0.014734456049769066 0 -0.00070234472301791901 0.014762498560861705 0 -0.00068592896021225729 0.014734456049769066 0 -0.00070345018134015621 0.014798972217506142 0 -0.00064935706662468877 0.014656829335985702 0 -0.00068592896021225729 0.014734456049769066 0 -0.00070345018134015621 0.014798972217506142 0 -0.00071392507791186394 0.014920311205842229 0 -0.00072464959593220826 0.014868603423320208 0 -0.00070345018134015621 0.014798972217506142 0 -0.00075802991139871812 0.015218323961879845 0 -0.00085793414669076975 0.015282179998480661 0 -0.00078065986000769652 0.015526476169282105 0 -0.00075802991139871812 0.015218323961879845 0 -0.00078213661687852505 0.015311507618240211 0 -0.00078065986000769652 0.015526476169282105 0 -0.00075802991139871812 0.015218323961879845 0 -0.00075469818824435385 0.01515970340055204 0 -0.00078213661687852505 0.015311507618240211 0 -0.00074225140346590205 0.015027320404584613 0 -0.00075469818824435385 0.01515970340055204 0 -0.00071463116741665082 0.015028066672582659 0 -0.00075802991139871812 0.015218323961879845 0 -0.00075469818824435385 0.01515970340055204 0 -0.00071463116741665082 0.015028066672582659 0 -0.00071463116741665082 0.015028066672582659 0 -0.00077482483701020531 0.014982778087165197 0 -0.00070836132334443946 0.014935718351393091 0 -0.00075802991139871812 0.015218323961879845 0 -0.00071463116741665082 0.015028066672582659 0 -0.00077482483701020531 0.014982778087165197 0 -0.00075802991139871812 0.015218323961879845 0 -0.00077482483701020531 0.014982778087165197 0 -0.00085793414669076975 0.015282179998480661 0 -0.0003540701888155455 0.015997925522543387 0 -0.00060545765305454176 0.016095656877680053 0 8.0137768497344356e-05 0.016812703229772866 0 0.00019290393183301756 0.016084805750262249 0 -0.00013334521366401789 0.016322203168602587 0 -0.0003540701888155455 0.015997925522543387 0 -4.6150657202224807e-05 0.014633526865174039 0 8.0137768497344356e-05 0.016812703229772866 0 0.00099372559753502622 0.015879554124375451 0 0.00019290393183301756 0.016084805750262249 0 -0.00077482483701020531 0.014982778087165197 0 -0.00070836132334443946 0.014935718351393091 0 -0.00070940069872058812 0.014883387286925053 0 5.6127141848147122e-10 0.013936784450805102 0 -4.2774715588948158e-07 0.014341425643512271 0 -2.1213982930497543e-09 0.014975293796983207 0 0.00099372559753502622 0.015879554124375451 0 0.00019290393183301756 0.016084805750262249 0 1.3959406342022825e-06 0.014979122645725073 0 -4.6150657202224807e-05 0.014633526865174039 0 5.3549607102031327e-07 0.014977168618703298 0 4.2475902649314699e-07 0.013934892463594323 0 -4.6150657202224807e-05 0.014633526865174039 0 0.00019290393183301756 0.016084805750262249 0 1.3959406342022825e-06 0.014979122645725073 0 -0.00013334521366401789 0.016322203168602587 0 1.3959406342022825e-06 0.014979122645725073 0 -0.00013334521366401789 0.016322203168602587 0 -1.068491901902406e-06 0.016449364679315806 0 -0.00013334521366401789 0.016322203168602587 0 -1.068491901902406e-06 0.016449364679315806 0 -0.00036592265710844759 0.017040578703014807 0 -1.068491901902406e-06 0.016449364679315806 0 -0.00036592265710844759 0.017040578703014807 0 -0.00025008141860340198 0.017474682733679255 0 8.0137768497344356e-05 0.016812703229772866 0 -0.00013334521366401789 0.016322203168602587 0 -0.00036592265710844759 0.017040578703014807 0 -9.110517281397694e-08 0.017921519338610043 0 -0.00014617671346858689 0.018136954973343888 0 -7.2755669344245439e-05 0.018710667654562245 0 -1.068491901902406e-06 0.016449364679315806 0 -9.110517281397694e-08 0.017921519338610043 0 -0.00025008141860340198 0.017474682733679255 0 -0.00025008141860340198 0.017474682733679255 0 -0.00014617671346858689 0.018136954973343888 0 -0.00023719608815036172 0.017609435401992786 0 -9.110517281397694e-08 0.017921519338610043 0 -0.00025008141860340198 0.017474682733679255 0 -0.00014617671346858689 0.018136954973343888 0 -0.00013346096300737628 0.017747423686536937 0 -7.3152205210393214e-05 0.018073989017673386 0 -3.2797549980073512e-05 0.017737087840929016 0 -0.00013346096300737628 0.017747423686536937 0 -0.00011749611572404635 0.017465377705297883 0 -3.2797549980073512e-05 0.017737087840929016 0 -0.00014617671346858689 0.018136954973343888 0 -0.00013346096300737628 0.017747423686536937 0 -7.3152205210393214e-05 0.018073989017673386 0 -0.00014617671346858689 0.018136954973343888 0 -0.00013346096300737628 0.017747423686536937 0 -0.00023719608815036172 0.017609435401992786 0 -0.00013346096300737628 0.017747423686536937 0 -0.00019719798362469163 0.017491785107812182 0 -0.00011749611572404635 0.017465377705297883 0 -0.00013346096300737628 0.017747423686536937 0 -0.00019719798362469163 0.017491785107812182 0 -0.00023719608815036172 0.017609435401992786 0 -0.00025008141860340198 0.017474682733679255 0 -0.00023719608815036172 0.017609435401992786 0 -0.0003087089409510625 0.017238870541375781 0 -0.00019719798362469163 0.017491785107812182 0 -0.00023719608815036172 0.017609435401992786 0 -0.0003087089409510625 0.017238870541375781 0 -0.0003087089409510625 0.017238870541375781 0 -0.00029703826974396231 0.016787112326928158 0 -0.00018606574224761522 0.017210926512783196 0 -0.00029703826974396231 0.016787112326928158 0 -0.00017504886975238103 0.016915605476557127 0 -0.00018606574224761522 0.017210926512783196 0 -0.00019719798362469163 0.017491785107812182 0 -0.0003087089409510625 0.017238870541375781 0 -0.00018606574224761522 0.017210926512783196 0 -0.00018606574224761522 0.017210926512783196 0 -0.00011749611572404635 0.017465377705297883 0 -0.00011780173114595473 0.01723397771621165 0 -0.00019719798362469163 0.017491785107812182 0 -0.00018606574224761522 0.017210926512783196 0 -0.00011749611572404635 0.017465377705297883 0 -0.00017504886975238103 0.016915605476557127 0 -0.00018606574224761522 0.017210926512783196 0 -0.00011780173114595473 0.01723397771621165 0 -0.00017504886975238103 0.016915605476557127 0 -0.00011780173114595473 0.01723397771621165 0 -6.6138583043688954e-05 0.017158363190092549 0 -0.00011749611572404635 0.017465377705297883 0 -0.00011780173114595473 0.01723397771621165 0 -3.3642581966335149e-05 0.017343677009843891 0 -0.00011780173114595473 0.01723397771621165 0 -6.6138583043688954e-05 0.017158363190092549 0 -3.3642581966335149e-05 0.017343677009843891 0 -0.00011749611572404635 0.017465377705297883 0 -3.3642581966335149e-05 0.017343677009843891 0 -3.2797549980073512e-05 0.017737087840929016 0 -0.00036592265710844759 0.017040578703014807 0 -0.00044954617493482731 0.016912589868798997 0 -0.00045146558194838013 0.017040237828328576 0 8.0137768497344356e-05 0.016812703229772866 0 -0.00036592265710844759 0.017040578703014807 0 -0.00045146558194838013 0.017040237828328576 0 -0.00036592265710844759 0.017040578703014807 0 -0.0003087089409510625 0.017238870541375781 0 -0.00044954617493482731 0.016912589868798997 0 -0.00036592265710844759 0.017040578703014807 0 -0.00025008141860340198 0.017474682733679255 0 -0.0003087089409510625 0.017238870541375781 0 -0.0003087089409510625 0.017238870541375781 0 -0.00029703826974396231 0.016787112326928158 0 -0.00044954617493482731 0.016912589868798997 0 -0.00029703826974396231 0.016787112326928158 0 -0.00044954617493482731 0.016912589868798997 0 -0.0006728054640870244 0.016129244075942514 0 -0.00085793414669076975 0.015282179998480661 0 -0.0006728054640870244 0.016129244075942514 0 -0.00078065986000769652 0.015526476169282105 0 -0.00044954617493482731 0.016912589868798997 0 -0.00045146558194838013 0.017040237828328576 0 -0.0006728054640870244 0.016129244075942514 0 -0.00060545765305454176 0.016095656877680053 0 -0.0006260265619462878 0.016079201829235883 0 -0.00077245428014156229 0.015561572251350141 0 -0.0006728054640870244 0.016129244075942514 0 -0.00078065986000769652 0.015526476169282105 0 -0.00077245428014156229 0.015561572251350141 0 -0.0006728054640870244 0.016129244075942514 0 -0.00063356340123336746 0.015751590495848983 0 -0.0006728054640870244 0.016129244075942514 0 -0.00063356340123336746 0.015751590495848983 0 -0.00023044295017737211 0.016138155769469073 0 -0.00029703826974396231 0.016787112326928158 0 -0.0006728054640870244 0.016129244075942514 0 -0.00023044295017737211 0.016138155769469073 0 -0.00085273278513060108 0.015649430202177763 0 -0.00048556104560071837 0.016340938003584538 0 -0.00065830579382568789 0.015368630451329246 0 -0.00063356340123336746 0.015751590495848983 0 -0.00023044295017737211 0.016138155769469073 0 -0.00076603491978360818 0.016118850228601548 0 -0.0010643344319635607 0.015910704612330139 0 -0.00070687688397937771 0.016517741745018522 0 -0.00076603491978360818 0.016118850228601548 0 -0.0010643344319635607 0.015910704612330139 0 -0.0009533761878771273 0.015871913835517119 0 -0.00065830579382568789 0.015368630451329246 0 -0.00074532617197880689 0.015450866897971765 0 -0.00077629139833205389 0.015267082830206002 0 -0.00077245428014156229 0.015561572251350141 0 -0.00074532617197880689 0.015450866897971765 0 -0.00078867044320026186 0.015368429687375194 0 -0.00065830579382568789 0.015368630451329246 0 -0.00074532617197880689 0.015450866897971765 0 -0.00063356340123336746 0.015751590495848983 0 -0.00077245428014156229 0.015561572251350141 0 -0.00074532617197880689 0.015450866897971765 0 -0.00063356340123336746 0.015751590495848983 0 -6.6138583043688954e-05 0.017158363190092549 0 -0.00023364021477271981 0.016739865637254242 0 -0.00070687688397937771 0.016517741745018522 0 -6.6138583043688954e-05 0.017158363190092549 0 -3.3642581966335149e-05 0.017343677009843891 0 0.00035652977721515016 0.016889429503242188 0 -6.6138583043688954e-05 0.017158363190092549 0 6.1171463365413084e-05 0.016753113584556556 0 -0.00023364021477271981 0.016739865637254242 0 6.1171463365413084e-05 0.016753113584556556 0 -0.00023364021477271981 0.016739865637254242 0 -0.00021992584673238819 0.016525829383761945 0 -8.1548073712779735e-05 0.017041777126924007 0 -0.00048556104560071837 0.016340938003584538 0 -0.00023364021477271981 0.016739865637254242 0 -0.00070687688397937771 0.016517741745018522 0 -0.00021992584673238819 0.016525829383761945 0 -0.00017504886975238103 0.016915605476557127 0 -6.6138583043688954e-05 0.017158363190092549 0 -0.00023044295017737211 0.016138155769469073 0 -0.00029703826974396231 0.016787112326928158 0 -0.00017504886975238103 0.016915605476557127 0 -0.00023044295017737211 0.016138155769469073 0 -0.00070687688397937771 0.016517741745018522 0 -0.00039033631681897386 0.016203984389406557 0 -0.00021992584673238819 0.016525829383761945 0 -0.00076603491978360818 0.016118850228601548 0 -0.00070687688397937771 0.016517741745018522 0 -0.00039033631681897386 0.016203984389406557 0 -0.00076603491978360818 0.016118850228601548 0 -0.00039033631681897386 0.016203984389406557 0 -0.0005467457423779722 0.01596465425313116 0 6.1171463365413084e-05 0.016753113584556556 0 -0.00021992584673238819 0.016525829383761945 0 -4.7042955599747271e-06 0.016219479897246574 0 -0.00039033631681897386 0.016203984389406557 0 -0.00021992584673238819 0.016525829383761945 0 -4.7042955599747271e-06 0.016219479897246574 0 -0.00025558945650385817 0.015816183257568686 0 0.00031145117890615174 0.015998076576672508 0 0.00017134223771783931 0.015454839986249752 0 -4.7042955599747271e-06 0.016219479897246574 0 -0.00025558945650385817 0.015816183257568686 0 0.00031145117890615174 0.015998076576672508 0 -0.00039033631681897386 0.016203984389406557 0 -4.7042955599747271e-06 0.016219479897246574 0 -0.00025558945650385817 0.015816183257568686 0 -0.00025558945650385817 0.015816183257568686 0 -0.0005467457423779722 0.01596465425313116 0 -0.00076902243962073485 0.015657044220233812 0 -0.00039033631681897386 0.016203984389406557 0 -0.00025558945650385817 0.015816183257568686 0 -0.0005467457423779722 0.01596465425313116 0 -0.0005467457423779722 0.01596465425313116 0 -0.00076419452412603754 0.015899526878321822 0 -0.00076902243962073485 0.015657044220233812 0 -0.00076603491978360818 0.016118850228601548 0 -0.0005467457423779722 0.01596465425313116 0 -0.00076419452412603754 0.015899526878321822 0 -0.00025558945650385817 0.015816183257568686 0 -0.00053858218833417769 0.015315424180900098 0 -0.00076902243962073485 0.015657044220233812 0 -0.00025558945650385817 0.015816183257568686 0 -0.00053858218833417769 0.015315424180900098 0 0.00017134223771783931 0.015454839986249752 0 -0.00097319162865242958 0.015356476763696834 0 -0.0006574908397228345 0.015544644966800362 0 -0.00095131463854113368 0.0158135602401323 0 -0.001112020408710009 0.015484036881021091 0 -0.0010643344319635607 0.015910704612330139 0 -0.0010650844563857057 0.015498334894390052 0 -0.0010707276410603004 0.01542211338964819 0 -0.00085273278513060108 0.015649430202177763 0 -0.00092218214941300119 0.015244823329662578 0 -0.0010643344319635607 0.015910704612330139 0 -0.0009533761878771273 0.015871913835517119 0 -0.0010650844563857057 0.015498334894390052 0 -0.0009533761878771273 0.015871913835517119 0 -0.0010472030372026301 0.015520959824898607 0 -0.0011789243553340701 0.01546985018877399 0 -0.0009533761878771273 0.015871913835517119 0 -0.00076902243962073485 0.015657044220233812 0 -0.0010472030372026301 0.015520959824898607 0 -0.0009533761878771273 0.015871913835517119 0 -0.00076419452412603754 0.015899526878321822 0 -0.00076902243962073485 0.015657044220233812 0 -0.00076603491978360818 0.016118850228601548 0 -0.0009533761878771273 0.015871913835517119 0 -0.00076419452412603754 0.015899526878321822 0 -0.00053858218833417769 0.015315424180900098 0 -0.00076902243962073485 0.015657044220233812 0 -0.0011382306909174225 0.015306165676928135 0 -0.00076902243962073485 0.015657044220233812 0 -0.0010472030372026301 0.015520959824898607 0 -0.0011382306909174225 0.015306165676928135 0 -0.0010472030372026301 0.015520959824898607 0 -0.0011279802357860018 0.015383098161674234 0 -0.0011382306909174225 0.015306165676928135 0 -0.0010472030372026301 0.015520959824898607 0 -0.0011279802357860018 0.015383098161674234 0 -0.0011789243553340701 0.01546985018877399 0 -0.0011316000406814142 0.015354775714831371 0 -0.0011011176851380283 0.015293720825827284 0 -0.0011143368776064906 0.015300134877710751 0 -0.001112020408710009 0.015484036881021091 0 -0.001017154392471576 0.015157482246516906 0 -0.0011279802357860018 0.015383098161674234 0 -0.0011316000406814142 0.015354775714831371 0 -0.0011143368776064906 0.015300134877710751 0 -0.0010650844563857057 0.015498334894390052 0 -0.0010707276410603004 0.01542211338964819 0 -0.00095628909923379038 0.0150792854639294 0 -0.0011011176851380283 0.015293720825827284 0 -0.0011789243553340701 0.01546985018877399 0 -0.0010527489726012583 0.015219089107108031 0 -0.0011279802357860018 0.015383098161674234 0 -0.0011316000406814142 0.015354775714831371 0 -0.0011789243553340701 0.01546985018877399 0 -0.0011316000406814142 0.015354775714831371 0 -0.0011011176851380283 0.015293720825827284 0 -0.0011789243553340701 0.01546985018877399 0 -0.00065830579382568789 0.015368630451329246 0 -0.00080412316865634541 0.015048759760705329 0 -0.00077629139833205389 0.015267082830206002 0 -0.00080412316865634541 0.015048759760705329 0 -0.00081293087886945888 0.015160919525945607 0 -0.00083362462723139501 0.015095972086817056 0 -0.00081293087886945888 0.015160919525945607 0 -0.00083362462723139501 0.015095972086817056 0 -0.00082913076826620854 0.015145265551307177 0 -0.00080412316865634541 0.015048759760705329 0 -0.00081293087886945888 0.015160919525945607 0 -0.00077629139833205389 0.015267082830206002 0 -0.00080412316865634541 0.015048759760705329 0 -0.00084910626033761103 0.015039682931757534 0 -0.00086934950342072031 0.014992660170795986 0 -0.00084493444159618723 0.015059651349695027 0 -0.00085826764031503517 0.014994339266429759 0 -0.00084190933442555079 0.015002140757040419 0 -0.00084493444159618723 0.015059651349695027 0 -0.00084910626033761103 0.015039682931757534 0 -0.00085826764031503517 0.014994339266429759 0 -0.00084493444159618723 0.015059651349695027 0 -0.00083362462723139501 0.015095972086817056 0 -0.00082913076826620854 0.015145265551307177 0 -0.00084493444159618723 0.015059651349695027 0 -0.00083362462723139501 0.015095972086817056 0 -0.00084910626033761103 0.015039682931757534 0 -0.00080412316865634541 0.015048759760705329 0 -0.00083362462723139501 0.015095972086817056 0 -0.00084910626033761103 0.015039682931757534 0 -0.00085826764031503517 0.014994339266429759 0 -0.00086934950342072031 0.014992660170795986 0 -0.00086883790819998669 0.014942110332424466 0 -0.00084910626033761103 0.015039682931757534 0 -0.00085826764031503517 0.014994339266429759 0 -0.00086934950342072031 0.014992660170795986 0 -0.00092218214941300119 0.015244823329662578 0 -0.00091018796301240541 0.015016539671783461 0 -0.0010707276410603004 0.01542211338964819 0 -0.00095628909923379038 0.0150792854639294 0 -0.00091173854430748606 0.014964230950964164 0 -0.00086934950342072031 0.014992660170795986 0 -0.00091173854430748606 0.014964230950964164 0 -0.00088266134540252003 0.014947014243987056 0 -0.00080412316865634541 0.015048759760705329 0 -0.00086934950342072031 0.014992660170795986 0 -0.00091173854430748606 0.014964230950964164 0 -0.0011011176851380283 0.015293720825827284 0 -0.0010527489726012583 0.015219089107108031 0 -0.0010573468296448524 0.015247396767785972 0 -0.001017154392471576 0.015157482246516906 0 -0.00086773871925382464 0.014981595432954098 0 -0.00095628909923379038 0.0150792854639294 0 -0.00091173854430748606 0.014964230950964164 0 -0.00086926341127548275 0.014849569868872677 0 -0.00091173854430748606 0.014964230950964164 0 -0.0008682003065106842 0.014892568973423745 0 -0.00086926341127548275 0.014849569868872677 0 -0.0008682003065106842 0.014892568973423745 0 -0.00084220558144326035 0.014822714193977996 0 -0.00085639312397642895 0.014895982990109654 0 -0.00091173854430748606 0.014964230950964164 0 -0.0008682003065106842 0.014892568973423745 0 -0.00088266134540252003 0.014947014243987056 0 -0.0008682003065106842 0.014892568973423745 0 -0.00088266134540252003 0.014947014243987056 0 -0.00086883790819998669 0.014942110332424466 0 -0.00086934950342072031 0.014992660170795986 0 -0.00088266134540252003 0.014947014243987056 0 -0.00086883790819998669 0.014942110332424466 0 -0.0008682003065106842 0.014892568973423745 0 -0.00086883790819998669 0.014942110332424466 0 -0.00085639312397642895 0.014895982990109654 0 -0.0008682003065106842 0.014892568973423745 0 -0.00084730156012774427 0.014791813923829776 0 -0.00086926341127548275 0.014849569868872677 0 -0.0008682003065106842 0.014892568973423745 0 -0.00084730156012774427 0.014791813923829776 0 -0.00084220558144326035 0.014822714193977996 0 -0.0008311781589405374 0.014728301670983953 0 -0.00084730156012774427 0.014791813923829776 0 -0.00084220558144326035 0.014822714193977996 0 -0.0008311781589405374 0.014728301670983953 0 -0.00084220558144326035 0.014822714193977996 0 -0.00081969273640066832 0.014803184023678711 0 -0.00084220558144326035 0.014822714193977996 0 -0.00081969273640066832 0.014803184023678711 0 -0.00084055983662050643 0.014869545808386149 0 -0.00081969273640066832 0.014803184023678711 0 -0.00084055983662050643 0.014869545808386149 0 -0.00082794464309998456 0.014890114493630365 0 -0.00081969273640066832 0.014803184023678711 0 -0.00082794464309998456 0.014890114493630365 0 -0.00081282030957184062 0.014864449631286924 0 -0.0008311781589405374 0.014728301670983953 0 -0.00081530859572070328 0.01471156408310282 0 -0.00081969273640066832 0.014803184023678711 0 -0.00081530859572070328 0.01471156408310282 0 -0.00081969273640066832 0.014803184023678711 0 -0.00079673753033722037 0.014749339221127811 0 -0.00085826764031503517 0.014994339266429759 0 -0.00086883790819998669 0.014942110332424466 0 -0.00084943724009332324 0.014928868571872327 0 -0.00086883790819998669 0.014942110332424466 0 -0.00085639312397642895 0.014895982990109654 0 -0.00084943724009332324 0.014928868571872327 0 -0.00084220558144326035 0.014822714193977996 0 -0.00085639312397642895 0.014895982990109654 0 -0.00084055983662050643 0.014869545808386149 0 -0.00085639312397642895 0.014895982990109654 0 -0.00084055983662050643 0.014869545808386149 0 -0.00084943724009332324 0.014928868571872327 0 -0.00084055983662050643 0.014869545808386149 0 -0.00082794464309998456 0.014890114493630365 0 -0.00084943724009332324 0.014928868571872327 0 -0.00082794464309998456 0.014890114493630365 0 -0.00084943724009332324 0.014928868571872327 0 -0.00083059516015510646 0.014951598178227962 0 -0.00085826764031503517 0.014994339266429759 0 -0.00084943724009332324 0.014928868571872327 0 -0.00084190933442555079 0.015002140757040419 0 -0.00084943724009332324 0.014928868571872327 0 -0.00084190933442555079 0.015002140757040419 0 -0.00083059516015510646 0.014951598178227962 0 -0.00084190933442555079 0.015002140757040419 0 -0.00082065123427470894 0.015008772446899485 0 -0.00083059516015510646 0.014951598178227962 0 -0.00082065123427470894 0.015008772446899485 0 -0.00083059516015510646 0.014951598178227962 0 -0.00080781894356864419 0.014928070259800679 0 -0.00082794464309998456 0.014890114493630365 0 -0.00080781894356864419 0.014928070259800679 0 -0.00081282030957184062 0.014864449631286924 0 -0.00082794464309998456 0.014890114493630365 0 -0.00083059516015510646 0.014951598178227962 0 -0.00080781894356864419 0.014928070259800679 0 -0.00080781894356864419 0.014928070259800679 0 -0.00079258536720074697 0.014995696507393909 0 -0.00078292248322495627 0.014901410206565187 0 -0.00082065123427470894 0.015008772446899485 0 -0.00080781894356864419 0.014928070259800679 0 -0.00079258536720074697 0.014995696507393909 0 -0.00082065123427470894 0.015008772446899485 0 -0.00079258536720074697 0.014995696507393909 0 -0.00080713602533797333 0.015097311559737902 0 -0.00081969273640066832 0.014803184023678711 0 -0.00079673753033722037 0.014749339221127811 0 -0.00079396770111698914 0.014836729164986972 0 -0.00081969273640066832 0.014803184023678711 0 -0.00081282030957184062 0.014864449631286924 0 -0.00079396770111698914 0.014836729164986972 0 -0.00080781894356864419 0.014928070259800679 0 -0.00081282030957184062 0.014864449631286924 0 -0.00079396770111698914 0.014836729164986972 0 -0.00080781894356864419 0.014928070259800679 0 -0.00078292248322495627 0.014901410206565187 0 -0.00079396770111698914 0.014836729164986972 0 -0.00078292248322495627 0.014901410206565187 0 -0.0007741591702652269 0.01483801110564421 0 -0.00079396770111698914 0.014836729164986972 0 -0.00079673753033722037 0.014749339221127811 0 -0.00079396770111698914 0.014836729164986972 0 -0.00077976603544553517 0.014787504076866589 0 -0.0007741591702652269 0.01483801110564421 0 -0.00079396770111698914 0.014836729164986972 0 -0.00077976603544553517 0.014787504076866589 0 -0.0007741591702652269 0.01483801110564421 0 -0.00077976603544553517 0.014787504076866589 0 -0.00075896821215936457 0.014790015506545101 0 -0.00077775608095303431 0.01472402034954322 0 -0.00077976603544553517 0.014787504076866589 0 -0.00075896821215936457 0.014790015506545101 0 -0.00077775608095303431 0.01472402034954322 0 -0.00079673753033722037 0.014749339221127811 0 -0.00077976603544553517 0.014787504076866589 0 -0.0007741591702652269 0.01483801110564421 0 -0.00075896821215936457 0.014790015506545101 0 -0.00075767290296249604 0.014869487002351958 0 -0.00075896821215936457 0.014790015506545101 0 -0.00075767290296249604 0.014869487002351958 0 -0.00074347037895965606 0.014811791717540367 0 -0.00078292248322495627 0.014901410206565187 0 -0.0007741591702652269 0.01483801110564421 0 -0.00075767290296249604 0.014869487002351958 0 -0.00075767290296249604 0.014869487002351958 0 -0.00074269434004911106 0.014895869524038858 0 -0.00073176520130993476 0.014832345193393423 0 -0.00075767290296249604 0.014869487002351958 0 -0.00074269434004911106 0.014895869524038858 0 -0.00076168607064063128 0.014957785460283916 0 -0.00075767290296249604 0.014869487002351958 0 -0.00074347037895965606 0.014811791717540367 0 -0.00073176520130993476 0.014832345193393423 0 -0.00072080098571975881 0.014788086107507729 0 -0.00074347037895965606 0.014811791717540367 0 -0.00073176520130993476 0.014832345193393423 0 -0.00073661113920586816 0.014769538376606684 0 -0.00072080098571975881 0.014788086107507729 0 -0.00074347037895965606 0.014811791717540367 0 -0.00073661113920586816 0.014769538376606684 0 -0.00075896821215936457 0.014790015506545101 0 -0.00074347037895965606 0.014811791717540367 0 -0.00079258536720074697 0.014995696507393909 0 -0.00077353584184138978 0.015076724710496738 0 -0.00080713602533797333 0.015097311559737902 0 -0.00079258536720074697 0.014995696507393909 0 -0.00076168607064063128 0.014957785460283916 0 -0.00077353584184138978 0.015076724710496738 0 -0.00079258536720074697 0.014995696507393909 0 -0.00078292248322495627 0.014901410206565187 0 -0.00076168607064063128 0.014957785460283916 0 -0.00078292248322495627 0.014901410206565187 0 -0.00075767290296249604 0.014869487002351958 0 -0.00076168607064063128 0.014957785460283916 0 -0.00074225140346590205 0.015027320404584613 0 -0.00073753821610205892 0.014940342991395583 0 -0.00076168607064063128 0.014957785460283916 0 -0.00073753821610205892 0.014940342991395583 0 -0.00074269434004911106 0.014895869524038858 0 -0.00076168607064063128 0.014957785460283916 0 -0.00074225140346590205 0.015027320404584613 0 -0.00076168607064063128 0.014957785460283916 0 -0.00077353584184138978 0.015076724710496738 0 -0.00075469818824435385 0.01515970340055204 0 -0.00077353584184138978 0.015076724710496738 0 -0.00079300858195384091 0.015203329209039817 0 -0.00074225140346590205 0.015027320404584613 0 -0.00075469818824435385 0.01515970340055204 0 -0.00077353584184138978 0.015076724710496738 0 -0.00077353584184138978 0.015076724710496738 0 -0.00079300858195384091 0.015203329209039817 0 -0.00080713602533797333 0.015097311559737902 0 -0.00079300858195384091 0.015203329209039817 0 -0.00080022156441682062 0.015343399360142937 0 -0.000816200882643619 0.015193046730358128 0 -0.00075469818824435385 0.01515970340055204 0 -0.00079300858195384091 0.015203329209039817 0 -0.00078213661687852505 0.015311507618240211 0 -0.00078213661687852505 0.015311507618240211 0 -0.00078065986000769652 0.015526476169282105 0 -0.00080022156441682062 0.015343399360142937 0 -0.00077245428014156229 0.015561572251350141 0 -0.00078065986000769652 0.015526476169282105 0 -0.00080022156441682062 0.015343399360142937 0 -0.00079300858195384091 0.015203329209039817 0 -0.00078213661687852505 0.015311507618240211 0 -0.00080022156441682062 0.015343399360142937 0 -0.00080022156441682062 0.015343399360142937 0 -0.00081039128074229729 0.015251736877631112 0 -0.000816200882643619 0.015193046730358128 0 -0.00077245428014156229 0.015561572251350141 0 -0.00080022156441682062 0.015343399360142937 0 -0.00078867044320026186 0.015368429687375194 0 -0.00080022156441682062 0.015343399360142937 0 -0.00078867044320026186 0.015368429687375194 0 -0.00081039128074229729 0.015251736877631112 0 -0.00074532617197880689 0.015450866897971765 0 -0.00078867044320026186 0.015368429687375194 0 -0.00077629139833205389 0.015267082830206002 0 -0.00078867044320026186 0.015368429687375194 0 -0.00077629139833205389 0.015267082830206002 0 -0.00081039128074229729 0.015251736877631112 0 -0.00081293087886945888 0.015160919525945607 0 -0.00081039128074229729 0.015251736877631112 0 -0.00082913076826620854 0.015145265551307177 0 -0.00081039128074229729 0.015251736877631112 0 -0.00082913076826620854 0.015145265551307177 0 -0.000816200882643619 0.015193046730358128 0 -0.00081293087886945888 0.015160919525945607 0 -0.00077629139833205389 0.015267082830206002 0 -0.00081039128074229729 0.015251736877631112 0 -0.00082913076826620854 0.015145265551307177 0 -0.00083011040955672079 0.015085678086240254 0 -0.000816200882643619 0.015193046730358128 0 -0.00084493444159618723 0.015059651349695027 0 -0.00082913076826620854 0.015145265551307177 0 -0.00083011040955672079 0.015085678086240254 0 -0.00084493444159618723 0.015059651349695027 0 -0.00084190933442555079 0.015002140757040419 0 -0.00083011040955672079 0.015085678086240254 0 -0.00084190933442555079 0.015002140757040419 0 -0.00082065123427470894 0.015008772446899485 0 -0.00083011040955672079 0.015085678086240254 0 -0.00082065123427470894 0.015008772446899485 0 -0.00083011040955672079 0.015085678086240254 0 -0.00080713602533797333 0.015097311559737902 0 -0.00083011040955672079 0.015085678086240254 0 -0.00080713602533797333 0.015097311559737902 0 -0.000816200882643619 0.015193046730358128 0 -0.00079300858195384091 0.015203329209039817 0 -0.00080713602533797333 0.015097311559737902 0 -0.000816200882643619 0.015193046730358128 0 5.7246378411402367e-09 0.024999788414352599 0 3.5567161688367089e-05 0.024713390501290414 0 2.7362379658420335e-08 0.024999728215349903 0 -1.1481391869341237e-07 0.024999756878089481 0 -0.00010149381074167091 0.024492464469481195 0 3.5567161688367089e-05 0.024713390501290414 0 7.582369770245459e-05 0.024871072822339059 0 2.7362379658420335e-08 0.024999728215349903 0 3.5567161688367089e-05 0.024713390501290414 0 0.00017725722579440769 0.024744293900990314 0 7.582369770245459e-05 0.024871072822339059 0 -0.00019208380154493767 0.024251627005878337 0 -0.00020414047905371641 0.023949553257434666 0 -7.5456170374436649e-05 0.023318422862378018 0 -3.9286205552678088e-07 0.024997662899254373 0 -0.00019208380154493767 0.024251627005878337 0 -0.00020414047905371641 0.023949553257434666 0 -9.7507545473037453e-08 0.024998702177388893 0 -0.00020414047905371641 0.023949553257434666 0 -2.9570359565114795e-07 0.022594492540682205 0 -3.9286205552678088e-07 0.024997662899254373 0 -9.7507545473037453e-08 0.024998702177388893 0 -0.00020414047905371641 0.023949553257434666 0 -0.00020414047905371641 0.023949553257434666 0 4.7736512899840497e-05 0.02199305423796245 0 -7.5456170374436649e-05 0.023318422862378018 0 -0.00020683351710708175 0.023637579953356757 0 8.9193190792128527e-05 0.022649883456551858 0 -0.00020414047905371641 0.023949553257434666 0 1.7673869042537567e-05 0.023212041888520243 0 -2.9570359565114795e-07 0.022594492540682205 0 4.7736512899840497e-05 0.02199305423796245 0 0.00038556907960457233 0.022524548538956236 0 -7.5456170374436649e-05 0.023318422862378018 0 8.9193190792128527e-05 0.022649883456551858 0 0.00050788907858367936 0.02154568109945568 0 1.7673869042537567e-05 0.023212041888520243 0 -2.9570359565114795e-07 0.022594492540682205 0 5.8592863079019532e-05 0.022219445275451472 0 4.7736512899840497e-05 0.02199305423796245 0 0.0007740604205175107 0.021619745553643689 0 0.0011490193272231193 0.020826833569512544 0 4.7736512899840497e-05 0.02199305423796245 0 0.0007740604205175107 0.021619745553643689 0 0.00038556907960457233 0.022524548538956236 0 0.0007740604205175107 0.021619745553643689 0 0.00038556907960457233 0.022524548538956236 0 0.00078676888343260666 0.022317524507916731 0 0.00045315322357180769 0.023263956450167832 0 -7.1767998142957492e-06 0.023762140188358184 0 0.0011286206565199613 0.023839052970833118 0 0.00078676888343260666 0.022317524507916731 0 0.00045315322357180769 0.023263956450167832 0 0.0010390024295177437 0.022824531696475095 0 0.00045315322357180769 0.023263956450167832 0 0.0011286206565199613 0.023839052970833118 0 0.0010390024295177437 0.022824531696475095 0 0.00038556907960457233 0.022524548538956236 0 0.00078676888343260666 0.022317524507916731 0 0.00045315322357180769 0.023263956450167832 0 0.00038556907960457233 0.022524548538956236 0 0.00045315322357180769 0.023263956450167832 0 -7.5456170374436649e-05 0.023318422862378018 0 -0.00019208380154493767 0.024251627005878337 0 -7.5456170374436649e-05 0.023318422862378018 0 -7.1767998142957492e-06 0.023762140188358184 0 0.00045315322357180769 0.023263956450167832 0 -7.5456170374436649e-05 0.023318422862378018 0 -7.1767998142957492e-06 0.023762140188358184 0 3.5567161688367089e-05 0.024713390501290414 0 0.00030106527998335171 0.024317498928876531 0 0.00017725722579440769 0.024744293900990314 0 -0.00010149381074167091 0.024492464469481195 0 0.00021095208192828087 0.024068632708869633 0 0.00030106527998335171 0.024317498928876531 0 0.00076699153809216519 0.02455858348152605 0 0.00017725722579440769 0.024744293900990314 0 0.00021095208192828087 0.024068632708869633 0 0.0010767407007895003 0.02387594867556124 0 0.00030106527998335171 0.024317498928876531 0 0.00076699153809216519 0.02455858348152605 0 0.0011286206565199613 0.023839052970833118 0 0.0015604893503243843 0.021133593877498788 0 0.0012251093996149397 0.020835295669118556 0 0.00096446080241064313 0.018012294214979442 0 0.0015204339324793854 0.018433596205729774 0 0.001362549540991424 0.017459695978678903 0 0.00076699153809216519 0.02455858348152605 0 0.0011286206565199613 0.023839052970833118 0 0.0013932771732849038 0.024951796187466027 0 0.0011286206565199613 0.023839052970833118 0 0.001675491353416328 0.023700366982552019 0 0.0013932771732849038 0.024951796187466027 0 0.00096446080241064313 0.018012294214979442 0 0.00085784393736417961 0.018583586356805234 0 0.0015204339324793854 0.018433596205729774 0 0.00096446080241064313 0.018012294214979442 0 0.00054060227126800388 0.018215197636251502 0 0.00026940576279041738 0.01773333211370896 0 0.00096446080241064313 0.018012294214979442 0 0.00054060227126800388 0.018215197636251502 0 0.00085784393736417961 0.018583586356805234 0 0.00054060227126800388 0.018215197636251502 0 0.00085784393736417961 0.018583586356805234 0 0.00027366415413184473 0.018831964225223846 0 0.00085784393736417961 0.018583586356805234 0 0.00078598779803019719 0.019369525059131389 0 0.00027366415413184473 0.018831964225223846 0 0.0015604893503243843 0.021133593877498788 0 0.0014223456133795717 0.020681778355101883 0 0.00078598779803019719 0.019369525059131389 0 0.0015204339324793854 0.018433596205729774 0 0.0013675570031245307 0.020674623855677896 0 0.001675491353416328 0.023700366982552019 0 0.0010390024295177437 0.022824531696475095 0 0.0013675570031245307 0.020674623855677896 0 0.00085784393736417961 0.018583586356805234 0 0.00078598779803019719 0.019369525059131389 0 0.0015204339324793854 0.018433596205729774 0 0.0011286206565199613 0.023839052970833118 0 0.001675491353416328 0.023700366982552019 0 0.0010390024295177437 0.022824531696475095 0 -2.9570359565114795e-07 0.022594492540682205 0 5.8592863079019532e-05 0.022219445275451472 0 5.8964814821634682e-07 0.020866975944797621 0 0.0007740604205175107 0.021619745553643689 0 0.00078676888343260666 0.022317524507916731 0 0.0013675570031245307 0.020674623855677896 0 0.00078676888343260666 0.022317524507916731 0 0.0010390024295177437 0.022824531696475095 0 0.0013675570031245307 0.020674623855677896 0 0.0007740604205175107 0.021619745553643689 0 0.0013675570031245307 0.020674623855677896 0 0.0011490193272231193 0.020826833569512544 0 0.0013675570031245307 0.020674623855677896 0 0.0011490193272231193 0.020826833569512544 0 2.7754976496406307e-06 0.020864728561107753 0 0.00050788907858367936 0.02154568109945568 0 1.7189897084991163e-07 0.020866663607605779 0 2.7754976496406307e-06 0.020864728561107753 0 0.00044775529490438676 0.019876710529145171 0 8.0611504351596542e-05 0.019459246342985792 0 0.0013675570031245307 0.020674623855677896 0 2.7754976496406307e-06 0.020864728561107753 0 0.00044775529490438676 0.019876710529145171 0 0.00078598779803019719 0.019369525059131389 0 0.0013675570031245307 0.020674623855677896 0 0.00044775529490438676 0.019876710529145171 0 0.00078598779803019719 0.019369525059131389 0 0.00044775529490438676 0.019876710529145171 0 0.00027366415413184473 0.018831964225223846 0 0.00044775529490438676 0.019876710529145171 0 8.0611504351596542e-05 0.019459246342985792 0 0.00027366415413184473 0.018831964225223846 0 8.0611504351596542e-05 0.019459246342985792 0 -1.7960634649202729e-05 0.018629000933406616 0 0.00027366415413184473 0.018831964225223846 0 2.7754976496406307e-06 0.020864728561107753 0 8.0611504351596542e-05 0.019459246342985792 0 -7.4343683914181509e-07 0.019393929955448599 0 8.0611504351596542e-05 0.019459246342985792 0 -7.2755669344245439e-05 0.018710667654562245 0 -7.4343683914181509e-07 0.019393929955448599 0 -9.110517281397694e-08 0.017921519338610043 0 -7.2755669344245439e-05 0.018710667654562245 0 -7.4343683914181509e-07 0.019393929955448599 0 -0.00014617671346858689 0.018136954973343888 0 -1.7960634649202729e-05 0.018629000933406616 0 -7.3152205210393214e-05 0.018073989017673386 0 8.0611504351596542e-05 0.019459246342985792 0 -7.2755669344245439e-05 0.018710667654562245 0 -1.7960634649202729e-05 0.018629000933406616 0 -0.00014617671346858689 0.018136954973343888 0 -7.2755669344245439e-05 0.018710667654562245 0 -1.7960634649202729e-05 0.018629000933406616 0 -7.3152205210393214e-05 0.018073989017673386 0 2.9829673156284426e-05 0.018098950726528593 0 -3.2797549980073512e-05 0.017737087840929016 0 -1.7960634649202729e-05 0.018629000933406616 0 -7.3152205210393214e-05 0.018073989017673386 0 2.9829673156284426e-05 0.018098950726528593 0 -1.7960634649202729e-05 0.018629000933406616 0 2.9829673156284426e-05 0.018098950726528593 0 0.00027366415413184473 0.018831964225223846 0 2.9829673156284426e-05 0.018098950726528593 0 0.00027366415413184473 0.018831964225223846 0 0.0002326867326566485 0.018133182892162921 0 0.00054060227126800388 0.018215197636251502 0 0.00027366415413184473 0.018831964225223846 0 0.0002326867326566485 0.018133182892162921 0 0.00054060227126800388 0.018215197636251502 0 0.0002326867326566485 0.018133182892162921 0 0.00026940576279041738 0.01773333211370896 0 0.0002326867326566485 0.018133182892162921 0 0.00010191355690870101 0.017794905938266384 0 0.00026940576279041738 0.01773333211370896 0 -3.3642581966335149e-05 0.017343677009843891 0 -3.2797549980073512e-05 0.017737087840929016 0 0.00010191355690870101 0.017794905938266384 0 -3.3642581966335149e-05 0.017343677009843891 0 0.00010191355690870101 0.017794905938266384 0 0.00026940576279041738 0.01773333211370896 0 -0.00010975456736182116 0.017537116798010573 0 0.00069334942408690676 0.016829629692052348 0 2.9829673156284426e-05 0.018098950726528593 0 -3.2797549980073512e-05 0.017737087840929016 0 0.00010191355690870101 0.017794905938266384 0 2.9829673156284426e-05 0.018098950726528593 0 0.0002326867326566485 0.018133182892162921 0 0.00010191355690870101 0.017794905938266384 0 -3.3642581966335149e-05 0.017343677009843891 0 0.00035652977721515016 0.016889429503242188 0 0.00086370068996594594 0.01706427051215877 0 6.1171463365413084e-05 0.016753113584556556 0 0.00035652977721515016 0.016889429503242188 0 0.00030024126235256125 0.016432057248885999 0 -6.6138583043688954e-05 0.017158363190092549 0 6.1171463365413084e-05 0.016753113584556556 0 0.00035652977721515016 0.016889429503242188 0 0.00086370068996594594 0.01706427051215877 0 0.00075682484890728032 0.016403054029358436 0 0.0012418308483158581 0.016611696425648477 0 0.00035652977721515016 0.016889429503242188 0 0.00086370068996594594 0.01706427051215877 0 0.00075682484890728032 0.016403054029358436 0 0.00035652977721515016 0.016889429503242188 0 0.00075682484890728032 0.016403054029358436 0 0.00030024126235256125 0.016432057248885999 0 0.00075682484890728032 0.016403054029358436 0 0.00030024126235256125 0.016432057248885999 0 0.00031145117890615174 0.015998076576672508 0 6.1171463365413084e-05 0.016753113584556556 0 -4.7042955599747271e-06 0.016219479897246574 0 0.00030024126235256125 0.016432057248885999 0 -4.7042955599747271e-06 0.016219479897246574 0 0.00030024126235256125 0.016432057248885999 0 0.00031145117890615174 0.015998076576672508 0 0.00031145117890615174 0.015998076576672508 0 0.00017134223771783931 0.015454839986249752 0 0.00092475383655704667 0.01567421151864715 0 -0.0006574908397228345 0.015544644966800362 0 -0.00043621918393625751 0.015092454136800019 0 -0.0016558243272992985 0.01556746458386116 0 -0.0016799868738271145 0.015621486336068241 0 -0.0016238753528719976 0.015596127819961558 0 -0.001552763172514263 0.015494688047902239 0 -0.0016558243272992985 0.01556746458386116 0 -0.0016238753528719976 0.015596127819961558 0 0.00075682484890728032 0.016403054029358436 0 0.00092475383655704667 0.01567421151864715 0 0.0012498168034680427 0.016217512404450508 0 0.00075682484890728032 0.016403054029358436 0 0.00031145117890615174 0.015998076576672508 0 0.00092475383655704667 0.01567421151864715 0 0.00092475383655704667 0.01567421151864715 0 0.001658779286058217 0.015914673088323235 0 0.0012498168034680427 0.016217512404450508 0 -0.00043621918393625751 0.015092454136800019 0 -0.00016706968712324998 0.020087418160380503 0 -0.0016558243272992985 0.01556746458386116 0 -0.0016968886719814125 0.015618554333187828 0 -0.0016799868738271145 0.015621486336068241 0 -0.0016558243272992985 0.01556746458386116 0 -0.0016968886719814125 0.015618554333187828 0 -0.0017034670334345476 0.015627890204533156 0 -0.00016706968712324998 0.020087418160380503 0 -0.001146157863893861 0.019827225757941956 0 -2.3665962783702224e-05 0.024292748173920492 0 -1.8701101264446714e-05 0.024614432489075938 0 -0.00039151297039248468 0.023965264338225982 0 -1.8701101264446714e-05 0.024614432489075938 0 -0.00017650330372213861 0.02488679100783794 0 -0.00039151297039248468 0.023965264338225982 0 -0.0016968886719814125 0.015618554333187828 0 -0.0017034670334345476 0.015627890204533156 0 -0.0017398721739808991 0.015660751114161479 0 0.00014756430464497948 0.024829088411908281 0 0.00017741743450766387 0.024828772383973553 0 0.00013520019344768081 0.024846766723600769 0 -0.00016706968712324998 0.020087418160380503 0 0.00092666770600967991 0.020689484597513463 0 -0.00016706968712324998 0.020087418160380503 0 0.00061804791977997174 0.022858059261983438 0 -1.8701101264446714e-05 0.024614432489075938 0 -0.00017650330372213861 0.02488679100783794 0 0.00013520019344768081 0.024846766723600769 0 0.001658779286058217 0.015914673088323235 0 0.0016655853002485281 0.016428300065860536 0 0.0012498168034680427 0.016217512404450508 0 0.00092666770600967991 0.020689484597513463 0 0.0012251093996149397 0.020835295669118556 0 0.00017741743450766387 0.024828772383973553 0 0.00019369774638797432 0.02488388442868875 0 0.00021779952104282354 0.024847771064422292 0 0.00017741743450766387 0.024828772383973553 0 0.00021779952104282354 0.024847771064422292 0 0.00013520019344768081 0.024846766723600769 0 0.0016655853002485281 0.016428300065860536 0 0.0012418308483158581 0.016611696425648477 0 0.0016652650016028539 0.016936373427983254 0 0.00075682484890728032 0.016403054029358436 0 0.0012498168034680427 0.016217512404450508 0 0.0012418308483158581 0.016611696425648477 0 0.0016655853002485281 0.016428300065860536 0 0.0012498168034680427 0.016217512404450508 0 0.0012418308483158581 0.016611696425648477 0 0.00086370068996594594 0.01706427051215877 0 0.0012418308483158581 0.016611696425648477 0 0.0016652650016028539 0.016936373427983254 0 0.00096446080241064313 0.018012294214979442 0 0.00026940576279041738 0.01773333211370896 0 0.001362549540991424 0.017459695978678903 0 0.00069334942408690676 0.016829629692052348 0 0.0012251093996149397 0.020835295669118556 0 0.0012251093996149397 0.020835295669118556 0 5.0579434017726094e-05 0.025627805683941154 0 0.00076699153809216519 0.02455858348152605 0 0.0013932771732849038 0.024951796187466027 0 0.00034381094213911944 0.024907929572544084 0 0.00019369774638797432 0.02488388442868875 0 0.00034381094213911944 0.024907929572544084 0 0.00021779952104282354 0.024847771064422292 0 0.00076699153809216519 0.02455858348152605 0 0.00034381094213911944 0.024907929572544084 0 0.00017725722579440769 0.024744293900990314 0 0.00034381094213911944 0.024907929572544084 0 0.00017725722579440769 0.024744293900990314 0 0.00016037376679888253 0.024888717571926861 0 0.00034381094213911944 0.024907929572544084 0 0.00021785709266135053 0.024861636759611738 0 0.00016037376679888253 0.024888717571926861 0 0.00034381094213911944 0.024907929572544084 0 0.00021785709266135053 0.024861636759611738 0 0.00021779952104282354 0.024847771064422292 0 0.00021779952104282354 0.024847771064422292 0 0.0002096154733731339 0.024820852540858217 0 0.00013520019344768081 0.024846766723600769 0 0.00021785709266135053 0.024861636759611738 0 0.00021779952104282354 0.024847771064422292 0 0.0002096154733731339 0.024820852540858217 0 0.0002096154733731339 0.024820852540858217 0 0.00013520019344768081 0.024846766723600769 0 0.00021876614823193593 0.024705763352335122 0 -1.8701101264446714e-05 0.024614432489075938 0 0.00013520019344768081 0.024846766723600769 0 0.00021876614823193593 0.024705763352335122 0 -2.3665962783702224e-05 0.024292748173920492 0 -1.8701101264446714e-05 0.024614432489075938 0 0.00021876614823193593 0.024705763352335122 0 0.00021876614823193593 0.024705763352335122 0 0.00017219524710923467 0.024832077331764728 0 0.00011225265544927966 0.024891592534750116 0 0.00010141367702743445 0.024900170803362043 0 0.00011721646269696268 0.024900415012899905 0 0.0002096154733731339 0.024820852540858217 0 0.00021876614823193593 0.024705763352335122 0 0.00017219524710923467 0.024832077331764728 0 0.00021785709266135053 0.024861636759611738 0 0.0002096154733731339 0.024820852540858217 0 0.00017219524710923467 0.024832077331764728 0 0.00021785709266135053 0.024861636759611738 0 0.00017219524710923467 0.024832077331764728 0 0.00016037376679888253 0.024888717571926861 0 3.3025229024218694e-05 0.024954573670210544 0 1.1673671152314282e-05 0.024983048518058222 0 4.0763700893286597e-06 0.024995017770463316 0 0.00010141367702743445 0.024900170803362043 0 5.5125113935410407e-05 0.024938192227103844 0 3.3025229024218694e-05 0.024954573670210544 0 1.8052021185440541e-08 0.024999948917237592 0 2.9461148890342622e-05 0.024963968359264524 0 3.3025229024218694e-05 0.024954573670210544 0 1.8052021185440541e-08 0.024999948917237592 0 1.1673671152314282e-05 0.024983048518058222 0 1.8052021185440541e-08 0.024999948917237592 0 1.1673671152314282e-05 0.024983048518058222 0 1.4576523886556888e-08 0.024999975584355804 0 1.1673671152314282e-05 0.024983048518058222 0 1.4576523886556888e-08 0.024999975584355804 0 4.0763700893286597e-06 0.024995017770463316 0 1.4576523886556888e-08 0.024999975584355804 0 4.0763700893286597e-06 0.024995017770463316 0 -6.0313903110292407e-09 0.02500000624009837 0 0.00011593197780342342 0.024892817555693718 0 0.00016037376679888253 0.024888717571926861 0 7.582369770245459e-05 0.024871072822339059 0 0.00017219524710923467 0.024832077331764728 0 0.00011593197780342342 0.024892817555693718 0 0.00016037376679888253 0.024888717571926861 0 0.00017725722579440769 0.024744293900990314 0 0.00016037376679888253 0.024888717571926861 0 7.582369770245459e-05 0.024871072822339059 0 5.5125113935410407e-05 0.024938192227103844 0 1.0991890949068228e-08 0.024999958658712004 0 0.00011593197780342342 0.024892817555693718 0 7.582369770245459e-05 0.024871072822339059 0 2.7362379658420335e-08 0.024999728215349903 0 -4.2924178396146966e-09 0.024981248110509509 0 1.2850836470730553e-05 0.024979836989312665 0 2.3924038597338188e-08 0.024999953948673052 0 1.2850836470730553e-05 0.024979836989312665 0 5.218766720019345e-05 0.024956087764230559 0 2.3924038597338188e-08 0.024999953948673052 0 -4.2924178396146966e-09 0.024981248110509509 0 1.2850836470730553e-05 0.024979836989312665 0 5.218766720019345e-05 0.024956087764230559 0 6.5938572291418497e-05 0.024949816745812196 0 0.00010015598255797769 0.024940570576449238 0 0.00014528185819938673 0.024925399305695248 0 0.00014011671124145432 0.02492556794153802 0 0.00013882504370614059 0.024921262562975721 0 0.00014011671124145432 0.02492556794153802 0 0.00013882504370614059 0.024921262562975721 0 0.00013637485796354662 0.024925906063711607 0 0.00014011671124145432 0.02492556794153802 0 0.00014039459023022259 0.024929832065448538 0 0.00013637485796354662 0.024925906063711607 0 0.00014528185819938673 0.024925399305695248 0 0.00014011671124145432 0.02492556794153802 0 0.00014039459023022259 0.024929832065448538 0 6.5938572291418497e-05 0.024949816745812196 0 9.1690333160818809e-05 0.024965292679217564 0 1.0806951117485557e-09 0.024981331439097153 0 3.5491437917701202e-05 0.025004437530904689 0 9.3414312565681668e-06 0.024994959755826343 0 1.0806951117485557e-09 0.024981331439097153 0 9.3414312565681668e-06 0.024994959755826343 0 1.9102873193852948e-08 0.024999951336823936 0 9.3414312565681668e-06 0.024994959755826343 0 1.9102873193852948e-08 0.024999951336823936 0 2.9461148890342622e-05 0.024963968359264524 0 1.8052021185440541e-08 0.024999948917237592 0 1.9102873193852948e-08 0.024999951336823936 0 2.9461148890342622e-05 0.024963968359264524 0 3.3025229024218694e-05 0.024954573670210544 0 2.9461148890342622e-05 0.024963968359264524 0 0.00011225265544927966 0.024891592534750116 0 3.5491437917701202e-05 0.025004437530904689 0 9.3414312565681668e-06 0.024994959755826343 0 2.9461148890342622e-05 0.024963968359264524 0 3.5491437917701202e-05 0.025004437530904689 0 2.9461148890342622e-05 0.024963968359264524 0 7.9247145281846837e-05 0.024951927176214611 0 9.1690333160818809e-05 0.024965292679217564 0 0.00014431286861776388 0.024943757921770036 0 0.00014039459023022259 0.024929832065448538 0 0.00014985872386376439 0.024942397877030498 0 0.00014157170128680543 0.02493282541505841 0 3.5491437917701202e-05 0.025004437530904689 0 7.9247145281846837e-05 0.024951927176214611 0 0.00014985872386376439 0.024942397877030498 0 2.9461148890342622e-05 0.024963968359264524 0 7.9247145281846837e-05 0.024951927176214611 0 0.00011225265544927966 0.024891592534750116 0 7.9247145281846837e-05 0.024951927176214611 0 0.00011225265544927966 0.024891592534750116 0 0.00014985872386376439 0.024942397877030498 0 0.00021876614823193593 0.024705763352335122 0 0.00011225265544927966 0.024891592534750116 0 0.00018555128146621297 0.024924943534025936 0 0.00023294744238860213 0.024663491098392755 0 0.0002596265758418828 0.024242399472109419 0 -2.3665962783702224e-05 0.024292748173920492 0 0.00021876614823193593 0.024705763352335122 0 0.000356084555602383 0.02357291798535106 0 0.00011225265544927966 0.024891592534750116 0 0.00018555128146621297 0.024924943534025936 0 0.00014985872386376439 0.024942397877030498 0 0.000356084555602383 0.02357291798535106 0 0.00032388410554663901 0.022298818041591034 0 -0.00046072670856251666 0.02254309525512484 0 0.0002596265758418828 0.024242399472109419 0 0.00022759530471554504 0.023619220710367067 0 0.00018555128146621297 0.024924943534025936 0 0.00014985872386376439 0.024942397877030498 0 0.00013591256792601605 0.024932569176369726 0 0.00014985872386376439 0.024942397877030498 0 0.00013591256792601605 0.024932569176369726 0 0.00014157170128680543 0.02493282541505841 0 0.00014039459023022259 0.024929832065448538 0 0.00014157170128680543 0.02493282541505841 0 0.00013637485796354662 0.024925906063711607 0 0.00013591256792601605 0.024932569176369726 0 0.00014157170128680543 0.02493282541505841 0 0.00013637485796354662 0.024925906063711607 0 0.00013882504370614059 0.024921262562975721 0 0.00013637485796354662 0.024925906063711607 0 0.00012822045241650133 0.024920632223263312 0 0.00022759530471554504 0.023619220710367067 0 0.00024916864397332781 0.022996887614397575 0 0.00012822045241650133 0.024920632223263312 0 0.00012784297497012034 0.024911020041577071 0 0.00011875416101210353 0.024927211785688217 0 0.00013591256792601605 0.024932569176369726 0 0.00013637485796354662 0.024925906063711607 0 0.00012784297497012034 0.024911020041577071 0 0.00032388410554663901 0.022298818041591034 0 0.00026846566222284222 0.021098866592651904 0 -3.4847875592485954e-05 0.021725160202521129 0 0.00013637485796354662 0.024925906063711607 0 0.00012822045241650133 0.024920632223263312 0 0.00012784297497012034 0.024911020041577071 0 0.00026846566222284222 0.021098866592651904 0 -0.00046213894065399595 0.021185263647595133 0 -3.4847875592485954e-05 0.021725160202521129 0 0.00026846566222284222 0.021098866592651904 0 -0.00046213894065399595 0.021185263647595133 0 -0.00010663091331049046 0.020544998531301199 0 -0.0017311062875287615 0.015893088076274244 0 -0.0016474840107460955 0.015937569861818251 0 -0.0017460316275005208 0.015974401137146724 0 -0.0018299647451036991 0.015920477897483461 0 -0.0017311062875287615 0.015893088076274244 0 -0.001756508937539598 0.015825503848528509 0 -0.0018299647451036991 0.015920477897483461 0 -0.0017311062875287615 0.015893088076274244 0 -0.0017460316275005208 0.015974401137146724 0 -0.0017311062875287615 0.015893088076274244 0 -0.001756508937539598 0.015825503848528509 0 -0.0016885745472980883 0.01581008486646291 0 -0.001756508937539598 0.015825503848528509 0 -0.0017195358602403597 0.015751838959722316 0 -0.001790930251361137 0.015764640611845196 0 -0.001756508937539598 0.015825503848528509 0 -0.0017195358602403597 0.015751838959722316 0 -0.0016885745472980883 0.01581008486646291 0 -0.00046213894065399595 0.021185263647595133 0 -0.00046072670856251666 0.02254309525512484 0 -3.4847875592485954e-05 0.021725160202521129 0 -0.0018299647451036991 0.015920477897483461 0 -0.001756508937539598 0.015825503848528509 0 -0.001790930251361137 0.015764640611845196 0 -0.0011452882770146191 0.018351592167144968 0 -0.0011132708034699893 0.01919563509455181 0 0.00032388410554663901 0.022298818041591034 0 -0.00046072670856251666 0.02254309525512484 0 -3.4847875592485954e-05 0.021725160202521129 0 -0.001790930251361137 0.015764640611845196 0 -0.0017398721739808991 0.015660751114161479 0 -0.0017003979277418872 0.015679263049662894 0 -0.0011132708034699893 0.01919563509455181 0 -0.001146157863893861 0.019827225757941956 0 0.000356084555602383 0.02357291798535106 0 -0.00046072670856251666 0.02254309525512484 0 -0.00039151297039248468 0.023965264338225982 0 -2.3665962783702224e-05 0.024292748173920492 0 0.000356084555602383 0.02357291798535106 0 -0.00039151297039248468 0.023965264338225982 0 -0.0016968886719814125 0.015618554333187828 0 -0.0017398721739808991 0.015660751114161479 0 -0.0016799868738271145 0.015621486336068241 0 -0.0017398721739808991 0.015660751114161479 0 -0.0016799868738271145 0.015621486336068241 0 -0.0017003979277418872 0.015679263049662894 0 -0.0017195358602403597 0.015751838959722316 0 -0.0017003979277418872 0.015679263049662894 0 -0.0016272891219574421 0.01569431547429968 0 -0.0017195358602403597 0.015751838959722316 0 -0.001790930251361137 0.015764640611845196 0 -0.0017003979277418872 0.015679263049662894 0 -0.0017003979277418872 0.015679263049662894 0 -0.0016272891219574421 0.01569431547429968 0 -0.0016238753528719976 0.015596127819961558 0 -0.0016799868738271145 0.015621486336068241 0 -0.0017003979277418872 0.015679263049662894 0 -0.0016238753528719976 0.015596127819961558 0 -0.001552763172514263 0.015494688047902239 0 -0.0016238753528719976 0.015596127819961558 0 -0.0015203616070980075 0.01558440787702837 0 -0.0016272891219574421 0.01569431547429968 0 -0.0015434550917846478 0.015707785217698205 0 -0.0015203616070980075 0.01558440787702837 0 -0.0016272891219574421 0.01569431547429968 0 -0.0016238753528719976 0.015596127819961558 0 -0.0015203616070980075 0.01558440787702837 0 -0.0016272891219574421 0.01569431547429968 0 -0.0015434550917846478 0.015707785217698205 0 -0.0015963565481979525 0.01580611389013321 0 -0.0017195358602403597 0.015751838959722316 0 -0.0016272891219574421 0.01569431547429968 0 -0.0016885745472980883 0.01581008486646291 0 -0.0016272891219574421 0.01569431547429968 0 -0.0016885745472980883 0.01581008486646291 0 -0.0015963565481979525 0.01580611389013321 0 -0.0016885745472980883 0.01581008486646291 0 -0.0015963565481979525 0.01580611389013321 0 -0.0016474840107460955 0.015937569861818251 0 -0.0017311062875287615 0.015893088076274244 0 -0.0016885745472980883 0.01581008486646291 0 -0.0016474840107460955 0.015937569861818251 0 -0.0015963565481979525 0.01580611389013321 0 -0.0015583176123865681 0.015933705457947478 0 -0.0016474840107460955 0.015937569861818251 0 -0.0015434550917846478 0.015707785217698205 0 -0.0015963565481979525 0.01580611389013321 0 -0.0014896708978425733 0.01581849127938674 0 -0.0015963565481979525 0.01580611389013321 0 -0.0015583176123865681 0.015933705457947478 0 -0.0014896708978425733 0.01581849127938674 0 -0.0015583176123865681 0.015933705457947478 0 -0.0015547456531476885 0.01607584696779266 0 -0.0013854491688899749 0.016052562856851398 0 -0.0015583176123865681 0.015933705457947478 0 -0.0016474840107460955 0.015937569861818251 0 -0.0015547456531476885 0.01607584696779266 0 -0.0016565577947933114 0.015452550801388057 0 -0.0013434834923085432 0.017726184272166452 0 -0.0016474840107460955 0.015937569861818251 0 -0.0017029600926663857 0.016130774971548835 0 -0.0015547456531476885 0.01607584696779266 0 -0.0016474840107460955 0.015937569861818251 0 -0.0017029600926663857 0.016130774971548835 0 -0.0018240050535470601 0.016134124921727947 0 -0.00094851403334574795 0.01923959843001621 0 -0.00090752233103820956 0.018678423953853503 0 -0.00038773773279198468 0.021303971595932239 0 -0.000320130301721523 0.021403839418869582 0 -0.00022327705980840635 0.021330617571555511 0 -0.00038773773279198468 0.021303971595932239 0 -0.0004232742554563971 0.021288084414081993 0 -0.00022327705980840635 0.021330617571555511 0 -0.00072030671198224463 0.019482359081077018 0 -0.00094851403334574795 0.01923959843001621 0 -0.00041765949558987146 0.021366886310040353 0 -0.00041953457713145482 0.021448883214276498 0 -0.00054303239848899434 0.021380386107878634 0 -0.0004355521110872785 0.021285957331671771 0 -0.00041765949558987146 0.021366886310040353 0 -0.00054303239848899434 0.021380386107878634 0 -0.00038773773279198468 0.021303971595932239 0 -0.0004355521110872785 0.021285957331671771 0 -0.00041765949558987146 0.021366886310040353 0 -0.00041765949558987146 0.021366886310040353 0 -0.000320130301721523 0.021403839418869582 0 -0.00041953457713145482 0.021448883214276498 0 -0.00038773773279198468 0.021303971595932239 0 -0.00041765949558987146 0.021366886310040353 0 -0.000320130301721523 0.021403839418869582 0 -0.000320130301721523 0.021403839418869582 0 -0.00022327705980840635 0.021330617571555511 0 -0.00022036280478740571 0.021488945734478508 0 -0.00022327705980840635 0.021330617571555511 0 -0.00022036280478740571 0.021488945734478508 0 -0.00011434281491539933 0.021463528222139885 0 -0.000320130301721523 0.021403839418869582 0 -0.00022036280478740571 0.021488945734478508 0 -0.0003340518422083253 0.021527969795446071 0 -0.00022036280478740571 0.021488945734478508 0 -0.00025039277000343606 0.021632193490480886 0 -0.0003340518422083253 0.021527969795446071 0 -0.00022036280478740571 0.021488945734478508 0 -0.00025039277000343606 0.021632193490480886 0 -0.00012431580320747032 0.021596058987691073 0 -0.00025039277000343606 0.021632193490480886 0 -0.00012431580320747032 0.021596058987691073 0 -0.00015437612558720753 0.021777765862736356 0 -0.00025039277000343606 0.021632193490480886 0 -0.00033243820721108732 0.0217864905809395 0 -0.00015437612558720753 0.021777765862736356 0 -0.00033243820721108732 0.0217864905809395 0 -0.000577753091332756 0.021703915815450794 0 -0.00046232980106192094 0.021990711854190319 0 -0.00033243820721108732 0.0217864905809395 0 -0.00039773163686082321 0.021632138930169274 0 -0.000577753091332756 0.021703915815450794 0 -0.00025039277000343606 0.021632193490480886 0 -0.00033243820721108732 0.0217864905809395 0 -0.00039773163686082321 0.021632138930169274 0 -0.00025039277000343606 0.021632193490480886 0 -0.00039773163686082321 0.021632138930169274 0 -0.0003340518422083253 0.021527969795446071 0 -0.00039773163686082321 0.021632138930169274 0 -0.00047808921035071553 0.021532173481928169 0 -0.000577753091332756 0.021703915815450794 0 -0.00047808921035071553 0.021532173481928169 0 -0.0003340518422083253 0.021527969795446071 0 -0.00041953457713145482 0.021448883214276498 0 -0.00039773163686082321 0.021632138930169274 0 -0.00047808921035071553 0.021532173481928169 0 -0.0003340518422083253 0.021527969795446071 0 -0.000320130301721523 0.021403839418869582 0 -0.0003340518422083253 0.021527969795446071 0 -0.00041953457713145482 0.021448883214276498 0 -0.00047808921035071553 0.021532173481928169 0 -0.00041953457713145482 0.021448883214276498 0 -0.00054303239848899434 0.021380386107878634 0 -0.00047808921035071553 0.021532173481928169 0 -0.00062741903245098227 0.021511776114186133 0 -0.00054303239848899434 0.021380386107878634 0 -0.00070053162372869218 0.021424125874493841 0 -0.00062741903245098227 0.021511776114186133 0 -0.00054303239848899434 0.021380386107878634 0 -0.00073587030887698694 0.021585388592685502 0 -0.00062741903245098227 0.021511776114186133 0 -0.000577753091332756 0.021703915815450794 0 -0.00070053162372869218 0.021424125874493841 0 -0.00073587030887698694 0.021585388592685502 0 -0.00062741903245098227 0.021511776114186133 0 -0.00047808921035071553 0.021532173481928169 0 -0.00062741903245098227 0.021511776114186133 0 -0.000577753091332756 0.021703915815450794 0 -0.000577753091332756 0.021703915815450794 0 -0.0008829069798475432 0.021728591580575961 0 -0.00069844558458516046 0.021959433113950603 0 -0.00073587030887698694 0.021585388592685502 0 -0.000577753091332756 0.021703915815450794 0 -0.0008829069798475432 0.021728591580575961 0 -0.00083272387305662282 0.022465336995437908 0 -0.00094177709338494396 0.022383137216389987 0 -0.00095745527125234509 0.022602626284809507 0 -0.00083272387305662282 0.022465336995437908 0 -0.00094177709338494396 0.022383137216389987 0 -0.00090635646067653737 0.022270322445003699 0 -0.00085343875629652561 0.02213838858676255 0 -0.00093667995424760709 0.021618102507634778 0 -0.00090635646067653737 0.022270322445003699 0 -0.00095334380362492577 0.022242695966878893 0 -0.00084169377709862451 0.022129625728360091 0 -0.00083272387305662282 0.022465336995437908 0 -0.00090635646067653737 0.022270322445003699 0 -0.00084169377709862451 0.022129625728360091 0 -0.00073587030887698694 0.021585388592685502 0 -0.0008829069798475432 0.021728591580575961 0 -0.00083289367816683369 0.021422759228718148 0 -0.00094177709338494396 0.022383137216389987 0 -0.00090635646067653737 0.022270322445003699 0 -0.00095526681103652166 0.022242901127490187 0 -0.00093277331427534405 0.022682886148397242 0 -0.0008509942171641134 0.022787413979713692 0 -0.00070053162372869218 0.021424125874493841 0 -0.00073587030887698694 0.021585388592685502 0 -0.00083289367816683369 0.021422759228718148 0 -0.00093964637527091052 0.022240990956747243 0 -0.00064920727913434038 0.021952415442890401 0 -0.00092530406610414197 0.021941783596747401 0 -0.0008509942171641134 0.022787413979713692 0 -0.00093667995424760709 0.021618102507634778 0 -0.00064920727913434038 0.021952415442890401 0 -0.00092530406610414197 0.021941783596747401 0 -0.00065096483656686328 0.021660420202838478 0 -0.0010622632022519903 0.020784613959770784 0 -0.0010730549819528529 0.021583132993159254 0 -0.00092530406610414197 0.021941783596747401 0 -0.00065096483656686328 0.021660420202838478 0 -0.0011808055406588467 0.021774596032807327 0 -0.00092753598678632101 0.02153737915193046 0 -0.00065738029472209292 0.02164940292932073 0 -0.0011808055406588467 0.021774596032807327 0 -0.00092753598678632101 0.02153737915193046 0 -0.0006583943168420363 0.021372002037701131 0 -0.00065738029472209292 0.02164940292932073 0 -0.00092753598678632101 0.02153737915193046 0 -0.0006583943168420363 0.021372002037701131 0 -0.0012149523649912068 0.021353966129522488 0 -0.0011611955297939184 0.018958558462322927 0 -0.00041586971191443932 0.022516298681542476 0 -0.00046337441196667894 0.019928498028808077 0 -0.00010663091331049046 0.020544998531301199 0 0.00022974058551946658 0.019974363897125223 0 -0.0011611955297939184 0.018958558462322927 0 -0.0013434834923085432 0.017726184272166452 0 -0.0018394551929827409 0.016113622988508249 0 -0.0017395665327006385 0.016104603416771956 0 -0.0017897232036675095 0.016027227795972179 0 -0.0011813003303754992 0.020987907703118525 0 -0.001182844660198565 0.020675067311318351 0 -0.00077690175845255356 0.020587062131756966 0 -0.0010622632022519903 0.020784613959770784 0 -0.0010891201096050399 0.019952467319399241 0 -0.0011734976026796181 0.01916597837895101 0 -0.0011731659378514032 0.019208489963858027 0 -0.0011208839704169708 0.019191766066707493 0 -0.00093667995424760709 0.021618102507634778 0 -0.0010891201096050399 0.019952467319399241 0 -0.00070053162372869218 0.021424125874493841 0 -0.00083289367816683369 0.021422759228718148 0 -0.00068999265922794128 0.02129991507407453 0 -0.0011611955297939184 0.018958558462322927 0 -0.0010622632022519903 0.020784613959770784 0 -0.00093667995424760709 0.021618102507634778 0 -0.0010622632022519903 0.020784613959770784 0 -0.0004355521110872785 0.021285957331671771 0 -0.00068999265922794128 0.02129991507407453 0 -0.00054303239848899434 0.021380386107878634 0 -0.00070053162372869218 0.021424125874493841 0 -0.00068999265922794128 0.02129991507407453 0 -0.00054303239848899434 0.021380386107878634 0 -0.00094851403334574795 0.01923959843001621 0 -0.0010891201096050399 0.019952467319399241 0 -0.00096176249539963582 0.019204352750467335 0 -0.0011162343260627268 0.019241583205402025 0 -0.0010775506775575513 0.019201260702639372 0 -0.00094851403334574795 0.01923959843001621 0 -0.0013434834923085432 0.017726184272166452 0 -0.0011734976026796181 0.01916597837895101 0 -0.0011208839704169708 0.019191766066707493 0 -0.0010965580043543143 0.019163121107659376 0 -0.0010891201096050399 0.019952467319399241 0 -0.0013434834923085432 0.017726184272166452 0 -0.0017395665327006385 0.016104603416771956 0 -0.0017460316275005208 0.015974401137146724 0 -0.0017897232036675095 0.016027227795972179 0 -0.0016474840107460955 0.015937569861818251 0 -0.0017395665327006385 0.016104603416771956 0 -0.0017460316275005208 0.015974401137146724 0 -0.0011452882770146191 0.018351592167144968 0 -0.0011611955297939184 0.018958558462322927 0 -0.0018299647451036991 0.015920477897483461 0 -0.0018394551929827409 0.016113622988508249 0 -0.0017897232036675095 0.016027227795972179 0 -0.00046213894065399595 0.021185263647595133 0 -0.00046337441196667894 0.019928498028808077 0 -0.00010663091331049046 0.020544998531301199 0 -0.0018299647451036991 0.015920477897483461 0 -0.0017460316275005208 0.015974401137146724 0 -0.0017897232036675095 0.016027227795972179 0 0.00012784297497012034 0.024911020041577071 0 0.00011875416101210353 0.024927211785688217 0 0.00012775780559983038 0.024934428991948927 0 0.00026846566222284222 0.021098866592651904 0 -0.00010663091331049046 0.020544998531301199 0 0.00022974058551946658 0.019974363897125223 0 0.00011875416101210353 0.024927211785688217 0 9.6172577697458393e-05 0.024959917153733122 0 0.00012775780559983038 0.024934428991948927 0 0.00024916864397332781 0.022996887614397575 0 -0.00041586971191443932 0.022516298681542476 0 0.00013882504370614059 0.024921262562975721 0 0.00012822045241650133 0.024920632223263312 0 0.00011875416101210353 0.024927211785688217 0 0.00010015598255797769 0.024940570576449238 0 0.00011873324642387817 0.024931119254292741 0 5.218766720019345e-05 0.024956087764230559 0 0.00011875416101210353 0.024927211785688217 0 9.6172577697458393e-05 0.024959917153733122 0 -7.3946542451056756e-05 0.024013931309670115 0 -7.7083340195126132e-05 0.023777109902889143 0 0.00035155168236386726 0.024044245489686148 0 8.1404223518005356e-05 0.024457009832869123 0 6.7326295141997998e-05 0.024746401348418906 0 8.5783894458205492e-06 0.024454135241470051 0 6.7326295141997998e-05 0.024746401348418906 0 -7.3946542451056756e-05 0.024013931309670115 0 -7.7083340195126132e-05 0.023777109902889143 0 -0.00050152818348634331 0.023984462798642081 0 -0.0012149523649912068 0.021353966129522488 0 -0.0011808055406588467 0.021774596032807327 0 -0.0012065350646839237 0.022081544058675955 0 -0.00041586971191443932 0.022516298681542476 0 -0.00056290054184250182 0.023485153163971526 0 -7.7083340195126132e-05 0.023777109902889143 0 -0.00050152818348634331 0.023984462798642081 0 -0.0005081219003591291 0.023515082811325652 0 8.1404223518005356e-05 0.024457009832869123 0 -0.00041586971191443932 0.022516298681542476 0 -0.00092753598678632101 0.02153737915193046 0 -0.0012149523649912068 0.021353966129522488 0 -0.0011808055406588467 0.021774596032807327 0 -0.00092530406610414197 0.021941783596747401 0 -0.0011808055406588467 0.021774596032807327 0 -0.0012065350646839237 0.022081544058675955 0 8.5783894458205492e-06 0.024454135241470051 0 -0.00056290054184250182 0.023485153163971526 0 -0.00093964637527091052 0.022240990956747243 0 -0.00092530406610414197 0.021941783596747401 0 -0.0012065350646839237 0.022081544058675955 0 -0.00010314587258564335 0.024988384981793975 0 -0.00010218122149292904 0.024977436629534801 0 -7.9740206856569179e-05 0.024987496814925968 0 -0.00056290054184250182 0.023485153163971526 0 -0.00074681623251824779 0.02413740625116546 0 -0.00056424970545053237 0.023399814537322729 0 -0.00076641709409523185 0.023279513672864061 0 -0.00076330766719005826 0.023596066921491382 0 -0.00094177709338494396 0.022383137216389987 0 -0.00095526681103652166 0.022242901127490187 0 -0.001062667332961305 0.022348196654582458 0 -0.0008509942171641134 0.022787413979713692 0 -0.00056290054184250182 0.023485153163971526 0 -0.0008509942171641134 0.022787413979713692 0 -0.00074681623251824779 0.02413740625116546 0 -0.00074681623251824779 0.02413740625116546 0 -0.0010469574678313933 0.023880999292690826 0 -0.00094177709338494396 0.022383137216389987 0 -0.001062667332961305 0.022348196654582458 0 -0.00095745527125234509 0.022602626284809507 0 -0.00074681623251824779 0.02413740625116546 0 -0.00029908289454142438 0.025289445890933099 0 -0.00010218122149292904 0.024977436629534801 0 -7.9740206856569179e-05 0.024987496814925968 0 -8.5624613223421524e-05 0.024966445014749931 0 -7.9740206856569179e-05 0.024987496814925968 0 -4.8195638841204297e-05 0.024988034053799135 0 -8.5624613223421524e-05 0.024966445014749931 0 -7.4684435082607371e-05 0.025008397255138724 0 -7.9740206856569179e-05 0.024987496814925968 0 -4.4848847038816076e-05 0.024998121544624444 0 -7.4684435082607371e-05 0.025008397255138724 0 -0.00010314587258564335 0.024988384981793975 0 -7.9740206856569179e-05 0.024987496814925968 0 -7.9740206856569179e-05 0.024987496814925968 0 -4.4848847038816076e-05 0.024998121544624444 0 -4.8195638841204297e-05 0.024988034053799135 0 -4.8195638841204297e-05 0.024988034053799135 0 -1.883233311628649e-08 0.024999982846203288 0 -4.0954567125666519e-08 0.025000016919950217 0 -4.4848847038816076e-05 0.024998121544624444 0 -4.8195638841204297e-05 0.024988034053799135 0 -1.883233311628649e-08 0.024999982846203288 0 -4.4848847038816076e-05 0.024998121544624444 0 -1.883233311628649e-08 0.024999982846203288 0 -1.9081940619081372e-05 0.025004965886369898 0 -1.1846132245289934e-07 0.025000101007996791 0 6.7326295141997998e-05 0.024746401348418906 0 -1.9081940619081372e-05 0.025004965886369898 0 -1.567233294899468e-08 0.025000056707883068 0 -4.036591646660818e-05 0.025021693265402521 0 -1.883233311628649e-08 0.024999982846203288 0 -1.9081940619081372e-05 0.025004965886369898 0 -1.567233294899468e-08 0.025000056707883068 0 -4.4848847038816076e-05 0.024998121544624444 0 -1.9081940619081372e-05 0.025004965886369898 0 -4.036591646660818e-05 0.025021693265402521 0 -7.4684435082607371e-05 0.025008397255138724 0 -4.4848847038816076e-05 0.024998121544624444 0 -4.036591646660818e-05 0.025021693265402521 0 5.218766720019345e-05 0.024956087764230559 0 5.6441921146651459e-05 0.024981315402052912 0 2.3924038597338188e-08 0.024999953948673052 0 5.218766720019345e-05 0.024956087764230559 0 9.6172577697458393e-05 0.024959917153733122 0 5.6441921146651459e-05 0.024981315402052912 0 1.320308062244146e-09 0.024999997604226002 0 1.5932273334993839e-06 0.024996390105914101 0 -6.4448435990517648e-10 0.024999999370858918 0 6.7326295141997998e-05 0.024746401348418906 0 6.3421872092188362e-08 0.025000179678549034 0 -0.00090401593294355497 0.015340602364525344 0 -0.0011111444529020545 0.015459826000049257 0 -0.0009917874941166656 0.015276334097349527 0 -0.0011111444529020545 0.015459826000049257 0 -0.001317430978051589 0.015696016396507213 0 -0.0010288830431960736 0.015668394434194769 0 -0.00090401593294355497 0.015340602364525344 0 -0.0011111444529020545 0.015459826000049257 0 -0.0010288830431960736 0.015668394434194769 0 -0.00090401593294355497 0.015340602364525344 0 -0.0010288830431960736 0.015668394434194769 0 -0.00082146416491989322 0.015409487456543065 0 -0.00090401593294355497 0.015340602364525344 0 -0.00069520812441275733 0.015168311507760195 0 -0.00082146416491989322 0.015409487456543065 0 -0.00022100767700235728 0.015072106949244886 0 -0.00069520812441275733 0.015168311507760195 0 -0.00082146416491989322 0.015409487456543065 0 -0.00060801383047221391 0.015030858545141244 0 -0.00069520812441275733 0.015168311507760195 0 -0.00079618705397082516 0.015131516528656283 0 -0.00090401593294355497 0.015340602364525344 0 -0.00069520812441275733 0.015168311507760195 0 -0.00079618705397082516 0.015131516528656283 0 -0.00090401593294355497 0.015340602364525344 0 -0.00079618705397082516 0.015131516528656283 0 -0.0009917874941166656 0.015276334097349527 0 -0.00079618705397082516 0.015131516528656283 0 -0.0008636793239793271 0.015119747072256178 0 -0.0009917874941166656 0.015276334097349527 0 -0.00076764060543662433 0.014893694625204911 0 -0.00079618705397082516 0.015131516528656283 0 -0.0008636793239793271 0.015119747072256178 0 -0.00060801383047221391 0.015030858545141244 0 -0.00076764060543662433 0.014893694625204911 0 -0.00079618705397082516 0.015131516528656283 0 -0.00076764060543662433 0.014893694625204911 0 -0.00084730156012774427 0.014791813923829776 0 -0.00086926341127548275 0.014849569868872677 0 -0.00076764060543662433 0.014893694625204911 0 -0.0008636793239793271 0.015119747072256178 0 -0.00087072185671782524 0.015096287205729926 0 -0.00076890726544993156 0.014918235828409612 0 -0.00086773871925382464 0.014981595432954098 0 -0.0008636793239793271 0.015119747072256178 0 -0.00087072185671782524 0.015096287205729926 0 -0.00097374860456524593 0.015197134422373599 0 -0.00087072185671782524 0.015096287205729926 0 -0.00099027523705473011 0.015190201997122548 0 -0.00097374860456524593 0.015197134422373599 0 -0.0010527489726012583 0.015219089107108031 0 -0.00087072185671782524 0.015096287205729926 0 -0.00099027523705473011 0.015190201997122548 0 -0.00099027523705473011 0.015190201997122548 0 -0.0010573468296448524 0.015247396767785972 0 -0.00097374860456524593 0.015197134422373599 0 -0.0010527489726012583 0.015219089107108031 0 -0.00099027523705473011 0.015190201997122548 0 -0.0010573468296448524 0.015247396767785972 0 -0.0010573468296448524 0.015247396767785972 0 -0.00097374860456524593 0.015197134422373599 0 -0.0010493998828023099 0.015264085205780948 0 -0.0008636793239793271 0.015119747072256178 0 -0.00097374860456524593 0.015197134422373599 0 -0.0009917874941166656 0.015276334097349527 0 -0.00097374860456524593 0.015197134422373599 0 -0.0009917874941166656 0.015276334097349527 0 -0.0010493998828023099 0.015264085205780948 0 -0.0011111444529020545 0.015459826000049257 0 -0.0011040524465288424 0.015320612131402626 0 -0.0011990754111259065 0.01545294541798348 0 -0.0011111444529020545 0.015459826000049257 0 -0.0009917874941166656 0.015276334097349527 0 -0.0011040524465288424 0.015320612131402626 0 -0.0009917874941166656 0.015276334097349527 0 -0.0011040524465288424 0.015320612131402626 0 -0.0010493998828023099 0.015264085205780948 0 -0.0011040524465288424 0.015320612131402626 0 -0.0010493998828023099 0.015264085205780948 0 -0.0011143368776064906 0.015300134877710751 0 -0.0011011176851380283 0.015293720825827284 0 -0.0010573468296448524 0.015247396767785972 0 -0.0011143368776064906 0.015300134877710751 0 -0.0010573468296448524 0.015247396767785972 0 -0.0010493998828023099 0.015264085205780948 0 -0.0011143368776064906 0.015300134877710751 0 -0.0011040524465288424 0.015320612131402626 0 -0.0011143368776064906 0.015300134877710751 0 -0.0011382306909174225 0.015306165676928135 0 -0.0011040524465288424 0.015320612131402626 0 -0.0011382306909174225 0.015306165676928135 0 -0.0012544659717520258 0.015455366365413194 0 -0.0011279802357860018 0.015383098161674234 0 -0.0011143368776064906 0.015300134877710751 0 -0.0011382306909174225 0.015306165676928135 0 -0.0011382306909174225 0.015306165676928135 0 -0.0012544659717520258 0.015455366365413194 0 -0.0013997053232055734 0.015511126182394173 0 -0.0014149052647642029 0.01540573793955613 0 -0.0011382306909174225 0.015306165676928135 0 -0.0013997053232055734 0.015511126182394173 0 -0.00097319162865242958 0.015356476763696834 0 -0.0011121491894692105 0.015316366633119412 0 -0.0012544659717520258 0.015455366365413194 0 -0.0013997053232055734 0.015511126182394173 0 -0.0013934715923836166 0.01559896887788393 0 -0.0011040524465288424 0.015320612131402626 0 -0.0012544659717520258 0.015455366365413194 0 -0.0011990754111259065 0.01545294541798348 0 -0.0014149052647642029 0.01540573793955613 0 -0.001552763172514263 0.015494688047902239 0 -0.0015203616070980075 0.01558440787702837 0 -0.0014149052647642029 0.01540573793955613 0 -0.0013997053232055734 0.015511126182394173 0 -0.0015203616070980075 0.01558440787702837 0 -0.0013997053232055734 0.015511126182394173 0 -0.0014739150531956362 0.015681027503520462 0 -0.0013934715923836166 0.01559896887788393 0 -0.0013997053232055734 0.015511126182394173 0 -0.0015203616070980075 0.01558440787702837 0 -0.0014739150531956362 0.015681027503520462 0 -0.0015434550917846478 0.015707785217698205 0 -0.0015203616070980075 0.01558440787702837 0 -0.0014739150531956362 0.015681027503520462 0 -0.0015434550917846478 0.015707785217698205 0 -0.0014739150531956362 0.015681027503520462 0 -0.0014896708978425733 0.01581849127938674 0 -0.0014739150531956362 0.015681027503520462 0 -0.0013934715923836166 0.01559896887788393 0 -0.0014357367308587682 0.0156974375016125 0 -0.0014739150531956362 0.015681027503520462 0 -0.0014357367308587682 0.0156974375016125 0 -0.0014773332239088059 0.015764296832178382 0 -0.0014773332239088059 0.015764296832178382 0 -0.0014896708978425733 0.01581849127938674 0 -0.0015001223528167641 0.015810519636144101 0 -0.0014357367308587682 0.0156974375016125 0 -0.0014773332239088059 0.015764296832178382 0 -0.0014703979876110698 0.015771445193026576 0 -0.0014773332239088059 0.015764296832178382 0 -0.0014703979876110698 0.015771445193026576 0 -0.0015001223528167641 0.015810519636144101 0 -0.0014739150531956362 0.015681027503520462 0 -0.0014773332239088059 0.015764296832178382 0 -0.0014896708978425733 0.01581849127938674 0 -0.0012544659717520258 0.015455366365413194 0 -0.0011990754111259065 0.01545294541798348 0 -0.0013342986548848582 0.015602211491202297 0 -0.0011111444529020545 0.015459826000049257 0 -0.0011990754111259065 0.01545294541798348 0 -0.0013342986548848582 0.015602211491202297 0 -0.0011111444529020545 0.015459826000049257 0 -0.0013342986548848582 0.015602211491202297 0 -0.001317430978051589 0.015696016396507213 0 -0.0012544659717520258 0.015455366365413194 0 -0.0013934715923836166 0.01559896887788393 0 -0.0013342986548848582 0.015602211491202297 0 -0.0013934715923836166 0.01559896887788393 0 -0.0014357367308587682 0.0156974375016125 0 -0.0013342986548848582 0.015602211491202297 0 -0.0014357367308587682 0.0156974375016125 0 -0.0013342986548848582 0.015602211491202297 0 -0.0014017898671869319 0.015705494360902215 0 -0.0013342986548848582 0.015602211491202297 0 -0.0014017898671869319 0.015705494360902215 0 -0.001317430978051589 0.015696016396507213 0 -0.0014357367308587682 0.0156974375016125 0 -0.0014017898671869319 0.015705494360902215 0 -0.0014703979876110698 0.015771445193026576 0 -0.0014017898671869319 0.015705494360902215 0 -0.0014703979876110698 0.015771445193026576 0 -0.0014602712522427271 0.01581363383569586 0 -0.0014703979876110698 0.015771445193026576 0 -0.0014940779451235076 0.015810682084243771 0 -0.0015001223528167641 0.015810519636144101 0 -0.0014703979876110698 0.015771445193026576 0 -0.0014602712522427271 0.01581363383569586 0 -0.0014940779451235076 0.015810682084243771 0 -0.0014017898671869319 0.015705494360902215 0 -0.0014602712522427271 0.01581363383569586 0 -0.001317430978051589 0.015696016396507213 0 -0.0014602712522427271 0.01581363383569586 0 -0.001317430978051589 0.015696016396507213 0 -0.0014026741232829305 0.015956358653722847 0 -0.001317430978051589 0.015696016396507213 0 -0.0014026741232829305 0.015956358653722847 0 -0.0010288830431960736 0.015668394434194769 0 -0.0014026741232829305 0.015956358653722847 0 -0.001423923957723312 0.01635427787938341 0 -0.00095997693821223563 0.016418514005385507 0 -0.0014026741232829305 0.015956358653722847 0 -0.0015321151588990926 0.015883894642197173 0 -0.001423923957723312 0.01635427787938341 0 -0.0014602712522427271 0.01581363383569586 0 -0.0014026741232829305 0.015956358653722847 0 -0.0015410264716464778 0.015854768616566321 0 -0.001532069538320583 0.017047258671380339 0 -0.0016844394403850058 0.016619096734169742 0 -0.0014026741232829305 0.015956358653722847 0 -0.0015410264716464778 0.015854768616566321 0 -0.0015321151588990926 0.015883894642197173 0 -0.0014602712522427271 0.01581363383569586 0 -0.0014940779451235076 0.015810682084243771 0 -0.0015410264716464778 0.015854768616566321 0 -0.0014940779451235076 0.015810682084243771 0 -0.0015410264716464778 0.015854768616566321 0 -0.0015001223528167641 0.015810519636144101 0 -0.0014213526436914516 0.016645674553286728 0 -0.001532069538320583 0.017047258671380339 0 -0.00080624224959233029 0.017040256043834454 0 -0.00089876238110630374 0.016854926792315709 0 -0.0010560863602422695 0.016916662952745323 0 -0.0014213526436914516 0.016645674553286728 0 -0.00093254539345249585 0.01764176708097645 0 -0.00093254539345249585 0.01764176708097645 0 -0.001532069538320583 0.017047258671380339 0 -0.0026506217018060839 0.016646667143659751 0 -0.0017474963786274715 0.017080581095498894 0 -0.0022374299765943791 0.017738986243403528 0 -0.00093254539345249585 0.01764176708097645 0 -0.0011889228118715021 0.019925379006334214 0 -0.002721879987140248 0.016676149402445488 0 -0.0026506217018060839 0.016646667143659751 0 -0.0022374299765943791 0.017738986243403528 0 -4.5290005527775071e-05 0.021368971764594534 0 -6.9182226508033537e-05 0.021482686674158473 0 -7.5181880047360219e-05 0.021559036375146161 0 -0.0015583176123865681 0.015933705457947478 0 -0.0014896708978425733 0.01581849127938674 0 -0.0013854491688899749 0.016052562856851398 0 -0.00090752233103820956 0.018678423953853503 0 -0.00071907513587632583 0.018757402165596626 0 -0.0011660653470681173 0.015989777051458799 0 -0.0011529836168146759 0.0160175895989784 0 -0.0013854491688899749 0.016052562856851398 0 -0.0014896708978425733 0.01581849127938674 0 -0.0015008598704852351 0.015809016252561259 0 -0.0015001223528167641 0.015810519636144101 0 -4.5290005527775071e-05 0.021368971764594534 0 -0.00011710715668185349 0.021369862830938148 0 -8.8899623151320953e-05 0.02142328210079741 0 -0.0014896708978425733 0.01581849127938674 0 -0.0011660653470681173 0.015989777051458799 0 -0.0013854491688899749 0.016052562856851398 0 -0.0014944216679089375 0.01559086353046453 0 -0.0014213526436914516 0.016645674553286728 0 -0.00093254539345249585 0.01764176708097645 0 -0.00071907513587632583 0.018757402165596626 0 -0.0014213526436914516 0.016645674553286728 0 -0.0015584481846770296 0.016245565654875112 0 -8.8899623151320953e-05 0.02142328210079741 0 -6.9182226508033537e-05 0.021482686674158473 0 -0.00011434281491539933 0.021463528222139885 0 -4.5290005527775071e-05 0.021368971764594534 0 -8.8899623151320953e-05 0.02142328210079741 0 -6.9182226508033537e-05 0.021482686674158473 0 -0.00022327705980840635 0.021330617571555511 0 -0.00011710715668185349 0.021369862830938148 0 -0.00011434281491539933 0.021463528222139885 0 -0.00011710715668185349 0.021369862830938148 0 -8.8899623151320953e-05 0.02142328210079741 0 -0.00011434281491539933 0.021463528222139885 0 -0.00022036280478740571 0.021488945734478508 0 -0.00011434281491539933 0.021463528222139885 0 -0.00012431580320747032 0.021596058987691073 0 -0.00011434281491539933 0.021463528222139885 0 -5.6259710526726646e-05 0.021572903773563259 0 -0.00012431580320747032 0.021596058987691073 0 -6.9182226508033537e-05 0.021482686674158473 0 -5.4523407639706034e-05 0.021550641363420976 0 -5.6259710526726646e-05 0.021572903773563259 0 -6.9182226508033537e-05 0.021482686674158473 0 -0.00011434281491539933 0.021463528222139885 0 -5.6259710526726646e-05 0.021572903773563259 0 -5.6259710526726646e-05 0.021572903773563259 0 -4.2827933787357295e-05 0.02155734832874712 0 -3.2615292641146964e-05 0.021659464525837568 0 -5.4523407639706034e-05 0.021550641363420976 0 -5.6259710526726646e-05 0.021572903773563259 0 -4.2827933787357295e-05 0.02155734832874712 0 -5.6259710526726646e-05 0.021572903773563259 0 -0.00012431580320747032 0.021596058987691073 0 -3.2615292641146964e-05 0.021659464525837568 0 -0.00012431580320747032 0.021596058987691073 0 -3.2615292641146964e-05 0.021659464525837568 0 -0.00015437612558720753 0.021777765862736356 0 -0.0022374299765943791 0.017738986243403528 0 -0.0016399311375884433 0.018997056675129891 0 -0.0014491694663384602 0.017860175995783965 0 -0.0017474963786274715 0.017080581095498894 0 -0.0022374299765943791 0.017738986243403528 0 -0.0014491694663384602 0.017860175995783965 0 -5.4523407639706034e-05 0.021550641363420976 0 -7.5181880047360219e-05 0.021559036375146161 0 -4.2827933787357295e-05 0.02155734832874712 0 -6.9182226508033537e-05 0.021482686674158473 0 -5.4523407639706034e-05 0.021550641363420976 0 -7.5181880047360219e-05 0.021559036375146161 0 -7.5181880047360219e-05 0.021559036375146161 0 -4.2827933787357295e-05 0.02155734832874712 0 -0.00033372012916468955 0.021522208935590929 0 -0.0011889228118715021 0.019925379006334214 0 -0.00097979689909317687 0.020181578532905371 0 -0.0016399311375884433 0.018997056675129891 0 -0.00062645371810184395 0.018647073027846097 0 -0.00094515726903871846 0.018108400092034578 0 -0.0016399311375884433 0.018997056675129891 0 -0.0014491694663384602 0.017860175995783965 0 -0.00094515726903871846 0.018108400092034578 0 -0.00062645371810184395 0.018647073027846097 0 6.0494238847214421e-05 0.018548921504120554 0 -0.00030137148846651798 0.019448118080368379 0 -0.00062645371810184395 0.018647073027846097 0 -0.00049842399694263295 0.017978091163069091 0 6.0494238847214421e-05 0.018548921504120554 0 -0.00049842399694263295 0.017978091163069091 0 -0.00031970869301641371 0.016969183173113335 0 6.0494238847214421e-05 0.018548921504120554 0 -0.00049842399694263295 0.017978091163069091 0 -0.00059801230238188795 0.017458401946159399 0 -0.00031970869301641371 0.016969183173113335 0 -0.00062645371810184395 0.018647073027846097 0 -0.00049842399694263295 0.017978091163069091 0 -0.00094515726903871846 0.018108400092034578 0 -0.00049842399694263295 0.017978091163069091 0 -0.00059801230238188795 0.017458401946159399 0 -0.00094515726903871846 0.018108400092034578 0 -0.00059801230238188795 0.017458401946159399 0 -0.0014491694663384602 0.017860175995783965 0 -0.00094515726903871846 0.018108400092034578 0 -0.0016844394403850058 0.016619096734169742 0 -0.00053926458809380815 0.017464271962725514 0 -0.0017474963786274715 0.017080581095498894 0 -0.00059801230238188795 0.017458401946159399 0 -0.0014491694663384602 0.017860175995783965 0 -0.001423923957723312 0.01635427787938341 0 -0.00059801230238188795 0.017458401946159399 0 -0.00095997693821223563 0.016418514005385507 0 -0.00059801230238188795 0.017458401946159399 0 -0.00095997693821223563 0.016418514005385507 0 -0.00031970869301641371 0.016969183173113335 0 -0.00076988634613049743 0.016466849924694275 0 -0.0010155372156269303 0.015717207096646198 0 -0.00095997693821223563 0.016418514005385507 0 -0.00031970869301641371 0.016969183173113335 0 -0.0010288830431960736 0.015668394434194769 0 -0.0011801797231924664 0.015919729598380228 0 -0.0010288830431960736 0.015668394434194769 0 -0.00092572291760457286 0.015718282466610174 0 -0.0010288830431960736 0.015668394434194769 0 -0.00082146416491989322 0.015409487456543065 0 -0.00092572291760457286 0.015718282466610174 0 -0.0014026741232829305 0.015956358653722847 0 -0.00095997693821223563 0.016418514005385507 0 -0.0010288830431960736 0.015668394434194769 0 -0.00022100767700235728 0.015072106949244886 0 -0.00016400503259405663 0.015681118935081374 0 -0.00082146416491989322 0.015409487456543065 0 -0.00016400503259405663 0.015681118935081374 0 -0.00082146416491989322 0.015409487456543065 0 -0.00062827921712436897 0.015881972175244306 0 -0.00082146416491989322 0.015409487456543065 0 -0.00092572291760457286 0.015718282466610174 0 -0.00062827921712436897 0.015881972175244306 0 -0.00092572291760457286 0.015718282466610174 0 -0.00088513753901626601 0.016166169549723827 0 -0.00062827921712436897 0.015881972175244306 0 -0.0011801797231924664 0.015919729598380228 0 -0.00092572291760457286 0.015718282466610174 0 -0.00088513753901626601 0.016166169549723827 0 -0.00016400503259405663 0.015681118935081374 0 -0.00062827921712436897 0.015881972175244306 0 -0.00041003470088339059 0.016427724258418916 0 -0.00088513753901626601 0.016166169549723827 0 -0.00062827921712436897 0.015881972175244306 0 -0.00041003470088339059 0.016427724258418916 0 0.00028398353299290108 0.016443687583421109 0 -0.00041003470088339059 0.016427724258418916 0 -2.0938645875741594e-05 0.017471729528960617 0 -0.00076988634613049743 0.016466849924694275 0 -0.00052634067965304926 0.017797718863849909 0 -0.00088513753901626601 0.016166169549723827 0 -0.00041003470088339059 0.016427724258418916 0 -0.0011557784758377885 0.017052966169123881 0 -0.0011801797231924664 0.015919729598380228 0 -0.00088513753901626601 0.016166169549723827 0 -0.0011557784758377885 0.017052966169123881 0 -0.00052634067965304926 0.017797718863849909 0 -0.00014371377800703137 0.018938804685680856 0 -0.0011557784758377885 0.017052966169123881 0 -2.0938645875741594e-05 0.017471729528960617 0 -0.00012764934880552594 0.019025954480482641 0 -0.00041003470088339059 0.016427724258418916 0 -0.0011557784758377885 0.017052966169123881 0 -2.0938645875741594e-05 0.017471729528960617 0 -0.00012764934880552594 0.019025954480482641 0 0.00044101174457613029 0.018458410020760502 0 0.00029836522467416781 0.019347988255468566 0 -2.0938645875741594e-05 0.017471729528960617 0 -0.00012764934880552594 0.019025954480482641 0 0.00044101174457613029 0.018458410020760502 0 6.0494238847214421e-05 0.018548921504120554 0 -0.00012764934880552594 0.019025954480482641 0 -0.00030137148846651798 0.019448118080368379 0 -0.00012764934880552594 0.019025954480482641 0 -0.00025127959673033 0.020035000617545057 0 -0.00030137148846651798 0.019448118080368379 0 -0.00012764934880552594 0.019025954480482641 0 -0.00025127959673033 0.020035000617545057 0 0.00029836522467416781 0.019347988255468566 0 0.0003062791751302771 0.01998589692057819 0 -0.00025127959673033 0.020035000617545057 0 0.00029836522467416781 0.019347988255468566 0 0.0003062791751302771 0.01998589692057819 0 -0.00025127959673033 0.020035000617545057 0 7.3545078545700436e-05 0.020529391726220848 0 -0.00025127959673033 0.020035000617545057 0 -0.00028741822215526186 0.020538476860412339 0 7.3545078545700436e-05 0.020529391726220848 0 -0.00028741822215526186 0.020538476860412339 0 7.3545078545700436e-05 0.020529391726220848 0 -0.00038218779417193734 0.020823876418864361 0 0.0003062791751302771 0.01998589692057819 0 7.3545078545700436e-05 0.020529391726220848 0 0.00045916468445783738 0.020321331301112258 0 7.3545078545700436e-05 0.020529391726220848 0 0.00054944286805472622 0.020600770983628044 0 0.00046293888660305565 0.020816442665471866 0 7.3545078545700436e-05 0.020529391726220848 0 0.00054944286805472622 0.020600770983628044 0 0.00045916468445783738 0.020321331301112258 0 -0.00052442287603048131 0.020649719754869508 0 -0.00026699700434079085 0.020974121268326675 0 -0.00043710014398112325 0.020736202645430083 0 -0.00028741822215526186 0.020538476860412339 0 -0.00052442287603048131 0.020649719754869508 0 -0.00038218779417193734 0.020823876418864361 0 -0.00025127959673033 0.020035000617545057 0 -0.00052442287603048131 0.020649719754869508 0 -0.00074557743626971326 0.020522677576094678 0 -0.00025127959673033 0.020035000617545057 0 -0.00028741822215526186 0.020538476860412339 0 -0.00052442287603048131 0.020649719754869508 0 -0.00052442287603048131 0.020649719754869508 0 -0.00074557743626971326 0.020522677576094678 0 -0.00026699700434079085 0.020974121268326675 0 -0.0016399311375884433 0.018997056675129891 0 -0.00062645371810184395 0.018647073027846097 0 -0.00030137148846651798 0.019448118080368379 0 -0.0016399311375884433 0.018997056675129891 0 -0.00074557743626971326 0.020522677576094678 0 -0.00030137148846651798 0.019448118080368379 0 -0.00025127959673033 0.020035000617545057 0 -0.00074557743626971326 0.020522677576094678 0 -0.00030137148846651798 0.019448118080368379 0 -0.00097979689909317687 0.020181578532905371 0 -0.0007633849535982572 0.020545286112651877 0 -0.00074557743626971326 0.020522677576094678 0 -5.5321693824323808e-05 0.021375786650828572 0 -0.00010851671514386923 0.021219840725892159 0 -0.00033372012916468955 0.021522208935590929 0 -0.00074557743626971326 0.020522677576094678 0 -5.5321693824323808e-05 0.021375786650828572 0 -4.2827933787357295e-05 0.02155734832874712 0 -0.00033372012916468955 0.021522208935590929 0 -5.5321693824323808e-05 0.021375786650828572 0 -4.2827933787357295e-05 0.02155734832874712 0 -5.5321693824323808e-05 0.021375786650828572 0 2.7483126026755859e-05 0.021608055400215997 0 -5.5321693824323808e-05 0.021375786650828572 0 0.00010436138850783259 0.021632873964107152 0 -0.00010851671514386923 0.021219840725892159 0 -3.2615292641146964e-05 0.021659464525837568 0 2.7483126026755859e-05 0.021608055400215997 0 -3.4807027560601873e-05 0.02187368161658023 0 -3.2615292641146964e-05 0.021659464525837568 0 -3.4807027560601873e-05 0.02187368161658023 0 -0.00015437612558720753 0.021777765862736356 0 -4.2827933787357295e-05 0.02155734832874712 0 -3.2615292641146964e-05 0.021659464525837568 0 2.7483126026755859e-05 0.021608055400215997 0 -5.5321693824323808e-05 0.021375786650828572 0 2.7483126026755859e-05 0.021608055400215997 0 0.00010436138850783259 0.021632873964107152 0 2.7483126026755859e-05 0.021608055400215997 0 -3.4807027560601873e-05 0.02187368161658023 0 0.00010436138850783259 0.021632873964107152 0 -3.4807027560601873e-05 0.02187368161658023 0 0.00010436138850783259 0.021632873964107152 0 -8.6996185382171282e-06 0.022121923403172542 0 0.00010436138850783259 0.021632873964107152 0 0.00022689263798340907 0.02154580806653238 0 -0.00010851671514386923 0.021219840725892159 0 0.00010436138850783259 0.021632873964107152 0 0.00022689263798340907 0.02154580806653238 0 -8.6996185382171282e-06 0.022121923403172542 0 0.00022689263798340907 0.02154580806653238 0 -8.6996185382171282e-06 0.022121923403172542 0 0.0001190778254489485 0.022893312915698655 0 -0.00074557743626971326 0.020522677576094678 0 -0.00010851671514386923 0.021219840725892159 0 -0.00026699700434079085 0.020974121268326675 0 0.00022689263798340907 0.02154580806653238 0 -0.00010851671514386923 0.021219840725892159 0 -0.00026699700434079085 0.020974121268326675 0 0.00022689263798340907 0.02154580806653238 0 -0.00026699700434079085 0.020974121268326675 0 0.00015509047048444107 0.020902430234797272 0 0.00015509047048444107 0.020902430234797272 0 0.00079611302265039251 0.021081583954914884 0 0.0013912437080713812 0.020143102096715753 0 0.00020842729383203787 0.020812113767019171 0 0.00052014000365481798 0.020470288639972356 0 -0.00026699700434079085 0.020974121268326675 0 0.00015509047048444107 0.020902430234797272 0 -0.00043710014398112325 0.020736202645430083 0 0.00015509047048444107 0.020902430234797272 0 0.00036996225414952705 0.021334598250550559 0 0.00018265146122840335 0.021157639041610977 0 0.00036996225414952705 0.021334598250550559 0 0.00079611302265039251 0.021081583954914884 0 0.00070689120067174145 0.021670549795966401 0 0.00015509047048444107 0.020902430234797272 0 0.00036996225414952705 0.021334598250550559 0 0.00079611302265039251 0.021081583954914884 0 0.00079611302265039251 0.021081583954914884 0 0.0011557747720048167 0.021608136280165471 0 0.0014216943163314984 0.021073054835633862 0 0.00079611302265039251 0.021081583954914884 0 0.0013912437080713812 0.020143102096715753 0 0.0014216943163314984 0.021073054835633862 0 0.00022689263798340907 0.02154580806653238 0 0.00015509047048444107 0.020902430234797272 0 0.00018265146122840335 0.021157639041610977 0 0.0002024082942204067 0.021639858094749824 0 4.4327747027360934e-05 0.022064235941859533 0 0.00022689263798340907 0.02154580806653238 0 3.5528660636628345e-05 0.021201323745600794 0 0.00018265146122840335 0.021157639041610977 0 0.00036996225414952705 0.021334598250550559 0 0.00018265146122840335 0.021157639041610977 0 0.0001192351258646905 0.021784015432753667 0 3.5528660636628345e-05 0.021201323745600794 0 0.00018265146122840335 0.021157639041610977 0 0.0001192351258646905 0.021784015432753667 0 3.5528660636628345e-05 0.021201323745600794 0 0.0001192351258646905 0.021784015432753667 0 -0.00041276212659381909 0.021814422072003927 0 4.4327747027360934e-05 0.022064235941859533 0 -0.00031990447054712647 0.022674932066395773 0 0.0001192351258646905 0.021784015432753667 0 9.6856585251964142e-05 0.022311111957129065 0 -0.00018803402905631292 0.022428803934623247 0 0.0001192351258646905 0.021784015432753667 0 -0.00018803402905631292 0.022428803934623247 0 -0.00041276212659381909 0.021814422072003927 0 0.00036996225414952705 0.021334598250550559 0 0.0001192351258646905 0.021784015432753667 0 0.00039719967958011271 0.021810770881859443 0 0.0001192351258646905 0.021784015432753667 0 0.00037544256604265836 0.022263278494725518 0 0.00039719967958011271 0.021810770881859443 0 0.0001192351258646905 0.021784015432753667 0 0.00037544256604265836 0.022263278494725518 0 9.6856585251964142e-05 0.022311111957129065 0 0.00037544256604265836 0.022263278494725518 0 0.00049561456614821383 0.022631201130041734 0 8.7763744814897237e-05 0.022746064688341498 0 0.00037544256604265836 0.022263278494725518 0 9.6856585251964142e-05 0.022311111957129065 0 8.7763744814897237e-05 0.022746064688341498 0 9.6856585251964142e-05 0.022311111957129065 0 -0.00018803402905631292 0.022428803934623247 0 8.7763744814897237e-05 0.022746064688341498 0 0.00079611302265039251 0.021081583954914884 0 0.0011557747720048167 0.021608136280165471 0 0.00070689120067174145 0.021670549795966401 0 0.0011557747720048167 0.021608136280165471 0 0.00070689120067174145 0.021670549795966401 0 0.00098658910995881371 0.022096444779315647 0 0.00036996225414952705 0.021334598250550559 0 0.00070689120067174145 0.021670549795966401 0 0.00039719967958011271 0.021810770881859443 0 0.00070689120067174145 0.021670549795966401 0 0.00039719967958011271 0.021810770881859443 0 0.00063708621630104471 0.02217194720935986 0 0.00070689120067174145 0.021670549795966401 0 0.00063708621630104471 0.02217194720935986 0 0.00098658910995881371 0.022096444779315647 0 0.00037544256604265836 0.022263278494725518 0 0.00039719967958011271 0.021810770881859443 0 0.00063708621630104471 0.02217194720935986 0 0.00037544256604265836 0.022263278494725518 0 0.00063708621630104471 0.02217194720935986 0 0.00049561456614821383 0.022631201130041734 0 0.00063708621630104471 0.02217194720935986 0 0.00084649263560500094 0.022447367393495472 0 0.00098658910995881371 0.022096444779315647 0 0.00063708621630104471 0.02217194720935986 0 0.00084649263560500094 0.022447367393495472 0 0.00049561456614821383 0.022631201130041734 0 0.00084649263560500094 0.022447367393495472 0 0.00098658910995881371 0.022096444779315647 0 0.0011889749349510109 0.022534105888590256 0 0.0011557747720048167 0.021608136280165471 0 0.00098658910995881371 0.022096444779315647 0 0.0014217380361425678 0.022050568890689053 0 0.00098658910995881371 0.022096444779315647 0 0.0014217380361425678 0.022050568890689053 0 0.0011889749349510109 0.022534105888590256 0 0.0016593288358919542 0.022387835530153069 0 0.0014217380361425678 0.022050568890689053 0 0.0011889749349510109 0.022534105888590256 0 0.0016593288358919542 0.022387835530153069 0 0.0018435786722348021 0.022035362911935939 0 0.0021566585185080344 0.022485454470047444 0 0.0016593288358919542 0.022387835530153069 0 0.0018435786722348021 0.022035362911935939 0 0.0014217380361425678 0.022050568890689053 0 0.0018435786722348021 0.022035362911935939 0 0.0014217380361425678 0.022050568890689053 0 0.0016982094369488721 0.021599090059893754 0 0.0016982094369488721 0.021599090059893754 0 0.002315498357598427 0.021602807015982627 0 0.0020545439239148199 0.020776749264376622 0 0.0011557747720048167 0.021608136280165471 0 0.0014217380361425678 0.022050568890689053 0 0.0016982094369488721 0.021599090059893754 0 0.0018435786722348021 0.022035362911935939 0 0.0016982094369488721 0.021599090059893754 0 0.002315498357598427 0.021602807015982627 0 0.0016982094369488721 0.021599090059893754 0 0.0014216943163314984 0.021073054835633862 0 0.0020545439239148199 0.020776749264376622 0 0.0011557747720048167 0.021608136280165471 0 0.0016982094369488721 0.021599090059893754 0 0.0014216943163314984 0.021073054835633862 0 0.002315498357598427 0.021602807015982627 0 0.0020545439239148199 0.020776749264376622 0 0.0028088502377460025 0.020697209223898238 0 0.002315498357598427 0.021602807015982627 0 0.0031391108908791457 0.021013219092219457 0 0.0028088502377460025 0.020697209223898238 0 0.002315498357598427 0.021602807015982627 0 0.0029157377374856284 0.021526848692741695 0 0.0025088078332558788 0.02208912157381758 0 0.002315498357598427 0.021602807015982627 0 0.0029157377374856284 0.021526848692741695 0 0.0031391108908791457 0.021013219092219457 0 0.0029157377374856284 0.021526848692741695 0 0.0026077627153539644 0.022469993258251462 0 0.0035018691563149743 0.02129254496141042 0 0.0029157377374856284 0.021526848692741695 0 0.0025088078332558788 0.02208912157381758 0 0.0026077627153539644 0.022469993258251462 0 0.0022756175570515765 0.021855160635654753 0 0.0024237042125936979 0.022167427031006413 0 0.0032049835130349082 0.021696293232354814 0 0.003207694072627023 0.02165728449505579 0 0.002315498357598427 0.021602807015982627 0 0.0025088078332558788 0.02208912157381758 0 0.0022193278167873562 0.022728464089467361 0 0.0018435786722348021 0.022035362911935939 0 0.002315498357598427 0.021602807015982627 0 0.0021566585185080344 0.022485454470047444 0 0.0025088078332558788 0.02208912157381758 0 0.0022193278167873562 0.022728464089467361 0 0.0026077627153539644 0.022469993258251462 0 0.0027190204066060608 0.021863544891483327 0 0.0030069487846488547 0.021662652847337042 0 0.0027055515738443848 0.02200773123257126 0 0.0024237042125936979 0.022167427031006413 0 0.0032049835130349082 0.021696293232354814 0 0.0046761557681128749 0.020670688666597888 0 0.0046781997362384904 0.020642925291708199 0 0.0047082409616422821 0.020642967203805349 0 0.0032049835130349082 0.021696293232354814 0 0.0027604790559523891 0.021505516561898509 0 0.0046761557681128749 0.020670688666597888 0 0.0046526439917812116 0.020655439840544128 0 0.0046781997362384904 0.020642925291708199 0 0.0046761557681128749 0.020670688666597888 0 0.0046526439917812116 0.020655439840544128 0 0.0046217775957017255 0.020662718122748034 0 0.0046526439917812116 0.020655439840544128 0 0.004636322649122903 0.020656418570459075 0 0.0046552017094855539 0.020633661699852788 0 0.0026259077183604066 0.022333367817973047 0 0.0035018691563149743 0.02129254496141042 0 0.0037183132436379171 0.021568932494513325 0 0.0046761557681128749 0.020670688666597888 0 0.0046217775957017255 0.020662718122748034 0 0.0045901711237055541 0.020661339705154456 0 0.0032049835130349082 0.021696293232354814 0 0.0042370568312176367 0.02101181799677164 0 0.0046526439917812116 0.020655439840544128 0 0.004636322649122903 0.020656418570459075 0 0.0046217775957017255 0.020662718122748034 0 0.004636322649122903 0.020656418570459075 0 0.0046217775957017255 0.020662718122748034 0 0.0046562827128441998 0.020667265892535997 0 0.004636322649122903 0.020656418570459075 0 0.0046562827128441998 0.020667265892535997 0 0.0046375372414451544 0.020646222558307292 0 0.0046383435537736134 0.020665249999234542 0 0.0046217775957017255 0.020662718122748034 0 0.0046562827128441998 0.020667265892535997 0 0.0046383435537736134 0.020665249999234542 0 0.0046217775957017255 0.020662718122748034 0 0.0045901711237055541 0.020661339705154456 0 0.0046562827128441998 0.020667265892535997 0 0.0047139747996771363 0.020668596326846821 0 0.0046375372414451544 0.020646222558307292 0 0.0046562827128441998 0.020667265892535997 0 0.0047139747996771363 0.020668596326846821 0 0.0047254408596996353 0.020642364272152273 0 0.0046383435537736134 0.020665249999234542 0 0.0046562827128441998 0.020667265892535997 0 0.0047254408596996353 0.020642364272152273 0 0.0047318385512618967 0.020426586730989158 0 0.0042370568312176367 0.02101181799677164 0 0.0049027472994335672 0.018578786379612591 0 0.005108731001626475 0.017687432178385691 0 0.0041513768378532035 0.020778050797648443 0 0.0048047481936468826 0.020271551073940932 0 0.0037183132436379171 0.021568932494513325 0 0.0047254408596996353 0.020642364272152273 0 0.0048047481936468826 0.020271551073940932 0 0.0045901711237055541 0.020661339705154456 0 0.0052082704259683024 0.017107334915901957 0 0.0052554114833953903 0.018107448612579784 0 0.005030935926372538 0.018233633631093111 0 0.0047254408596996353 0.020642364272152273 0 0.0049211957905823597 0.02059598218127813 0 0.0048047481936468826 0.020271551073940932 0 0.0049027472994335672 0.018578786379612591 0 0.0050304082403245052 0.019336327596887963 0 0.0047139747996771363 0.020668596326846821 0 0.0047254408596996353 0.020642364272152273 0 0.0049211957905823597 0.02059598218127813 0 0.0041513768378532035 0.020778050797648443 0 0.0048047481936468826 0.020271551073940932 0 0.0043102263010305671 0.020119494839099892 0 0.0041513768378532035 0.020778050797648443 0 0.0039644681461707791 0.020479573523985564 0 0.0043102263010305671 0.020119494839099892 0 0.0049211957905823597 0.02059598218127813 0 0.0048047481936468826 0.020271551073940932 0 0.0048927718292633053 0.019353298821753635 0 0.0052554114833953903 0.018107448612579784 0 0.0048927718292633053 0.019353298821753635 0 0.005030935926372538 0.018233633631093111 0 0.0029157377374856284 0.021526848692741695 0 0.0035018691563149743 0.02129254496141042 0 0.0031391108908791457 0.021013219092219457 0 0.0046383435537736134 0.020665249999234542 0 0.0047254408596996353 0.020642364272152273 0 0.0045901711237055541 0.020661339705154456 0 0.0041513768378532035 0.020778050797648443 0 0.0037183132436379171 0.021568932494513325 0 0.0037710523762422969 0.021099391486506854 0 0.0035018691563149743 0.02129254496141042 0 0.0037183132436379171 0.021568932494513325 0 0.0037710523762422969 0.021099391486506854 0 0.0039644681461707791 0.020479573523985564 0 0.0037147578465676137 0.020771541621018016 0 0.0037035597939594884 0.020272492087816889 0 0.0035018691563149743 0.02129254496141042 0 0.0037710523762422969 0.021099391486506854 0 0.0037147578465676137 0.020771541621018016 0 0.0041513768378532035 0.020778050797648443 0 0.0037710523762422969 0.021099391486506854 0 0.0037147578465676137 0.020771541621018016 0 0.0041513768378532035 0.020778050797648443 0 0.0039644681461707791 0.020479573523985564 0 0.0037147578465676137 0.020771541621018016 0 0.0037147578465676137 0.020771541621018016 0 0.0031391108908791457 0.021013219092219457 0 0.0037035597939594884 0.020272492087816889 0 0.0035018691563149743 0.02129254496141042 0 0.0037147578465676137 0.020771541621018016 0 0.0031391108908791457 0.021013219092219457 0 0.0037035597939594884 0.020272492087816889 0 0.0041389870909545575 0.01974409384590262 0 0.0028704560966760525 0.01954929034055693 0 0.0037035597939594884 0.020272492087816889 0 0.0028704560966760525 0.01954929034055693 0 0.0028088502377460025 0.020697209223898238 0 0.0031391108908791457 0.021013219092219457 0 0.0037035597939594884 0.020272492087816889 0 0.0028088502377460025 0.020697209223898238 0 0.0039644681461707791 0.020479573523985564 0 0.0037035597939594884 0.020272492087816889 0 0.0043102263010305671 0.020119494839099892 0 0.0037035597939594884 0.020272492087816889 0 0.0041389870909545575 0.01974409384590262 0 0.0043102263010305671 0.020119494839099892 0 0.0048047481936468826 0.020271551073940932 0 0.0043102263010305671 0.020119494839099892 0 0.0048927718292633053 0.019353298821753635 0 0.0050304082403245052 0.019336327596887963 0 0.004961964503612748 0.019305887371039644 0 0.0048927718292633053 0.019353298821753635 0 0.0048184207860362286 0.018705749097433413 0 0.005030935926372538 0.018233633631093111 0 0.0041389870909545575 0.01974409384590262 0 0.0043102263010305671 0.020119494839099892 0 0.0048927718292633053 0.019353298821753635 0 0.0041389870909545575 0.01974409384590262 0 0.0048927718292633053 0.019353298821753635 0 0.0046886398018731387 0.019237292057371663 0 7.3545078545700436e-05 0.020529391726220848 0 0.00019203234188019686 0.020957079722216571 0 0.00046293888660305565 0.020816442665471866 0 0.0041389870909545575 0.01974409384590262 0 0.0046886398018731387 0.019237292057371663 0 0.0028704560966760525 0.01954929034055693 0 7.3545078545700436e-05 0.020529391726220848 0 0.00019203234188019686 0.020957079722216571 0 -0.00038218779417193734 0.020823876418864361 0 0.0024504501859966463 0.020221410915360373 0 0.001287722514418185 0.020184546005449604 0 0.0028704560966760525 0.01954929034055693 0 0.0013912437080713812 0.020143102096715753 0 0.0020545439239148199 0.020776749264376622 0 -0.00052442287603048131 0.020649719754869508 0 -0.00038218779417193734 0.020823876418864361 0 -0.00043710014398112325 0.020736202645430083 0 0.001287722514418185 0.020184546005449604 0 0.00052014000365481798 0.020470288639972356 0 0.0013912437080713812 0.020143102096715753 0 0.0014216943163314984 0.021073054835633862 0 0.0020545439239148199 0.020776749264376622 0 0.0028704560966760525 0.01954929034055693 0 0.0020545439239148199 0.020776749264376622 0 0.0028088502377460025 0.020697209223898238 0 -1.9271396073363594e-07 0.024999871221158744 0 -0.00019589596888723124 0.024668672505542225 0 -0.00018980525749670056 0.024667152954194922 0 -0.00019589596888723124 0.024668672505542225 0 -0.00018980525749670056 0.024667152954194922 0 -0.0004257950322663565 0.024349926152261107 0 -0.00018980525749670056 0.024667152954194922 0 -9.4007483177450913e-05 0.024918289072072632 0 -0.00047050765812375688 0.024585424361544757 0 -0.00018980525749670056 0.024667152954194922 0 1.9834923775624937e-08 0.02499969646726008 0 -9.4007483177450913e-05 0.024918289072072632 0 -1.9271396073363594e-07 0.024999871221158744 0 -0.00018980525749670056 0.024667152954194922 0 1.9834923775624937e-08 0.02499969646726008 0 1.9834923775624937e-08 0.02499969646726008 0 -4.0954567125666519e-08 0.025000016919950217 0 -9.4007483177450913e-05 0.024918289072072632 0 -4.8195638841204297e-05 0.024988034053799135 0 -4.0954567125666519e-08 0.025000016919950217 0 -9.4007483177450913e-05 0.024918289072072632 0 -7.4628114754465768e-05 0.024862159759179141 0 -0.00029908289454142438 0.025289445890933099 0 -4.8195638841204297e-05 0.024988034053799135 0 -9.4007483177450913e-05 0.024918289072072632 0 -8.5624613223421524e-05 0.024966445014749931 0 -9.4007483177450913e-05 0.024918289072072632 0 -0.00047050765812375688 0.024585424361544757 0 -0.00046963886378795428 0.024932840050675382 0 -0.00047050765812375688 0.024585424361544757 0 -0.00046963886378795428 0.024932840050675382 0 -0.0009507252829306234 0.025004125303496865 0 -9.4007483177450913e-05 0.024918289072072632 0 -0.00046963886378795428 0.024932840050675382 0 -0.00046901752347379373 0.025239334098850146 0 -0.00046963886378795428 0.024932840050675382 0 -0.00046901752347379373 0.025239334098850146 0 -0.0009507252829306234 0.025004125303496865 0 -0.001062667332961305 0.022348196654582458 0 -0.0011007337678987947 0.022835595951493808 0 -0.00095745527125234509 0.022602626284809507 0 -0.00090955398990742265 0.025641167060543986 0 -0.00046901752347379373 0.025239334098850146 0 -0.0009507252829306234 0.025004125303496865 0 -0.00047050765812375688 0.024585424361544757 0 -0.0009507252829306234 0.025004125303496865 0 -0.00091731074488300549 0.0238084553724318 0 -0.0010469574678313933 0.023880999292690826 0 -0.00092753173502449612 0.023822836113643883 0 -0.0011007337678987947 0.022835595951493808 0 -0.00091731074488300549 0.0238084553724318 0 -0.0008854064709766194 0.023168630515196829 0 -0.00018980525749670056 0.024667152954194922 0 -0.00047050765812375688 0.024585424361544757 0 -0.00053472167198170058 0.024253757704002957 0 -0.00047050765812375688 0.024585424361544757 0 -0.00091731074488300549 0.0238084553724318 0 -0.00053472167198170058 0.024253757704002957 0 -0.00053472167198170058 0.024253757704002957 0 -0.00073969709268747671 0.02395590965661042 0 -0.0004257950322663565 0.024349926152261107 0 -0.00018980525749670056 0.024667152954194922 0 -0.00053472167198170058 0.024253757704002957 0 -0.0004257950322663565 0.024349926152261107 0 -0.00091731074488300549 0.0238084553724318 0 -0.00053472167198170058 0.024253757704002957 0 -0.00073969709268747671 0.02395590965661042 0 -0.00091731074488300549 0.0238084553724318 0 -0.00073969709268747671 0.02395590965661042 0 -0.00080250212307419067 0.023505853490835386 0 -0.00073969709268747671 0.02395590965661042 0 -0.00080250212307419067 0.023505853490835386 0 -0.00075361577800701495 0.023763804914239215 0 -0.00080250212307419067 0.023505853490835386 0 -0.00065159598530317047 0.023423237793778279 0 -0.00075361577800701495 0.023763804914239215 0 -0.00058932296604053097 0.022995304176507463 0 -0.00046648087778944114 0.022953360589700673 0 -0.00065159598530317047 0.023423237793778279 0 -0.00080250212307419067 0.023505853490835386 0 -0.00058932296604053097 0.022995304176507463 0 -0.00065159598530317047 0.023423237793778279 0 -0.00058932296604053097 0.022995304176507463 0 -0.00084160553994823764 0.023205097794362417 0 -0.0006501886568573772 0.022687962416921174 0 -0.00058932296604053097 0.022995304176507463 0 -0.0006501886568573772 0.022687962416921174 0 -0.00045215200776098455 0.022461857484979499 0 -0.00080250212307419067 0.023505853490835386 0 -0.00058932296604053097 0.022995304176507463 0 -0.00084160553994823764 0.023205097794362417 0 -0.00091731074488300549 0.0238084553724318 0 -0.00084160553994823764 0.023205097794362417 0 -0.0008854064709766194 0.023168630515196829 0 -0.00091731074488300549 0.0238084553724318 0 -0.00080250212307419067 0.023505853490835386 0 -0.00084160553994823764 0.023205097794362417 0 -0.00084160553994823764 0.023205097794362417 0 -0.0008854064709766194 0.023168630515196829 0 -0.00079396310822234576 0.022899986552245576 0 -0.00085473796855574011 0.023135627253804039 0 -0.00088002220992037866 0.02255743566203226 0 -0.00084160553994823764 0.023205097794362417 0 -0.00098722505868475627 0.022192119116237734 0 -0.0006501886568573772 0.022687962416921174 0 -0.0011007337678987947 0.022835595951493808 0 -0.0008854064709766194 0.023168630515196829 0 -0.00079396310822234576 0.022899986552245576 0 -0.00085343875629652561 0.02213838858676255 0 -0.00088002220992037866 0.02255743566203226 0 -0.0011007337678987947 0.022835595951493808 0 -0.00079396310822234576 0.022899986552245576 0 -0.00095745527125234509 0.022602626284809507 0 -0.0008829069798475432 0.021728591580575961 0 -0.00098722505868475627 0.022192119116237734 0 -0.00069844558458516046 0.021959433113950603 0 -0.00083272387305662282 0.022465336995437908 0 -0.00079396310822234576 0.022899986552245576 0 -0.00095745527125234509 0.022602626284809507 0 -0.000577753091332756 0.021703915815450794 0 -0.00069844558458516046 0.021959433113950603 0 -0.00046232980106192094 0.021990711854190319 0 -0.00098722505868475627 0.022192119116237734 0 -0.00069844558458516046 0.021959433113950603 0 -0.00061777344211059613 0.022285661133133922 0 -0.00069844558458516046 0.021959433113950603 0 -0.00061777344211059613 0.022285661133133922 0 -0.00046232980106192094 0.021990711854190319 0 -0.00061777344211059613 0.022285661133133922 0 -0.00045215200776098455 0.022461857484979499 0 -0.00046232980106192094 0.021990711854190319 0 -0.00098722505868475627 0.022192119116237734 0 -0.00061777344211059613 0.022285661133133922 0 -0.0006501886568573772 0.022687962416921174 0 -0.00061777344211059613 0.022285661133133922 0 -0.0006501886568573772 0.022687962416921174 0 -0.00045215200776098455 0.022461857484979499 0 -0.00045215200776098455 0.022461857484979499 0 -0.00025614734146155258 0.022051443509410771 0 -0.00046232980106192094 0.021990711854190319 0 -0.00045215200776098455 0.022461857484979499 0 -0.00025614734146155258 0.022051443509410771 0 -0.00026045002755831307 0.022447806387234471 0 -0.00033243820721108732 0.0217864905809395 0 -0.00025614734146155258 0.022051443509410771 0 -0.00046232980106192094 0.021990711854190319 0 -0.00033243820721108732 0.0217864905809395 0 -0.00025614734146155258 0.022051443509410771 0 -0.00015437612558720753 0.021777765862736356 0 -3.4807027560601873e-05 0.02187368161658023 0 -0.00025614734146155258 0.022051443509410771 0 -0.00015437612558720753 0.021777765862736356 0 -3.4807027560601873e-05 0.02187368161658023 0 -0.00025614734146155258 0.022051443509410771 0 -0.00026045002755831307 0.022447806387234471 0 -3.4807027560601873e-05 0.02187368161658023 0 -8.6996185382171282e-06 0.022121923403172542 0 -0.00026045002755831307 0.022447806387234471 0 -0.00058932296604053097 0.022995304176507463 0 -0.00045215200776098455 0.022461857484979499 0 -0.00026045002755831307 0.022447806387234471 0 -0.00026045002755831307 0.022447806387234471 0 -0.00046648087778944114 0.022953360589700673 0 -0.0003455721224846691 0.022977206839752028 0 -0.00058932296604053097 0.022995304176507463 0 -0.00026045002755831307 0.022447806387234471 0 -0.00046648087778944114 0.022953360589700673 0 -8.6996185382171282e-06 0.022121923403172542 0 -0.00026045002755831307 0.022447806387234471 0 -0.0003455721224846691 0.022977206839752028 0 -8.6996185382171282e-06 0.022121923403172542 0 0.0001190778254489485 0.022893312915698655 0 -0.0003455721224846691 0.022977206839752028 0 0.0001190778254489485 0.022893312915698655 0 -0.0003455721224846691 0.022977206839752028 0 -0.00024914788625979436 0.023559283698272728 0 -0.00046648087778944114 0.022953360589700673 0 -0.0003455721224846691 0.022977206839752028 0 -0.00065159598530317047 0.023423237793778279 0 -0.0003455721224846691 0.022977206839752028 0 -0.00053006540568102743 0.023530743132217879 0 -0.00065159598530317047 0.023423237793778279 0 -0.0003455721224846691 0.022977206839752028 0 -0.00053006540568102743 0.023530743132217879 0 -0.00024914788625979436 0.023559283698272728 0 -0.00018803402905631292 0.022428803934623247 0 -0.00041276212659381909 0.021814422072003927 0 -0.00066200849584176972 0.022619553050331195 0 -0.00018803402905631292 0.022428803934623247 0 -0.00066200849584176972 0.022619553050331195 0 -0.00034715578471156361 0.02316924804812916 0 -0.00053006540568102743 0.023530743132217879 0 -0.00059228183674544415 0.023774310305852541 0 -0.00065520017979291427 0.02371418821551825 0 -0.00053006540568102743 0.023530743132217879 0 -0.00024914788625979436 0.023559283698272728 0 -0.00059228183674544415 0.023774310305852541 0 -0.00031990447054712647 0.022674932066395773 0 -0.00059741101051618629 0.023175874396922275 0 -0.00059228183674544415 0.023774310305852541 0 -0.00065520017979291427 0.02371418821551825 0 -0.00062999700404575882 0.023752977891127462 0 -0.00059741101051618629 0.023175874396922275 0 -0.00067300643433672465 0.023459480353111326 0 -0.00059228183674544415 0.023774310305852541 0 -0.00062999700404575882 0.023752977891127462 0 -0.00068187238681638072 0.023521409403924082 0 -0.00062999700404575882 0.023752977891127462 0 -0.00066544885418022657 0.023818236284157954 0 -0.00060984180602985339 0.023814652788891489 0 -0.00062999700404575882 0.023752977891127462 0 -0.00060984180602985339 0.023814652788891489 0 -0.00059008309715329922 0.023764174405826146 0 -0.00065520017979291427 0.02371418821551825 0 -0.00062999700404575882 0.023752977891127462 0 -0.00066544885418022657 0.023818236284157954 0 -0.00065520017979291427 0.02371418821551825 0 -0.00066544885418022657 0.023818236284157954 0 -0.0007070298834018447 0.02371691902912193 0 -0.00066544885418022657 0.023818236284157954 0 -0.0007070298834018447 0.02371691902912193 0 -0.00067794271486154925 0.023907509659848995 0 -0.00053006540568102743 0.023530743132217879 0 -0.00065520017979291427 0.02371418821551825 0 -0.00065159598530317047 0.023423237793778279 0 -0.00065520017979291427 0.02371418821551825 0 -0.0007070298834018447 0.02371691902912193 0 -0.00065159598530317047 0.023423237793778279 0 -0.0007070298834018447 0.02371691902912193 0 -0.00075361577800701495 0.023763804914239215 0 -0.00067794271486154925 0.023907509659848995 0 -0.0007070298834018447 0.02371691902912193 0 -0.00065159598530317047 0.023423237793778279 0 -0.00075361577800701495 0.023763804914239215 0 -0.00075361577800701495 0.023763804914239215 0 -0.00063959736057411223 0.024041475959906328 0 -0.00067794271486154925 0.023907509659848995 0 -0.00073969709268747671 0.02395590965661042 0 -0.00075361577800701495 0.023763804914239215 0 -0.00063959736057411223 0.024041475959906328 0 -0.00073969709268747671 0.02395590965661042 0 -0.00063959736057411223 0.024041475959906328 0 -0.0004257950322663565 0.024349926152261107 0 -0.00063959736057411223 0.024041475959906328 0 -0.0004257950322663565 0.024349926152261107 0 -0.00052533368670232164 0.024177506205996173 0 -0.00052533368670232164 0.024177506205996173 0 -0.00067794271486154925 0.023907509659848995 0 -0.00060459023804444202 0.023925799466546119 0 -0.00063959736057411223 0.024041475959906328 0 -0.00052533368670232164 0.024177506205996173 0 -0.00067794271486154925 0.023907509659848995 0 -0.00066544885418022657 0.023818236284157954 0 -0.00067794271486154925 0.023907509659848995 0 -0.00060459023804444202 0.023925799466546119 0 -0.00066544885418022657 0.023818236284157954 0 -0.00060984180602985339 0.023814652788891489 0 -0.00060459023804444202 0.023925799466546119 0 -0.00060984180602985339 0.023814652788891489 0 -0.00055583785316697999 0.023854391644374751 0 -0.00060459023804444202 0.023925799466546119 0 -0.00052533368670232164 0.024177506205996173 0 -0.00060459023804444202 0.023925799466546119 0 -0.0002939256558289524 0.024100158992815809 0 -0.00036514139988104628 0.024819964254756122 0 -7.8771827347841883e-05 0.025035710052807175 0 -7.8513909119577605e-05 0.024872772368478249 0 -0.00055583785316697999 0.023854391644374751 0 -0.00060459023804444202 0.023925799466546119 0 -0.0002939256558289524 0.024100158992815809 0 -0.00043772408238490821 0.024330340708968553 0 -0.00021279249676102663 0.024569152184894871 0 -7.8771827347841883e-05 0.025035710052807175 0 -1.5931680678579012e-07 0.025000319264976065 0 -7.8513909119577605e-05 0.024872772368478249 0 -7.8771827347841883e-05 0.025035710052807175 0 -1.5931680678579012e-07 0.025000319264976065 0 4.945325539380693e-08 0.0249999236063125 0 -0.0002939256558289524 0.024100158992815809 0 3.2820260753394463e-08 0.024998042858088078 0 -0.000226347901823934 0.024634826452065682 0 -0.00021279249676102663 0.024569152184894871 0 -6.5319716533383576e-08 0.024999822859857069 0 -0.00052533368670232164 0.024177506205996173 0 -0.0002939256558289524 0.024100158992815809 0 -0.000226347901823934 0.024634826452065682 0 -0.0004257950322663565 0.024349926152261107 0 -0.00052533368670232164 0.024177506205996173 0 -0.000226347901823934 0.024634826452065682 0 -0.00019589596888723124 0.024668672505542225 0 -0.0004257950322663565 0.024349926152261107 0 -0.000226347901823934 0.024634826452065682 0 -1.9271396073363594e-07 0.024999871221158744 0 3.2820260753394463e-08 0.024998042858088078 0 -0.000226347901823934 0.024634826452065682 0 -1.9271396073363594e-07 0.024999871221158744 0 -0.00019589596888723124 0.024668672505542225 0 -0.000226347901823934 0.024634826452065682 0 -9.1929975307257935e-09 0.02500000910608258 0 -8.4220052295471183e-06 0.025002025714895282 0 -9.6785935380733836e-06 0.02499652659118512 0 -9.1929975307257935e-09 0.02500000910608258 0 -8.4220052295471183e-06 0.025002025714895282 0 -2.2980897672929962e-06 0.025000779020929623 0 -3.6861820294719952e-05 0.024944547951471052 0 -3.1008685071153647e-05 0.024906177863823639 0 -6.9461429454429569e-05 0.024924861111703708 0 -3.6861820294719952e-05 0.024944547951471052 0 -3.1008685071153647e-05 0.024906177863823639 0 -1.968610773772199e-05 0.024953894267966813 0 -0.00031983266254028694 0.023834539442032763 0 -0.0003073785772128504 0.024135426226267086 0 1.03684466779678e-05 0.024150937107649734 0 -3.1008685071153647e-05 0.024906177863823639 0 -6.9461429454429569e-05 0.024924861111703708 0 -0.00010493097485073383 0.024838471418739707 0 -0.00031983266254028694 0.023834539442032763 0 -0.0003073785772128504 0.024135426226267086 0 -0.00040140631947976766 0.023942403767155809 0 -0.00017745324588893055 0.024364038831357061 0 -6.7500734635141864e-05 0.024726660720877199 0 -9.1929975307257935e-09 0.02500000910608258 0 -2.2980897672929962e-06 0.025000779020929623 0 1.0169340372011296e-11 0.024999998894124995 0 -2.2980897672929962e-06 0.025000779020929623 0 -1.5667920540768743e-06 0.025000374257967157 0 1.0169340372011296e-11 0.024999998894124995 0 -8.4220052295471183e-06 0.025002025714895282 0 -2.2980897672929962e-06 0.025000779020929623 0 -1.5667920540768743e-06 0.025000374257967157 0 -2.7201524916014354e-05 0.02499838911696578 0 -6.7500734635141864e-05 0.024726660720877199 0 -6.7500734635141864e-05 0.024726660720877199 0 1.0984893591155077e-07 0.024999990061029969 0 -1.0667444718597119e-06 0.024998538077995045 0 -3.5317722079177823e-09 0.024999991076021383 0 2.386780728919337e-09 0.025000005651332275 0 1.03684466779678e-05 0.024150937107649734 0 -0.00014968271524077272 0.024549413029856543 0 4.1793617774036365e-07 0.024998457819721095 0 -6.7500734635141864e-05 0.024726660720877199 0 -1.7281976202636974e-08 0.024999660985205709 0 -0.00014968271524077272 0.024549413029856543 0 4.1793617774036365e-07 0.024998457819721095 0 -7.8513909119577605e-05 0.024872772368478249 0 -1.5931680678579012e-07 0.025000319264976065 0 4.1793617774036365e-07 0.024998457819721095 0 -7.8513909119577605e-05 0.024872772368478249 0 -0.00014968271524077272 0.024549413029856543 0 -7.8513909119577605e-05 0.024872772368478249 0 -0.00034859601333479378 0.024361273759167777 0 -0.00036514139988104628 0.024819964254756122 0 -7.8513909119577605e-05 0.024872772368478249 0 -0.00034859601333479378 0.024361273759167777 0 -0.0003073785772128504 0.024135426226267086 0 1.03684466779678e-05 0.024150937107649734 0 -0.00014968271524077272 0.024549413029856543 0 -0.0003073785772128504 0.024135426226267086 0 -0.00014968271524077272 0.024549413029856543 0 -0.00034859601333479378 0.024361273759167777 0 -0.0003073785772128504 0.024135426226267086 0 -0.00034859601333479378 0.024361273759167777 0 -0.00048921792238021172 0.023961656021513157 0 -0.00034859601333479378 0.024361273759167777 0 -0.00058538963107994824 0.024011369158263522 0 -0.00048921792238021172 0.023961656021513157 0 -0.00036514139988104628 0.024819964254756122 0 -0.00034859601333479378 0.024361273759167777 0 -0.00058538963107994824 0.024011369158263522 0 -0.00043772408238490821 0.024330340708968553 0 -0.00057475660078623928 0.024065109126213603 0 -0.00060984180602985339 0.023814652788891489 0 -0.00055583785316697999 0.023854391644374751 0 -0.00058538963107994824 0.024011369158263522 0 -0.00060984180602985339 0.023814652788891489 0 -0.00058538963107994824 0.024011369158263522 0 -0.00059008309715329922 0.023764174405826146 0 -0.00058538963107994824 0.024011369158263522 0 -0.000559607276267188 0.023861708623142096 0 -0.00048921792238021172 0.023961656021513157 0 -0.00058538963107994824 0.024011369158263522 0 -0.000559607276267188 0.023861708623142096 0 -0.00059008309715329922 0.023764174405826146 0 -0.000559607276267188 0.023861708623142096 0 -0.00049586596968928369 0.02384010078516784 0 -0.00048921792238021172 0.023961656021513157 0 -0.000559607276267188 0.023861708623142096 0 -0.00049586596968928369 0.02384010078516784 0 -0.0005106310719151108 0.023802153918676967 0 -0.0003073785772128504 0.024135426226267086 0 -0.00048921792238021172 0.023961656021513157 0 -0.00040140631947976766 0.023942403767155809 0 -0.00031983266254028694 0.023834539442032763 0 -0.00040140631947976766 0.023942403767155809 0 -0.00044122336164034704 0.023851501390654565 0 -0.00048921792238021172 0.023961656021513157 0 -0.00040140631947976766 0.023942403767155809 0 -0.00044122336164034704 0.023851501390654565 0 -0.00049586596968928369 0.02384010078516784 0 -0.00048921792238021172 0.023961656021513157 0 -0.00044122336164034704 0.023851501390654565 0 -0.00031983266254028694 0.023834539442032763 0 -0.00044122336164034704 0.023851501390654565 0 -0.00046506611846030611 0.023754318655023914 0 -3.1008685071153647e-05 0.024906177863823639 0 9.4847766069893602e-06 0.024959688815462913 0 -1.968610773772199e-05 0.024953894267966813 0 -0.00049586596968928369 0.02384010078516784 0 -0.00044122336164034704 0.023851501390654565 0 -0.00046939955819133686 0.02379537167225966 0 -0.00017745324588893055 0.024364038831357061 0 -0.00023036167983630403 0.024222005475767239 0 -0.00044122336164034704 0.023851501390654565 0 -0.00046939955819133686 0.02379537167225966 0 -0.00046506611846030611 0.023754318655023914 0 -0.00026673914533077996 0.023921627446551762 0 -0.00023036167983630403 0.024222005475767239 0 -0.00046939955819133686 0.02379537167225966 0 -0.00046676409051972354 0.023803434927524961 0 -0.00040583656398815682 0.023808272170179275 0 -0.00046939955819133686 0.02379537167225966 0 -0.00040583656398815682 0.023808272170179275 0 -0.0004712122038578272 0.023818814126065506 0 -0.00046676409051972354 0.023803434927524961 0 -0.00045090575843472792 0.023795349951169376 0 -0.00040583656398815682 0.023808272170179275 0 -0.00049586596968928369 0.02384010078516784 0 -0.00046676409051972354 0.023803434927524961 0 -0.0005106310719151108 0.023802153918676967 0 -0.00046676409051972354 0.023803434927524961 0 -0.00045090575843472792 0.023795349951169376 0 -0.0005106310719151108 0.023802153918676967 0 -0.00049586596968928369 0.02384010078516784 0 -0.00046939955819133686 0.02379537167225966 0 -0.00046676409051972354 0.023803434927524961 0 -0.00045090575843472792 0.023795349951169376 0 -0.00048105685732145943 0.023745872533167147 0 -0.0005106310719151108 0.023802153918676967 0 -0.00045090575843472792 0.023795349951169376 0 -0.00048105685732145943 0.023745872533167147 0 -0.00038990962501008803 0.023809517007314179 0 -0.00045090575843472792 0.023795349951169376 0 -0.00038990962501008803 0.023809517007314179 0 -0.00040583656398815682 0.023808272170179275 0 -0.00048105685732145943 0.023745872533167147 0 -0.00039465144802650168 0.023745318927438076 0 -0.00038990962501008803 0.023809517007314179 0 -0.00048105685732145943 0.023745872533167147 0 -0.00049444240224698441 0.023586163297336021 0 -0.00039465144802650168 0.023745318927438076 0 -0.00048105685732145943 0.023745872533167147 0 -0.00057259979811807393 0.023715084171765339 0 -0.00049444240224698441 0.023586163297336021 0 -0.00048105685732145943 0.023745872533167147 0 -0.0005106310719151108 0.023802153918676967 0 -0.00057259979811807393 0.023715084171765339 0 -0.000559607276267188 0.023861708623142096 0 -0.0005106310719151108 0.023802153918676967 0 -0.00057259979811807393 0.023715084171765339 0 -0.000559607276267188 0.023861708623142096 0 -0.00057259979811807393 0.023715084171765339 0 -0.00059008309715329922 0.023764174405826146 0 -0.00057259979811807393 0.023715084171765339 0 -0.00059008309715329922 0.023764174405826146 0 -0.00068187238681638072 0.023521409403924082 0 -0.00062999700404575882 0.023752977891127462 0 -0.00059008309715329922 0.023764174405826146 0 -0.00068187238681638072 0.023521409403924082 0 -0.00057259979811807393 0.023715084171765339 0 -0.00068187238681638072 0.023521409403924082 0 -0.00049444240224698441 0.023586163297336021 0 -0.00068187238681638072 0.023521409403924082 0 -0.00049444240224698441 0.023586163297336021 0 -0.00034715578471156361 0.02316924804812916 0 -0.00066200849584176972 0.022619553050331195 0 -0.00068187238681638072 0.023521409403924082 0 -0.00034715578471156361 0.02316924804812916 0 -0.00034715578471156361 0.02316924804812916 0 -0.00022775546776919624 0.023564853170710068 0 1.1031289660480318e-06 0.023256388725580918 0 -0.00049444240224698441 0.023586163297336021 0 -0.00034715578471156361 0.02316924804812916 0 -0.00022775546776919624 0.023564853170710068 0 -0.00049444240224698441 0.023586163297336021 0 -0.00022775546776919624 0.023564853170710068 0 -0.00039465144802650168 0.023745318927438076 0 -0.00022775546776919624 0.023564853170710068 0 -0.00039465144802650168 0.023745318927438076 0 -0.00024341599391148892 0.023804362434059347 0 -0.00039465144802650168 0.023745318927438076 0 -0.00024341599391148892 0.023804362434059347 0 -0.00034218939819970971 0.023820591330060824 0 -0.00024341599391148892 0.023804362434059347 0 -0.00028712184368725801 0.023830476327211664 0 -0.00034218939819970971 0.023820591330060824 0 -0.00028712184368725801 0.023830476327211664 0 -0.00030606602216383215 0.023812504375338762 0 -0.00034218939819970971 0.023820591330060824 0 -0.00028712184368725801 0.023830476327211664 0 -0.00030606602216383215 0.023812504375338762 0 -0.00022658692538994252 0.023884431657441873 0 -0.00024341599391148892 0.023804362434059347 0 -0.00028712184368725801 0.023830476327211664 0 -0.00022658692538994252 0.023884431657441873 0 -0.00011349402169224298 0.022831225461345729 0 0.00019562326827943021 0.022644580876013641 0 -0.00037544996553481668 0.023745820417737436 0 -0.00030606602216383215 0.023812504375338762 0 -0.00022658692538994252 0.023884431657441873 0 8.0547859136857481e-05 0.021906093886682992 0 0.00062509321614340663 0.021406715862991501 0 0.0005057108210686557 0.021895244426010849 0 0.00060240189368765049 0.022222926540807566 0 0.00028659463782085189 0.022340603297425651 0 0.0005057108210686557 0.021895244426010849 0 0.00028659463782085189 0.022340603297425651 0 8.0547859136857481e-05 0.021906093886682992 0 0.0005057108210686557 0.021895244426010849 0 -0.00026820996781951186 0.023194379822693373 0 -0.00037544996553481668 0.023745820417737436 0 -0.00025543863331208336 0.023573788432380612 0 -0.00037544996553481668 0.023745820417737436 0 -0.00025543863331208336 0.023573788432380612 0 -0.00025117667829602588 0.023709290526715214 0 -0.00025020722727833321 0.023123779743851054 0 -0.00011349402169224298 0.022831225461345729 0 -0.00037544996553481668 0.023745820417737436 0 -0.00030606602216383215 0.023812504375338762 0 -0.00025117667829602588 0.023709290526715214 0 -0.00030606602216383215 0.023812504375338762 0 -0.00025117667829602588 0.023709290526715214 0 -0.00016006318012557567 0.023727064714062801 0 -0.00030606602216383215 0.023812504375338762 0 -0.00016006318012557567 0.023727064714062801 0 -0.00028178965558472573 0.023807156585988663 0 -0.00025117667829602588 0.023709290526715214 0 -0.00011052814865628135 0.023623125319981435 0 -0.00016006318012557567 0.023727064714062801 0 -0.00025543863331208336 0.023573788432380612 0 -0.00025117667829602588 0.023709290526715214 0 -0.00011052814865628135 0.023623125319981435 0 -5.8969408414739058e-05 0.02368310369044694 0 -0.00016006318012557567 0.023727064714062801 0 -8.9059115784144752e-05 0.023740412954198348 0 -0.00011052814865628135 0.023623125319981435 0 -5.8969408414739058e-05 0.02368310369044694 0 -0.00016006318012557567 0.023727064714062801 0 -0.00016006318012557567 0.023727064714062801 0 -0.00028178965558472573 0.023807156585988663 0 -0.00017688487262203887 0.023754279759738237 0 -0.00016006318012557567 0.023727064714062801 0 -0.00017688487262203887 0.023754279759738237 0 -8.9059115784144752e-05 0.023740412954198348 0 -0.00028178965558472573 0.023807156585988663 0 -0.00031023694548704388 0.023829217184707513 0 -0.00017688487262203887 0.023754279759738237 0 -0.00030606602216383215 0.023812504375338762 0 -0.00028178965558472573 0.023807156585988663 0 -0.00034218939819970971 0.023820591330060824 0 -0.00039465144802650168 0.023745318927438076 0 -0.00034218939819970971 0.023820591330060824 0 -0.00038990962501008803 0.023809517007314179 0 -0.00028178965558472573 0.023807156585988663 0 -0.00034218939819970971 0.023820591330060824 0 -0.00038990962501008803 0.023809517007314179 0 -0.00038990962501008803 0.023809517007314179 0 -0.00031023694548704388 0.023829217184707513 0 -0.00040583656398815682 0.023808272170179275 0 -0.00028178965558472573 0.023807156585988663 0 -0.00038990962501008803 0.023809517007314179 0 -0.00031023694548704388 0.023829217184707513 0 -0.00031023694548704388 0.023829217184707513 0 -0.00019897375142171084 0.023930318773319935 0 -0.00015127708966062287 0.023778363899439967 0 -0.00039912568260057633 0.023750854975176774 0 -0.00023036167983630403 0.024222005475767239 0 -0.00031023694548704388 0.023829217184707513 0 -0.00040583656398815682 0.023808272170179275 0 -0.0004712122038578272 0.023818814126065506 0 -0.00023036167983630403 0.024222005475767239 0 -7.8133168057077876e-05 0.024427925068846938 0 9.4847766069893602e-06 0.024959688815462913 0 -1.3240469605563342e-05 0.024977239252455995 0 -2.1455156929085717e-05 0.024995026062492154 0 9.4847766069893602e-06 0.024959688815462913 0 -1.968610773772199e-05 0.024953894267966813 0 -1.3240469605563342e-05 0.024977239252455995 0 -1.3240469605563342e-05 0.024977239252455995 0 -2.1455156929085717e-05 0.024995026062492154 0 -2.4345070743566382e-05 0.024988973840794217 0 -0.00031023694548704388 0.023829217184707513 0 -0.00015127708966062287 0.023778363899439967 0 -0.00017688487262203887 0.023754279759738237 0 -0.00017688487262203887 0.023754279759738237 0 -8.9059115784144752e-05 0.023740412954198348 0 -0.0001413525218244114 0.023746917508849066 0 -7.7850998473219667e-05 0.023842040542304072 0 -8.9059115784144752e-05 0.023740412954198348 0 -0.0001413525218244114 0.023746917508849066 0 -0.00015127708966062287 0.023778363899439967 0 -0.00017688487262203887 0.023754279759738237 0 -0.0001413525218244114 0.023746917508849066 0 -7.8133168057077876e-05 0.024427925068846938 0 -9.7959685850664607e-05 0.024361477709849672 0 -2.1455156929085717e-05 0.024995026062492154 0 -5.0746000832654046e-05 0.024989612991669512 0 -2.115970820958255e-05 0.024998183305233526 0 -5.0746000832654046e-05 0.024989612991669512 0 -6.3809284945039897e-08 0.025000090411006506 0 -2.115970820958255e-05 0.024998183305233526 0 -8.774798903071865e-05 0.024958684035790987 0 -5.0746000832654046e-05 0.024989612991669512 0 -6.3809284945039897e-08 0.025000090411006506 0 -0.00012710150040055144 0.024457431094431322 0 -9.7959685850664607e-05 0.024361477709849672 0 -6.3809284945039897e-08 0.025000090411006506 0 -4.4818052853200406e-09 0.024999969434345244 0 -2.115970820958255e-05 0.024998183305233526 0 -4.4818052853200406e-09 0.024999969434345244 0 -2.115970820958255e-05 0.024998183305233526 0 -9.6785935380733836e-06 0.02499652659118512 0 -2.115970820958255e-05 0.024998183305233526 0 -2.4345070743566382e-05 0.024988973840794217 0 -9.6785935380733836e-06 0.02499652659118512 0 -2.1455156929085717e-05 0.024995026062492154 0 -2.115970820958255e-05 0.024998183305233526 0 -2.4345070743566382e-05 0.024988973840794217 0 -2.7201524916014354e-05 0.02499838911696578 0 -3.2052249365180059e-05 0.024972157473372832 0 -3.6861820294719952e-05 0.024944547951471052 0 -6.9461429454429569e-05 0.024924861111703708 0 -2.4345070743566382e-05 0.024988973840794217 0 -8.4220052295471183e-06 0.025002025714895282 0 -2.4345070743566382e-05 0.024988973840794217 0 -9.6785935380733836e-06 0.02499652659118512 0 -3.6861820294719952e-05 0.024944547951471052 0 -1.968610773772199e-05 0.024953894267966813 0 -2.4345070743566382e-05 0.024988973840794217 0 -1.968610773772199e-05 0.024953894267966813 0 -1.3240469605563342e-05 0.024977239252455995 0 -2.4345070743566382e-05 0.024988973840794217 0 -9.1929975307257935e-09 0.02500000910608258 0 -4.4818052853200406e-09 0.024999969434345244 0 -9.6785935380733836e-06 0.02499652659118512 0 0.0047404644439421407 0.020443206810384213 0 0.004639888259415215 0.020380945670623277 0 0.0046634351556335638 0.020535516827282729 0 0.0020681906466147922 0.02116252736651689 0 0.0033387375232741046 0.020760807526103292 0 0.0010546301359989178 0.020579927789279851 0 0.0013141506271120529 0.021038051281805508 0 0.0015035665256578584 0.020705789077831799 0 0.0010127318434339267 0.021254206489443563 0 0.0010068112718016526 0.021255609552869675 0 0.00099940810439426929 0.021256357404196197 0 0.0021920965937031207 0.022054493942257742 0 0.002017202123022453 0.021795683271130246 0 0.0016633975583482332 0.021901274660217771 0 0.0010127318434339267 0.021254206489443563 0 0.00099365093413760191 0.021245285177844728 0 0.00099940810439426929 0.021256357404196197 0 0.0020681906466147922 0.02116252736651689 0 0.0011232861931799528 0.022400504241906687 0 0.0010127318434339267 0.021254206489443563 0 0.0010068112718016526 0.021255609552869675 0 0.0010081274292607564 0.021246231587492562 0 0.0020681906466147922 0.02116252736651689 0 0.00075891815026248954 0.021140793741211007 0 0.0010068112718016526 0.021255609552869675 0 0.00099940810439426929 0.021256357404196197 0 0.00099669552351986778 0.021279606225341054 0 0.0010068112718016526 0.021255609552869675 0 0.00099669552351986778 0.021279606225341054 0 0.0010081274292607564 0.021246231587492562 0 0.0013141506271120529 0.021038051281805508 0 0.0011963616438571756 0.021236977559306727 0 0.0010081274292607564 0.021246231587492562 0 0.0010546301359989178 0.020579927789279851 0 0.0013141506271120529 0.021038051281805508 0 0.0010081274292607564 0.021246231587492562 0 0.0016198168141175011 0.021055913678154764 0 0.0019521607559663768 0.020812663031443607 0 0.0015035665256578584 0.020705789077831799 0 0.0013141506271120529 0.021038051281805508 0 0.0016198168141175011 0.021055913678154764 0 0.0015035665256578584 0.020705789077831799 0 0.0016198168141175011 0.021055913678154764 0 0.0019521607559663768 0.020812663031443607 0 0.0018737971962013891 0.021344263620904285 0 0.0027572649654259438 0.013558938692248869 0 0.0027369276487684857 0.013643477593169058 0 0.0028046377364372072 0.013546725642675167 0 0.00321276513288897 0.016703239834537888 0 0.0010723900267663599 0.019429862332477236 0 0.00321276513288897 0.016703239834537888 0 0.0023519636350211493 0.014036486067551323 0 0.0028770271462200754 0.013564478371281379 0 0.0028881488683729977 0.013692790787012122 0 0.0028295827225953644 0.013606475557377333 0 0.0044738402042572775 0.020277489378994529 0 0.0045453224400605402 0.020409671887617001 0 0.0044503273841292653 0.020490989164620825 0 0.0028770271462200754 0.013564478371281379 0 0.0028046377364372072 0.013546725642675167 0 0.0028295827225953644 0.013606475557377333 0 0.00321276513288897 0.016703239834537888 0 0.0044287288736045939 0.018056622460193045 0 0.00321276513288897 0.016703239834537888 0 0.0033387375232741046 0.020760807526103292 0 0.004639888259415215 0.020380945670623277 0 0.0045985665942997762 0.020500638596825931 0 0.0046634351556335638 0.020535516827282729 0 0.0044738402042572775 0.020277489378994529 0 0.004639888259415215 0.020380945670623277 0 0.0045453224400605402 0.020409671887617001 0 0.004639888259415215 0.020380945670623277 0 0.0045453224400605402 0.020409671887617001 0 0.0045985665942997762 0.020500638596825931 0 0.0046508151104213717 0.020597906984089712 0 0.0046170463756547543 0.02058057299787841 0 0.0046634351556335638 0.020535516827282729 0 0.0045985665942997762 0.020500638596825931 0 0.0046170463756547543 0.02058057299787841 0 0.0046634351556335638 0.020535516827282729 0 0.0047770114996280224 0.0174415261306963 0 0.0046825394158194894 0.018235460868505974 0 0.0044838676706187028 0.017448826827982308 0 0.0045675666242831923 0.020512025207913821 0 0.0045995450127488862 0.020611211624233745 0 0.0046170463756547543 0.02058057299787841 0 0.0044287288736045939 0.018056622460193045 0 0.004605827325413865 0.019792488265626757 0 0.0048302721605769632 0.017634897931699079 0 0.0038424257156565171 0.015811175436500933 0 0.0028881488683729977 0.013692790787012122 0 0.0028295827225953644 0.013606475557377333 0 0.0028343477556892161 0.013697332291339164 0 0.0044287288736045939 0.018056622460193045 0 0.0038424257156565171 0.015811175436500933 0 0.004570582466723888 0.020075302358350106 0 0.0044287288736045939 0.018056622460193045 0 0.0045453224400605402 0.020409671887617001 0 0.0045985665942997762 0.020500638596825931 0 0.0044503273841292653 0.020490989164620825 0 0.0045985665942997762 0.020500638596825931 0 0.0045675666242831923 0.020512025207913821 0 0.0046170463756547543 0.02058057299787841 0 0.0046020504675345223 0.018988483528860067 0 0.0045395478679807139 0.018239018312820723 0 0.0046825394158194894 0.018235460868505974 0 0.0045395478679807139 0.018239018312820723 0 0.0046825394158194894 0.018235460868505974 0 0.0044838676706187028 0.017448826827982308 0 0.0049027472994335672 0.018578786379612591 0 0.0048302721605769632 0.017634897931699079 0 0.0047139747996771363 0.020668596326846821 0 0.0045995450127488862 0.020611211624233745 0 0.0046375372414451544 0.020646222558307292 0 0.0049027472994335672 0.018578786379612591 0 0.004605827325413865 0.019792488265626757 0 0.0045995450127488862 0.020611211624233745 0 0.0046375372414451544 0.020646222558307292 0 0.0046170463756547543 0.02058057299787841 0 0.0046508151104213717 0.020597906984089712 0 0.0046170463756547543 0.02058057299787841 0 0.0046382896872789832 0.020626482006025501 0 0.004636322649122903 0.020656418570459075 0 0.0046375372414451544 0.020646222558307292 0 0.0046382896872789832 0.020626482006025501 0 0.0046375372414451544 0.020646222558307292 0 0.0046170463756547543 0.02058057299787841 0 0.0046382896872789832 0.020626482006025501 0 0.0046508151104213717 0.020597906984089712 0 0.0046382896872789832 0.020626482006025501 0 0.0046552017094855539 0.020633661699852788 0 0.004636322649122903 0.020656418570459075 0 0.0046382896872789832 0.020626482006025501 0 0.0046552017094855539 0.020633661699852788 0 0.0027604790559523891 0.021505516561898509 0 0.0035018851034609097 0.020975843224658834 0 0.0046552017094855539 0.020633661699852788 0 0.0046781997362384904 0.020642925291708199 0 0.0046858184192265367 0.02060020532276919 0 0.0046526439917812116 0.020655439840544128 0 0.0046552017094855539 0.020633661699852788 0 0.0046781997362384904 0.020642925291708199 0 0.0047082409616422821 0.020642967203805349 0 0.0046858184192265367 0.02060020532276919 0 0.0047299507910569891 0.020554398945751392 0 0.0046781997362384904 0.020642925291708199 0 0.0047082409616422821 0.020642967203805349 0 0.0046858184192265367 0.02060020532276919 0 0.0024237042125936979 0.022167427031006413 0 0.0027604790559523891 0.021505516561898509 0 0.0046508151104213717 0.020597906984089712 0 0.0046552017094855539 0.020633661699852788 0 0.0046858184192265367 0.02060020532276919 0 0.0046508151104213717 0.020597906984089712 0 0.0046858184192265367 0.02060020532276919 0 0.0046634351556335638 0.020535516827282729 0 0.0046858184192265367 0.02060020532276919 0 0.0046634351556335638 0.020535516827282729 0 0.0047299507910569891 0.020554398945751392 0 0.0047404644439421407 0.020443206810384213 0 0.0046634351556335638 0.020535516827282729 0 0.0047299507910569891 0.020554398945751392 0 0.0020681906466147922 0.02116252736651689 0 0.0035018851034609097 0.020975843224658834 0 0.0021920965937031207 0.022054493942257742 0 0.002232741243869817 0.021627363654498372 0 0.002017202123022453 0.021795683271130246 0 0.002017202123022453 0.021795683271130246 0 0.001968486409473052 0.021549236399016 0 0.0016633975583482332 0.021901274660217771 0 0.002232741243869817 0.021627363654498372 0 0.002017202123022453 0.021795683271130246 0 0.001968486409473052 0.021549236399016 0 0.0014752730741328796 0.02298167028941251 0 0.0014740536835525927 0.022680755223986823 0 0.0010658545287255189 0.023012290005098406 0 0.0022761396812234617 0.021201747079341728 0 0.002232741243869817 0.021627363654498372 0 0.001968486409473052 0.021549236399016 0 0.0027604790559523891 0.021505516561898509 0 0.0016442690089589122 0.022354903180399961 0 0.001947120260279262 0.022455438115250134 0 0.0014752730741328796 0.02298167028941251 0 0.0014740536835525927 0.022680755223986823 0 0.0016593288358919542 0.022387835530153069 0 0.0021566585185080344 0.022485454470047444 0 0.00156609684186805 0.02279024768418024 0 0.0024237042125936979 0.022167427031006413 0 0.0014711325244787219 0.022774094398156752 0 0.0019581280816198376 0.022337383481464166 0 0.001947120260279262 0.022455438115250134 0 0.0014740536835525927 0.022680755223986823 0 0.0016593288358919542 0.022387835530153069 0 0.00156609684186805 0.02279024768418024 0 0.0011889749349510109 0.022534105888590256 0 0.0011889749349510109 0.022534105888590256 0 0.00080912685459013647 0.02278553998906541 0 0.0010658545287255189 0.023012290005098406 0 0.00156609684186805 0.02279024768418024 0 0.0011889749349510109 0.022534105888590256 0 0.0010658545287255189 0.023012290005098406 0 0.0014711325244787219 0.022774094398156752 0 0.0011601509456537653 0.022963470821727894 0 0.00080912685459013647 0.02278553998906541 0 0.00076787466037395841 0.023086070988399442 0 0.0010658545287255189 0.023012290005098406 0 0.00084649263560500094 0.022447367393495472 0 0.0011889749349510109 0.022534105888590256 0 0.00080912685459013647 0.02278553998906541 0 0.00084649263560500094 0.022447367393495472 0 0.00049561456614821383 0.022631201130041734 0 0.00080912685459013647 0.02278553998906541 0 0.00049561456614821383 0.022631201130041734 0 0.00080912685459013647 0.02278553998906541 0 0.00052369127187312336 0.023007328372808531 0 0.00080912685459013647 0.02278553998906541 0 0.00076787466037395841 0.023086070988399442 0 0.00052369127187312336 0.023007328372808531 0 0.00076787466037395841 0.023086070988399442 0 0.00052369127187312336 0.023007328372808531 0 0.00057630767434070217 0.023274939638547012 0 0.00052369127187312336 0.023007328372808531 0 0.00057630767434070217 0.023274939638547012 0 0.00030009263583902961 0.023345368826570307 0 0.00076787466037395841 0.023086070988399442 0 0.00057630767434070217 0.023274939638547012 0 0.00083490702051522295 0.023307129461403887 0 0.00083490702051522295 0.023307129461403887 0 0.0010576905275693587 0.023387326585020202 0 0.0010658545287255189 0.023012290005098406 0 0.0010670129957417479 0.022748010798863714 0 0.0011232861931799528 0.022400504241906687 0 0.0016442690089589122 0.022354903180399961 0 0.0011232861931799528 0.022400504241906687 0 0.0014752730741328796 0.02298167028941251 0 0.0010576905275693587 0.023387326585020202 0 0.0010658545287255189 0.023012290005098406 0 0.00076787466037395841 0.023086070988399442 0 0.00083490702051522295 0.023307129461403887 0 0.0010658545287255189 0.023012290005098406 0 -0.00018803402905631292 0.022428803934623247 0 -0.00034715578471156361 0.02316924804812916 0 8.7763744814897237e-05 0.022746064688341498 0 -0.00034715578471156361 0.02316924804812916 0 8.7763744814897237e-05 0.022746064688341498 0 1.1031289660480318e-06 0.023256388725580918 0 8.7763744814897237e-05 0.022746064688341498 0 0.00025609632391903101 0.023012580319088125 0 1.1031289660480318e-06 0.023256388725580918 0 0.00049561456614821383 0.022631201130041734 0 8.7763744814897237e-05 0.022746064688341498 0 0.00025609632391903101 0.023012580319088125 0 0.00049561456614821383 0.022631201130041734 0 0.00052369127187312336 0.023007328372808531 0 0.00025609632391903101 0.023012580319088125 0 0.00025609632391903101 0.023012580319088125 0 0.00030009263583902961 0.023345368826570307 0 1.1031289660480318e-06 0.023256388725580918 0 0.00052369127187312336 0.023007328372808531 0 0.00025609632391903101 0.023012580319088125 0 0.00030009263583902961 0.023345368826570307 0 -0.00022775546776919624 0.023564853170710068 0 1.1031289660480318e-06 0.023256388725580918 0 3.8325737141388867e-05 0.023640235144118015 0 0.00030009263583902961 0.023345368826570307 0 3.8325737141388867e-05 0.023640235144118015 0 0.00047673753413856804 0.023702149155539042 0 0.00030009263583902961 0.023345368826570307 0 1.1031289660480318e-06 0.023256388725580918 0 3.8325737141388867e-05 0.023640235144118015 0 3.8325737141388867e-05 0.023640235144118015 0 0.00047673753413856804 0.023702149155539042 0 5.5546434188211175e-05 0.023871210028910274 0 0.0006998676000649017 0.022458061470948424 0 0.00046626405500872564 0.022569385407013448 0 -0.00022775546776919624 0.023564853170710068 0 -0.00024341599391148892 0.023804362434059347 0 3.8325737141388867e-05 0.023640235144118015 0 0.0011232861931799528 0.022400504241906687 0 0.0006998676000649017 0.022458061470948424 0 0.00083490702051522295 0.023307129461403887 0 0.00097643776434128973 0.023348290972202753 0 0.00047673753413856804 0.023702149155539042 0 0.00099365093413760191 0.021245285177844728 0 0.00095217600599799463 0.021257833113545191 0 0.00098326174769092244 0.021261993968096193 0 0.00099365093413760191 0.021245285177844728 0 0.00098326174769092244 0.021261993968096193 0 0.00099940810439426929 0.021256357404196197 0 0.00057630767434070217 0.023274939638547012 0 0.00083490702051522295 0.023307129461403887 0 0.00047673753413856804 0.023702149155539042 0 0.00057630767434070217 0.023274939638547012 0 0.00030009263583902961 0.023345368826570307 0 0.00047673753413856804 0.023702149155539042 0 0.00095217600599799463 0.021257833113545191 0 0.00098326174769092244 0.021261993968096193 0 0.00097336174172116719 0.021288672191265109 0 0.00098326174769092244 0.021261993968096193 0 0.00099669552351986778 0.021279606225341054 0 0.00097336174172116719 0.021288672191265109 0 0.00098326174769092244 0.021261993968096193 0 0.00099940810439426929 0.021256357404196197 0 0.00099669552351986778 0.021279606225341054 0 0.00099669552351986778 0.021279606225341054 0 0.00099972137657224698 0.021324006242116465 0 0.0010036100032762025 0.021314506542006523 0 0.00099972137657224698 0.021324006242116465 0 0.00097336174172116719 0.021288672191265109 0 0.00098547891604699772 0.021349551182105485 0 0.00099669552351986778 0.021279606225341054 0 0.00099972137657224698 0.021324006242116465 0 0.00097336174172116719 0.021288672191265109 0 0.00095217600599799463 0.021257833113545191 0 0.00097336174172116719 0.021288672191265109 0 0.00086389520680572852 0.021276970490294173 0 0.00097336174172116719 0.021288672191265109 0 0.00098547891604699772 0.021349551182105485 0 0.00086389520680572852 0.021276970490294173 0 0.00098547891604699772 0.021349551182105485 0 0.00096093713878555014 0.021415274401168895 0 0.00086389520680572852 0.021276970490294173 0 0.00098547891604699772 0.021349551182105485 0 0.00096093713878555014 0.021415274401168895 0 0.001008831823076032 0.021402350665703132 0 0.00098547891604699772 0.021349551182105485 0 0.0010142341499105034 0.021353808142741709 0 0.001008831823076032 0.021402350665703132 0 0.00099972137657224698 0.021324006242116465 0 0.0010142341499105034 0.021353808142741709 0 0.0010182212681873898 0.021340824944100042 0 0.00099972137657224698 0.021324006242116465 0 0.00098547891604699772 0.021349551182105485 0 0.0010142341499105034 0.021353808142741709 0 -0.00024341599391148892 0.023804362434059347 0 5.5546434188211175e-05 0.023871210028910274 0 -0.00022658692538994252 0.023884431657441873 0 -0.00024341599391148892 0.023804362434059347 0 3.8325737141388867e-05 0.023640235144118015 0 5.5546434188211175e-05 0.023871210028910274 0 0.00096093713878555014 0.021415274401168895 0 0.00086389520680572852 0.021276970490294173 0 0.00090113911203931665 0.021511308748972439 0 0.00046626405500872564 0.022569385407013448 0 0.00019562326827943021 0.022644580876013641 0 0.00086389520680572852 0.021276970490294173 0 0.00062509321614340663 0.021406715862991501 0 0.00090113911203931665 0.021511308748972439 0 0.00062509321614340663 0.021406715862991501 0 0.00090113911203931665 0.021511308748972439 0 0.00081486236320256022 0.021743007497142426 0 0.00062509321614340663 0.021406715862991501 0 0.00081486236320256022 0.021743007497142426 0 0.0005057108210686557 0.021895244426010849 0 0.0010546105676087028 0.021779792394498929 0 0.00090113911203931665 0.021511308748972439 0 0.0010105937413505673 0.021500740535595798 0 0.0010546105676087028 0.021779792394498929 0 0.00090113911203931665 0.021511308748972439 0 0.00081486236320256022 0.021743007497142426 0 0.0010546105676087028 0.021779792394498929 0 0.00060240189368765049 0.022222926540807566 0 0.00081486236320256022 0.021743007497142426 0 0.00060240189368765049 0.022222926540807566 0 0.00081486236320256022 0.021743007497142426 0 0.0005057108210686557 0.021895244426010849 0 0.0010142341499105034 0.021353808142741709 0 0.001008831823076032 0.021402350665703132 0 0.0010103642603903943 0.021335620687804532 0 0.001008831823076032 0.021402350665703132 0 0.0010105937413505673 0.021500740535595798 0 0.0010103642603903943 0.021335620687804532 0 0.00096093713878555014 0.021415274401168895 0 0.00090113911203931665 0.021511308748972439 0 0.0010105937413505673 0.021500740535595798 0 0.00096093713878555014 0.021415274401168895 0 0.001008831823076032 0.021402350665703132 0 0.0010105937413505673 0.021500740535595798 0 0.0009536678103958734 0.021495641707403031 0 0.0010546105676087028 0.021779792394498929 0 0.0010105937413505673 0.021500740535595798 0 0.0009536678103958734 0.021495641707403031 0 0.0010105937413505673 0.021500740535595798 0 0.00099325709919486412 0.0213962781463727 0 0.0010105937413505673 0.021500740535595798 0 0.00099325709919486412 0.0213962781463727 0 0.0010103642603903943 0.021335620687804532 0 0.00096765941276136605 0.021260057647168627 0 0.00099325709919486412 0.0213962781463727 0 0.0010103642603903943 0.021335620687804532 0 0.00096765941276136605 0.021260057647168627 0 0.0010103642603903943 0.021335620687804532 0 0.00099342041316804542 0.021198201682125259 0 0.0010103642603903943 0.021335620687804532 0 0.00099342041316804542 0.021198201682125259 0 0.00096743577196630544 0.021239686385330213 0 0.00099342041316804542 0.021198201682125259 0 0.00093013644351105657 0.02110195826097274 0 0.00096743577196630544 0.021239686385330213 0 0.00093013644351105657 0.02110195826097274 0 0.00096743577196630544 0.021239686385330213 0 0.00084847449346484971 0.02114681004313464 0 0.00096743577196630544 0.021239686385330213 0 0.001002330139675009 0.021312007704790911 0 0.000946181981237609 0.021304024424278357 0 0.00096743577196630544 0.021239686385330213 0 0.000946181981237609 0.021304024424278357 0 0.00084847449346484971 0.02114681004313464 0 0.0010103642603903943 0.021335620687804532 0 0.00096743577196630544 0.021239686385330213 0 0.001002330139675009 0.021312007704790911 0 0.0010142341499105034 0.021353808142741709 0 0.0010103642603903943 0.021335620687804532 0 0.001002330139675009 0.021312007704790911 0 0.001002330139675009 0.021312007704790911 0 0.0010182212681873898 0.021340824944100042 0 0.000946181981237609 0.021304024424278357 0 0.0010142341499105034 0.021353808142741709 0 0.001002330139675009 0.021312007704790911 0 0.0010182212681873898 0.021340824944100042 0 0.0010182212681873898 0.021340824944100042 0 0.000946181981237609 0.021304024424278357 0 0.0010340374818902859 0.021366304186341976 0 0.0010431628736309532 0.021377120152277052 0 0.0011971049896139108 0.021382816422442458 0 0.0010340374818902859 0.021366304186341976 0 0.0011963616438571756 0.021236977559306727 0 0.0014614720282317595 0.02138059270500569 0 0.000946181981237609 0.021304024424278357 0 0.0010340374818902859 0.021366304186341976 0 0.00088980747647097568 0.021405714175348759 0 0.0013141506271120529 0.021038051281805508 0 0.0011963616438571756 0.021236977559306727 0 0.0014614720282317595 0.02138059270500569 0 0.0010340374818902859 0.021366304186341976 0 0.0011963616438571756 0.021236977559306727 0 0.0010081274292607564 0.021246231587492562 0 0.0010340374818902859 0.021366304186341976 0 0.0010081274292607564 0.021246231587492562 0 0.0010036100032762025 0.021314506542006523 0 0.00099669552351986778 0.021279606225341054 0 0.0010081274292607564 0.021246231587492562 0 0.0010036100032762025 0.021314506542006523 0 0.00099972137657224698 0.021324006242116465 0 0.0010182212681873898 0.021340824944100042 0 0.0010036100032762025 0.021314506542006523 0 0.0010182212681873898 0.021340824944100042 0 0.0010340374818902859 0.021366304186341976 0 0.0010036100032762025 0.021314506542006523 0 0.0010723900267663599 0.019429862332477236 0 0.0017948178468782897 0.017370964423481967 0 0.00070439571143590955 0.021436953551037457 0 0.00056419498627638496 0.021324259023883713 0 0.00046990581517060046 0.021457192455473575 0 0.0010723900267663599 0.019429862332477236 0 0.0011971049896139108 0.021382816422442458 0 0.0016198168141175011 0.021055913678154764 0 0.0018737971962013891 0.021344263620904285 0 0.0014614720282317595 0.02138059270500569 0 0.0013141506271120529 0.021038051281805508 0 0.0016198168141175011 0.021055913678154764 0 0.0014614720282317595 0.02138059270500569 0 0.00074732382796758093 0.021405001083169752 0 0.00088980747647097568 0.021405714175348759 0 0.00075409840896383873 0.021218689149434835 0 0.000946181981237609 0.021304024424278357 0 0.00088980747647097568 0.021405714175348759 0 0.00075409840896383873 0.021218689149434835 0 0.00075409840896383873 0.021218689149434835 0 0.00045377108748507203 0.021155787772204337 0 0.00056419498627638496 0.021324259023883713 0 0.00070439571143590955 0.021436953551037457 0 0.00075409840896383873 0.021218689149434835 0 0.00056419498627638496 0.021324259023883713 0 0.0010723900267663599 0.019429862332477236 0 0.00062552324018326879 0.022059843733182007 0 0.00075409840896383873 0.021218689149434835 0 0.00058728302049478943 0.021012598421611437 0 0.00045377108748507203 0.021155787772204337 0 0.00075409840896383873 0.021218689149434835 0 0.00084847449346484971 0.02114681004313464 0 0.00073351804455754044 0.02099690100673109 0 0.000946181981237609 0.021304024424278357 0 0.00075409840896383873 0.021218689149434835 0 0.00084847449346484971 0.02114681004313464 0 0.00081605527779361026 0.020978387913069912 0 0.00084847449346484971 0.02114681004313464 0 0.00073351804455754044 0.02099690100673109 0 0.00081605527779361026 0.020978387913069912 0 0.00093013644351105657 0.02110195826097274 0 0.00084847449346484971 0.02114681004313464 0 0.00063478424322527228 0.020832908652853633 0 0.00058728302049478943 0.021012598421611437 0 0.00073351804455754044 0.02099690100673109 0 0.00075409840896383873 0.021218689149434835 0 0.00058728302049478943 0.021012598421611437 0 0.00073351804455754044 0.02099690100673109 0 0.00063478424322527228 0.020832908652853633 0 0.00047381167932158892 0.020821231507611712 0 0.00058728302049478943 0.021012598421611437 0 0.00047381167932158892 0.020821231507611712 0 0.00058728302049478943 0.021012598421611437 0 0.00040906476397607251 0.020978957638797084 0 0.00047381167932158892 0.020821231507611712 0 0.00027563319756970502 0.020766418760139984 0 0.00040906476397607251 0.020978957638797084 0 0.00027563319756970502 0.020766418760139984 0 0.00040906476397607251 0.020978957638797084 0 0.00021566585291525646 0.021006646243613519 0 0.00027563319756970502 0.020766418760139984 0 0.00021566585291525646 0.021006646243613519 0 0.00010693376184984077 0.020848331193567587 0 0.00040906476397607251 0.020978957638797084 0 0.00021566585291525646 0.021006646243613519 0 0.00045377108748507203 0.021155787772204337 0 0.00021566585291525646 0.021006646243613519 0 0.00045377108748507203 0.021155787772204337 0 0.00017693427095363205 0.021215798094819979 0 0.00058728302049478943 0.021012598421611437 0 0.00040906476397607251 0.020978957638797084 0 0.00045377108748507203 0.021155787772204337 0 -3.3749988204011247e-05 0.02066149268600884 0 -0.00011756497552268734 0.020943203790633736 0 -0.00036505876061561235 0.020761090803561217 0 -0.00011756497552268734 0.020943203790633736 0 -0.00036941175297442315 0.020984049639775407 0 -0.00036505876061561235 0.020761090803561217 0 -3.3749988204011247e-05 0.02066149268600884 0 -0.00011756497552268734 0.020943203790633736 0 0.00010693376184984077 0.020848331193567587 0 -0.00011756497552268734 0.020943203790633736 0 0.00010693376184984077 0.020848331193567587 0 5.452172780199398e-05 0.02105503300600594 0 0.00021566585291525646 0.021006646243613519 0 0.00010693376184984077 0.020848331193567587 0 5.452172780199398e-05 0.02105503300600594 0 0.00027563319756970502 0.020766418760139984 0 -3.3749988204011247e-05 0.02066149268600884 0 0.00010693376184984077 0.020848331193567587 0 0.00021566585291525646 0.021006646243613519 0 5.452172780199398e-05 0.02105503300600594 0 0.00017693427095363205 0.021215798094819979 0 -0.00011756497552268734 0.020943203790633736 0 5.452172780199398e-05 0.02105503300600594 0 -5.252158990077327e-05 0.021171381461130599 0 5.452172780199398e-05 0.02105503300600594 0 -5.252158990077327e-05 0.021171381461130599 0 0.00017693427095363205 0.021215798094819979 0 -0.00011756497552268734 0.020943203790633736 0 -0.00023212712757883028 0.021108482849450046 0 -0.00036941175297442315 0.020984049639775407 0 -0.00011756497552268734 0.020943203790633736 0 -0.00023212712757883028 0.021108482849450046 0 -5.252158990077327e-05 0.021171381461130599 0 0.0019555618862441785 0.01552400263183781 0 0.00082596660005655482 0.01747629420286868 0 -0.00023212712757883028 0.021108482849450046 0 -0.00017580552403375765 0.021260490393217174 0 -0.00044827309043588698 0.021178454127529122 0 -0.00017580552403375765 0.021260490393217174 0 1.487567611991031e-06 0.021327627030262312 0 -0.00012343870595766959 0.021473377040434252 0 -0.00017580552403375765 0.021260490393217174 0 -0.00012343870595766959 0.021473377040434252 0 -0.00044827309043588698 0.021178454127529122 0 -0.00023212712757883028 0.021108482849450046 0 -0.00017580552403375765 0.021260490393217174 0 -5.252158990077327e-05 0.021171381461130599 0 -0.00017580552403375765 0.021260490393217174 0 1.487567611991031e-06 0.021327627030262312 0 -5.252158990077327e-05 0.021171381461130599 0 1.487567611991031e-06 0.021327627030262312 0 0.00017693427095363205 0.021215798094819979 0 0.00018091168908747189 0.021470961639598989 0 1.487567611991031e-06 0.021327627030262312 0 -5.252158990077327e-05 0.021171381461130599 0 0.00017693427095363205 0.021215798094819979 0 0.0027100558277203426 0.013337729295454889 0 0.0027678650810717218 0.013460104573047537 0 0.0027588806085829059 0.013442469029351742 0 0.0019555618862441785 0.01552400263183781 0 0.0012919261308809024 0.017601254528849811 0 0.0027100558277203426 0.013337729295454889 0 0.0027052863719241428 0.013328830965515947 0 0.0027678650810717218 0.013460104573047537 0 1.487567611991031e-06 0.021327627030262312 0 -0.00012343870595766959 0.021473377040434252 0 0.00018091168908747189 0.021470961639598989 0 0.0019555618862441785 0.01552400263183781 0 0.0025558978459414763 0.013150995225769983 0 0.0027018564135023767 0.013313441628153237 0 0.0026620695824822586 0.013314534430530028 0 0.0025849443758936713 0.013175538801949343 0 0.0027100558277203426 0.013337729295454889 0 0.0027018564135023767 0.013313441628153237 0 0.0026620695824822586 0.013314534430530028 0 0.0018924413326866223 0.015298436677189298 0 0.0019555618862441785 0.01552400263183781 0 0.00056419498627638496 0.021324259023883713 0 0.00036240944677328417 0.021315695721052935 0 0.00046990581517060046 0.021457192455473575 0 0.00045377108748507203 0.021155787772204337 0 0.00056419498627638496 0.021324259023883713 0 0.00036240944677328417 0.021315695721052935 0 0.00036240944677328417 0.021315695721052935 0 0.00017693427095363205 0.021215798094819979 0 0.00018091168908747189 0.021470961639598989 0 0.00045377108748507203 0.021155787772204337 0 0.00036240944677328417 0.021315695721052935 0 0.00017693427095363205 0.021215798094819979 0 0.0027678650810717218 0.013460104573047537 0 0.0027946148766048594 0.013565123427086968 0 0.0027939230889641883 0.013511782238573619 0 0.0012919261308809024 0.017601254528849811 0 0.0017948178468782897 0.017370964423481967 0 0.00036240944677328417 0.021315695721052935 0 0.00018091168908747189 0.021470961639598989 0 0.00046990581517060046 0.021457192455473575 0 0.0027369276487684857 0.013643477593169058 0 0.0027946148766048594 0.013565123427086968 0 0.0028046377364372072 0.013546725642675167 0 0.0028046377364372072 0.013546725642675167 0 0.0028057559117464696 0.013552109603387184 0 0.0027939230889641883 0.013511782238573619 0 0.0027946148766048594 0.013565123427086968 0 0.0028046377364372072 0.013546725642675167 0 0.0027939230889641883 0.013511782238573619 0 0.0028057559117464696 0.013552109603387184 0 0.0028043427598785646 0.013553074052023514 0 0.0027939230889641883 0.013511782238573619 0 0.0028046377364372072 0.013546725642675167 0 0.0028057559117464696 0.013552109603387184 0 0.0028295827225953644 0.013606475557377333 0 0.0028043427598785646 0.013553074052023514 0 0.0028374087429830861 0.013616953246543993 0 0.0027906315913417074 0.01356783473168062 0 0.0028057559117464696 0.013552109603387184 0 0.0028295827225953644 0.013606475557377333 0 0.0028043427598785646 0.013553074052023514 0 0.0028295827225953644 0.013606475557377333 0 0.0028043427598785646 0.013553074052023514 0 0.0028374087429830861 0.013616953246543993 0 0.0031903451454482678 0.013430318716506722 0 0.0038424257156565171 0.015811175436500933 0 0.0028043427598785646 0.013553074052023514 0 0.0027688137547839252 0.013486848322878333 0 0.0027906315913417074 0.01356783473168062 0 0.0028043427598785646 0.013553074052023514 0 0.0027939230889641883 0.013511782238573619 0 0.0027688137547839252 0.013486848322878333 0 0.0027939230889641883 0.013511782238573619 0 0.0027588806085829059 0.013442469029351742 0 0.0027688137547839252 0.013486848322878333 0 0.0027678650810717218 0.013460104573047537 0 0.0027939230889641883 0.013511782238573619 0 0.0027588806085829059 0.013442469029351742 0 0.0027100558277203426 0.013337729295454889 0 0.0027588806085829059 0.013442469029351742 0 0.0027170117385398418 0.013402982752331274 0 0.0027588806085829059 0.013442469029351742 0 0.0027688137547839252 0.013486848322878333 0 0.0027170117385398418 0.013402982752331274 0 0.0027100558277203426 0.013337729295454889 0 0.0026620695824822586 0.013314534430530028 0 0.0027170117385398418 0.013402982752331274 0 0.0026620695824822586 0.013314534430530028 0 0.0027170117385398418 0.013402982752331274 0 0.0026494241020878274 0.013393114889666068 0 0.0026494241020878274 0.013393114889666068 0 0.0027174730405239919 0.013476847360945376 0 0.0025994656201105393 0.013443129211475884 0 0.0027174730405239919 0.013476847360945376 0 0.0026900134979496973 0.013548114222383447 0 0.0025994656201105393 0.013443129211475884 0 0.0027170117385398418 0.013402982752331274 0 0.0026494241020878274 0.013393114889666068 0 0.0027174730405239919 0.013476847360945376 0 0.0027688137547839252 0.013486848322878333 0 0.0027174730405239919 0.013476847360945376 0 0.0027906315913417074 0.01356783473168062 0 0.0027688137547839252 0.013486848322878333 0 0.0027170117385398418 0.013402982752331274 0 0.0027174730405239919 0.013476847360945376 0 0.0027174730405239919 0.013476847360945376 0 0.0026900134979496973 0.013548114222383447 0 0.0027906315913417074 0.01356783473168062 0 0.0036027417174870451 0.016332899123479041 0 0.0038916782753816441 0.016653005021327764 0 0.0041982032918687871 0.016281452565401776 0 0.003124818512832432 0.014932690405755492 0 0.0035255234408782788 0.014812671409126222 0 0.0036027417174870451 0.016332899123479041 0 0.0036041726380926088 0.016749845485355058 0 0.0033513519073457131 0.016543960371000581 0 0.0036027417174870451 0.016332899123479041 0 0.0036041726380926088 0.016749845485355058 0 0.0038916782753816441 0.016653005021327764 0 0.0036041726380926088 0.016749845485355058 0 0.0038916782753816441 0.016653005021327764 0 0.0039429936881755414 0.017106801164743272 0 0.0038916782753816441 0.016653005021327764 0 0.0042565941081999722 0.016859542206123505 0 0.0039429936881755414 0.017106801164743272 0 0.0038916782753816441 0.016653005021327764 0 0.0042565941081999722 0.016859542206123505 0 0.0041982032918687871 0.016281452565401776 0 0.0042565941081999722 0.016859542206123505 0 0.0046291859147389236 0.016653547312704593 0 0.0041982032918687871 0.016281452565401776 0 0.0042565941081999722 0.016859542206123505 0 0.0046291859147389236 0.016653547312704593 0 0.0046512137795922982 0.017167450825385806 0 0.0050740832570841509 0.016783193032761851 0 0.0046291859147389236 0.016653547312704593 0 0.0046512137795922982 0.017167450825385806 0 0.0038424257156565171 0.015811175436500933 0 0.0035255234408782788 0.014812671409126222 0 0.0046291859147389236 0.016653547312704593 0 0.0050109813320020217 0.016224827868830321 0 0.0041982032918687871 0.016281452565401776 0 0.0050740832570841509 0.016783193032761851 0 0.0046291859147389236 0.016653547312704593 0 0.0050109813320020217 0.016224827868830321 0 0.0026287663254984835 0.015168677043753014 0 0.0035048019610944225 0.01514391752494417 0 0.0025106086722872845 0.014053244319409569 0 0.0021836603930418556 0.014650914322156637 0 0.0026287663254984835 0.015168677043753014 0 0.0018340626009161693 0.015131277736190366 0 0.0026287663254984835 0.015168677043753014 0 0.0018340626009161693 0.015131277736190366 0 0.0023007430066185513 0.015763353202456185 0 0.0026287663254984835 0.015168677043753014 0 0.0023007430066185513 0.015763353202456185 0 0.002860581763754819 0.015853212243866373 0 0.0021836603930418556 0.014650914322156637 0 0.0018340626009161693 0.015131277736190366 0 0.0016191392525679075 0.01408897000593427 0 0.0018340626009161693 0.015131277736190366 0 0.0016191392525679075 0.01408897000593427 0 0.0010715967410738166 0.014894432796081537 0 0.0018340626009161693 0.015131277736190366 0 0.0013584323811072696 0.015510409653293157 0 0.0010715967410738166 0.014894432796081537 0 0.0018340626009161693 0.015131277736190366 0 0.0013584323811072696 0.015510409653293157 0 0.00174664694422703 0.015983060160766723 0 0.0018340626009161693 0.015131277736190366 0 0.00174664694422703 0.015983060160766723 0 0.0023007430066185513 0.015763353202456185 0 0.0013584323811072696 0.015510409653293157 0 0.00174664694422703 0.015983060160766723 0 0.0012822726222153618 0.01620425061966695 0 0.00174664694422703 0.015983060160766723 0 0.0023007430066185513 0.015763353202456185 0 0.0021613555087680101 0.016294957159259799 0 0.0023007430066185513 0.015763353202456185 0 0.0025997715866320176 0.016306559134039635 0 0.002860581763754819 0.015853212243866373 0 0.0023007430066185513 0.015763353202456185 0 0.0025997715866320176 0.016306559134039635 0 0.0021613555087680101 0.016294957159259799 0 0.002860581763754819 0.015853212243866373 0 0.0031146142403697748 0.016470862361525493 0 0.0033703019946806421 0.016027495948356077 0 0.0025997715866320176 0.016306559134039635 0 0.002860581763754819 0.015853212243866373 0 0.0031146142403697748 0.016470862361525493 0 0.0036041726380926088 0.016749845485355058 0 0.0031146142403697748 0.016470862361525493 0 0.0033703019946806421 0.016027495948356077 0 0.0035513035090476894 0.016620835479427835 0 0.0034275946143427246 0.016359188256315632 0 0.0036027417174870451 0.016332899123479041 0 0.0033513519073457131 0.016543960371000581 0 0.0031164866330845868 0.016327134584077068 0 0.003124818512832432 0.014932690405755492 0 0.0028624608462618178 0.015112785122233989 0 0.0026900134979496973 0.013548114222383447 0 0.0024631387864879509 0.013562563807727183 0 0.0025994656201105393 0.013443129211475884 0 0.0034275946143427246 0.016359188256315632 0 0.0028624608462618178 0.015112785122233989 0 0.002860581763754819 0.015853212243866373 0 0.0033703019946806421 0.016027495948356077 0 0.0030248790348108147 0.015389742480252667 0 0.0026287663254984835 0.015168677043753014 0 0.002860581763754819 0.015853212243866373 0 0.0030248790348108147 0.015389742480252667 0 0.0028082898120713779 0.015189948892756934 0 0.0028624608462618178 0.015112785122233989 0 0.0028624608462618178 0.015112785122233989 0 0.0023372622893032746 0.013576862240926368 0 0.0024631387864879509 0.013562563807727183 0 0.002468694855059989 0.013321680657913428 0 0.0022597636424062958 0.013377011826820544 0 0.0026494241020878274 0.013393114889666068 0 0.0025994656201105393 0.013443129211475884 0 0.0025727788999022326 0.013292610497993148 0 0.002468694855059989 0.013321680657913428 0 0.0025994656201105393 0.013443129211475884 0 0.0025727788999022326 0.013292610497993148 0 0.0024631387864879509 0.013562563807727183 0 0.002468694855059989 0.013321680657913428 0 0.0025994656201105393 0.013443129211475884 0 0.0026620695824822586 0.013314534430530028 0 0.0026494241020878274 0.013393114889666068 0 0.0025727788999022326 0.013292610497993148 0 0.0026620695824822586 0.013314534430530028 0 0.0025727788999022326 0.013292610497993148 0 0.0025849443758936713 0.013175538801949343 0 0.002468694855059989 0.013321680657913428 0 0.0023371259410398452 0.013104770681451878 0 0.0023784336688244486 0.013045469776241585 0 0.002468694855059989 0.013321680657913428 0 0.0023371259410398452 0.013104770681451878 0 0.0022597636424062958 0.013377011826820544 0 0.002468694855059989 0.013321680657913428 0 0.0025727788999022326 0.013292610497993148 0 0.0023784336688244486 0.013045469776241585 0 0.0023371259410398452 0.013104770681451878 0 0.0021641432054139457 0.012859606391397712 0 0.0022597636424062958 0.013377011826820544 0 0.0023371259410398452 0.013104770681451878 0 0.0021641432054139457 0.012859606391397712 0 0.0023155834490329644 0.012985150578669533 0 0.0021836603930418556 0.014650914322156637 0 0.0026287663254984835 0.015168677043753014 0 0.0025106086722872845 0.014053244319409569 0 0.0025106086722872845 0.014053244319409569 0 0.0016191392525679075 0.01408897000593427 0 0.0016558889401216666 0.012914778208518801 0 0.0021836603930418556 0.014650914322156637 0 0.0025106086722872845 0.014053244319409569 0 0.0016191392525679075 0.01408897000593427 0 0.0023372622893032746 0.013576862240926368 0 0.0016993942430361287 0.013003631003164831 0 0.0021641432054139457 0.012859606391397712 0 0.0022597636424062958 0.013377011826820544 0 0.0016558889401216666 0.012914778208518801 0 0.0016191392525679075 0.01408897000593427 0 0.0016558889401216666 0.012914778208518801 0 0.0010699409358292671 0.01344061780866398 0 0.0016558889401216666 0.012914778208518801 0 0.0018208457990779928 0.012096064805035268 0 0.0012031270336938882 0.012042291161059985 0 0.0018208457990779928 0.012096064805035268 0 0.0016491179603934252 0.011399823057059269 0 0.0012031270336938882 0.012042291161059985 0 0.0021641432054139457 0.012859606391397712 0 0.0016558889401216666 0.012914778208518801 0 0.0018208457990779928 0.012096064805035268 0 0.0021641432054139457 0.012859606391397712 0 0.0023155834490329644 0.012985150578669533 0 0.0023744865522500468 0.013047330167197739 0 0.0021280199974767528 0.012929621275260495 0 0.0024008984854053815 0.012062459760944095 0 0.0021641432054139457 0.012859606391397712 0 0.0018208457990779928 0.012096064805035268 0 0.0022780784842387665 0.01136847196830376 0 0.0018208457990779928 0.012096064805035268 0 0.0022780784842387665 0.01136847196830376 0 0.0016491179603934252 0.011399823057059269 0 0.0022780784842387665 0.01136847196830376 0 0.0016491179603934252 0.011399823057059269 0 0.0017425546210294463 0.010968905451335279 0 0.0025558978459414763 0.013150995225769983 0 0.0023453948206323756 0.013075641783732411 0 0.002309554971862277 0.013086904732675266 0 0.0023291503893906741 0.013063060185670187 0 0.0023176923781030915 0.013094094321021916 0 0.0025727788999022326 0.013292610497993148 0 0.0025849443758936713 0.013175538801949343 0 0.0023784336688244486 0.013045469776241585 0 0.0023291503893906741 0.013063060185670187 0 0.0023784336688244486 0.013045469776241585 0 0.0023439343627212235 0.013048345919889745 0 0.0023371259410398452 0.013104770681451878 0 0.0023155834490329644 0.012985150578669533 0 0.0023784336688244486 0.013045469776241585 0 0.0023155834490329644 0.012985150578669533 0 0.0023784336688244486 0.013045469776241585 0 0.0023439343627212235 0.013048345919889745 0 0.0023155834490329644 0.012985150578669533 0 0.0023744865522500468 0.013047330167197739 0 0.0023439343627212235 0.013048345919889745 0 0.0023744865522500468 0.013047330167197739 0 0.00234464961729384 0.01308795950439413 0 0.0023439343627212235 0.013048345919889745 0 0.00234464961729384 0.01308795950439413 0 0.0023439343627212235 0.013048345919889745 0 0.0023176923781030915 0.013094094321021916 0 0.0023291503893906741 0.013063060185670187 0 0.0023439343627212235 0.013048345919889745 0 0.0023176923781030915 0.013094094321021916 0 -0.00044827309043588698 0.021178454127529122 0 -0.00036941175297442315 0.020984049639775407 0 -0.00052556659471160829 0.020947955006201391 0 -0.00044827309043588698 0.021178454127529122 0 -0.00052556659471160829 0.020947955006201391 0 -0.00067864941394395791 0.02095243578341947 0 -0.00023212712757883028 0.021108482849450046 0 -0.00044827309043588698 0.021178454127529122 0 -0.00036941175297442315 0.020984049639775407 0 0.00082596660005655482 0.01747629420286868 0 0.0012393423318862256 0.016783969706170809 0 0.0023744865522500468 0.013047330167197739 0 0.00234464961729384 0.01308795950439413 0 0.0023595324124268879 0.013168170985376933 0 0.00234464961729384 0.01308795950439413 0 0.0023351581163987964 0.013140607671149371 0 0.0023595324124268879 0.013168170985376933 0 0.00234464961729384 0.01308795950439413 0 0.0023176923781030915 0.013094094321021916 0 0.0023351581163987964 0.013140607671149371 0 0.0010286035028323416 0.016075496754530901 0 0.00059150134628186606 0.015575591902503749 0 0.00071013822347579833 0.015181973341630664 0 0.0012393423318862256 0.016783969706170809 0 0.0002097358311263816 0.017026654240634886 0 0.0012393423318862256 0.016783969706170809 0 0.0018376252101579258 0.01278622688860428 0 0.0018376252101579258 0.01278622688860428 0 0.0002097358311263816 0.017026654240634886 0 0.0022085417408449761 0.011062209280471035 0 0.0022462893630892339 0.010931960442724251 0 0.0020389590632453945 0.010809544025104909 0 -0.00060476006478315852 0.020664204535674715 0 -0.00077201574045407341 0.020744886708659815 0 -0.00056569684355639192 0.020807613031023405 0 -0.00067864941394395791 0.02095243578341947 0 -0.00077201574045407341 0.020744886708659815 0 -0.00056569684355639192 0.020807613031023405 0 -0.00052556659471160829 0.020947955006201391 0 -0.00067864941394395791 0.02095243578341947 0 -0.00056569684355639192 0.020807613031023405 0 -0.00036941175297442315 0.020984049639775407 0 -0.00052556659471160829 0.020947955006201391 0 -0.00056569684355639192 0.020807613031023405 0 -0.00060476006478315852 0.020664204535674715 0 -0.00056569684355639192 0.020807613031023405 0 -0.00036505876061561235 0.020761090803561217 0 -0.00036941175297442315 0.020984049639775407 0 -0.00056569684355639192 0.020807613031023405 0 -0.00036505876061561235 0.020761090803561217 0 0.0016478055736327054 0.011344448198223089 0 0.0016429344002349222 0.010442125626306368 0 0.0022780784842387665 0.01136847196830376 0 0.0017425546210294463 0.010968905451335279 0 0.0019901521481672808 0.010927763253134382 0 0.0022780784842387665 0.01136847196830376 0 0.002227406240337839 0.010942443227218558 0 0.0019901521481672808 0.010927763253134382 0 0.0024008984854053815 0.012062459760944095 0 0.0018376252101579258 0.01278622688860428 0 0.0017027927104031385 0.010643768920012587 0 0.0019901521481672808 0.010927763253134382 0 0.0020389590632453945 0.010809544025104909 0 0.0018376252101579258 0.01278622688860428 0 0.0017452758598179212 0.010723450480023992 0 0.002227406240337839 0.010942443227218558 0 0.0019901521481672808 0.010927763253134382 0 0.0020389590632453945 0.010809544025104909 0 0.0015498402516433852 0.0099409878872786083 0 0.0016429344002349222 0.010442125626306368 0 0.0017027927104031385 0.010643768920012587 0 0.0017425546210294463 0.010968905451335279 0 0.0019901521481672808 0.010927763253134382 0 0.00098197295101308405 0.009264945796474475 0 0.0013963204106434367 0.0092309837854235334 0 0.0015619970961349774 0.0098410839535698694 0 0.00098197295101308405 0.009264945796474475 0 0.0015619970961349774 0.0098410839535698694 0 0.00042877896106343488 0.0098706413181090229 0 0.0015619970961349774 0.0098410839535698694 0 0.00042877896106343488 0.0098706413181090229 0 0.00079842888460368848 0.010971206457783204 0 0.00042877896106343488 0.0098706413181090229 0 -0.00046310451050266557 0.010807573342210596 0 0.00079842888460368848 0.010971206457783204 0 0.00094683547936933842 0.0087355873014211098 0 0.00047291914818047584 0.009839599248361558 0 -0.00010422792967885169 0.0082425301954958223 0 0.00092935426416078631 0.0082206791683793953 0 0.00042877896106343488 0.0098706413181090229 0 -0.00010422792967885169 0.0082425301954958223 0 -0.001098575682013021 0.0087234149652306043 0 -0.00065054230593045441 0.0097732318115071378 0 -0.00010422792967885169 0.0082425301954958223 0 0.00042877896106343488 0.0098706413181090229 0 -0.00065054230593045441 0.0097732318115071378 0 -0.001098575682013021 0.0087234149652306043 0 -0.0014981683091962403 0.010202526144829773 0 -0.00065054230593045441 0.0097732318115071378 0 -0.001098575682013021 0.0087234149652306043 0 -0.0014981683091962403 0.010202526144829773 0 -0.002127391796083775 0.009583019506820804 0 0.00042877896106343488 0.0098706413181090229 0 -0.00065054230593045441 0.0097732318115071378 0 -0.00046310451050266557 0.010807573342210596 0 -0.0014981683091962403 0.010202526144829773 0 -0.00065054230593045441 0.0097732318115071378 0 -0.00046310451050266557 0.010807573342210596 0 -0.0014981683091962403 0.010202526144829773 0 -0.00046310451050266557 0.010807573342210596 0 -0.0014437965301542465 0.011734186717030463 0 -0.0014981683091962403 0.010202526144829773 0 -0.0014437965301542465 0.011734186717030463 0 -0.0022760436957239274 0.01093914693649733 0 -0.0014437965301542465 0.011734186717030463 0 -0.0022760436957239274 0.01093914693649733 0 -0.0020066483350911521 0.011747890828396846 0 -0.0014437965301542465 0.011734186717030463 0 0.00025806982896701996 0.011977333833139113 0 -0.00035571163628291816 0.012874528581150723 0 -0.00046310451050266557 0.010807573342210596 0 -0.0014437965301542465 0.011734186717030463 0 0.00025806982896701996 0.011977333833139113 0 0.00025806982896701996 0.011977333833139113 0 0.0012031270336938882 0.012042291161059985 0 0.00079842888460368848 0.010971206457783204 0 0.00025806982896701996 0.011977333833139113 0 0.0012031270336938882 0.012042291161059985 0 0.0010189616804932547 0.012745566662408885 0 0.0016491179603934252 0.011399823057059269 0 0.0012031270336938882 0.012042291161059985 0 0.00079842888460368848 0.010971206457783204 0 0.0016491179603934252 0.011399823057059269 0 0.0015619970961349774 0.0098410839535698694 0 0.00079842888460368848 0.010971206457783204 0 -0.00046310451050266557 0.010807573342210596 0 0.00025806982896701996 0.011977333833139113 0 0.00079842888460368848 0.010971206457783204 0 -0.0039122090746722127 0.010416387530327751 0 -0.0040165079958616396 0.0094377425872623662 0 -0.0034632716963821416 0.010020673804689507 0 -0.0031913345004495174 0.0078350526513672608 0 -0.0033733505780045281 0.007592029212135927 0 -0.0033373799654636085 0.0081113200015291761 0 -0.0029824325211089534 0.0074644091557521637 0 -0.0031913345004495174 0.0078350526513672608 0 -0.0033733505780045281 0.007592029212135927 0 -0.0035494253233134565 0.0091593384595537019 0 -0.0043605796476195481 0.0081101288537899167 0 -0.0031913345004495174 0.0078350526513672608 0 -0.003295500552324799 0.008155092768092561 0 -0.0033373799654636085 0.0081113200015291761 0 -0.0050774401295672466 0.0082853648186526473 0 -0.00504176008940759 0.0085715423422181372 0 -0.0041618396341036633 0.0083520091903575688 0 -0.0046918084366499571 0.0069258501925503445 0 -0.0047232711476559216 0.0069569532305909839 0 -0.0047273671221201505 0.0068895175197780404 0 -0.0049522027188231618 0.0073185663456903525 0 -0.0043605796476195481 0.0081101288537899167 0 -0.0047561409754837995 0.0076670340553539528 0 -0.0048514634781960013 0.0078927284201957271 0 -0.0047460390223164747 0.007789682552789127 0 -0.0051171340839966757 0.0063642086000827852 0 -0.0049522027188231618 0.0073185663456903525 0 -0.0051171340839966757 0.0063642086000827852 0 -0.0043605796476195481 0.0081101288537899167 0 -0.0043605796476195481 0.0081101288537899167 0 -0.0036908224483786492 0.0099105171304017144 0 -0.00504176008940759 0.0085715423422181372 0 -0.0041618396341036633 0.0083520091903575688 0 -0.0040203589620015122 0.0095862096654656861 0 -0.0041618396341036633 0.0083520091903575688 0 -0.0035682421665524768 0.0088621312033572656 0 -0.0040203589620015122 0.0095862096654656861 0 -0.0032137941976340882 0.0080746742995627327 0 -0.0041618396341036633 0.0083520091903575688 0 -0.0035682421665524768 0.0088621312033572656 0 -0.0039122090746722127 0.010416387530327751 0 -0.0034632716963821416 0.010020673804689507 0 -0.0034505694759043677 0.010460403848299884 0 -0.0034632716963821416 0.010020673804689507 0 -0.003043196527989179 0.010500535010752616 0 -0.0034505694759043677 0.010460403848299884 0 -0.0036908224483786492 0.0099105171304017144 0 -0.0031340498691947776 0.01040620108835803 0 -0.0029217705935243748 0.0093293114175337106 0 -0.002127391796083775 0.009583019506820804 0 -0.003043196527989179 0.010500535010752616 0 -0.0040203589620015122 0.0095862096654656861 0 -0.0029217705935243748 0.0093293114175337106 0 -0.003043196527989179 0.010500535010752616 0 -0.0032137941976340882 0.0080746742995627327 0 -0.0021783695604348343 0.0083951302550645344 0 -0.0029217705935243748 0.0093293114175337106 0 -0.0032137941976340882 0.0080746742995627327 0 -0.0035682421665524768 0.0088621312033572656 0 -0.0029217705935243748 0.0093293114175337106 0 -0.0035682421665524768 0.0088621312033572656 0 -0.0040203589620015122 0.0095862096654656861 0 -0.0029217705935243748 0.0093293114175337106 0 -0.0021783695604348343 0.0083951302550645344 0 -0.001098575682013021 0.0087234149652306043 0 -0.002127391796083775 0.009583019506820804 0 -0.0021783695604348343 0.0083951302550645344 0 -0.0029217705935243748 0.0093293114175337106 0 -0.002127391796083775 0.009583019506820804 0 -0.0014981683091962403 0.010202526144829773 0 -0.002127391796083775 0.009583019506820804 0 -0.0022760436957239274 0.01093914693649733 0 -0.002127391796083775 0.009583019506820804 0 -0.0022760436957239274 0.01093914693649733 0 -0.003043196527989179 0.010500535010752616 0 -0.0022760436957239274 0.01093914693649733 0 -0.0026670404171451382 0.011480923977119794 0 -0.0020066483350911521 0.011747890828396846 0 -0.0022760436957239274 0.01093914693649733 0 -0.0026670404171451382 0.011480923977119794 0 -0.0031303214421757371 0.011149158255150194 0 -0.0031303214421757371 0.011149158255150194 0 -0.0034504281961107307 0.011256468910746368 0 -0.0031336562370867867 0.011493229133705232 0 -0.0026670404171451382 0.011480923977119794 0 -0.0031303214421757371 0.011149158255150194 0 -0.0031336562370867867 0.011493229133705232 0 -0.0022760436957239274 0.01093914693649733 0 -0.0031303214421757371 0.011149158255150194 0 -0.003043196527989179 0.010500535010752616 0 -0.0031303214421757371 0.011149158255150194 0 -0.003043196527989179 0.010500535010752616 0 -0.0034509791871195801 0.010916817124136568 0 -0.0039122090746722127 0.010416387530327751 0 -0.0034509791871195801 0.010916817124136568 0 -0.0035443773948445516 0.011486596070111613 0 -0.003043196527989179 0.010500535010752616 0 -0.0034505694759043677 0.010460403848299884 0 -0.0034509791871195801 0.010916817124136568 0 -0.0039122090746722127 0.010416387530327751 0 -0.0034505694759043677 0.010460403848299884 0 -0.0034509791871195801 0.010916817124136568 0 -0.0031303214421757371 0.011149158255150194 0 -0.0034509791871195801 0.010916817124136568 0 -0.0034504281961107307 0.011256468910746368 0 -0.0034504281961107307 0.011256468910746368 0 -0.0036370419820382677 0.0110487636312074 0 -0.0031336562370867867 0.011493229133705232 0 -0.0034504281961107307 0.011256468910746368 0 -0.0035443773948445516 0.011486596070111613 0 -0.0036370419820382677 0.0110487636312074 0 -0.0034509791871195801 0.010916817124136568 0 -0.0034504281961107307 0.011256468910746368 0 -0.0035443773948445516 0.011486596070111613 0 -0.0034317888382555768 0.0070485931540938598 0 -0.0031416649855736806 0.0069830455971687877 0 -0.0032553841340517784 0.0067359596297249125 0 -0.0034317888382555768 0.0070485931540938598 0 -0.0031416649855736806 0.0069830455971687877 0 -0.0031951463356574036 0.0072661262597709638 0 -0.0033733505780045281 0.007592029212135927 0 -0.0034317888382555768 0.0070485931540938598 0 -0.0031951463356574036 0.0072661262597709638 0 -0.0029824325211089534 0.0074644091557521637 0 -0.0033733505780045281 0.007592029212135927 0 -0.0031951463356574036 0.0072661262597709638 0 -0.0035494253233134565 0.0091593384595537019 0 -0.0034880785168796891 0.0091752298966784399 0 -0.0030320431947359985 0.0061055029355145405 0 -0.0032021173228587974 0.0064663055565701072 0 -0.0033498157799551963 0.0062210901944414173 0 -0.0032021173228587974 0.0064663055565701072 0 -0.0034912673010738921 0.0064771983639621252 0 -0.0033498157799551963 0.0062210901944414173 0 -0.0034880785168796891 0.0091752298966784399 0 -0.0033835273009741023 0.0080322011791891402 0 -0.0034317888382555768 0.0070485931540938598 0 -0.0032553841340517784 0.0067359596297249125 0 -0.0034912673010738921 0.0064771983639621252 0 -0.0029975856877496607 0.0067078125480729911 0 -0.0032021173228587974 0.0064663055565701072 0 -0.0032553841340517784 0.0067359596297249125 0 -0.0029975856877496607 0.0067078125480729911 0 -0.0031416649855736806 0.0069830455971687877 0 -0.0032553841340517784 0.0067359596297249125 0 -0.0032021173228587974 0.0064663055565701072 0 -0.0032553841340517784 0.0067359596297249125 0 -0.0034912673010738921 0.0064771983639621252 0 -0.0036370419820382677 0.0110487636312074 0 -0.0029928823532660159 0.012497734481824181 0 -0.0031336562370867867 0.011493229133705232 0 -0.0036370419820382677 0.0110487636312074 0 -0.0040066071658159197 0.0101073266247444 0 -0.0031802551081664891 0.0096688671988555096 0 -0.0035443773948445516 0.011486596070111613 0 -0.0036370419820382677 0.0110487636312074 0 -0.0031802551081664891 0.0096688671988555096 0 -0.0036370419820382677 0.0110487636312074 0 -0.0040066071658159197 0.0101073266247444 0 -0.0051481128720343855 0.0093395136186508465 0 -0.0032885349706656647 0.011356142463350923 0 -0.0050167333456279878 0.010382715977141618 0 -0.0040066071658159197 0.0101073266247444 0 -0.0045082897855459976 0.0083184413379939308 0 -0.0056725454475814183 0.008841150243874385 0 -0.0044378919793423488 0.0098023148127254281 0 -0.0050167333456279878 0.010382715977141618 0 -0.0031802551081664891 0.0096688671988555096 0 -0.0045082897855459976 0.0083184413379939308 0 -0.0036676595001139921 0.0061709345454904422 0 -0.0040066071658159197 0.0101073266247444 0 -0.0031802551081664891 0.0096688671988555096 0 -0.0045082897855459976 0.0083184413379939308 0 -0.0045082897855459976 0.0083184413379939308 0 -0.0056725454475814183 0.008841150243874385 0 -0.0057453654305905507 0.0068824278514686681 0 -0.0029928823532660159 0.012497734481824181 0 -0.0025394151624937265 0.011968113529673939 0 -0.0023778996992925806 0.012498925988688016 0 -0.0029928823532660159 0.012497734481824181 0 -0.0031336562370867867 0.011493229133705232 0 -0.0025394151624937265 0.011968113529673939 0 -0.0026670404171451382 0.011480923977119794 0 -0.0031336562370867867 0.011493229133705232 0 -0.0025394151624937265 0.011968113529673939 0 -0.0026670404171451382 0.011480923977119794 0 -0.0025394151624937265 0.011968113529673939 0 -0.0020066483350911521 0.011747890828396846 0 -0.0025394151624937265 0.011968113529673939 0 -0.0020066483350911521 0.011747890828396846 0 -0.0021633227824506252 0.012205763212889596 0 -0.0050167333456279878 0.010382715977141618 0 -0.0032492100478682989 0.012391228708216318 0 -0.0021633227824506252 0.012205763212889596 0 -0.0023778996992925806 0.012498925988688016 0 -0.0019073528133289979 0.012660621966039723 0 -0.0029928823532660159 0.012497734481824181 0 -0.0023778996992925806 0.012498925988688016 0 -0.0021974544345423515 0.013029722194445027 0 -0.0025394151624937265 0.011968113529673939 0 -0.0021633227824506252 0.012205763212889596 0 -0.0023778996992925806 0.012498925988688016 0 -0.0023778996992925806 0.012498925988688016 0 -0.0021974544345423515 0.013029722194445027 0 -0.0019073528133289979 0.012660621966039723 0 -0.0050167333456279878 0.010382715977141618 0 -0.0048277785867337332 0.0081688152892809458 0 -0.0063606292406630923 0.010218072016952537 0 -0.004566850579780634 0.011445937133474748 0 -0.0046185117010011066 0.012216616309081666 0 -0.004566850579780634 0.011445937133474748 0 -0.0046185117010011066 0.012216616309081666 0 -0.0042231703846883914 0.012001987866295669 0 -0.0048277785867337332 0.0081688152892809458 0 -0.0052551700102207895 0.0092229225081690899 0 -0.0031920403320444949 0.0035265580056914963 0 -0.0031749802766084818 0.0043869022873971658 0 -0.0041694680153026714 0.0042187296289985486 0 -0.0075075810922283883 0.0065329682705657557 0 -0.0052140243500186723 0.0052350077401178106 0 -0.0057453654305905507 0.0068824278514686681 0 -0.0048277785867337332 0.0081688152892809458 0 -0.0046358064627162283 0.0043612551052448732 0 -0.0052140243500186723 0.0052350077401178106 0 -0.0057453654305905507 0.0068824278514686681 0 -0.0036676595001139921 0.0061709345454904422 0 -0.0056725454475814183 0.008841150243874385 0 -0.0075075810922283883 0.0065329682705657557 0 -0.0057453654305905507 0.0068824278514686681 0 -0.0045082897855459976 0.0083184413379939308 0 -0.0057453654305905507 0.0068824278514686681 0 -0.0036676595001139921 0.0061709345454904422 0 -0.0033835273009741023 0.0080322011791891402 0 -0.0036184777612305518 0.0062901595198393209 0 -0.0052140243500186723 0.0052350077401178106 0 -0.0039642597582558682 0.0053629972618047606 0 -0.0036010148480034895 0.0047563269149459202 0 -0.0052140243500186723 0.0052350077401178106 0 -0.0036676595001139921 0.0061709345454904422 0 -0.0039642597582558682 0.0053629972618047606 0 -0.0039642597582558682 0.0053629972618047606 0 -0.0034756237915440952 0.0053760094726320968 0 -0.0036010148480034895 0.0047563269149459202 0 -0.0036676595001139921 0.0061709345454904422 0 -0.0039642597582558682 0.0053629972618047606 0 -0.0034756237915440952 0.0053760094726320968 0 -0.0036676595001139921 0.0061709345454904422 0 -0.0034756237915440952 0.0053760094726320968 0 -0.0031883910735867578 0.0056757984401724854 0 -0.0029954205162876237 0.0050708538984850357 0 -0.0034756237915440952 0.0053760094726320968 0 -0.0031883910735867578 0.0056757984401724854 0 -0.0034912673010738921 0.0064771983639621252 0 -0.0036676595001139921 0.0061709345454904422 0 -0.0033498157799551963 0.0062210901944414173 0 -0.0036676595001139921 0.0061709345454904422 0 -0.0031883910735867578 0.0056757984401724854 0 -0.0033498157799551963 0.0062210901944414173 0 -0.0030320431947359985 0.0061055029355145405 0 -0.0031883910735867578 0.0056757984401724854 0 -0.0033498157799551963 0.0062210901944414173 0 -0.0001167672386232922 0.01407956420695299 0 0.00072730866975884623 0.014138814841612911 0 0.00021719051839914856 0.015057664870480967 0 -0.0001167672386232922 0.01407956420695299 0 0.00072730866975884623 0.014138814841612911 0 0.00044905106551295986 0.01322515636791884 0 0.0016191392525679075 0.01408897000593427 0 0.00072730866975884623 0.014138814841612911 0 0.0010715967410738166 0.014894432796081537 0 0.0016191392525679075 0.01408897000593427 0 0.00072730866975884623 0.014138814841612911 0 0.0010699409358292671 0.01344061780866398 0 0.00072730866975884623 0.014138814841612911 0 0.0010699409358292671 0.01344061780866398 0 0.00044905106551295986 0.01322515636791884 0 0.0010699409358292671 0.01344061780866398 0 0.0010189616804932547 0.012745566662408885 0 0.00044905106551295986 0.01322515636791884 0 0.00025806982896701996 0.011977333833139113 0 0.0010189616804932547 0.012745566662408885 0 0.00044905106551295986 0.01322515636791884 0 0.0016558889401216666 0.012914778208518801 0 0.0010699409358292671 0.01344061780866398 0 0.0010189616804932547 0.012745566662408885 0 0.0016558889401216666 0.012914778208518801 0 0.0012031270336938882 0.012042291161059985 0 0.0010189616804932547 0.012745566662408885 0 -0.0001167672386232922 0.01407956420695299 0 -0.00035571163628291816 0.012874528581150723 0 0.00044905106551295986 0.01322515636791884 0 0.00025806982896701996 0.011977333833139113 0 -0.00035571163628291816 0.012874528581150723 0 0.00044905106551295986 0.01322515636791884 0 -0.001442547469302226 0.01183680135642543 0 -0.0012078693131097073 0.012865511236381784 0 -0.0014437965301542465 0.011734186717030463 0 -0.00035571163628291816 0.012874528581150723 0 -0.0011643861325396051 0.013448368203819302 0 -0.0020066483350911521 0.011747890828396846 0 -0.0021633227824506252 0.012205763212889596 0 -0.0012756882352238819 0.012318795293458074 0 -0.0014437965301542465 0.011734186717030463 0 -0.0020066483350911521 0.011747890828396846 0 -0.0012756882352238819 0.012318795293458074 0 -0.0021633227824506252 0.012205763212889596 0 -0.0019073528133289979 0.012660621966039723 0 -0.0012756882352238819 0.012318795293458074 0 -0.0019073528133289979 0.012660621966039723 0 -0.0012756882352238819 0.012318795293458074 0 -0.0015218679567815434 0.012904054196148431 0 -0.0001167672386232922 0.01407956420695299 0 -0.0011643861325396051 0.013448368203819302 0 -0.00073328149459453754 0.014866786782814074 0 -0.0012078693131097073 0.012865511236381784 0 -0.00086962428725981397 0.014021524515016242 0 -0.0001167672386232922 0.01407956420695299 0 -0.00035571163628291816 0.012874528581150723 0 -0.0011643861325396051 0.013448368203819302 0 -0.0012756882352238819 0.012318795293458074 0 -0.0010075646304747218 0.013144173943562404 0 -0.0015218679567815434 0.012904054196148431 0 -0.0010075646304747218 0.013144173943562404 0 -0.0015218679567815434 0.012904054196148431 0 -0.0014821143217917604 0.013515072956107727 0 -0.0046345791746997041 0.01225787073352363 0 -0.0042231703846883914 0.012001987866295669 0 -0.0025935136145831682 0.012794697751256219 0 -0.0017769344761183743 0.013028095232830111 0 -0.0015218679567815434 0.012904054196148431 0 -0.0014821143217917604 0.013515072956107727 0 -0.0032492100478682989 0.012391228708216318 0 -0.0021444786421407429 0.013023612014046072 0 -0.0021974544345423515 0.013029722194445027 0 -0.0017769344761183743 0.013028095232830111 0 -0.0014821143217917604 0.013515072956107727 0 -0.004566850579780634 0.011445937133474748 0 -0.0042231703846883914 0.012001987866295669 0 -0.0025935136145831682 0.012794697751256219 0 -0.0019073528133289979 0.012660621966039723 0 -0.0017769344761183743 0.013028095232830111 0 -0.0015218679567815434 0.012904054196148431 0 -0.0021974544345423515 0.013029722194445027 0 -0.0019073528133289979 0.012660621966039723 0 -0.0017769344761183743 0.013028095232830111 0 -0.0046345791746997041 0.01225787073352363 0 -0.0025935136145831682 0.012794697751256219 0 -0.0027457034173192577 0.014457681309086305 0 -0.0048277785867337332 0.0081688152892809458 0 -0.0022595932019147552 0.0094626943325501565 0 -0.0031920403320444949 0.0035265580056914963 0 -0.0031749802766084818 0.0043869022873971658 0 -0.0021695420135430178 0.004426273445514624 0 -0.0021444786421407429 0.013023612014046072 0 -0.00048124079078278698 0.014966510910543207 0 -0.00086962428725981397 0.014021524515016242 0 -0.00048124079078278698 0.014966510910543207 0 -0.0010075646304747218 0.013144173943562404 0 -0.0014821143217917604 0.013515072956107727 0 -0.00073925381623026842 0.014022325628798394 0 -0.0025935136145831682 0.012794697751256219 0 -0.00056972091686193166 0.014224330481934068 0 -0.0027457034173192577 0.014457681309086305 0 -0.00028972965740936682 0.016104360391660005 0 0.00021719051839914856 0.015057664870480967 0 0.00082554160499959052 0.015762239130504015 0 -0.00073328149459453754 0.014866786782814074 0 -0.00028972965740936682 0.016104360391660005 0 0.00021719051839914856 0.015057664870480967 0 -0.0001167672386232922 0.01407956420695299 0 -0.00073328149459453754 0.014866786782814074 0 0.00021719051839914856 0.015057664870480967 0 0.0013584323811072696 0.015510409653293157 0 0.0010715967410738166 0.014894432796081537 0 0.00082554160499959052 0.015762239130504015 0 0.00072730866975884623 0.014138814841612911 0 0.00021719051839914856 0.015057664870480967 0 0.0010715967410738166 0.014894432796081537 0 0.00021719051839914856 0.015057664870480967 0 0.0010715967410738166 0.014894432796081537 0 0.00082554160499959052 0.015762239130504015 0 0.0013584323811072696 0.015510409653293157 0 0.00082554160499959052 0.015762239130504015 0 0.0012822726222153618 0.01620425061966695 0 0.00082554160499959052 0.015762239130504015 0 0.0012822726222153618 0.01620425061966695 0 0.000791983401753641 0.016710671004809826 0 0.0012822726222153618 0.01620425061966695 0 0.000791983401753641 0.016710671004809826 0 0.0017942062298855251 0.016583507966451114 0 0.0006837955650919839 0.016093888959541631 0 0.00074605205858577022 0.016932757394494517 0 0.0017050408259054314 0.017060154849303275 0 0.00080270560520985664 0.016507320627209773 0 0.0015785615216605221 0.016962523498003371 0 0.00074605205858577022 0.016932757394494517 0 0.00060590491562457485 0.017858395425406556 0 0.0017050408259054314 0.017060154849303275 0 0.0006837955650919839 0.016093888959541631 0 0.00074605205858577022 0.016932757394494517 0 -6.4897603185108021e-05 0.016506421322657068 0 0.00074605205858577022 0.016932757394494517 0 -6.4897603185108021e-05 0.016506421322657068 0 0.00060590491562457485 0.017858395425406556 0 -6.4897603185108021e-05 0.016506421322657068 0 -0.0007719529426553931 0.016670564942909936 0 0.00060590491562457485 0.017858395425406556 0 -0.001030525864837927 0.011104022554049695 0 0.0020903359178359011 0.012048244752317387 0 -0.00056972091686193166 0.014224330481934068 0 -6.4897603185108021e-05 0.016506421322657068 0 -0.0007719529426553931 0.016670564942909936 0 -0.00048124079078278698 0.014966510910543207 0 -9.9464967020002439e-05 0.016294880089915909 0 -0.00048124079078278698 0.014966510910543207 0 0.00080270560520985664 0.016507320627209773 0 -0.00040556768757903409 0.01535142028652162 0 0.0006837955650919839 0.016093888959541631 0 -6.4897603185108021e-05 0.016506421322657068 0 -0.00028972965740936682 0.016104360391660005 0 0.00082554160499959052 0.015762239130504015 0 0.000791983401753641 0.016710671004809826 0 -0.0021695420135430178 0.004426273445514624 0 -0.0021114700939661914 0.0054152205303071204 0 -0.00078560518502211838 0.0055674007913669495 0 -0.0022595932019147552 0.0094626943325501565 0 -0.001030525864837927 0.011104022554049695 0 -0.00056972091686193166 0.014224330481934068 0 -0.0027457034173192577 0.014457681309086305 0 -0.0007719529426553931 0.016670564942909936 0 -0.0027334763378652326 0.0048106339031277799 0 -0.0021114700939661914 0.0054152205303071204 0 -0.0032086862469329629 0.0053115214112597993 0 -0.0031749802766084818 0.0043869022873971658 0 -0.0027334763378652326 0.0048106339031277799 0 -0.0021695420135430178 0.004426273445514624 0 -0.0027334763378652326 0.0048106339031277799 0 -0.0021695420135430178 0.004426273445514624 0 -0.0021114700939661914 0.0054152205303071204 0 -0.0021114700939661914 0.0054152205303071204 0 -0.0023317223449739041 0.0063017474237884999 0 -0.0032086862469329629 0.0053115214112597993 0 -0.0021114700939661914 0.0054152205303071204 0 -0.0013528269715116375 0.0062190005637500056 0 -0.0023317223449739041 0.0063017474237884999 0 -0.00078560518502211838 0.0055674007913669495 0 -0.0013528269715116375 0.0062190005637500056 0 -0.00060817904833967323 0.0067733943998216847 0 -0.0021114700939661914 0.0054152205303071204 0 -0.00078560518502211838 0.0055674007913669495 0 -0.0013528269715116375 0.0062190005637500056 0 -0.0013528269715116375 0.0062190005637500056 0 -0.0023317223449739041 0.0063017474237884999 0 -0.0013934946826861649 0.0075232835889274766 0 -0.0013528269715116375 0.0062190005637500056 0 -0.0013934946826861649 0.0075232835889274766 0 -0.00060817904833967323 0.0067733943998216847 0 -0.0013934946826861649 0.0075232835889274766 0 -0.00019218190029605608 0.0076209021902615554 0 -0.00060817904833967323 0.0067733943998216847 0 -0.0023317223449739041 0.0063017474237884999 0 -0.0025777182662017929 0.0074177449764587745 0 -0.0013934946826861649 0.0075232835889274766 0 -0.0023317223449739041 0.0063017474237884999 0 -0.0025777182662017929 0.0074177449764587745 0 -0.0034441945733459539 0.006375530736390537 0 -0.0025777182662017929 0.0074177449764587745 0 -0.0022747557453201821 0.0085056870088595238 0 -0.0013934946826861649 0.0075232835889274766 0 -0.0025777182662017929 0.0074177449764587745 0 -0.0022747557453201821 0.0085056870088595238 0 -0.0035154680144024232 0.0081023987820128974 0 -0.0022747557453201821 0.0085056870088595238 0 -0.0013934946826861649 0.0075232835889274766 0 -0.0012791601036219306 0.0090247928584983421 0 -0.0013934946826861649 0.0075232835889274766 0 -0.0003521276634190045 0.0085264680072423618 0 -0.0012791601036219306 0.0090247928584983421 0 -0.0013934946826861649 0.0075232835889274766 0 -0.0003521276634190045 0.0085264680072423618 0 -0.00019218190029605608 0.0076209021902615554 0 -0.0003521276634190045 0.0085264680072423618 0 -0.00019218190029605608 0.0076209021902615554 0 0.00065336038796827065 0.0082186138275674066 0 -0.00019218190029605608 0.0076209021902615554 0 0.00065336038796827065 0.0082186138275674066 0 0.00084740147706867798 0.0070350638990643345 0 -0.0003521276634190045 0.0085264680072423618 0 0.00065336038796827065 0.0082186138275674066 0 0.00085613691909992265 0.0092459945580054652 0 0.00065336038796827065 0.0082186138275674066 0 0.00084740147706867798 0.0070350638990643345 0 0.0022298829032853002 0.0086285159272118349 0 0.0020903359178359011 0.012048244752317387 0 0.0041614266851506231 0.012228776176851062 0 0.00065336038796827065 0.0082186138275674066 0 0.00085613691909992265 0.0092459945580054652 0 0.0022298829032853002 0.0086285159272118349 0 0.0020903359178359011 0.012048244752317387 0 0.0041753509124137734 0.017742855395997802 0 -0.00019218190029605608 0.0076209021902615554 0 0.00084740147706867798 0.0070350638990643345 0 -0.00060817904833967323 0.0067733943998216847 0 -0.00078560518502211838 0.0055674007913669495 0 0.00067495353847193864 0.0070554271058493019 0 -0.00060817904833967323 0.0067733943998216847 0 0.0020903359178359011 0.012048244752317387 0 -0.0011805392538626253 0.0067147008229782338 0 -0.0057515579340404249 0.0053641932829962468 0 -0.0050126605145593096 0.0048350566500497977 0 -0.0049918618596327055 0.005311703260643983 0 -0.0042780159476893285 0.0059209678429938458 0 -0.0045188019898492271 0.0057913189323920622 0 -0.0046998291363038423 0.0058380968338994635 0 -0.0041729679645703755 0.0053495767391898439 0 -0.0049954471983458112 0.0055900646926421342 0 -0.0045188019898492271 0.0057913189323920622 0 -0.0046998291363038423 0.0058380968338994635 0 -0.004740223656223278 0.0059415162402321866 0 -0.0029176724653182757 0.0046218115876507536 0 -0.0029954205162876237 0.0050708538984850357 0 -0.0036010148480034895 0.0047563269149459202 0 -0.0041729679645703755 0.0053495767391898439 0 -0.0043813924835025475 0.0048169432222695324 0 -0.0029954205162876237 0.0050708538984850357 0 -0.0034756237915440952 0.0053760094726320968 0 -0.0036010148480034895 0.0047563269149459202 0 -0.0050126605145593096 0.0048350566500497977 0 -0.0049918618596327055 0.005311703260643983 0 -0.0041364209740681664 0.0052924454474267846 0 -0.0041694680153026714 0.0042187296289985486 0 -0.0050126605145593096 0.0048350566500497977 0 -0.0041364209740681664 0.0052924454474267846 0 -0.0046358064627162283 0.0043612551052448732 0 -0.0043813924835025475 0.0048169432222695324 0 -0.0049954471983458112 0.0055900646926421342 0 -0.0042297576063051274 0.00542289980791218 0 -0.0046998291363038423 0.0058380968338994635 0 -0.0045135338996471781 0.0055447711310045488 0 -0.004740223656223278 0.0059415162402321866 0 -0.0041694680153026714 0.0042187296289985486 0 -0.0041364209740681664 0.0052924454474267846 0 -0.0036818431792714403 0.0048055023564998996 0 -0.0031749802766084818 0.0043869022873971658 0 -0.0041694680153026714 0.0042187296289985486 0 -0.0036818431792714403 0.0048055023564998996 0 -0.0041364209740681664 0.0052924454474267846 0 -0.0036818431792714403 0.0048055023564998996 0 -0.0032086862469329629 0.0053115214112597993 0 -0.0031749802766084818 0.0043869022873971658 0 -0.0036818431792714403 0.0048055023564998996 0 -0.0032086862469329629 0.0053115214112597993 0 -0.0031749802766084818 0.0043869022873971658 0 -0.0027334763378652326 0.0048106339031277799 0 -0.0032086862469329629 0.0053115214112597993 0 -0.0023317223449739041 0.0063017474237884999 0 -0.0032086862469329629 0.0053115214112597993 0 -0.0034441945733459539 0.006375530736390537 0 -0.0042297576063051274 0.00542289980791218 0 -0.0033139518809527486 0.00532527927798742 0 -0.0045135338996471781 0.0055447711310045488 0 -0.0032086862469329629 0.0053115214112597993 0 -0.0034441945733459539 0.006375530736390537 0 -0.0034441945733459539 0.006375530736390537 0 -0.0035154680144024232 0.0081023987820128974 0 -0.0047446852408105913 0.006425859047718788 0 -0.0025777182662017929 0.0074177449764587745 0 -0.0034441945733459539 0.006375530736390537 0 -0.0035154680144024232 0.0081023987820128974 0 -0.0035154680144024232 0.0081023987820128974 0 -0.0047446852408105913 0.006425859047718788 0 -0.0047776669321972073 0.0085169834021468546 0 -0.0045135338996471781 0.0055447711310045488 0 -0.0034441945733459539 0.006375530736390537 0 -0.0047446852408105913 0.006425859047718788 0 -0.0045135338996471781 0.0055447711310045488 0 -0.0047446852408105913 0.006425859047718788 0 -0.004740223656223278 0.0059415162402321866 0 -0.0047446852408105913 0.006425859047718788 0 -0.004740223656223278 0.0059415162402321866 0 -0.0045839307983233466 0.0055336816462285884 0 -0.0047446852408105913 0.006425859047718788 0 -0.0045839307983233466 0.0055336816462285884 0 -0.0047517856048681622 0.005029381270665806 0 -0.0047502989535677161 0.0063004396762137045 0 -0.005628716245074477 0.0071255466270570425 0 -0.0047446852408105913 0.006425859047718788 0 -0.0064129897076015347 0.008826709502936507 0 -0.0047776669321972073 0.0085169834021468546 0 -0.0043494826951950456 0.0048998269241808702 0 -0.004212686961117762 0.00521634712704689 0 -0.0045839307983233466 0.0055336816462285884 0 -0.004212686961117762 0.00521634712704689 0 -0.0045839307983233466 0.0055336816462285884 0 -0.0044490639210845494 0.0055956812616804958 0 -0.0043494826951950456 0.0048998269241808702 0 -0.0045839307983233466 0.0055336816462285884 0 -0.0047517856048681622 0.005029381270665806 0 -0.0045188019898492271 0.0057913189323920622 0 -0.004740223656223278 0.0059415162402321866 0 -0.0044490639210845494 0.0055956812616804958 0 -0.004740223656223278 0.0059415162402321866 0 -0.0045839307983233466 0.0055336816462285884 0 -0.0044490639210845494 0.0055956812616804958 0 -0.0042839651862453037 0.0056961451152032121 0 -0.0045188019898492271 0.0057913189323920622 0 -0.0044490639210845494 0.0055956812616804958 0 -0.0057296209434249097 0.0067306194430522019 0 -0.005628716245074477 0.0071255466270570425 0 -0.0076530421012553753 0.010690091182444806 0 -0.0064129897076015347 0.008826709502936507 0 -0.0065010644099032172 0.010253735932394804 0 -0.0076530421012553753 0.010690091182444806 0 -0.0065010644099032172 0.010253735932394804 0 -0.0076384147791821394 0.010814411177615496 0 -0.0061652559513256438 0.010320303955690472 0 -0.0061233559188796135 0.011136200686420234 0 -0.0070869924432001444 0.010803970142575262 0 -0.0050186020745433147 0.0061480314116120803 0 -0.0057296209434249097 0.0067306194430522019 0 -0.0056271455571804355 0.0069178005880181793 0 -0.006138992134269842 0.0076223906665438979 0 -0.0061845028179391996 0.0071952272847184652 0 -0.0057296209434249097 0.0067306194430522019 0 -0.0060652779078843406 0.0080155996308854619 0 -0.0066774648243012377 0.010460388843772789 0 -0.0060652779078843406 0.0080155996308854619 0 -0.0043494826951950456 0.0048998269241808702 0 -0.0044298852603426022 0.0045305701202759509 0 -0.0047517856048681622 0.005029381270665806 0 -0.0064129897076015347 0.008826709502936507 0 -0.0065010644099032172 0.010253735932394804 0 -0.0052040244540556705 0.0097242206373591919 0 -0.0064129897076015347 0.008826709502936507 0 -0.0052040244540556705 0.0097242206373591919 0 -0.0047776669321972073 0.0085169834021468546 0 -0.0066774648243012377 0.010460388843772789 0 -0.0051968811703315028 0.0097199488893466249 0 -0.0061652559513256438 0.010320303955690472 0 -0.0051665363837406168 0.010723984216934067 0 -0.0052040244540556705 0.0097242206373591919 0 -0.0061652559513256438 0.010320303955690472 0 -0.0051665363837406168 0.010723984216934067 0 -0.0061233559188796135 0.011136200686420234 0 -0.0051665363837406168 0.010723984216934067 0 -0.0043239784374187688 0.010295361603383972 0 -0.0044808199750639996 0.010946490888401286 0 -0.0043239784374187688 0.010295361603383972 0 -0.004031348615246769 0.010743840964155081 0 -0.0044808199750639996 0.010946490888401286 0 -0.0043239784374187688 0.010295361603383972 0 -0.0052040244540556705 0.0097242206373591919 0 -0.0041873824540038717 0.0093857303102042391 0 -0.0051665363837406168 0.010723984216934067 0 -0.0043239784374187688 0.010295361603383972 0 -0.0052040244540556705 0.0097242206373591919 0 -0.0052040244540556705 0.0097242206373591919 0 -0.0047776669321972073 0.0085169834021468546 0 -0.0041873824540038717 0.0093857303102042391 0 -0.0035154680144024232 0.0081023987820128974 0 -0.0047776669321972073 0.0085169834021468546 0 -0.0041873824540038717 0.0093857303102042391 0 -0.0035154680144024232 0.0081023987820128974 0 -0.0041873824540038717 0.0093857303102042391 0 -0.003311825072572501 0.0095469716420057606 0 -0.0035154680144024232 0.0081023987820128974 0 -0.003311825072572501 0.0095469716420057606 0 -0.0026416014554860685 0.0092309905918270211 0 -0.0041873824540038717 0.0093857303102042391 0 -0.003311825072572501 0.0095469716420057606 0 -0.0037533706934181447 0.010058830994813294 0 -0.003311825072572501 0.0095469716420057606 0 -0.0032446604758200365 0.010436812106031791 0 -0.0026200132225787601 0.01021258541647818 0 -0.003311825072572501 0.0095469716420057606 0 -0.0037533706934181447 0.010058830994813294 0 -0.0032446604758200365 0.010436812106031791 0 -0.0043239784374187688 0.010295361603383972 0 -0.0041873824540038717 0.0093857303102042391 0 -0.0037533706934181447 0.010058830994813294 0 -0.0043239784374187688 0.010295361603383972 0 -0.0037533706934181447 0.010058830994813294 0 -0.0037021621774851049 0.010612317324633498 0 -0.0037533706934181447 0.010058830994813294 0 -0.0037021621774851049 0.010612317324633498 0 -0.0032446604758200365 0.010436812106031791 0 -0.0043239784374187688 0.010295361603383972 0 -0.0037021621774851049 0.010612317324633498 0 -0.004031348615246769 0.010743840964155081 0 -0.0037021621774851049 0.010612317324633498 0 -0.004031348615246769 0.010743840964155081 0 -0.0036227400840931645 0.011113649176179222 0 -0.0037021621774851049 0.010612317324633498 0 -0.0033726170707970766 0.010890005942964591 0 -0.0036227400840931645 0.011113649176179222 0 -0.0033726170707970766 0.010890005942964591 0 -0.0032446604758200365 0.010436812106031791 0 -0.0027148076539945539 0.011179584052315065 0 -0.0037021621774851049 0.010612317324633498 0 -0.0033726170707970766 0.010890005942964591 0 -0.0032446604758200365 0.010436812106031791 0 -0.0029642284718659128 0.0099028073157429852 0 -0.0029977789430295932 0.010088265487929108 0 -0.002800452080020388 0.010006433949018506 0 -0.0033113772408408415 0.010886531497995858 0 -0.0030011910754611489 0.011094460991249966 0 -0.0033726170707970766 0.010890005942964591 0 -0.0034520162413776878 0.011245721144871709 0 -0.0027148076539945539 0.011179584052315065 0 -0.0033726170707970766 0.010890005942964591 0 -0.0034520162413776878 0.011245721144871709 0 -0.0036227400840931645 0.011113649176179222 0 -0.0033113772408408415 0.010886531497995858 0 -0.0033399640032621036 0.01090068227611359 0 -0.004031348615246769 0.010743840964155081 0 -0.0036227400840931645 0.011113649176179222 0 -0.0044808199750639996 0.010946490888401286 0 -0.0031775016823260452 0.010153964175474369 0 -0.0029977789430295932 0.010088265487929108 0 -0.0032005199118020672 0.0099705358483274491 0 -0.0029642284718659128 0.0099028073157429852 0 -0.0029977789430295932 0.010088265487929108 0 -0.0032005199118020672 0.0099705358483274491 0 -0.0033113772408408415 0.010886531497995858 0 -0.0043559630172534712 0.011050051334236302 0 -0.0034587929307067873 0.011227347494249584 0 -0.0036227400840931645 0.011113649176179222 0 -0.0053101218340273169 0.011652250019889827 0 -0.0036227400840931645 0.011113649176179222 0 -0.0044808199750639996 0.010946490888401286 0 -0.0053101218340273169 0.011652250019889827 0 -0.0051665363837406168 0.010723984216934067 0 -0.0044808199750639996 0.010946490888401286 0 -0.0053101218340273169 0.011652250019889827 0 -0.0061233559188796135 0.011136200686420234 0 -0.0053101218340273169 0.011652250019889827 0 -0.0069312831604185221 0.012108529489094806 0 -0.0051665363837406168 0.010723984216934067 0 -0.0061233559188796135 0.011136200686420234 0 -0.0053101218340273169 0.011652250019889827 0 -0.0033153055739591946 0.01010896767621954 0 -0.0032005199118020672 0.0099705358483274491 0 -0.003400653462018404 0.010022581511331648 0 -0.0031775016823260452 0.010153964175474369 0 -0.0033153055739591946 0.01010896767621954 0 -0.0032005199118020672 0.0099705358483274491 0 -0.0043559630172534712 0.011050051334236302 0 -0.0047379366303428004 0.0090618792796937908 0 -0.0047379366303428004 0.0090618792796937908 0 -0.0060652779078843406 0.0080155996308854619 0 -0.0048788750327858864 0.0074964520439372555 0 -0.0051248505272527721 0.0063981107136748035 0 -0.0049998071696076953 0.0075574794259769418 0 -0.0061233559188796135 0.011136200686420234 0 -0.0069312831604185221 0.012108529489094806 0 -0.0070869924432001444 0.010803970142575262 0 -0.0050186020745433147 0.0061480314116120803 0 -0.0060652779078843406 0.0080155996308854619 0 -8.7151612774585732e-05 0.010408684373748929 0 0.00068501877354235324 0.011339363335975508 0 0.00083273472302719282 0.010231356447117541 0 -8.7151612774585732e-05 0.010408684373748929 0 -0.00039509688615954895 0.011405989010558299 0 0.00068501877354235324 0.011339363335975508 0 -8.7151612774585732e-05 0.010408684373748929 0 -0.00039509688615954895 0.011405989010558299 0 -0.00069785401502487406 0.01070142674115299 0 0.0019367998296602508 0.011105000880378826 0 0.00083273472302719282 0.010231356447117541 0 0.0019319137280069147 0.0099052920341557715 0 0.00068501877354235324 0.011339363335975508 0 0.0019367998296602508 0.011105000880378826 0 0.00083273472302719282 0.010231356447117541 0 0.0019319137280069147 0.0099052920341557715 0 0.00085613691909992265 0.0092459945580054652 0 0.0022298829032853002 0.0086285159272118349 0 0.00083273472302719282 0.010231356447117541 0 0.0019319137280069147 0.0099052920341557715 0 0.00085613691909992265 0.0092459945580054652 0 -0.0003521276634190045 0.0085264680072423618 0 0.00085613691909992265 0.0092459945580054652 0 -0.00019824642949133685 0.0095876752189498326 0 0.00083273472302719282 0.010231356447117541 0 0.00085613691909992265 0.0092459945580054652 0 -0.00019824642949133685 0.0095876752189498326 0 -8.7151612774585732e-05 0.010408684373748929 0 0.00083273472302719282 0.010231356447117541 0 -0.00019824642949133685 0.0095876752189498326 0 -8.7151612774585732e-05 0.010408684373748929 0 -0.00019824642949133685 0.0095876752189498326 0 -0.001083249728753946 0.010062289900550773 0 -0.0003521276634190045 0.0085264680072423618 0 -0.00019824642949133685 0.0095876752189498326 0 -0.0012791601036219306 0.0090247928584983421 0 -0.0012791601036219306 0.0090247928584983421 0 -0.0019666282194183058 0.009665437133897439 0 -0.001083249728753946 0.010062289900550773 0 -0.00019824642949133685 0.0095876752189498326 0 -0.0012791601036219306 0.0090247928584983421 0 -0.001083249728753946 0.010062289900550773 0 -0.0022747557453201821 0.0085056870088595238 0 -0.0035154680144024232 0.0081023987820128974 0 -0.0026416014554860685 0.0092309905918270211 0 -0.0022747557453201821 0.0085056870088595238 0 -0.0019666282194183058 0.009665437133897439 0 -0.0026416014554860685 0.0092309905918270211 0 -0.0022747557453201821 0.0085056870088595238 0 -0.0012791601036219306 0.0090247928584983421 0 -0.0019666282194183058 0.009665437133897439 0 -0.003311825072572501 0.0095469716420057606 0 -0.0026416014554860685 0.0092309905918270211 0 -0.0026200132225787601 0.01021258541647818 0 -0.0019666282194183058 0.009665437133897439 0 -0.0026416014554860685 0.0092309905918270211 0 -0.0026200132225787601 0.01021258541647818 0 -0.0019666282194183058 0.009665437133897439 0 -0.0026200132225787601 0.01021258541647818 0 -0.001900122655623795 0.010654605859315731 0 -0.001900122655623795 0.010654605859315731 0 -0.0027148076539945539 0.011179584052315065 0 -0.0018707073246856318 0.011542981423411531 0 -0.0032446604758200365 0.010436812106031791 0 -0.0026200132225787601 0.01021258541647818 0 -0.0027148076539945539 0.011179584052315065 0 -0.0026200132225787601 0.01021258541647818 0 -0.001900122655623795 0.010654605859315731 0 -0.0027148076539945539 0.011179584052315065 0 -0.001083249728753946 0.010062289900550773 0 -0.00069785401502487406 0.01070142674115299 0 -0.001192634251475762 0.011065474774850401 0 -8.7151612774585732e-05 0.010408684373748929 0 -0.001083249728753946 0.010062289900550773 0 -0.00069785401502487406 0.01070142674115299 0 -0.001900122655623795 0.010654605859315731 0 -0.001083249728753946 0.010062289900550773 0 -0.001192634251475762 0.011065474774850401 0 -0.0019666282194183058 0.009665437133897439 0 -0.001900122655623795 0.010654605859315731 0 -0.001083249728753946 0.010062289900550773 0 -0.001900122655623795 0.010654605859315731 0 -0.001192634251475762 0.011065474774850401 0 -0.0018707073246856318 0.011542981423411531 0 -0.00039509688615954895 0.011405989010558299 0 -0.00069785401502487406 0.01070142674115299 0 -0.001192634251475762 0.011065474774850401 0 -0.00039509688615954895 0.011405989010558299 0 -0.0011181463144344711 0.011680744705023427 0 -0.00083240619268105899 0.012312003641475566 0 -0.00039509688615954895 0.011405989010558299 0 -0.001192634251475762 0.011065474774850401 0 -0.0011181463144344711 0.011680744705023427 0 -0.0011181463144344711 0.011680744705023427 0 -0.0015105969203951836 0.012012604095685588 0 -0.00083240619268105899 0.012312003641475566 0 -0.001192634251475762 0.011065474774850401 0 -0.0011181463144344711 0.011680744705023427 0 -0.0018707073246856318 0.011542981423411531 0 -0.0011181463144344711 0.011680744705023427 0 -0.0015105969203951836 0.012012604095685588 0 -0.0018707073246856318 0.011542981423411531 0 -0.0015105969203951836 0.012012604095685588 0 -0.00083240619268105899 0.012312003641475566 0 -0.0019693184501147994 0.01247188390044162 0 -0.0033113772408408415 0.010886531497995858 0 -0.0016517745020450845 0.011162096493983888 0 -0.0037012840756307564 0.011527398305765891 0 -0.0024249679609782185 0.011839982347766993 0 -0.0021915217574064805 0.012591109798242061 0 -0.0037012840756307564 0.011527398305765891 0 -0.0027148076539945539 0.011179584052315065 0 -0.0024249679609782185 0.011839982347766993 0 -0.0027148076539945539 0.011179584052315065 0 -0.0024249679609782185 0.011839982347766993 0 -0.0018707073246856318 0.011542981423411531 0 -0.0024249679609782185 0.011839982347766993 0 -0.0018707073246856318 0.011542981423411531 0 -0.0019487149326081307 0.011961861982512024 0 -0.0015105969203951836 0.012012604095685588 0 -0.0018707073246856318 0.011542981423411531 0 -0.0019487149326081307 0.011961861982512024 0 -0.0024249679609782185 0.011839982347766993 0 -0.0019693184501147994 0.01247188390044162 0 -0.0021915217574064805 0.012591109798242061 0 -0.0015105969203951836 0.012012604095685588 0 -0.0019487149326081307 0.011961861982512024 0 -0.0019693184501147994 0.01247188390044162 0 -0.0018744449842279859 0.01138452799036525 0 -0.0016517745020450845 0.011162096493983888 0 -0.0024249679609782185 0.011839982347766993 0 -0.0019487149326081307 0.011961861982512024 0 -0.0019693184501147994 0.01247188390044162 0 -0.00046209980049800035 0.01108890835456937 0 -0.0010200096658875273 0.010764217691897254 0 -0.00043264123720081438 0.01045575476383747 0 -0.0019156922215060896 0.010285275583603459 0 -0.0016517745020450845 0.011162096493983888 0 -0.0019693184501147994 0.01247188390044162 0 -0.0022006678987495656 0.012592008324511999 0 -0.00038049537551150157 0.013957254176634777 0 -0.00046209980049800035 0.01108890835456937 0 -0.00043264123720081438 0.01045575476383747 0 0.00021628740919597012 0.010879432158304675 0 -0.0016517745020450845 0.011162096493983888 0 -0.00010841817908942685 0.012399877111790133 0 -0.00083240619268105899 0.012312003641475566 0 -0.0019693184501147994 0.01247188390044162 0 -0.00038049537551150157 0.013957254176634777 0 -0.00083240619268105899 0.012312003641475566 0 -0.00038049537551150157 0.013957254176634777 0 0.000295674004064206 0.012477208602422227 0 -0.00038049537551150157 0.013957254176634777 0 0.000295674004064206 0.012477208602422227 0 0.0010312173778468776 0.013581192399242083 0 -0.00039509688615954895 0.011405989010558299 0 0.00068501877354235324 0.011339363335975508 0 0.000295674004064206 0.012477208602422227 0 -0.00039509688615954895 0.011405989010558299 0 -0.00083240619268105899 0.012312003641475566 0 0.000295674004064206 0.012477208602422227 0 0.00068501877354235324 0.011339363335975508 0 0.0019367998296602508 0.011105000880378826 0 0.0015241152602247165 0.012401656138251149 0 0.00068501877354235324 0.011339363335975508 0 0.000295674004064206 0.012477208602422227 0 0.0015241152602247165 0.012401656138251149 0 0.000295674004064206 0.012477208602422227 0 0.0015241152602247165 0.012401656138251149 0 0.0010312173778468776 0.013581192399242083 0 0.0013994049847519793 0.015175314652874906 0 0.0010312173778468776 0.013581192399242083 0 0.0022817185092666257 0.01381864072468145 0 0.0015241152602247165 0.012401656138251149 0 0.0010312173778468776 0.013581192399242083 0 0.0022817185092666257 0.01381864072468145 0 0.0022817185092666257 0.01381864072468145 0 0.003880297709959415 0.013478063048185154 0 0.0030037378144958061 0.012255851471858172 0 0.0033642667065428627 0.015362570701949178 0 0.0022817185092666257 0.01381864072468145 0 0.003880297709959415 0.013478063048185154 0 0.0033642667065428627 0.015362570701949178 0 0.003880297709959415 0.013478063048185154 0 0.0051001885588733004 0.013836957536153311 0 0.003880297709959415 0.013478063048185154 0 0.0030037378144958061 0.012255851471858172 0 0.0046619810727388635 0.012126609573766624 0 0.0015241152602247165 0.012401656138251149 0 0.0022817185092666257 0.01381864072468145 0 0.0030037378144958061 0.012255851471858172 0 0.0019367998296602508 0.011105000880378826 0 0.0015241152602247165 0.012401656138251149 0 0.0030037378144958061 0.012255851471858172 0 0.0019367998296602508 0.011105000880378826 0 0.0030037378144958061 0.012255851471858172 0 0.0035249257113002326 0.010336789899886015 0 0.0019367998296602508 0.011105000880378826 0 0.0019319137280069147 0.0099052920341557715 0 0.0035249257113002326 0.010336789899886015 0 0.0030037378144958061 0.012255851471858172 0 0.0035249257113002326 0.010336789899886015 0 0.0046619810727388635 0.012126609573766624 0 0.0045876493241987287 0.012885378351006184 0 0.0049772167314220857 0.013427735841134244 0 0.0057377643160973898 0.015481298940754258 0 0.0052333017400801631 0.015345877260182663 0 0.0054233172741658797 0.014754141935579425 0 0.0057377643160973898 0.015481298940754258 0 0.0056973349524103867 0.015854248297766441 0 0.0054927288531252819 0.015890256469898931 0 0.0057377643160973898 0.015481298940754258 0 0.0052333017400801631 0.015345877260182663 0 0.0054927288531252819 0.015890256469898931 0 0.0019319137280069147 0.0099052920341557715 0 0.0035249257113002326 0.010336789899886015 0 0.0022298829032853002 0.0086285159272118349 0 0.0045876493241987287 0.012885378351006184 0 0.0041614266851506231 0.012228776176851062 0 0.0057377643160973898 0.015481298940754258 0 0.0056973349524103867 0.015854248297766441 0 0.0058066398031884738 0.015904072727404427 0 0.0046592243392028559 0.015485043993768556 0 0.0046009145675367001 0.015959221581850879 0 0.0041015981132060423 0.015796183694091106 0 0.0046592243392028559 0.015485043993768556 0 0.0046009145675367001 0.015959221581850879 0 0.0050747012454040478 0.015814077723387561 0 0.0050747012454040478 0.015814077723387561 0 0.0052333017400801631 0.015345877260182663 0 0.0054927288531252819 0.015890256469898931 0 0.0046592243392028559 0.015485043993768556 0 0.0050747012454040478 0.015814077723387561 0 0.0052333017400801631 0.015345877260182663 0 0.0052333017400801631 0.015345877260182663 0 0.0046367722732855114 0.014677451055324075 0 0.0054233172741658797 0.014754141935579425 0 0.0046592243392028559 0.015485043993768556 0 0.0052333017400801631 0.015345877260182663 0 0.0046367722732855114 0.014677451055324075 0 0.0046592243392028559 0.015485043993768556 0 0.0046367722732855114 0.014677451055324075 0 0.0040537386784649711 0.01512383509284357 0 0.0046367722732855114 0.014677451055324075 0 0.0054233172741658797 0.014754141935579425 0 0.004909806437363648 0.013860839598440852 0 0.0046367722732855114 0.014677451055324075 0 0.004909806437363648 0.013860839598440852 0 0.0041246696603797692 0.013963179968615727 0 0.0049772167314220857 0.013427735841134244 0 0.0049203186926433627 0.01374579308743048 0 0.003880297709959415 0.013478063048185154 0 0.0046619810727388635 0.012126609573766624 0 0.0046323974930878647 0.01328722952750846 0 0.0046619810727388635 0.012126609573766624 0 0.0046323974930878647 0.01328722952750846 0 0.004909806437363648 0.013860839598440852 0 0.003880297709959415 0.013478063048185154 0 0.0046323974930878647 0.01328722952750846 0 0.0051001885588733004 0.013836957536153311 0 0.0046323974930878647 0.01328722952750846 0 0.0051001885588733004 0.013836957536153311 0 0.004909806437363648 0.013860839598440852 0 0.0038606816125970416 0.015279546222869604 0 0.0031589265986381827 0.015339127298805275 0 0.0051001885588733004 0.013836957536153311 0 0.004909806437363648 0.013860839598440852 0 0.0041246696603797692 0.013963179968615727 0 0.0023888964496197357 0.016609339512970573 0 0.0028351463705069786 0.016617496208847154 0 0.0020613890512477624 0.017130107043140969 0 0.0019987317163589501 0.016714140159487609 0 0.0023888964496197357 0.016609339512970573 0 0.0020613890512477624 0.017130107043140969 0 0.0019987317163589501 0.016714140159487609 0 0.0016674927474323571 0.017016184566395212 0 0.0020613890512477624 0.017130107043140969 0 0.0017750001587882704 0.016844150954100242 0 0.0016173086125950257 0.01791742573700536 0 0.0016173086125950257 0.01791742573700536 0 0.0020333130647060597 0.017345540884285277 0 0.0035625127930277506 0.014672981938447103 0 0.0041246696603797692 0.013963179968615727 0 0.0026172484932917898 0.014667871440204108 0 0.0031589265986381827 0.015339127298805275 0 0.0020333130647060597 0.017345540884285277 0 0.0016674927474323571 0.017016184566395212 0 0.0020613890512477624 0.017130107043140969 0 0.0015819178659577634 0.017384766234658081 0 0.0035625127930277506 0.014672981938447103 0 0.0041055433774356918 0.014613103121839196 0 0.0041246696603797692 0.013963179968615727 0 0.0046367722732855114 0.014677451055324075 0 0.0041055433774356918 0.014613103121839196 0 0.0041246696603797692 0.013963179968615727 0 0.00088757676287840417 0.017486062648147956 0 0.00044101174457613029 0.018458410020760502 0 0.0010716780521920098 0.018875269392110934 0 0.00088757676287840417 0.017486062648147956 0 0.0017550979077779261 0.018362579166492202 0 0.0010716780521920098 0.018875269392110934 0 0.0017550979077779261 0.018362579166492202 0 0.0015194425135466991 0.019539063801365691 0 0.0010716780521920098 0.018875269392110934 0 0.0015194425135466991 0.019539063801365691 0 0.0010716780521920098 0.018875269392110934 0 0.0013682062856593604 0.019620752473137305 0 0.0010716780521920098 0.018875269392110934 0 0.00083577046618319426 0.019483811826879398 0 0.0013682062856593604 0.019620752473137305 0 0.0010716780521920098 0.018875269392110934 0 0.00029836522467416781 0.019347988255468566 0 0.00083577046618319426 0.019483811826879398 0 0.00044101174457613029 0.018458410020760502 0 0.0010716780521920098 0.018875269392110934 0 0.00029836522467416781 0.019347988255468566 0 0.0003062791751302771 0.01998589692057819 0 0.00029836522467416781 0.019347988255468566 0 0.00083577046618319426 0.019483811826879398 0 0.0003062791751302771 0.01998589692057819 0 0.00083577046618319426 0.019483811826879398 0 0.00084241210684134053 0.019994228203508584 0 0.0003062791751302771 0.01998589692057819 0 0.00084241210684134053 0.019994228203508584 0 0.00045916468445783738 0.020321331301112258 0 0.00083577046618319426 0.019483811826879398 0 0.00084241210684134053 0.019994228203508584 0 0.0010446400263852814 0.019745318187724847 0 0.0020333130647060597 0.017345540884285277 0 0.0015985143358765539 0.018235217578035152 0 0.0026172484932917898 0.014667871440204108 0 0.0022593753579958739 0.016044835731819512 0 0.0027838372371046102 0.015159649715022948 0 0.0014815041535333722 0.019566480381890454 0 0.0011919942430471927 0.020058283391260721 0 0.001162303270568577 0.020404070270592736 0 0.00084241210684134053 0.019994228203508584 0 0.0011919942430471927 0.020058283391260721 0 0.00099873618982069569 0.020209470082019274 0 0.00084241210684134053 0.019994228203508584 0 0.0011919942430471927 0.020058283391260721 0 0.0010446400263852814 0.019745318187724847 0 0.00083577046618319426 0.019483811826879398 0 0.0010446400263852814 0.019745318187724847 0 0.0013682062856593604 0.019620752473137305 0 0.0011919942430471927 0.020058283391260721 0 0.0010446400263852814 0.019745318187724847 0 0.0012707538479787392 0.019773408946029466 0 0.0010446400263852814 0.019745318187724847 0 0.0012707538479787392 0.019773408946029466 0 0.0013682062856593604 0.019620752473137305 0 0.0014815041535333722 0.019566480381890454 0 0.0011919942430471927 0.020058283391260721 0 0.0012707538479787392 0.019773408946029466 0 0.0014815041535333722 0.019566480381890454 0 0.0012707538479787392 0.019773408946029466 0 0.0013682062856593604 0.019620752473137305 0 0.0020333130647060597 0.017345540884285277 0 0.0016529132005731902 0.017735435942933933 0 0.0022593753579958739 0.016044835731819512 0 0.0027838372371046102 0.015159649715022948 0 0.0027657966827677543 0.015524709034069387 0 0.0027424536956142751 0.015895390560987724 0 0.0022593753579958739 0.016044835731819512 0 0.0027657966827677543 0.015524709034069387 0 0.0027424536956142751 0.015895390560987724 0 0.0025918958247841458 0.016141395955546048 0 0.0022593753579958739 0.016044835731819512 0 0.0025918958247841458 0.016141395955546048 0 0.0023596367621340516 0.016567949642392867 0 0.0022593753579958739 0.016044835731819512 0 0.0025918958247841458 0.016141395955546048 0 0.0023596367621340516 0.016567949642392867 0 0.0029943536258646543 0.016059000251734571 0 0.001162303270568577 0.020404070270592736 0 0.00080351075782981508 0.020371087225867539 0 0.00083837905263696509 0.02066427925064156 0 0.001162303270568577 0.020404070270592736 0 0.00099873618982069569 0.020209470082019274 0 0.00080351075782981508 0.020371087225867539 0 0.0011919942430471927 0.020058283391260721 0 0.001162303270568577 0.020404070270592736 0 0.00099873618982069569 0.020209470082019274 0 0.00084241210684134053 0.019994228203508584 0 0.00080351075782981508 0.020371087225867539 0 0.00045916468445783738 0.020321331301112258 0 0.00084241210684134053 0.019994228203508584 0 0.00099873618982069569 0.020209470082019274 0 0.00080351075782981508 0.020371087225867539 0 0.00080351075782981508 0.020371087225867539 0 0.00054944286805472622 0.020600770983628044 0 0.00083837905263696509 0.02066427925064156 0 0.00080351075782981508 0.020371087225867539 0 0.00054944286805472622 0.020600770983628044 0 0.00045916468445783738 0.020321331301112258 0 0.0040537386784649711 0.01512383509284357 0 0.0034887831398965783 0.015129613565990997 0 0.003531469500620216 0.015571404725288077 0 0.0046367722732855114 0.014677451055324075 0 0.0041055433774356918 0.014613103121839196 0 0.0040537386784649711 0.01512383509284357 0 0.0035625127930277506 0.014672981938447103 0 0.0041055433774356918 0.014613103121839196 0 0.0040537386784649711 0.01512383509284357 0 0.0035625127930277506 0.014672981938447103 0 0.0040537386784649711 0.01512383509284357 0 0.0034887831398965783 0.015129613565990997 0 0.0035625127930277506 0.014672981938447103 0 0.0026172484932917898 0.014667871440204108 0 0.0030337630342791408 0.014865658689327417 0 0.0035625127930277506 0.014672981938447103 0 0.0030337630342791408 0.014865658689327417 0 0.0031647908561162601 0.014976703628201353 0 0.0035625127930277506 0.014672981938447103 0 0.0031647908561162601 0.014976703628201353 0 0.0034887831398965783 0.015129613565990997 0 0.0026172484932917898 0.014667871440204108 0 0.0030337630342791408 0.014865658689327417 0 0.0027838372371046102 0.015159649715022948 0 0.0030337630342791408 0.014865658689327417 0 0.0031647908561162601 0.014976703628201353 0 0.0027838372371046102 0.015159649715022948 0 0.0027838372371046102 0.015159649715022948 0 0.0030947992268131538 0.015301744352852113 0 0.0027657966827677543 0.015524709034069387 0 0.0031647908561162601 0.014976703628201353 0 0.0027838372371046102 0.015159649715022948 0 0.0030947992268131538 0.015301744352852113 0 0.0030947992268131538 0.015301744352852113 0 0.0027657966827677543 0.015524709034069387 0 0.0030843859678286634 0.01564111841793818 0 0.0030947992268131538 0.015301744352852113 0 0.003531469500620216 0.015571404725288077 0 0.0030843859678286634 0.01564111841793818 0 0.0030947992268131538 0.015301744352852113 0 0.0034887831398965783 0.015129613565990997 0 0.003531469500620216 0.015571404725288077 0 0.0031647908561162601 0.014976703628201353 0 0.0030947992268131538 0.015301744352852113 0 0.0034887831398965783 0.015129613565990997 0 0.003531469500620216 0.015571404725288077 0 0.0029943536258646543 0.016059000251734571 0 0.0036587352230935551 0.015961879686508085 0 0.0023596367621340516 0.016567949642392867 0 0.0029943536258646543 0.016059000251734571 0 0.0039749766221393477 0.016415261511691721 0 0.003531469500620216 0.015571404725288077 0 0.0030843859678286634 0.01564111841793818 0 0.0029943536258646543 0.016059000251734571 0 0.0029943536258646543 0.016059000251734571 0 0.0036587352230935551 0.015961879686508085 0 0.0039749766221393477 0.016415261511691721 0 0.0027424536956142751 0.015895390560987724 0 0.0027657966827677543 0.015524709034069387 0 0.0030843859678286634 0.01564111841793818 0 0.0027424536956142751 0.015895390560987724 0 0.0030843859678286634 0.01564111841793818 0 0.0029943536258646543 0.016059000251734571 0 0.0027424536956142751 0.015895390560987724 0 0.0025918958247841458 0.016141395955546048 0 0.0029943536258646543 0.016059000251734571 0 0.0036587352230935551 0.015961879686508085 0 0.0041015981132060423 0.015796183694091106 0 0.0039749766221393477 0.016415261511691721 0 0.003531469500620216 0.015571404725288077 0 0.0036587352230935551 0.015961879686508085 0 0.0041015981132060423 0.015796183694091106 0 0.0040537386784649711 0.01512383509284357 0 0.003531469500620216 0.015571404725288077 0 0.0041015981132060423 0.015796183694091106 0 0.0046592243392028559 0.015485043993768556 0 0.0040537386784649711 0.01512383509284357 0 0.0041015981132060423 0.015796183694091106 0 0.0046009145675367001 0.015959221581850879 0 0.0041015981132060423 0.015796183694091106 0 0.0039749766221393477 0.016415261511691721 0 0.0032133503385557748 0.017338586116425376 0 0.0028671132912475783 0.017451510811353568 0 0.003204464837081417 0.01753783477780518 0 0.0023596367621340516 0.016567949642392867 0 0.0032133503385557748 0.017338586116425376 0 0.0028671132912475783 0.017451510811353568 0 0.0023690846779820906 0.016576492555159198 0 0.0035421660795570413 0.016882760254239838 0 0.0039518941344170114 0.018362105620415861 0 0.003866770498234496 0.017942077262763131 0 0.0042053776943962399 0.018314588433011258 0 0.003866770498234496 0.017942077262763131 0 0.0042053776943962399 0.018314588433011258 0 0.0041495092804294254 0.017967306670204106 0 0.0039518941344170114 0.018362105620415861 0 0.003866770498234496 0.017942077262763131 0 0.0034571995115658663 0.018055874695450686 0 0.003866770498234496 0.017942077262763131 0 0.0034571995115658663 0.018055874695450686 0 0.0035207392117544006 0.017718568978864889 0 0.0035003075616804784 0.0178447210275096 0 0.0033222710749091331 0.017816501067955445 0 0.0034571995115658663 0.018055874695450686 0 0.0035207392117544006 0.017718568978864889 0 0.0032906305408280183 0.017768585354312853 0 0.00019203234188019686 0.020957079722216571 0 0.00046293888660305565 0.020816442665471866 0 0.0009454637972485466 0.021064077357557737 0 0.0024504501859966463 0.020221410915360373 0 0.0027015449248391239 0.019062220940114283 0 0.00046293888660305565 0.020816442665471866 0 0.00069241178407162607 0.020796048605418897 0 0.0009454637972485466 0.021064077357557737 0 0.00054944286805472622 0.020600770983628044 0 0.00046293888660305565 0.020816442665471866 0 0.00069241178407162607 0.020796048605418897 0 0.00054944286805472622 0.020600770983628044 0 0.00069241178407162607 0.020796048605418897 0 0.00083837905263696509 0.02066427925064156 0 0.00069241178407162607 0.020796048605418897 0 0.00083837905263696509 0.02066427925064156 0 0.0009454637972485466 0.021064077357557737 0 0.0023596367621340516 0.016567949642392867 0 0.0022593753579958739 0.016044835731819512 0 0.0019404092262296268 0.017379137002591326 0 0.001162303270568577 0.020404070270592736 0 0.00083837905263696509 0.02066427925064156 0 0.0009454637972485466 0.021064077357557737 0 0.0035003075616804784 0.0178447210275096 0 0.0027015449248391239 0.019062220940114283 0 0.0015985143358765539 0.018235217578035152 0 0.0027015449248391239 0.019062220940114283 0 0.0023596367621340516 0.016567949642392867 0 0.0028671132912475783 0.017451510811353568 0 0.0019404092262296268 0.017379137002591326 0 0.0039518941344170114 0.018362105620415861 0 0.0043975235925537721 0.018634475519170066 0 0.0042053776943962399 0.018314588433011258 0 0.0042053776943962399 0.018314588433011258 0 0.0043390116741453049 0.01821293392519464 0 0.0041495092804294254 0.017967306670204106 0 0.0042053776943962399 0.018314588433011258 0 0.0044623894452048814 0.018628854479523105 0 0.0043390116741453049 0.01821293392519464 0 0.0027015449248391239 0.019062220940114283 0 0.0039834643707271208 0.018427246590186491 0 0.0043975235925537721 0.018634475519170066 0 0.0042053776943962399 0.018314588433011258 0 0.0044623894452048814 0.018628854479523105 0 0.0048927718292633053 0.019353298821753635 0 0.0046886398018731387 0.019237292057371663 0 0.0045444901845676103 0.019035696173073442 0 0.0048927718292633053 0.019353298821753635 0 0.0045444901845676103 0.019035696173073442 0 0.0046842071136168374 0.018805073792975965 0 0.0045444901845676103 0.019035696173073442 0 0.0044623894452048814 0.018628854479523105 0 0.0046842071136168374 0.018805073792975965 0 0.0044623894452048814 0.018628854479523105 0 0.0046842071136168374 0.018805073792975965 0 0.0046939420740980788 0.018398101511762709 0 0.0048927718292633053 0.019353298821753635 0 0.0046842071136168374 0.018805073792975965 0 0.0048184207860362286 0.018705749097433413 0 0.0046842071136168374 0.018805073792975965 0 0.0048184207860362286 0.018705749097433413 0 0.0046939420740980788 0.018398101511762709 0 0.0051502792481790821 0.017420745811583521 0 0.0048192515508368953 0.017751814273045986 0 0.005030935926372538 0.018233633631093111 0 0.0048192515508368953 0.017751814273045986 0 0.0045401230754616882 0.018078500120312271 0 0.0043119909857335242 0.017571725137798689 0 0.0048192515508368953 0.017751814273045986 0 0.005030935926372538 0.018233633631093111 0 0.0047617681426850569 0.018108088554264497 0 0.0048184207860362286 0.018705749097433413 0 0.005030935926372538 0.018233633631093111 0 0.0046939420740980788 0.018398101511762709 0 0.005030935926372538 0.018233633631093111 0 0.0046939420740980788 0.018398101511762709 0 0.0047617681426850569 0.018108088554264497 0 0.0044623894452048814 0.018628854479523105 0 0.0046939420740980788 0.018398101511762709 0 0.0045401230754616882 0.018078500120312271 0 0.0046939420740980788 0.018398101511762709 0 0.0047617681426850569 0.018108088554264497 0 0.0045401230754616882 0.018078500120312271 0 0.0048192515508368953 0.017751814273045986 0 0.0047617681426850569 0.018108088554264497 0 0.0045401230754616882 0.018078500120312271 0 0.0045401230754616882 0.018078500120312271 0 0.0043390116741453049 0.01821293392519464 0 0.0043119909857335242 0.017571725137798689 0 0.0043390116741453049 0.01821293392519464 0 0.0041495092804294254 0.017967306670204106 0 0.0043119909857335242 0.017571725137798689 0 0.0044623894452048814 0.018628854479523105 0 0.0045401230754616882 0.018078500120312271 0 0.0043390116741453049 0.01821293392519464 0 0.0041495092804294254 0.017967306670204106 0 0.0043119909857335242 0.017571725137798689 0 0.0040304554126468183 0.017548826203279019 0 0.0042565941081999722 0.016859542206123505 0 0.0043119909857335242 0.017571725137798689 0 0.0046512137795922982 0.017167450825385806 0 0.0042565941081999722 0.016859542206123505 0 0.0043119909857335242 0.017571725137798689 0 0.0039429936881755414 0.017106801164743272 0 0.0048192515508368953 0.017751814273045986 0 0.0043119909857335242 0.017571725137798689 0 0.0046512137795922982 0.017167450825385806 0 0.0051502792481790821 0.017420745811583521 0 0.0050740832570841509 0.016783193032761851 0 0.0046512137795922982 0.017167450825385806 0 0.0051502792481790821 0.017420745811583521 0 0.0048192515508368953 0.017751814273045986 0 0.0046512137795922982 0.017167450825385806 0 0.00375210900868712 0.017564183389438402 0 0.0035070591225522811 0.017389273516337754 0 0.003648340312798566 0.017145934669618418 0 0.00375210900868712 0.017564183389438402 0 0.0035070591225522811 0.017389273516337754 0 0.0035207392117544006 0.017718568978864889 0 0.0035070591225522811 0.017389273516337754 0 0.0035207392117544006 0.017718568978864889 0 0.0032439912959009417 0.017475142141959357 0 0.003866770498234496 0.017942077262763131 0 0.00375210900868712 0.017564183389438402 0 0.0035207392117544006 0.017718568978864889 0 0.003866770498234496 0.017942077262763131 0 0.00375210900868712 0.017564183389438402 0 0.0040304554126468183 0.017548826203279019 0 0.003866770498234496 0.017942077262763131 0 0.0041495092804294254 0.017967306670204106 0 0.0040304554126468183 0.017548826203279019 0 0.00375210900868712 0.017564183389438402 0 0.0040304554126468183 0.017548826203279019 0 0.0039429936881755414 0.017106801164743272 0 0.00375210900868712 0.017564183389438402 0 0.0039429936881755414 0.017106801164743272 0 0.003648340312798566 0.017145934669618418 0 0.0043119909857335242 0.017571725137798689 0 0.0040304554126468183 0.017548826203279019 0 0.0039429936881755414 0.017106801164743272 0 0.0036041726380926088 0.016749845485355058 0 0.0039429936881755414 0.017106801164743272 0 0.003648340312798566 0.017145934669618418 0 0.0035070591225522811 0.017389273516337754 0 0.003648340312798566 0.017145934669618418 0 0.0033550348665916064 0.017042782512285231 0 0.0036041726380926088 0.016749845485355058 0 0.003648340312798566 0.017145934669618418 0 0.0033550348665916064 0.017042782512285231 0 0.0036041726380926088 0.016749845485355058 0 0.0031146142403697748 0.016470862361525493 0 0.0033550348665916064 0.017042782512285231 0 0.0031146142403697748 0.016470862361525493 0 0.0033550348665916064 0.017042782512285231 0 0.0029034346794691995 0.016991568723806302 0 0.0035070591225522811 0.017389273516337754 0 0.0033550348665916064 0.017042782512285231 0 0.0032439912959009417 0.017475142141959357 0 0.0033550348665916064 0.017042782512285231 0 0.0032439912959009417 0.017475142141959357 0 0.0029034346794691995 0.016991568723806302 0 0.0032439912959009417 0.017475142141959357 0 0.0029070736844312374 0.017465054255041204 0 0.0031094180781795992 0.017637796488185913 0 0.0029034346794691995 0.016991568723806302 0 0.0023256624334887458 0.016779218367119406 0 0.0025213622865318482 0.017290884825203405 0 0.0029070736844312374 0.017465054255041204 0 0.0025213622865318482 0.017290884825203405 0 0.0027580661201274848 0.017669742028965662 0 0.0032439912959009417 0.017475142141959357 0 0.0029070736844312374 0.017465054255041204 0 0.0029034346794691995 0.016991568723806302 0 0.0029070736844312374 0.017465054255041204 0 0.0029034346794691995 0.016991568723806302 0 0.0025213622865318482 0.017290884825203405 0 0.0025997715866320176 0.016306559134039635 0 0.0029034346794691995 0.016991568723806302 0 0.0023256624334887458 0.016779218367119406 0 0.0025997715866320176 0.016306559134039635 0 0.0031146142403697748 0.016470862361525493 0 0.0029034346794691995 0.016991568723806302 0 0.0025997715866320176 0.016306559134039635 0 0.0021613555087680101 0.016294957159259799 0 0.0023256624334887458 0.016779218367119406 0 0.0021613555087680101 0.016294957159259799 0 0.0023256624334887458 0.016779218367119406 0 0.0017942062298855251 0.016583507966451114 0 0.000791983401753641 0.016710671004809826 0 0.0017942062298855251 0.016583507966451114 0 0.0017050408259054314 0.017060154849303275 0 0.0023256624334887458 0.016779218367119406 0 0.0017942062298855251 0.016583507966451114 0 0.0017050408259054314 0.017060154849303275 0 0.00174664694422703 0.015983060160766723 0 0.0012822726222153618 0.01620425061966695 0 0.0017942062298855251 0.016583507966451114 0 0.00174664694422703 0.015983060160766723 0 0.0021613555087680101 0.016294957159259799 0 0.0017942062298855251 0.016583507966451114 0 0.0017050408259054314 0.017060154849303275 0 0.0025213622865318482 0.017290884825203405 0 0.0023933825355408186 0.017697350959156064 0 0.0023256624334887458 0.016779218367119406 0 0.0017050408259054314 0.017060154849303275 0 0.0025213622865318482 0.017290884825203405 0 0.0023933825355408186 0.017697350959156064 0 0.0020177283700314884 0.018029286599633262 0 0.0030002445375393884 0.017915304294021626 0 0.0025213622865318482 0.017290884825203405 0 0.0023933825355408186 0.017697350959156064 0 0.0027580661201274848 0.017669742028965662 0 0.0017050408259054314 0.017060154849303275 0 0.0023933825355408186 0.017697350959156064 0 0.0020177283700314884 0.018029286599633262 0 0.00060590491562457485 0.017858395425406556 0 0.0017050408259054314 0.017060154849303275 0 0.0020177283700314884 0.018029286599633262 0 0.0057807085512190182 0.015918068888163613 0 0.0057275557586441055 0.016043006609474029 0 0.0058066398031884738 0.015904072727404427 0 0.0057275557586441055 0.016043006609474029 0 0.0056973349524103867 0.015854248297766441 0 0.0058066398031884738 0.015904072727404427 0 0.0041753509124137734 0.017742855395997802 0 0.0039250040924083259 0.016952056991960555 0 0.0057275557586441055 0.016043006609474029 0 0.0054927288531252819 0.015890256469898931 0 0.0051000373052506546 0.016236980321656398 0 0.0057275557586441055 0.016043006609474029 0 0.0056973349524103867 0.015854248297766441 0 0.0054927288531252819 0.015890256469898931 0 0.0050747012454040478 0.015814077723387561 0 0.0054927288531252819 0.015890256469898931 0 0.0051000373052506546 0.016236980321656398 0 0.0032133503385557748 0.017338586116425376 0 0.003204464837081417 0.01753783477780518 0 0.0030002445375393884 0.017915304294021626 0 0.0046009145675367001 0.015959221581850879 0 0.0050747012454040478 0.015814077723387561 0 0.0051000373052506546 0.016236980321656398 0 0.0035421660795570413 0.016882760254239838 0 0.0039250040924083259 0.016952056991960555 0 0.0046009145675367001 0.015959221581850879 0 0.0039749766221393477 0.016415261511691721 0 0.0051000373052506546 0.016236980321656398 0 0.0033222710749091331 0.017816501067955445 0 0.0030438355946791028 0.017786756509502368 0 0.003204464837081417 0.01753783477780518 0 0.0030002445375393884 0.017915304294021626 0 0.0029732642747564535 0.017788811128739205 0 0.0034571995115658663 0.018055874695450686 0 0.0032906305408280183 0.017768585354312853 0 0.0029732642747564535 0.017788811128739205 0 0.0035207392117544006 0.017718568978864889 0 0.0032439912959009417 0.017475142141959357 0 0.0032906305408280183 0.017768585354312853 0 0.0032906305408280183 0.017768585354312853 0 0.0031094180781795992 0.017637796488185913 0 0.0029732642747564535 0.017788811128739205 0 0.0032439912959009417 0.017475142141959357 0 0.0032906305408280183 0.017768585354312853 0 0.0031094180781795992 0.017637796488185913 0 0.0029070736844312374 0.017465054255041204 0 0.0027580661201274848 0.017669742028965662 0 0.0029732642747564535 0.017788811128739205 0 0.0029070736844312374 0.017465054255041204 0 0.0031094180781795992 0.017637796488185913 0 0.0029732642747564535 0.017788811128739205 0 0.0023933825355408186 0.017697350959156064 0 0.0030002445375393884 0.017915304294021626 0 0.0027580661201274848 0.017669742028965662 0 0.0030002445375393884 0.017915304294021626 0 0.0027580661201274848 0.017669742028965662 0 0.0029732642747564535 0.017788811128739205 0 
</DataArray>
</PointData>
<CellData Scalars="region_id,cross_section_updated," Vectors="" Tensors="stress,">
<DataArray type="Float64" Name="region_id" format="ascii">
6 5 5 5 5 5 5 5 5 6 5 5 5 6 5 5 5 5 5 5 5 5 5 5 5 5 5 5 5 6 5 5 6 5 5 5 6 5 5 5 6 5 5 5 5 5 5 5 5 6 5 5 5 5 5 5 6 5 5 5 5 5 5 5 5 5 6 5 5 6 5 5 5 6 5 6 5 6 6 5 5 5 5 5 5 5 5 5 6 5 6 5 5 6 5 5 5 5 5 5 5 5 5 5 5 5 5 5 5 6 5 5 5 5 6 5 5 6 6 5 5 6 5 5 5 6 6 6 5 6 5 5 5 5 5 5 5 5 5 6 6 5 5 5 5 5 5 6 5 5 5 5 5 6 6 5 5 6 5 5 6 6 5 6 6 5 5 5 5 5 5 5 5 5 5 5 5 6 5 5 6 5 5 5 5 5 5 5 5 5 5 5 5 5 5 5 5 5 5 5 5 6 5 5 5 5 5 5 5 5 5 5 5 5 5 5 5 6 5 5 6 5 5 5 5 6 6 5 5 5 5 5 5 5 5 5 5 5 5 5 5 5 6 5 5 5 6 5 5 5 5 5 5 5 5 6 6 5 5 5 5 5 5 5 5 5 6 5 5 5 5 5 6 5 6 5 5 5 5 5 6 6 5 5 5 6 5 6 5 5 5 6 5 6 5 5 6 5 5 5 6 5 5 5 5 5 6 6 5 5 6 5 6 6 5 5 6 5 6 5 5 5 5 6 5 6 5 5 6 6 6 5 6 5 6 6 5 5 5 5 5 5 5 5 5 6 5 5 5 5 5 5 5 5 5 5 5 5 5 5 5 5 5 5 5 5 5 5 5 5 6 5 6 5 5 5 5 5 6 5 6 5 5 6 5 5 5 5 6 5 6 5 5 5 5 5 5 5 5 5 5 5 5 5 6 5 5 6 5 5 5 5 5 5 5 5 5 5 5 5 5 5 5 5 5 6 5 5 5 5 5 5 5 5 5 5 6 5 5 5 6 6 5 5 5 5 5 5 5 5 5 5 5 5 5 5 5 5 5 5 5 5 5 5 5 6 5 5 6 5 5 6 5 6 5 5 5 6 5 6 6 5 5 5 5 5 5 5 5 5 5 6 5 5 5 5 5 5 5 5 5 5 5 5 5 5 5 5 5 5 5 5 5 5 5 5 5 5 5 5 5 5 5 5 6 5 5 5 5 6 5 5 5 5 5 5 5 6 5 5 5 5 5 5 5 5 5 6 5 6 6 5 5 6 5 6 5 5 5 5 5 5 5 5 6 5 5 5 5 5 6 5 5 5 5 5 5 6 5 5 5 5 5 5 5 5 6 5 6 5 5 5 5 5 6 5 6 5 5 5 5 5 5 6 5 5 5 5 5 5 5 5 5 5 6 6 5 5 5 5 6 5 5 5 5 5 5 5 5 5 5 5 5 6 5 5 6 5 5 5 5 5 5 5 5 5 5 6 6 5 5 5 5 5 5 5 5 5 5 6 5 6 5 5 5 5 5 5 5 5 5 5 5 5 5 5 5 5 5 5 5 5 5 5 5 5 5 5 5 5 5 5 5 5 5 5 5 5 5 5 5 6 5 5 5 6 5 6 5 6 5 5 6 5 6 5 6 5 5 6 5 5 5 5 5 5 5 5 6 5 5 6 5 5 5 5 6 5 5 5 5 5 5 5 5 5 5 6 5 6 5 6 5 6 5 6 5 5 5 6 5 6 5 5 5 5 5 5 5 5 5 5 5 5 6 5 5 6 6 5 5 5 6 5 5 6 5 5 6 5 5 5 6 5 5 5 5 5 6 5 5 6 6 5 5 5 6 6 6 5 5 6 5 5 6 5 5 5 5 5 5 6 5 5 6 5 5 6 5 5 5 5 5 5 5 5 6 5 5 5 5 5 6 6 6 5 5 5 5 5 5 5 5 5 5 5 6 5 5 5 5 6 5 5 5 5 5 5 5 6 5 5 5 6 5 6 5 6 5 6 5 5 5 5 5 5 5 5 5 5 6 5 5 5 5 5 5 5 5 6 5 5 6 5 5 5 5 6 5 5 5 5 5 5 6 5 6 5 5 5 5 5 5 6 6 5 5 5 5 6 5 6 5 5 5 6 5 5 5 5 5 5 5 6 6 5 5 6 5 6 6 6 5 5 5 5 5 5 5 6 5 5 5 5 5 5 5 5 5 5 5 5 5 6 5 5 5 5 5 5 5 5 5 5 6 5 5 6 5 5 5 5 5 6 5 5 5 5 5 5 5 5 6 5 6 5 5 6 5 5 6 5 5 5 5 6 5 5 5 5 5 6 5 5 5 5 5 5 5 5 5 6 5 5 6 6 5 5 5 5 6 5 6 5 5 6 6 5 6 5 6 5 5 5 5 5 6 5 5 5 6 5 5 5 6 5 5 5 5 5 5 5 5 5 5 6 5 5 5 5 5 5 5 5 5 5 5 5 5 5 5 5 5 5 6 5 5 6 5 5 5 5 6 5 5 5 5 5 5 5 5 5 5 5 5 5 5 5 5 5 5 5 5 5 5 5 5 5 5 5 5 5 5 5 5 5 5 5 5 5 5 5 5 5 5 5 5 5 5 5 5 5 5 5 5 5 5 5 5 5 5 6 5 5 5 5 5 5 5 5 5 5 5 5 5 5 5 5 5 5 5 6 5 5 5 5 6 5 5 5 5 5 5 5 5 5 5 5 5 5 5 5 5 5 5 6 5 5 5 5 6 5 5 5 5 5 6 6 5 5 5 5 5 5 5 5 5 5 5 5 5 5 5 5 5 5 6 5 5 5 6 5 6 5 5 5 5 5 5 5 5 5 6 5 5 5 5 6 6 5 5 5 5 5 5 5 5 5 5 5 5 5 5 5 5 5 5 5 6 5 5 5 5 5 5 5 5 5 5 5 5 5 6 5 5 5 5 5 5 5 5 5 5 5 5 5 5 5 5 5 5 5 5 5 5 6 5 5 5 5 5 5 5 6 5 5 5 6 5 5 5 5 5 5 5 5 5 5 5 5 5 5 5 5 5 5 5 5 5 5 5 5 6 5 6 5 5 5 5 6 5 6 5 5 5 5 5 5 5 6 5 5 5 5 6 5 5 5 5 5 5 5 5 5 5 5 6 5 5 5 5 5 5 6 5 6 5 5 5 5 5 6 5 5 6 5 5 6 5 5 5 5 5 5 5 5 5 5 5 5 5 5 5 5 5 5 5 5 5 5 5 5 5 5 5 6 5 5 5 6 5 6 5 5 6 6 5 5 5 6 5 5 5 5 6 5 6 5 5 6 5 5 5 5 5 6 5 5 5 5 5 6 5 5 5 5 5 5 5 5 5 5 5 5 5 5 5 5 5 5 5 5 5 5 5 5 5 5 5 5 5 5 5 5 5 5 5 5 5 5 5 5 5 5 5 6 6 5 5 5 5 5 5 5 5 5 5 5 5 5 5 5 5 5 5 5 5 5 5 5 5 5 5 5 5 6 5 5 5 5 6 5 5 5 5 6 5 5 5 5 5 5 5 6 5 6 5 5 5 5 5 6 5 5 5 5 5 5 5 5 5 5 6 5 5 5 5 5 5 5 5 5 5 5 5 5 5 5 5 5 5 5 5 5 5 5 5 5 6 5 5 5 5 6 5 6 5 5 6 5 6 5 5 5 5 5 5 6 5 5 5 6 5 5 5 5 5 5 5 5 5 5 5 5 5 5 5 5 5 6 5 6 5 5 5 5 5 6 5 6 5 5 5 5 5 5 5 5 6 5 5 5 5 5 5 5 5 5 5 5 5 5 5 5 5 5 5 5 5 5 5 5 6 5 6 5 5 5 5 5 5 5 5 5 5 5 5 6 5 5 5 5 5 5 5 5 5 5 5 5 5 5 5 5 5 5 5 5 5 5 5 5 5 5 5 6 5 5 5 6 5 6 6 5 5 5 5 5 6 5 5 5 5 5 5 5 5 5 5 5 5 5 5 5 5 5 5 5 5 5 5 5 5 6 5 5 6 5 5 5 5 5 5 5 5 6 6 5 5 5 5 5 5 5 5 5 5 6 5 5 6 6 5 6 5 5 5 5 5 6 5 6 6 6 5 5 5 5 5 5 6 5 5 5 5 5 5 5 5 5 6 5 6 5 5 6 5 5 5 5 5 5 5 5 5 5 5 5 5 5 5 5 5 5 5 5 5 5 5 5 5 5 6 6 5 5 5 5 5 5 5 5 5 5 5 5 5 5 5 5 5 5 5 5 5 5 5 5 5 5 5 5 5 5 5 5 5 5 5 5 5 5 5 5 5 5 5 5 5 5 5 5 5 5 5 5 5 5 5 5 6 5 5 5 5 5 5 5 5 5 6 6 5 5 5 6 5 5 5 5 5 5 5 5 5 5 5 5 5 5 5 5 5 5 5 5 5 5 5 5 5 5 5 5 5 5 6 5 5 5 5 5 5 5 6 5 5 5 5 5 5 5 6 5 5 6 5 5 5 5 5 5 5 5 5 6 5 5 6 6 5 5 5 6 5 5 5 5 5 5 5 5 5 5 5 6 5 5 5 5 6 5 6 5 5 6 5 5 6 6 5 5 5 5 5 5 5 5 5 5 6 6 5 5 5 5 5 5 6 5 5 5 5 5 5 6 5 6 5 5 5 5 5 6 6 5 5 5 5 5 5 5 5 5 5 5 5 5 5 5 5 5 5 5 6 6 5 5 6 5 5 5 5 5 5 5 5 5 5 5 6 5 5 5 5 5 5 5 5 5 5 5 5 5 5 5 5 5 5 5 5 5 5 5 5 5 5 5 5 6 5 5 5 5 6 6 5 5 5 5 5 5 5 6 5 6 5 5 5 5 5 5 5 5 5 5 5 5 5 5 5 5 5 5 5 5 6 6 5 6 5 5 5 5 5 6 5 5 5 5 5 5 5 5 5 5 5 5 5 5 5 5 5 6 5 5 5 5 5 5 5 5 5 5 5 6 5 5 5 5 5 5 5 5 5 5 6 5 5 5 5 5 5 5 5 5 6 5 5 5 5 6 5 5 5 6 5 5 5 5 6 5 5 5 5 5 5 5 5 5 6 5 5 5 5 6 5 5 5 5 5 5 5 5 6 5 6 6 5 6 6 5 5 5 6 5 5 5 6 5 6 5 5 5 5 5 6 5 5 5 6 5 5 5 5 5 5 6 6 5 5 5 5 5 5 5 5 5 5 5 6 5 6 6 5 5 5 5 5 6 6 5 5 6 5 5 5 5 6 5 5 5 5 5 6 5 5 5 5 6 6 5 5 6 5 6 6 5 5 5 5 5 5 5 5 5 5 5 5 5 5 5 5 5 5 5 5 5 6 5 5 6 5 6 5 5 5 6 5 5 5 5 5 5 6 6 5 5 5 5 5 5 6 5 5 6 5 5 5 5 5 5 6 5 5 5 6 5 5 5 5 5 5 6 5 5 5 5 5 5 5 5 5 5 5 5 5 6 5 6 5 5 5 5 5 5 5 5 5 6 5 5 5 6 5 5 5 5 5 5 5 5 5 5 6 5 5 5 5 5 5 5 5 5 5 5 5 5 5 5 5 5 5 5 5 5 5 5 5 5 6 5 5 5 6 5 5 6 5 5 5 5 5 6 5 5 5 6 5 5 5 5 5 5 5 6 5 5 5 5 5 5 5 5 5 5 5 5 5 5 5 5 5 6 5 6 5 5 5 5 5 5 5 5 5 6 5 6 5 6 5 6 6 5 5 5 5 6 5 5 5 5 6 5 5 5 5 5 6 5 6 5 5 6 5 5 5 5 5 5 5 5 5 5 5 5 5 5 5 5 5 6 5 5 5 5 5 5 6 5 5 5 5 5 6 5 5 5 5 5 5 5 6 5 5 6 5 5 5 5 5 5 6 5 5 5 6 5 5 5 5 5 5 5 5 5 5 5 5 5 5 5 5 5 6 5 5 5 5 5 6 6 5 5 5 5 5 6 5 6 5 6 5 6 6 5 5 5 6 6 5 5 5 5 5 5 5 5 5 5 5 5 5 5 5 5 5 5 5 5 5 5 5 5 5 5 5 5 5 5 5 5 5 5 5 5 5 5 6 5 5 5 5 5 5 5 6 5 6 5 5 5 5 5 5 6 5 5 5 6 5 5 5 6 6 5 6 5 5 5 5 5 5 6 5 5 6 5 5 5 5 5 5 5 5 5 5 5 5 6 6 6 5 5 5 6 5 5 5 5 5 5 5 5 5 5 5 5 5 5 5 5 5 5 5 5 5 5 6 5 5 5 5 6 5 5 5 5 5 5 5 6 5 5 5 5 5 6 5 5 5 5 5 6 5 5 5 5 5 5 5 5 5 6 5 5 5 5 6 5 5 5 5 5 5 5 5 5 5 6 5 5 6 5 5 5 5 5 5 5 5 5 5 5 5 5 5 5 5 5 5 5 5 6 5 5 5 5 6 5 5 5 5 5 5 5 5 6 5 5 5 5 5 6 5 5 6 5 5 5 5 5 5 5 5 5 5 5 5 6 5 5 5 5 5 5 5 5 5 5 5 5 5 5 5 5 5 5 5 5 5 5 5 5 5 5 5 5 6 5 5 5 5 5 5 5 5 5 5 5 5 5 5 6 5 5 5 5 5 5 5 5 5 5 5 5 5 5 5 5 5 5 5 6 5 5 5 5 5 5 5 6 5 5 5 5 5 5 5 5 5 5 5 5 5 5 5 5 5 5 5 5 5 5 5 5 6 5 5 5 5 5 6 5 5 5 5 5 5 5 5 5 5 6 5 5 6 5 6 5 5 5 5 5 5 5 6 5 6 5 6 5 5 5 5 5 5 5 5 5 5 5 5 5 5 5 5 5 5 5 5 5 5 5 5 5 5 5 5 5 5 5 5 5 5 5 5 6 5 5 5 5 5 5 5 5 5 5 5 5 5 5 5 5 5 5 5 5 5 5 5 5 5 5 5 5 5 5 5 6 5 5 5 5 5 5 6 6 5 5 5 5 5 5 5 5 5 5 5 5 5 6 5 5 5 5 5 5 5 5 5 5 6 6 5 6 5 5 5 6 5 6 6 5 6 5 5 5 5 5 5 5 6 6 5 5 5 5 6 5 5 5 5 6 5 6 5 6 6 5 6 5 5 5 5 5 6 5 6 6 6 6 5 5 5 5 5 6 5 5 6 6 5 5 5 6 5 5 6 5 5 5 5 6 5 5 6 5 5 6 5 5 5 5 5 5 5 5 5 5 5 5 5 5 6 5 6 5 5 5 5 5 6 5 5 6 5 5 5 5 5 6 5 5 5 5 5 5 5 5 5 5 6 5 5 5 5 5 5 5 5 5 5 5 6 5 5 5 5 5 5 6 5 5 5 5 5 5 5 5 5 5 5 5 5 5 6 5 5 5 6 5 5 5 5 5 5 5 6 5 6 5 5 5 5 5 5 5 5 5 5 5 5 5 5 5 5 5 5 5 5 5 5 5 5 5 5 5 5 5 5 5 5 5 5 5 5 6 5 6 5 5 6 5 6 5 5 5 5 5 5 6 5 5 6 6 5 5 5 5 5 5 6 5 5 5 5 5 5 5 6 5 5 5 5 5 5 5 5 5 5 5 5 5 5 5 5 5 5 5 6 5 5 5 6 5 6 5 6 5 5 5 5 6 5 5 5 5 5 5 6 5 5 5 5 5 5 6 5 5 6 5 5 5 5 5 5 6 5 5 5 5 5 5 5 5 5 6 5 6 5 5 5 5 5 6 6 5 5 5 6 6 5 5 5 5 5 5 6 5 5 6 6 5 5 6 5 5 6 5 5 5 5 6 5 5 5 5 5 5 6 5 5 5 5 5 5 5 5 5 5 6 5 5 5 6 6 5 5 5 5 5 5 5 5 5 6 5 5 5 5 5 5 5 5 5 5 5 6 6 5 5 5 5 6 5 5 5 5 6 5 5 5 5 6 5 5 5 6 5 5 5 5 6 5 5 5 5 5 6 5 5 5 5 6 5 5 5 5 5 5 5 5 5 5 5 5 5 5 5 5 5 5 5 5 5 5 5 5 5 5 5 5 5 5 5 5 6 5 5 5 5 6 5 5 5 5 5 5 6 5 5 5 6 5 6 5 5 5 5 5 5 5 5 5 5 5 5 5 5 5 5 5 5 5 5 5 5 5 6 5 6 5 5 5 6 5 5 5 5 5 5 5 5 5 5 5 5 5 6 5 5 6 5 5 6 6 5 6 5 5 5 5 5 5 5 5 5 5 5 5 5 5 5 5 5 6 5 5 5 5 5 6 5 5 5 5 5 5 5 6 5 5 5 5 5 5 5 6 5 5 5 5 5 5 5 5 5 5 5 5 5 5 5 6 5 5 5 6 5 5 5 5 5 5 5 5 5 5 5 6 5 5 5 5 5 5 6 5 5 6 5 6 5 5 5 6 5 5 5 5 5 5 5 5 5 5 5 6 5 5 5 5 5 6 5 5 5 6 5 5 5 6 5 5 5 5 5 6 5 6 5 5 5 5 5 5 5 5 6 5 6 5 5 6 5 6 5 6 5 5 5 5 5 5 5 5 5 5 6 5 6 5 5 5 5 6 5 5 5 6 6 5 5 5 6 5 6 6 5 5 6 6 5 6 6 5 5 6 6 5 5 6 5 5 6 5 6 5 5 6 5 5 6 5 6 5 5 5 6 5 6 5 5 6 6 5 5 5 6 6 5 6 5 5 5 5 5 5 5 5 6 5 5 6 6 5 6 5 6 6 5 5 5 6 5 5 6 5 5 5 5 5 5 6 6 5 5 5 5 5 5 5 6 6 5 5 5 5 6 5 5 5 6 5 5 6 5 5 5 5 5 6 5 5 6 5 5 5 6 6 5 5 6 5 5 5 6 5 5 5 6 6 5 5 6 5 5 5 5 6 6 5 5 6 6 5 6 6 5 5 5 5 5 5 6 5 5 5 5 5 5 5 5 5 5 6 6 5 5 5 5 5 5 5 6 5 5 5 5 5 5 5 5 5 6 5 5 6 5 5 6 5 5 5 5 5 5 5 5 5 5 5 5 5 5 5 5 5 5 6 6 5 5 5 5 6 5 5 6 5 5 5 5 5 5 5 5 5 6 5 5 6 5 5 5 5 5 5 5 5 5 5 5 6 5 6 5 5 5 5 5 5 5 5 5 5 6 5 5 5 5 5 5 5 5 5 5 5 5 5 5 5 5 5 5 5 5 5 5 5 5 5 5 5 5 5 5 5 5 5 5 5 5 5 5 5 6 5 5 5 5 5 5 5 5 5 6 5 5 6 5 5 5 5 5 5 5 5 5 5 5 5 5 5 5 5 6 5 6 5 5 6 5 5 5 6 6 5 6 6 5 6 5 5 6 5 5 6 5 5 5 5 5 5 5 5 5 5 5 5 5 5 5 5 5 5 5 5 5 6 5 5 5 5 5 5 5 5 5 5 5 5 5 5 5 5 5 5 5 6 5 5 5 5 5 6 5 5 5 5 5 5 5 5 5 5 5 5 5 5 5 5 5 5 5 5 5 5 5 5 6 5 5 5 5 5 5 6 5 5 5 5 5 5 5 5 5 5 5 5 5 5 5 6 5 5 5 6 6 5 5 5 6 5 5 5 5 5 5 5 5 6 5 5 5 5 6 5 5 5 5 5 5 5 5 5 5 5 5 5 6 5 5 5 5 5 5 5 5 5 5 5 5 5 5 5 5 5 5 5 5 5 5 5 5 5 5 5 6 5 5 5 5 5 5 5 5 5 5 5 5 5 5 5 6 6 5 5 5 6 5 5 5 5 5 5 5 5 5 5 5 5 5 5 5 5 5 5 5 5 5 5 5 5 5 5 5 5 5 5 6 5 5 5 5 5 5 5 5 5 5 5 5 5 5 5 5 5 5 5 5 5 5 5 5 5 6 5 5 5 5 5 5 5 6 5 5 5 6 5 5 6 5 5 5 5 5 5 5 5 6 6 5 5 5 5 5 6 5 5 5 5 5 5 5 5 5 5 5 5 5 5 5 5 5 5 5 6 5 6 5 6 5 5 5 6 5 6 5 5 5 5 5 5 5 5 5 5 5 5 6 5 5 5 5 6 5 5 6 5 6 5 5 6 5 5 5 6 5 5 5 5 5 5 5 5 5 6 5 5 5 5 6 5 5 5 5 6 5 5 5 5 5 5 6 5 6 5 6 5 5 5 6 5 5 5 5 5 5 6 6 5 5 5 5 5 6 5 5 5 5 5 5 5 5 5 5 5 5 5 5 5 5 5 5 5 6 5 5 5 5 5 5 5 5 5 6 5 6 5 6 5 5 5 5 5 5 5 5 5 5 5 5 6 5 5 6 5 5 5 5 5 5 5 5 5 6 5 6 5 5 5 5 5 5 6 5 5 5 5 5 5 5 5 5 5 5 5 5 5 5 5 5 5 5 5 5 5 5 5 5 5 5 5 5 5 5 5 5 5 5 5 5 5 5 5 5 6 5 5 6 5 6 5 5 5 6 6 5 5 6 5 5 5 5 5 5 5 5 5 5 5 5 6 5 5 5 5 5 5 5 5 5 5 5 5 6 5 5 5 5 5 5 5 5 5 5 5 5 5 5 5 6 5 5 5 5 5 6 5 5 5 5 5 5 5 5 5 6 5 5 5 5 6 5 5 5 5 5 5 5 5 5 5 5 6 5 6 5 6 5 5 5 6 5 5 5 5 5 5 5 5 5 5 5 5 5 5 5 5 5 5 5 5 6 5 5 5 5 5 5 5 5 5 5 5 5 5 5 5 5 5 5 6 5 5 5 5 5 6 5 5 5 5 5 5 5 5 6 5 5 6 5 5 5 5 5 5 5 6 5 5 5 5 5 5 5 5 5 6 5 5 5 5 5 5 5 5 5 5 5 5 5 5 5 5 5 5 5 5 5 5 5 5 6 5 6 5 5 6 5 5 5 5 5 5 5 5 6 5 5 5 5 5 5 6 5 5 5 5 5 5 5 5 5 5 5 5 6 5 5 5 5 5 5 5 5 5 5 5 5 5 5 6 5 5 5 6 5 5 5 5 6 5 5 5 5 5 5 5 5 5 5 5 5 5 5 5 5 5 5 5 5 5 5 5 5 5 5 6 5 5 6 5 5 5 5 5 5 5 5 5 6 5 5 6 5 5 6 5 5 5 5 5 5 5 5 5 5 5 5 5 5 5 5 5 5 5 5 5 5 5 5 5 5 5 5 5 5 5 5 5 5 5 5 5 5 5 5 5 5 5 5 5 5 5 5 5 5 5 5 5 5 5 5 5 5 5 5 5 5 5 6 5 5 5 5 5 5 6 5 5 5 5 5 5 5 5 5 5 5 6 6 5 5 6 5 6 5 5 6 5 5 6 5 5 5 5 5 5 5 5 6 5 5 5 5 5 5 5 5 5 6 5 5 5 5 6 5 5 5 5 5 5 5 5 5 5 5 5 5 5 5 6 5 5 5 5 6 5 6 5 5 5 6 5 5 6 5 5 5 5 5 5 5 5 5 5 5 6 5 5 6 5 5 5 6 5 5 6 6 5 5 6 5 5 5 5 5 5 5 5 6 5 5 5 5 6 5 6 5 6 5 5 5 5 6 5 5 5 6 5 5 5 5 5 5 5 5 5 5 5 5 5 5 5 5 5 5 6 5 5 5 5 5 5 5 5 5 5 5 5 5 5 5 5 5 5 5 5 5 5 5 5 5 5 5 5 5 5 5 5 5 5 5 5 5 5 5 5 6 5 5 5 5 5 6 5 5 5 5 5 5 5 5 5 5 5 5 5 6 5 5 6 5 5 5 6 5 6 5 5 5 5 6 5 5 5 5 5 5 5 5 5 6 5 5 6 6 5 6 5 5 5 5 5 5 5 5 5 5 5 5 5 5 5 5 5 5 5 5 5 5 5 6 5 5 5 6 5 5 5 5 5 5 5 6 5 5 5 5 5 5 5 5 5 5 5 5 5 5 5 5 5 5 5 5 5 5 5 6 5 5 5 5 5 6 5 6 6 5 5 5 6 5 5 6 5 5 5 5 5 5 5 5 5 5 5 6 5 5 5 6 5 6 5 5 5 5 5 6 5 6 5 6 5 5 5 5 5 5 5 5 6 6 6 5 5 6 5 5 5 5 5 5 5 5 5 5 5 5 5 5 5 5 5 5 5 5 5 5 5 5 5 5 5 5 5 5 5 5 5 5 5 5 5 6 5 5 5 5 5 5 5 6 5 5 6 5 5 5 5 5 5 5 5 5 5 5 5 5 5 5 5 5 5 5 5 5 5 5 6 5 5 5 5 5 5 5 5 5 5 6 5 5 5 5 6 5 5 5 5 6 5 6 6 5 5 5 5 6 5 5 6 5 5 6 6 5 5 5 5 5 5 5 6 5 5 5 5 5 5 5 5 5 5 5 5 5 6 5 5 5 5 5 5 5 6 6 5 6 5 6 5 5 5 6 5 5 5 5 5 6 5 5 6 5 5 5 5 5 5 5 6 5 5 5 5 5 5 5 5 6 5 5 5 6 5 5 5 5 5 6 6 5 5 6 5 5 5 5 5 5 5 5 5 5 5 5 5 5 6 5 5 6 5 6 5 5 5 5 6 5 5 5 5 5 6 5 5 6 6 5 5 5 5 6 5 5 5 5 5 5 5 5 6 5 6 5 5 5 5 5 5 5 5 6 5 5 5 5 6 5 5 5 5 5 5 5 5 5 5 5 5 5 5 5 5 5 5 5 5 5 5 5 5 5 5 5 5 5 5 5 5 5 6 5 5 5 5 5 5 5 6 5 5 5 5 5 5 5 5 5 5 5 5 6 5 5 5 5 6 5 5 5 5 5 5 5 5 5 5 5 5 5 6 5 5 6 5 5 5 5 6 5 5 5 5 5 5 5 5 5 5 5 6 5 6 5 5 6 5 5 5 5 6 5 5 5 5 5 5 5 5 5 5 5 5 5 5 5 5 5 5 5 5 5 5 5 5 5 5 5 5 6 5 5 5 5 6 5 5 5 5 5 5 5 5 5 6 5 5 5 6 5 5 5 5 5 5 6 5 6 5 6 5 5 5 5 5 5 5 5 5 5 5 5 5 5 5 5 5 5 5 5 5 5 5 5 5 5 5 5 5 5 5 5 5 5 5 6 5 6 5 5 5 5 5 5 5 5 6 5 5 5 5 5 5 5 5 5 5 5 5 6 5 5 5 5 5 5 5 5 5 5 5 5 5 6 5 5 6 5 5 5 5 6 5 5 5 5 6 5 5 5 5 5 6 6 5 6 5 5 6 5 5 5 5 6 5 6 5 5 5 5 5 5 5 5 6 5 5 5 5 6 5 5 5 5 5 5 5 5 5 5 5 5 5 5 5 5 5 5 5 5 5 5 6 5 5 5 5 5 5 5 5 5 5 5 5 5 5 5 5 5 5 5 5 5 6 5 5 5 5 5 5 5 6 5 6 5 5 5 5 5 5 5 5 5 5 5 5 5 5 5 5 5 5 5 5 5 5 5 5 5 5 6 5 5 5 5 5 6 5 6 5 5 5 5 6 6 6 5 6 5 5 5 6 5 5 5 5 6 5 6 5 5 5 5 6 5 5 5 6 6 6 5 6 5 6 5 5 6 5 5 5 5 5 5 5 5 5 5 6 5 6 5 6 5 5 5 5 6 5 5 5 5 6 5 5 5 5 5 5 5 5 5 5 6 5 6 5 5 6 5 5 6 5 5 5 5 5 6 5 5 5 5 5 5 5 5 5 5 5 5 6 5 5 5 6 5 5 5 5 5 6 5 5 5 5 5 5 5 5 5 5 5 5 5 5 5 5 5 5 5 5 5 6 5 5 5 5 6 5 5 5 6 5 6 5 5 6 5 6 5 5 5 5 5 5 6 5 5 5 5 6 5 6 5 5 5 5 5 5 5 6 5 5 5 5 5 5 5 6 5 5 5 5 5 5 5 5 5 5 5 5 5 5 5 5 5 6 5 5 5 6 5 5 5 5 5 5 5 5 5 5 5 5 5 5 6 5 5 5 5 5 5 5 5 5 5 5 5 5 5 5 5 5 5 5 5 5 5 5 5 5 5 5 6 5 6 5 5 5 6 5 5 5 6 5 5 6 6 5 5 5 5 5 5 5 5 6 5 5 6 5 5 5 5 6 5 6 5 5 5 6 5 5 5 5 5 5 5 5 5 5 6 5 5 6 5 5 6 5 5 5 5 5 5 5 6 5 5 6 6 5 5 5 6 5 5 5 5 5 5 6 5 5 5 5 6 5 5 5 6 5 5 5 5 6 5 5 6 5 5 5 5 5 5 5 5 5 5 5 6 5 5 5 5 6 5 6 5 6 5 6 5 5 5 5 5 5 5 5 5 5 5 6 6 5 5 5 5 5 5 6 5 5 6 5 5 5 5 5 5 6 5 5 5 6 5 6 5 5 5 6 5 5 5 5 5 5 6 5 5 5 5 5 5 6 5 6 5 5 5 6 5 5 5 5 6 5 5 5 5 5 5 5 6 5 6 5 6 5 5 5 6 6 5 5 6 5 5 5 5 5 6 5 6 6 6 6 5 5 5 5 5 6 6 5 5 6 5 5 5 6 5 5 5 5 5 5 5 5 5 6 5 5 5 6 5 5 5 5 5 5 5 6 5 6 5 5 5 5 6 5 6 5 5 5 5 6 5 5 5 5 5 5 5 5 5 6 5 5 5 5 5 5 5 5 5 5 5 5 5 5 5 5 5 5 5 5 5 6 5 5 5 5 6 5 5 5 5 5 6 5 6 5 5 5 5 5 5 5 5 5 5 5 6 5 6 5 6 6 5 6 5 6 5 5 5 6 5 5 5 6 5 5 5 5 6 5 6 5 5 5 5 5 5 5 5 6 5 5 5 5 5 5 5 5 6 5 5 5 5 5 5 5 5 5 6 5 5 6 5 5 5 6 5 5 5 5 5 5 5 5 5 5 5 5 6 5 5 5 5 6 5 5 5 5 5 5 6 5 5 5 5 6 5 6 5 5 5 5 5 5 5 6 5 5 5 6 6 5 5 5 5 6 5 6 5 5 6 5 5 5 5 5 5 5 5 5 5 5 5 5 5 5 5 5 5 5 5 5 5 5 5 5 5 5 5 5 5 5 5 5 5 5 6 5 5 5 6 5 5 5 5 5 5 5 5 5 5 5 5 5 6 5 6 5 5 5 5 5 5 5 5 5 5 5 5 5 6 5 5 6 5 5 5 5 5 6 5 5 5 5 5 5 5 5 5 5 5 5 5 5 5 5 5 5 5 6 6 5 5 6 5 5 6 5 5 5 5 5 5 5 6 5 5 5 5 6 5 5 5 5 5 5 5 5 5 5 5 5 5 5 6 5 5 6 5 5 5 5 5 5 5 6 6 5 5 5 5 5 5 5 5 5 5 5 5 5 5 5 5 6 5 5 5 5 6 5 5 6 5 5 6 5 5 5 5 5 5 5 5 5 5 5 5 6 5 5 5 5 6 5 5 5 5 5 5 5 5 5 6 6 6 5 5 5 6 5 5 6 6 5 6 5 5 5 6 5 5 5 5 5 5 5 5 5 5 5 5 5 5 5 5 5 5 5 5 5 5 5 5 5 5 5 5 5 5 5 5 5 5 5 5 5 5 5 5 5 5 5 5 5 5 5 5 6 5 6 5 5 5 5 5 5 5 5 5 6 5 5 5 5 5 5 6 5 5 5 5 5 6 5 5 5 5 5 5 5 5 5 5 5 5 5 5 5 6 5 5 5 5 5 5 5 6 5 5 5 5 5 6 6 5 5 5 5 6 5 5 5 5 5 5 5 5 5 5 5 5 5 5 5 5 5 5 5 5 5 6 5 5 5 5 5 5 6 5 5 5 6 5 5 5 5 5 5 5 5 5 5 5 5 5 5 5 5 5 5 6 5 6 5 5 5 5 5 6 6 5 5 5 6 5 5 5 5 5 5 6 5 5 5 5 5 6 5 6 5 5 6 5 5 5 5 6 5 5 5 5 6 5 5 5 5 6 5 5 5 5 5 5 5 5 5 5 5 5 5 6 5 5 5 5 5 5 5 5 5 5 5 5 5 5 5 5 6 5 5 5 5 6 5 5 5 5 6 5 5 5 5 5 5 5 5 5 5 6 5 5 5 5 6 5 5 5 5 5 5 5 5 5 5 5 5 5 5 5 6 5 5 5 6 5 5 5 5 5 5 5 5 5 5 5 5 5 5 6 5 5 5 5 5 5 5 5 5 5 5 6 5 5 6 5 5 5 5 5 5 6 6 5 5 5 5 6 5 6 5 5 5 6 5 5 6 5 5 5 5 5 5 5 5 5 5 5 5 5 5 5 5 6 5 5 5 5 5 5 5 5 6 6 5 5 5 6 6 5 6 5 6 5 5 5 5 6 5 5 5 5 5 5 5 5 5 5 5 5 5 6 5 6 5 5 5 5 5 5 5 5 6 6 5 5 6 6 6 5 5 5 5 5 5 6 5 5 6 5 5 6 6 6 6 5 5 5 5 5 5 5 5 5 5 5 5 5 6 5 5 6 5 6 5 5 5 5 5 5 5 6 6 5 5 6 5 5 6 5 5 5 5 6 6 6 6 5 5 5 5 5 5 5 5 5 5 5 5 5 5 6 5 5 6 5 5 5 5 6 5 5 5 6 5 5 6 5 5 6 5 5 6 6 5 6 5 5 5 5 5 5 6 5 5 5 5 6 5 5 5 5 5 6 5 5 6 5 6 6 5 5 5 6 5 5 5 5 5 6 5 5 5 6 5 5 5 6 5 5 5 5 5 5 5 6 5 5 5 5 5 6 5 5 5 5 5 5 5 6 5 6 6 5 5 6 5 5 5 5 5 5 6 5 5 5 5 5 5 6 5 5 5 5 5 5 6 5 6 5 6 5 5 6 5 5 5 5 6 6 6 6 5 5 5 5 5 5 5 5 6 5 5 5 6 5 6 5 5 5 5 5 5 5 5 5 5 5 5 5 5 5 5 6 5 6 5 5 5 5 5 5 5 5 6 5 5 5 5 5 6 5 5 6 5 5 5 5 5 5 6 6 5 5 6 5 5 5 5 5 5 5 5 5 5 5 6 6 5 5 5 5 6 5 5 5 5 5 5 5 5 6 5 5 5 5 6 5 5 5 5 5 5 6 5 6 5 6 5 5 5 5 5 5 5 5 5 5 5 5 5 5 5 5 5 5 6 5 5 5 5 5 5 5 5 5 5 5 5 5 5 5 5 5 6 6 5 5 5 5 5 5 5 5 5 5 5 5 5 5 5 5 5 5 5 5 5 5 5 5 5 5 5 5 5 5 5 5 5 5 5 5 5 5 5 5 5 5 5 5 5 6 5 6 5 5 5 5 5 5 5 6 5 5 5 6 5 6 6 6 5 6 6 5 5 6 6 6 5 5 5 5 5 6 5 6 6 5 5 5 5 5 5 5 6 5 5 6 5 5 6 6 5 5 5 5 5 5 6 5 5 6 6 5 5 6 5 5 5 6 5 5 5 5 6 5 5 5 6 5 5 6 5 5 5 5 5 5 5 5 5 5 5 5 5 5 5 5 5 5 5 6 6 5 5 5 6 5 5 5 5 6 5 5 5 5 5 6 6 5 5 5 5 5 5 5 5 5 6 5 5 5 5 5 5 5 5 5 5 5 5 5 5 5 5 5 5 5 5 5 5 5 5 5 5 5 6 5 6 6 5 5 5 5 5 5 5 5 5 5 5 5 5 5 5 5 5 5 5 5 5 5 5 5 5 5 5 6 5 5 6 5 5 6 5 5 6 5 6 5 5 5 5 5 5 5 6 5 5 5 5 5 5 5 5 5 5 5 5 6 5 6 5 6 5 5 5 5 5 6 5 5 5 5 6 5 5 6 5 5 5 5 5 5 5 5 6 5 5 5 5 5 5 6 5 5 5 5 6 5 5 5 6 5 5 5 5 5 5 5 5 5 5 5 5 5 5 5 5 5 5 6 5 6 5 5 5 6 5 5 5 5 5 5 5 5 5 5 5 5 5 5 5 5 5 5 5 6 5 5 5 6 5 5 5 6 5 5 5 5 5 5 5 5 5 5 5 5 5 5 5 6 5 5 5 5 6 5 5 6 5 5 5 5 5 5 6 5 6 5 6 6 6 5 5 5 6 6 5 5 5 5 5 5 5 6 5 5 5 6 5 6 5 5 5 5 5 5 5 5 5 6 5 5 5 5 5 5 5 5 6 5 5 5 5 6 5 5 5 5 5 5 5 5 5 5 5 5 5 5 5 5 5 5 5 5 5 6 6 5 5 5 5 5 5 5 5 6 5 5 5 5 5 5 5 5 5 5 6 5 5 5 5 5 5 6 5 5 5 5 5 6 5 6 5 5 6 6 5 5 5 5 5 5 5 5 5 5 5 5 5 5 5 5 5 5 5 5 5 5 5 5 5 5 5 5 5 5 5 5 5 5 5 5 5 5 5 5 5 5 5 5 5 5 5 5 6 6 5 5 6 5 5 5 5 5 6 6 5 5 6 6 5 5 5 5 5 5 5 5 5 5 6 5 5 5 5 5 5 5 5 5 5 5 5 5 5 5 6 5 5 5 5 5 5 5 5 5 5 5 5 5 6 5 6 6 6 5 5 5 5 5 5 5 5 6 6 5 5 5 5 6 5 5 5 5 5 5 5 5 6 5 5 5 5 5 5 5 5 5 5 5 5 5 5 5 5 5 6 5 5 5 5 5 5 6 5 5 6 5 5 5 5 5 5 5 5 5 5 5 5 5 5 5 5 5 5 6 5 5 5 6 5 5 6 5 6 6 5 5 6 5 5 5 6 5 5 6 5 6 6 5 5 5 5 6 5 5 5 5 5 5 6 5 6 5 5 5 6 5 5 5 5 6 5 6 6 5 5 5 5 5 6 5 6 5 6 5 6 6 5 5 5 5 5 5 5 6 5 6 5 5 6 5 5 6 5 5 5 5 5 5 5 5 5 5 5 5 5 5 5 5 5 5 5 5 5 5 5 5 5 5 5 5 5 5 5 6 5 5 5 5 5 5 5 5 5 5 5 5 5 5 5 5 5 5 5 5 5 5 5 6 5 5 5 5 5 6 6 5 5 5 5 5 5 5 5 5 5 5 5 5 5 5 5 5 5 5 5 5 6 5 5 5 5 5 5 5 5 5 5 5 5 5 6 5 6 5 5 5 6 5 5 5 5 5 5 5 5 6 5 6 5 5 5 5 5 6 5 5 5 5 5 5 5 5 5 5 5 6 5 5 5 5 5 5 5 5 5 5 5 6 5 5 5 5 5 5 5 5 6 5 5 5 5 5 5 5 5 5 5 5 5 5 5 5 5 5 5 5 5 5 5 5 5 5 5 6 5 5 6 5 5 5 5 5 5 5 5 5 5 5 5 5 5 5 5 5 5 5 5 5 5 5 5 5 5 5 5 6 5 6 5 6 5 5 5 5 5 6 5 5 5 5 6 5 5 5 6 5 5 5 5 5 5 5 5 5 5 5 5 5 5 5 5 5 5 6 6 6 5 5 5 5 5 5 5 5 5 5 5 5 5 6 5 5 5 5 5 5 5 5 5 5 5 5 6 5 5 6 5 5 5 5 5 5 5 5 5 5 5 5 5 5 5 5 5 5 5 5 5 6 6 5 5 5 5 5 5 5 5 5 5 5 5 5 5 6 5 5 6 5 5 5 5 6 5 5 5 5 5 5 6 5 5 5 5 5 5 5 5 5 5 5 5 5 5 5 5 5 5 6 5 5 5 5 5 6 5 5 5 5 5 5 5 5 5 5 5 5 5 5 5 5 5 5 5 5 5 5 5 5 5 5 5 5 6 5 6 5 5 5 5 6 6 5 5 5 5 5 5 5 5 5 5 5 5 5 5 5 5 5 5 5 5 5 5 5 5 5 5 5 5 5 5 5 5 5 5 5 6 5 5 5 5 6 5 5 5 5 5 5 5 5 5 5 5 6 5 5 5 5 5 5 5 5 5 5 5 5 5 5 5 5 5 6 6 5 6 5 5 5 5 5 5 5 5 5 5 6 5 5 5 5 5 5 5 5 5 5 5 5 5 5 5 5 5 6 5 5 5 5 6 5 5 5 5 5 5 5 5 5 5 5 5 5 5 5 5 5 5 5 5 5 5 5 5 5 5 5 5 5 5 5 5 5 5 5 5 5 5 5 5 5 5 5 5 5 5 5 5 5 5 5 5 5 5 5 5 5 5 5 5 5 5 5 5 5 5 5 5 5 5 5 5 5 5 5 5 5 5 5 5 5 6 5 5 5 5 5 5 5 6 5 5 6 5 5 5 5 5 5 5 5 5 5 5 5 6 5 6 5 6 5 5 5 5 5 5 5 5 6 5 5 5 5 5 5 5 5 5 6 5 5 5 5 5 5 5 5 5 5 5 5 5 5 5 5 5 5 5 5 5 6 5 5 5 5 5 5 5 5 5 5 5 5 6 5 5 5 5 5 6 5 5 6 5 5 5 5 6 6 5 5 6 5 5 5 5 5 5 5 6 6 5 5 5 5 5 5 5 5 5 5 5 5 6 5 5 5 5 6 5 5 5 5 5 5 5 5 6 5 5 5 5 6 5 5 5 5 6 5 5 5 5 5 5 5 6 5 5 5 5 5 6 5 5 5 6 5 5 5 5 5 6 5 5 5 5 5 5 5 5 5 5 5 5 5 5 6 5 5 6 5 5 5 5 5 5 5 5 5 5 5 5 5 5 5 5 5 5 5 5 5 6 5 5 6 5 5 6 5 5 5 5 5 5 5 5 5 5 5 5 5 5 5 5 5 5 5 5 5 5 5 5 5 5 5 5 5 5 6 5 5 5 5 6 5 5 6 5 6 5 5 5 5 6 5 6 5 5 6 5 6 5 6 6 5 5 6 5 6 5 6 5 5 6 5 5 5 5 5 5 6 5 6 5 5 6 6 5 5 6 5 6 5 5 6 5 5 6 5 5 6 6 6 5 6 5 5 5 5 5 5 5 5 6 5 5 5 5 5 5 5 6 5 5 5 5 5 5 5 5 5 5 5 5 5 5 6 5 5 5 5 5 5 5 5 5 5 5 5 5 5 5 5 5 5 5 6 5 5 5 5 5 5 5 5 5 5 5 5 5 5 5 5 5 5 5 5 5 5 5 5 5 5 5 5 5 5 5 6 5 5 5 6 5 6 6 5 6 5 5 5 6 5 5 5 5 6 6 6 5 5 5 5 5 5 5 5 5 5 5 5 5 5 5 5 5 6 5 5 5 5 5 5 5 5 5 6 5 5 5 6 5 5 5 5 5 5 5 5 5 5 5 5 6 5 5 6 5 5 5 5 5 5 5 5 5 5 5 5 5 5 5 5 5 5 5 5 5 5 6 5 5 5 5 5 5 5 5 5 5 5 5 5 5 5 5 5 5 6 5 5 5 5 5 5 5 6 5 5 5 5 6 5 5 5 5 5 5 5 5 5 5 5 5 5 5 5 5 5 5 5 5 5 5 5 5 5 5 5 5 5 5 5 5 5 5 5 6 6 5 5 5 5 6 5 6 5 5 5 5 5 6 5 5 5 5 5 5 5 5 6 6 5 5 5 5 6 5 5 5 5 5 5 5 5 5 5 5 5 5 5 5 5 5 5 5 5 5 6 5 5 5 5 5 5 6 5 5 6 5 5 5 5 5 5 5 5 5 6 5 5 5 5 5 5 5 5 6 5 5 5 5 5 5 5 5 5 5 5 5 5 5 5 5 5 6 5 5 6 5 5 5 5 5 5 5 5 5 5 5 5 5 5 5 5 5 5 5 5 5 5 5 5 5 5 5 5 5 6 5 6 5 5 5 5 5 5 5 5 5 5 5 5 5 5 5 5 5 5 5 5 5 5 6 5 5 5 6 5 5 5 5 5 5 5 5 5 5 5 5 6 5 5 5 6 6 5 5 6 5 5 5 5 5 5 5 5 5 6 5 5 5 5 5 5 5 5 5 5 5 5 5 6 5 6 5 5 5 5 5 5 5 5 5 5 5 5 5 5 5 5 5 5 5 5 5 5 5 5 5 5 5 5 5 6 5 5 5 5 5 5 6 5 5 5 5 5 5 5 5 5 5 5 5 5 5 5 5 6 5 6 5 5 5 5 5 5 5 6 5 5 5 6 5 5 5 5 6 5 5 5 5 5 5 6 5 5 5 5 6 5 6 5 5 5 5 5 5 5 5 6 6 5 5 5 6 6 5 5 5 5 5 5 5 6 6 5 6 6 5 5 5 5 6 5 6 5 5 5 5 5 5 6 5 5 5 5 6 5 5 5 5 6 5 5 5 5 5 6 5 5 6 5 5 5 5 6 5 5 5 5 5 5 5 5 5 6 6 5 5 5 5 5 5 5 5 5 5 5 5 5 6 5 6 5 5 5 5 5 5 5 5 5 5 5 5 5 5 5 5 5 5 5 5 5 6 5 5 5 5 5 5 5 5 5 5 5 5 5 5 5 5 5 5 5 5 5 5 5 5 5 5 6 5 5 5 5 5 5 5 5 6 5 6 5 5 5 5 5 5 6 5 5 5 5 5 5 5 5 5 5 5 5 5 5 5 5 5 5 5 5 5 5 5 5 5 5 6 5 5 5 5 5 5 5 5 6 5 5 6 5 5 6 5 5 5 5 5 6 5 5 5 5 5 5 5 5 5 6 5 5 5 5 5 5 5 5 5 5 5 5 5 5 5 6 5 5 5 5 5 5 5 5 6 5 5 5 5 5 5 5 5 5 5 5 5 5 5 5 5 5 5 6 5 6 5 6 5 5 6 6 5 5 5 5 5 5 5 5 5 5 5 5 5 5 6 5 5 5 5 5 5 6 5 5 5 6 5 5 5 5 5 5 5 5 5 5 5 5 6 5 5 5 5 6 6 6 5 5 5 5 5 5 5 6 5 5 6 5 6 5 6 5 5 5 5 5 6 5 5 5 5 5 5 5 5 5 5 5 5 5 5 5 5 5 5 5 5 6 5 5 5 6 5 6 6 6 5 5 5 5 5 6 5 5 5 5 5 5 5 5 5 5 5 5 5 5 5 5 5 5 5 5 5 5 5 5 5 5 6 5 5 6 5 5 5 5 5 5 5 5 6 5 6 5 5 5 5 5 5 5 5 6 5 5 5 5 6 5 5 6 5 5 6 5 5 5 6 5 5 5 5 5 5 5 5 5 5 5 5 5 5 5 5 5 5 5 5 6 5 5 5 5 5 5 6 5 5 5 5 5 6 5 5 5 5 5 6 5 6 6 5 5 5 5 5 5 5 5 5 5 5 5 6 5 5 5 5 6 5 6 6 5 5 5 6 5 5 5 5 5 5 5 5 5 5 5 5 5 5 5 5 5 5 5 5 5 5 6 5 6 5 5 6 5 5 6 5 5 6 5 5 5 6 6 5 5 5 5 5 5 5 6 5 5 5 5 5 5 5 5 6 5 5 5 5 5 5 5 6 5 5 5 6 5 6 6 5 5 5 6 5 5 5 5 5 5 5 5 5 5 5 5 5 5 5 5 5 5 5 5 5 5 6 5 5 6 5 5 5 6 5 5 5 5 5 5 5 6 6 5 5 6 5 5 5 5 5 5 5 5 5 5 5 5 5 5 5 5 5 5 5 5 5 5 5 5 5 5 5 5 5 5 5 5 5 5 5 6 5 5 5 5 5 5 5 6 5 5 6 5 5 6 5 5 5 5 5 5 5 5 5 5 5 5 5 5 5 5 5 5 5 6 5 5 5 5 6 5 5 5 5 5 5 5 5 5 5 6 5 5 5 5 6 5 5 5 5 6 6 5 6 5 5 5 5 5 5 5 5 5 5 5 5 5 5 6 5 5 5 5 5 5 5 5 5 6 5 5 5 5 5 5 5 5 5 5 5 5 5 5 5 5 5 5 5 5 5 5 5 5 5 5 5 5 5 5 5 5 5 5 5 5 5 5 5 5 5 6 5 5 5 5 6 5 5 6 5 5 5 5 5 5 6 6 5 5 5 5 6 5 5 5 5 5 5 5 5 5 5 5 5 5 5 5 5 5 5 5 5 5 5 5 5 5 5 5 5 5 5 5 5 5 5 5 5 5 5 5 5 5 5 5 5 5 5 5 5 5 5 5 5 5 5 5 5 5 5 5 5 5 6 5 5 5 5 5 6 5 6 5 5 5 5 5 5 5 5 5 
</DataArray>
<DataArray type="Float64" Name="stress" NumberOfComponents="9" format="ascii">
0.41029241518092996 1.4855074808120463 0 1.4855074808120463 -3.9928500246477769 0 0 0 0 -0.0024859689467227656 -1.2673558994334633 0 -1.2673558994334633 -2494.4757901710618 0 0 0 0 1.4223470813405876 11.916979763009294 0 11.916979763009294 -2500.1197913214419 0 0 0 0 59.965107912989794 196.84366046931245 0 196.84366046931245 -1478.5146342918194 0 0 0 0 0.032302384466532642 100.5433122621795 0 100.5433122621795 -1294.4632795115904 0 0 0 0 -30.149840296176809 287.94722655180067 0 287.94722655180067 -1296.1662732991535 0 0 0 0 -81.845874782085644 236.54350103456818 0 236.54350103456818 -1097.3835622777624 0 0 0 0 40.746309059592932 650.76088265464205 0 650.76088265464205 -1760.0433933191234 0 0 0 0 -0.2996780799001067 66.844599211653986 0 66.844599211653986 -1020.4377418133699 0 0 0 0 0.8847704863998771 0.11052694153421783 0 0.11052694153421783 -3.6749819234743057 0 0 0 0 -169.74347624094747 557.64856144073019 0 557.64856144073019 -1258.5171234427544 0 0 0 0 226.39888444560938 117.73838508110384 0 117.73838508110384 -1261.6832099547755 0 0 0 0 11.957097060771844 394.87383425314329 0 394.87383425314329 -1471.7992875553973 0 0 0 0 -0.81844664027016834 1.5598151112080672 0 1.5598151112080672 -2.2384399032292635 0 0 0 0 -1.4390390905102159 357.90918529556831 0 357.90918529556831 -1512.5426703633857 0 0 0 0 -272.41795627105989 489.0972955102734 0 489.0972955102734 -524.38619241805281 0 0 0 0 -228.55157842576079 493.98001155415113 0 493.98001155415113 -825.69833746027143 0 0 0 0 -115.33211255428387 411.64615921568475 0 411.64615921568475 -986.38979231853591 0 0 0 0 -94.146781033481716 506.73584030823986 0 506.73584030823986 -1027.5487974878324 0 0 0 0 -155.70170546747414 330.54102485139083 0 330.54102485139083 -123.05196427603369 0 0 0 0 88.881367737825201 299.9719838377132 0 299.9719838377132 -1185.4725410984393 0 0 0 0 67.275440967147915 300.61615644620906 0 300.61615644620906 -1117.1325461250235 0 0 0 0 -182.91482059500061 404.42337969570144 0 404.42337969570144 -1640.1117546570313 0 0 0 0 -158.55974337336079 514.03515304017492 0 514.03515304017492 -1167.1802236784861 0 0 0 0 22.191253530794171 433.2204358041563 0 433.2204358041563 -1500.9963788706373 0 0 0 0 -7.8550034844472112 8.3100484901369782 0 8.3100484901369782 -2501.0995748867063 0 0 0 0 -113.13474415402703 209.87092721520276 0 209.87092721520276 -1997.4771420796169 0 0 0 0 -85.378356462558827 293.77770471192707 0 293.77770471192707 -1906.5444640549395 0 0 0 0 111.51996963810018 35.730463141677319 0 35.730463141677319 -1577.9097142654455 0 0 0 0 1.1561191148762195 -0.23281718524771122 0 -0.23281718524771122 -3.4022187945626001 0 0 0 0 -9.3124483706159182 357.62243557398233 0 357.62243557398233 -2109.4012693453697 0 0 0 0 67.157952291298784 67.261750814664993 0 67.261750814664993 -1107.0293304801253 0 0 0 0 1.6480134942941087 3.6727437569174839 0 3.6727437569174839 -4.3320953900592025 0 0 0 0 -16.099913098215097 128.18637446979847 0 128.18637446979847 -1861.4384590455593 0 0 0 0 -50.550757556607323 58.133190616536012 0 58.133190616536012 -1992.3329752668069 0 0 0 0 132.11944679781882 9.1180562756489962 0 9.1180562756489962 -2498.7124284279707 0 0 0 0 2.688456305641338 4.4169856078842287 0 4.4169856078842287 -5.0982139858825013 0 0 0 0 -84.751477285218698 416.5108790004233 0 416.5108790004233 -2215.1035522348975 0 0 0 0 22.066283229882593 24.250940071444347 0 24.250940071444347 -2499.2414272161477 0 0 0 0 32.467582954883824 184.84274765095142 0 184.84274765095142 -2483.5560674946028 0 0 0 0 1.4533212599407563 1.8781552079591393 0 1.8781552079591393 -4.4388084901766192 0 0 0 0 77.722771627412342 706.37639383458009 0 706.37639383458009 -3665.5439563181571 0 0 0 0 -169.57138195116056 291.99046403955799 0 291.99046403955799 -2844.3639753310053 0 0 0 0 -563.22295404952263 585.88357257676762 0 585.88357257676762 -1914.6921125459558 0 0 0 0 -228.02104707944864 270.93717138902139 0 270.93717138902139 -1757.0349735089549 0 0 0 0 -184.98985766267725 431.72853522826153 0 431.72853522826153 -2002.4069306472811 0 0 0 0 8.6052124963617587 1220.9554031273747 0 1220.9554031273747 -2979.1224076556609 0 0 0 0 -110.99503737067883 1099.1187262700114 0 1099.1187262700114 -1994.8793909629385 0 0 0 0 -347.64633946107665 1066.0760817644841 0 1066.0760817644841 -2791.0851730579161 0 0 0 0 -5.5486100790406221 2.6021174466246322 0 2.6021174466246322 -0.44587718978395685 0 0 0 0 -317.6658497115148 1478.3696046227783 0 1478.3696046227783 -3166.37891905789 0 0 0 0 -40.864461697763545 68.614314405342157 0 68.614314405342157 38.989275754280243 0 0 0 0 101.62357595124922 125.8412533636656 0 125.8412533636656 -520.32060667601945 0 0 0 0 -681.03777613820489 533.63755618323194 0 533.63755618323194 -296.91816983850367 0 0 0 0 -96.074087837161358 -228.60594069872377 0 -228.60594069872377 -51.737697922457301 0 0 0 0 -65.65473243289216 33.833390416650218 0 33.833390416650218 -37.195143227567314 0 0 0 0 5.9233590592151639 -16.138504540336342 0 -16.138504540336342 -7.6580333593586545 0 0 0 0 -550.85864597837144 575.29516999702901 0 575.29516999702901 -1667.9956888753568 0 0 0 0 134.82597705158773 674.16144660877762 0 674.16144660877762 -1904.6551212749528 0 0 0 0 -514.41553249381934 718.88771728253414 0 718.88771728253414 -1263.7418561673257 0 0 0 0 204.81561697542361 136.82695283998328 0 136.82695283998328 -1298.7617908992002 0 0 0 0 -198.41699055422586 410.89378239387952 0 410.89378239387952 -185.67631906829774 0 0 0 0 -284.83929989663386 -184.62286735725502 0 -184.62286735725502 238.47897127040051 0 0 0 0 -564.2107960039699 879.04493686141359 0 879.04493686141359 -1144.9634942009434 0 0 0 0 -1010.3066501057289 581.12637971214644 0 581.12637971214644 -490.43140578475141 0 0 0 0 83.196722673397716 -127.94498407451465 0 -127.94498407451465 -330.04947798918147 0 0 0 0 0.07782736466114816 1.1350888708851405 0 1.1350888708851405 -7.7527019407563387 0 0 0 0 -552.50096535593514 614.62345299246226 0 614.62345299246226 -317.14214910252485 0 0 0 0 -369.49351532794242 -144.30714814079511 0 -144.30714814079511 191.73925622482784 0 0 0 0 0.58341809063806638 1.1306587211330452 0 1.1306587211330452 -5.4855316713979505 0 0 0 0 19.349454231998493 59.8494584328364 0 59.8494584328364 45.065124974862556 0 0 0 0 55.045426839576521 59.066109288411099 0 59.066109288411099 13.98388638306642 0 0 0 0 12.75400795139376 -1.7104358934047923 0 -1.7104358934047923 -43.818274401914096 0 0 0 0 3.9236112524443629 0.70201485312547618 0 0.70201485312547618 -27.106642503776101 0 0 0 0 5.8812913863607719 -2.3357390358869452 0 -2.3357390358869452 -6.0949985389015637 0 0 0 0 1.2445735490940619 -1.0227519429442635 0 -1.0227519429442635 -16.877128321814581 0 0 0 0 151.44884069943851 134.00507951452164 0 134.00507951452164 190.55400037008803 0 0 0 0 0.53323611999296072 3.2669983994657059 0 3.2669983994657059 -26.118650359342041 0 0 0 0 5.7024976083430676 -12.597671201903296 0 -12.597671201903296 -13.222861701603584 0 0 0 0 21.584407624613505 -19.566083814243029 0 -19.566083814243029 -42.302803572812991 0 0 0 0 39.334116573184019 -21.149836789161782 0 -21.149836789161782 -73.917551635327982 0 0 0 0 19.541006576193467 0.64636557638732484 0 0.64636557638732484 -50.335800432883843 0 0 0 0 15.381792812561912 11.75264987812443 0 11.75264987812443 -68.553236824634951 0 0 0 0 18.294196377627486 -2.4020519412733847 0 -2.4020519412733847 -54.550267882696062 0 0 0 0 -2.4964328448595552 14.43091646922403 0 14.43091646922403 -41.42801790401063 0 0 0 0 -1.5631353762189519 17.613902218781732 0 17.613902218781732 -34.653419699287042 0 0 0 0 19.673873528407057 2.0472095006552991 0 2.0472095006552991 -52.213321061906754 0 0 0 0 79.347701742101094 -59.227817887061974 0 -59.227817887061974 -102.89898099282436 0 0 0 0 -0.62909785943784702 2.3584854914157134 0 2.3584854914157134 -11.382308807155709 0 0 0 0 8.822754866841592 60.726287898600276 0 60.726287898600276 -46.744003515588702 0 0 0 0 1.5821351929115697 5.4287675584308142 0 5.4287675584308142 -34.058825220466417 0 0 0 0 26.595342185117261 0.22996753475672449 0 0.22996753475672449 -47.654185349703766 0 0 0 0 20.203161334778997 4.8778405360135366 0 4.8778405360135366 -48.371493778813601 0 0 0 0 0.74090217733138963 -1.1964080321020276 0 -1.1964080321020276 -8.4658482542777449 0 0 0 0 -50.352007099993557 51.607319586335507 0 51.607319586335507 -35.589922530867625 0 0 0 0 12.539054897656683 -28.170154055122111 0 -28.170154055122111 -102.22707655169143 0 0 0 0 6.9559954411836387 4.6495318055350481 0 4.6495318055350481 -103.2895302961042 0 0 0 0 12.469622513037962 -35.190542202686629 0 -35.190542202686629 -64.739009033204638 0 0 0 0 6.9771123370731161 3.5496058281144087 0 3.5496058281144087 -53.367085508274613 0 0 0 0 5.2506204876130127 15.64192156401532 0 15.64192156401532 -73.082014795334544 0 0 0 0 42.939227611357182 0.71764484129380435 0 0.71764484129380435 -146.93004027545976 0 0 0 0 5.3926724464890867 16.679386511030316 0 16.679386511030316 -66.332230113068363 0 0 0 0 13.160641025456925 9.6808003598489449 0 9.6808003598489449 -67.185385924909497 0 0 0 0 -43.78042730717172 31.991564275011115 0 31.991564275011115 -19.236503301261109 0 0 0 0 2.1349501301565397 19.791512116033118 0 19.791512116033118 -51.079959321257775 0 0 0 0 -10.072576572312755 31.469496035104385 0 31.469496035104385 -57.057714502021554 0 0 0 0 -13.14366573335883 28.329808035035967 0 28.329808035035967 -25.637790997498087 0 0 0 0 -26.050538671861673 50.113406297055917 0 50.113406297055917 -61.850676125599421 0 0 0 0 -1.4263798656933275 33.661926746919562 0 33.661926746919562 -85.648712478403468 0 0 0 0 1.7537825873134565 -0.68384098064400334 0 -0.68384098064400334 -1.2860864344937966 0 0 0 0 -15.552668750020587 -36.003280048869783 0 -36.003280048869783 -18.702607262544916 0 0 0 0 75.013414256833585 -35.065924219103181 0 -35.065924219103181 -50.008024629452848 0 0 0 0 58.285207387434639 -51.647347741818521 0 -51.647347741818521 -42.626073026913218 0 0 0 0 39.492495256968596 -36.183062513446203 0 -36.183062513446203 -53.87561094792909 0 0 0 0 5.5196001463686262 6.7641424956176479 0 6.7641424956176479 -22.761352281866465 0 0 0 0 46.272122276506707 -19.58507875262876 0 -19.58507875262876 -73.47542115644319 0 0 0 0 8.6136352720848208 -2.3192908737346443 0 -2.3192908737346443 -15.745279279559327 0 0 0 0 1.5236851819576014 -4.2417161497997222 0 -4.2417161497997222 0.022915515981452472 0 0 0 0 3.44953767617125 3.0867262865994007 0 3.0867262865994007 -29.822607319879523 0 0 0 0 41.950966066357751 -30.938548358288244 0 -30.938548358288244 -29.48551609403512 0 0 0 0 56.309919575461208 35.197341877879808 0 35.197341877879808 -1.003679536486743 0 0 0 0 6.1544070376701896 -0.50150170693635232 0 -0.50150170693635232 -7.8690232679131498 0 0 0 0 21.76616307265693 -1.659454059479458 0 -1.659454059479458 -10.934261819813401 0 0 0 0 8.7578732487825164 -2.3542312187601055 0 -2.3542312187601055 -14.600231820499175 0 0 0 0 9.4726243612046339 2.1283730077533392 0 2.1283730077533392 -20.982634794789192 0 0 0 0 3.2923869670517028 -1.9214240022926869 0 -1.9214240022926869 -10.36462438885178 0 0 0 0 1.8554399017549148 4.5974581844568903 0 4.5974581844568903 -12.554700109528795 0 0 0 0 6.383444961531521 -4.3900078729591101 0 -4.3900078729591101 -10.582540539211095 0 0 0 0 11.815604527401433 -9.2979719926224789 0 -9.2979719926224789 -27.461304066280718 0 0 0 0 4.615362649022166 -0.78637540839049791 0 -0.78637540839049791 -12.588976407514878 0 0 0 0 -17.470698171007882 24.905491937037368 0 24.905491937037368 -27.246391637570923 0 0 0 0 -22.405986309970103 5.5750463215954369 0 5.5750463215954369 3.0149777576589258 0 0 0 0 -17.865137032784332 26.875998226532829 0 26.875998226532829 -32.895718557090731 0 0 0 0 -18.727788822891625 25.092575158598265 0 25.092575158598265 -27.500722440920072 0 0 0 0 -6.7235545864889446 27.008973937012343 0 27.008973937012343 -66.945479178219102 0 0 0 0 1.9367507669953739 6.4892104362297687 0 6.4892104362297687 -24.870985597426625 0 0 0 0 16.191476711138876 70.590932412313123 0 70.590932412313123 -53.135409682416139 0 0 0 0 23.248614382601772 54.977327709901147 0 54.977327709901147 -20.083132251704228 0 0 0 0 2.8836841630536583 -3.9603659911299474 0 -3.9603659911299474 -46.16987562799477 0 0 0 0 2.3164361701890996 -1.4291028182542931 0 -1.4291028182542931 -4.8669206606991224 0 0 0 0 6.6944926204632829 -1.0498721277089942 0 -1.0498721277089942 -14.820213658795979 0 0 0 0 41.574759137074579 -15.409610445349244 0 -15.409610445349244 -24.151524539804086 0 0 0 0 25.904477946460247 -4.1341427311999723 0 -4.1341427311999723 -63.643200121055997 0 0 0 0 8.6415129514301157 -14.809149126378543 0 -14.809149126378543 -19.915784613287542 0 0 0 0 19.409051794865718 -10.730251439163112 0 -10.730251439163112 -23.10366746323416 0 0 0 0 35.674999018123344 -26.96088685511495 0 -26.96088685511495 -8.1431351565406658 0 0 0 0 75.525688332226309 -2.8855292223743163 0 -2.8855292223743163 -38.613581722485833 0 0 0 0 0.38897273449485503 0.6654010842345599 0 0.6654010842345599 -2.7506695753937151 0 0 0 0 61.930207834945122 -34.560743957612431 0 -34.560743957612431 35.97795038856566 0 0 0 0 26.669872020657579 2.8446365697163856 0 2.8446365697163856 -3.4989627284812741 0 0 0 0 8.5767651002897765 0.35928779941605171 0 0.35928779941605171 -12.558867096959148 0 0 0 0 4.0016539280925372 5.5287396820949652 0 5.5287396820949652 -28.62406191402988 0 0 0 0 1.5384115165416006 8.9900362886255607 0 8.9900362886255607 -29.277232385837124 0 0 0 0 8.3670153853160265 -2.6578909273781903 0 -2.6578909273781903 -19.489135553850986 0 0 0 0 5.5978941052233964 1.9188813897153878 0 1.9188813897153878 -19.160150981642261 0 0 0 0 10.815838776107626 8.2237127007683739 0 8.2237127007683739 -49.321129589428892 0 0 0 0 1.3594200917073067 -14.540344098990317 0 -14.540344098990317 26.858314115495887 0 0 0 0 3.3060957566245381 1.1245843900509556 0 1.1245843900509556 -13.423357348289656 0 0 0 0 5.9001395310333464 2.7162533294176683 0 2.7162533294176683 -29.467262483398372 0 0 0 0 0.56431997567233338 6.2451024537149351 0 6.2451024537149351 -25.400198169518262 0 0 0 0 3.7485146576107891 3.4103128667288871 0 3.4103128667288871 -17.099145783185833 0 0 0 0 1.8828358683908935 4.7404850928975186 0 4.7404850928975186 -21.103251633829814 0 0 0 0 44.801012135543715 32.485386808344629 0 32.485386808344629 -109.66743024275638 0 0 0 0 11.905837253806149 -3.6087561548708731 0 -3.6087561548708731 -17.117151748132926 0 0 0 0 11.540430698618225 -2.7241541182187561 0 -2.7241541182187561 -16.155826912215502 0 0 0 0 -69.957979135781045 -67.508925110770178 0 -67.508925110770178 18.670623439975316 0 0 0 0 8.2835979198237055 -1.1546012648323085 0 -1.1546012648323085 -20.530149333499139 0 0 0 0 -7.3272398094577511 16.863417797030706 0 16.863417797030706 -22.928031927114716 0 0 0 0 -10.065986554032065 12.568171959996107 0 12.568171959996107 -27.107875039844657 0 0 0 0 -23.085931770381649 26.081989998361678 0 26.081989998361678 -27.524334114190424 0 0 0 0 14.849791405246378 80.446893965425261 0 80.446893965425261 -120.08488961405237 0 0 0 0 -79.245990481510489 0.47577225453278515 0 0.47577225453278515 -29.217481467094331 0 0 0 0 9.2991338888390942 -18.620977517199208 0 -18.620977517199208 -82.970132164075039 0 0 0 0 -9.0917606274997524 19.86501991917612 0 19.86501991917612 -104.46640208426834 0 0 0 0 -10.718213262654444 5.3571895746717928 0 5.3571895746717928 -14.339547851472162 0 0 0 0 24.151515425169265 121.27430166131307 0 121.27430166131307 -74.317511563538574 0 0 0 0 41.669816941938279 0.16339355651507503 0 0.16339355651507503 -62.195490972408152 0 0 0 0 0.19578529219595578 8.4556492616230425 0 8.4556492616230425 -33.474674035660684 0 0 0 0 117.03749220656698 42.080992900740966 0 42.080992900740966 -91.818281937317806 0 0 0 0 -30.994479188824698 -44.888608859349915 0 -44.888608859349915 7.7926360566016228 0 0 0 0 0.38301685790276424 -0.99008135925292606 0 -0.99008135925292606 -5.2547274155489561 0 0 0 0 82.56135749637636 -80.313153793336824 0 -80.313153793336824 -19.128744214496692 0 0 0 0 31.223670103916184 52.686212583745146 0 52.686212583745146 -56.033246562234126 0 0 0 0 -107.06207665446132 109.07416697939971 0 109.07416697939971 -5.7696193748997757 0 0 0 0 -59.871156288431976 73.654548010168583 0 73.654548010168583 -110.53319624354481 0 0 0 0 -82.792118996581152 4.2648876449893578 0 4.2648876449893578 81.972517883754335 0 0 0 0 -90.411744505124204 118.30371443405602 0 118.30371443405602 -159.24135770261637 0 0 0 0 -131.19402095638551 49.62678625578701 0 49.62678625578701 -2.6474819362920243 0 0 0 0 -71.345171071917008 11.814488588683162 0 11.814488588683162 35.340293129251222 0 0 0 0 -53.013404234317818 38.810948024562094 0 38.810948024562094 -91.07322411709174 0 0 0 0 -55.900514630936748 20.535307239116264 0 20.535307239116264 -50.590962845410104 0 0 0 0 -48.273540093223929 83.751994421818381 0 83.751994421818381 -137.56169015255227 0 0 0 0 -0.024818179780844579 108.70917118597572 0 108.70917118597572 -261.62034811585181 0 0 0 0 -93.993203314919228 122.35101595673041 0 122.35101595673041 -134.55086421265332 0 0 0 0 -133.50322293646508 92.572593995675561 0 92.572593995675561 -54.800903183706396 0 0 0 0 -76.477515703088841 122.92255139747431 0 122.92255139747431 -192.23065886000404 0 0 0 0 -177.33192366338079 210.8419557223533 0 210.8419557223533 -196.74138142664106 0 0 0 0 -32.232337623913764 196.80160486175009 0 196.80160486175009 -383.85839833063801 0 0 0 0 0.060088433548486211 124.38121122363373 0 124.38121122363373 -380.15680631924442 0 0 0 0 -3.8952548546628289 115.88250293360124 0 115.88250293360124 -393.45705388252827 0 0 0 0 0.47773655061146769 209.49166233814321 0 209.49166233814321 -1039.4878718508844 0 0 0 0 -1.0666746834451535 1.1480783413654194 0 1.1480783413654194 -1.2660415183690077 0 0 0 0 -386.09887099198301 387.28037293930538 0 387.28037293930538 -276.3369508349424 0 0 0 0 -267.76573993852435 446.90273527070531 0 446.90273527070531 -546.64495223756967 0 0 0 0 -358.31048906296684 223.76090776850469 0 223.76090776850469 162.20397300258628 0 0 0 0 -27.652805334518078 -27.887113610930101 0 -27.887113610930101 -78.535958178108558 0 0 0 0 -256.57479627435453 138.06365637974523 0 138.06365637974523 -238.12089835013467 0 0 0 0 -103.67146651825712 37.952565391155076 0 37.952565391155076 -125.93947987238425 0 0 0 0 80.186419890610537 13.6196448002446 0 13.6196448002446 -143.93570459642797 0 0 0 0 -199.53898604730034 190.00950760293927 0 190.00950760293927 -191.00893292402907 0 0 0 0 -178.44067295527287 17.201446141611086 0 17.201446141611086 -30.012074471756932 0 0 0 0 -31.935230420901682 120.73958112627588 0 120.73958112627588 -42.982444356457563 0 0 0 0 -220.53031464919994 154.44255471330689 0 154.44255471330689 -59.655285376269603 0 0 0 0 -122.8025238763264 214.56413249760953 0 214.56413249760953 -321.85027154846102 0 0 0 0 -158.94149239139179 110.23731281253731 0 110.23731281253731 -156.13158227255917 0 0 0 0 3.6517259553875192 -13.202775619356544 0 -13.202775619356544 12.860289868905966 0 0 0 0 23.380965677730273 -8.3761858132020279 0 -8.3761858132020279 -21.748221451249265 0 0 0 0 12.533649290766512 -5.3501509279885298 0 -5.3501509279885298 -13.334271352186235 0 0 0 0 5.2986789591152217 -3.856442850556391 0 -3.856442850556391 -36.478529549458472 0 0 0 0 5.7122363508642593 10.763643682555994 0 10.763643682555994 -22.080560166970827 0 0 0 0 10.013682649698861 -4.7944311400140194 0 -4.7944311400140194 -8.6422527219591743 0 0 0 0 11.831415148211818 -35.490382126172335 0 -35.490382126172335 12.7073593956884 0 0 0 0 -102.24913037323472 202.71995314516425 0 202.71995314516425 -311.54780574739561 0 0 0 0 -89.816409574289935 10.042776198772117 0 10.042776198772117 21.664843158323492 0 0 0 0 4.4551969634174071 3.7371167989658716 0 3.7371167989658716 -1.7911496763772448 0 0 0 0 10.545796730275427 -9.4136474517205713 0 -9.4136474517205713 -9.1802146072918021 0 0 0 0 7.1058666187083643 -3.9271159571279668 0 -3.9271159571279668 -13.828281507378556 0 0 0 0 -61.847333274034675 -24.55678646004003 0 -24.55678646004003 -92.909141332129366 0 0 0 0 -100.47896672992579 473.68392719617441 0 473.68392719617441 -718.2167238254915 0 0 0 0 200.61089910227815 73.190417083579632 0 73.190417083579632 -1168.4580699160142 0 0 0 0 549.47474837031712 512.47242836389159 0 512.47242836389159 -2498.4380600295954 0 0 0 0 156.93269637487933 748.41287660059606 0 748.41287660059606 -1729.1787658468529 0 0 0 0 360.69484216454043 -142.29227753389205 0 -142.29227753389205 -1156.5638759077556 0 0 0 0 350.1641530876322 167.90948074049538 0 167.90948074049538 -2102.9518129032294 0 0 0 0 131.96939792658446 -41.082414391501516 0 -41.082414391501516 -1198.3474773211492 0 0 0 0 -8.8830568131241989 -193.48039929953666 0 -193.48039929953666 -226.32607439983803 0 0 0 0 89.887605280334341 -180.13090732404453 0 -180.13090732404453 -907.90524034514965 0 0 0 0 -327.72827955014196 -1031.2245901310089 0 -1031.2245901310089 -2500.5231874648816 0 0 0 0 388.50301648205789 -413.46379868591066 0 -413.46379868591066 -2294.1857023313933 0 0 0 0 -180.97486381873017 -836.82419742974889 0 -836.82419742974889 -1119.4527158828205 0 0 0 0 -212.34232296371829 -224.44259741285168 0 -224.44259741285168 353.63625436733855 0 0 0 0 -319.86526196051415 -563.25655739872673 0 -563.25655739872673 -614.2699751517066 0 0 0 0 -3.8913962745499155 -3.953787376063957 0 -3.953787376063957 -2.4438552220346423 0 0 0 0 42.580231457988617 -376.52469231969008 0 -376.52469231969008 -3264.1188208190033 0 0 0 0 -1.9607949475248461 88.077554386909469 0 88.077554386909469 -317.83351353428588 0 0 0 0 -114.23684069104857 55.381205421959748 0 55.381205421959748 -208.18398369995703 0 0 0 0 3.7222552758957397 0.6889294729753459 0 0.6889294729753459 -0.17243464512569062 0 0 0 0 -167.4913678191707 -208.75165299902255 0 -208.75165299902255 155.55592400686874 0 0 0 0 78.389815735014622 108.29075145711249 0 108.29075145711249 -179.11622955347048 0 0 0 0 6.5627161190116112 176.64045133604668 0 176.64045133604668 -276.42976879993876 0 0 0 0 130.19564002692493 151.15454158069042 0 151.15454158069042 -390.48753646813384 0 0 0 0 237.30259605445039 17.73048517220559 0 17.73048517220559 -285.7885654565107 0 0 0 0 -4.9866116396021312 -34.668416024645921 0 -34.668416024645921 -44.129685209063609 0 0 0 0 6.5164400329402667 0.34198174400592052 0 0.34198174400592052 -28.666398903529625 0 0 0 0 57.515676160638805 110.57893655312 0 110.57893655312 -272.59069689039643 0 0 0 0 12.860983293768289 -1.7834091373784275 0 -1.7834091373784275 -9.9269753884781267 0 0 0 0 3.6590749306891714 -0.7963187580718869 0 -0.7963187580718869 -3.1363056035423824 0 0 0 0 -133.78768168042569 94.419496467580757 0 94.419496467580757 -60.693316502372909 0 0 0 0 109.15380995346106 1.4746192339189292 0 1.4746192339189292 -119.58177529263685 0 0 0 0 42.704039271293595 48.712701606513292 0 48.712701606513292 -112.20412185673285 0 0 0 0 20.990375234016255 15.630428201751783 0 15.630428201751783 -77.138443647385429 0 0 0 0 11.760834302026524 20.503748730196094 0 20.503748730196094 -72.513550685169321 0 0 0 0 1.5873595665736957 -41.09837861752203 0 -41.09837861752203 -42.581933661756921 0 0 0 0 -13.22876971568212 15.333076877413987 0 15.333076877413987 -82.107836739553022 0 0 0 0 42.612349027584628 -17.234545047356733 0 -17.234545047356733 -30.337115878890472 0 0 0 0 67.383574524311825 41.882423522878526 0 41.882423522878526 -278.410819818253 0 0 0 0 11.922566823144496 1.6304913696031633 0 1.6304913696031633 1.2697357418961985 0 0 0 0 150.91108679319382 -85.744825232122821 0 -85.744825232122821 -187.47978271124157 0 0 0 0 -29.617116854853293 89.306718111591181 0 89.306718111591181 -195.72691200429108 0 0 0 0 0.35625581852571031 1.1974504077497841 0 1.1974504077497841 -143.89337851002347 0 0 0 0 114.66372338511701 5.2664674483057752 0 5.2664674483057752 -244.65722392195676 0 0 0 0 335.58815469296525 317.705925861781 0 317.705925861781 -2498.2674195122054 0 0 0 0 -8.9560740666640655 -6.7292086907997657 0 -6.7292086907997657 -14.911602437802728 0 0 0 0 -413.65113517336675 -630.39438716550285 0 -630.39438716550285 -1054.6647502597698 0 0 0 0 -6.7765932960750428 2.3697296593220969 0 2.3697296593220969 -8.3071119894904655 0 0 0 0 71.647390742801235 -30.336633487670042 0 -30.336633487670042 -108.25766272986948 0 0 0 0 52.34398837700428 -132.8991451829861 0 -132.8991451829861 72.105016391118625 0 0 0 0 85.52745173456799 -80.839107793320181 0 -80.839107793320181 -81.897890497879416 0 0 0 0 -761.75549965201185 1251.2430487240836 0 1251.2430487240836 -2108.1020684859905 0 0 0 0 -4.7671694645996467 34.469437179875968 0 34.469437179875968 -86.635629805234203 0 0 0 0 3.2964564915275814 -8.4976331016645261 0 -8.4976331016645261 -61.92914788187538 0 0 0 0 -17.763932116629103 9.3520071512694045 0 9.3520071512694045 -5.2833001047077275 0 0 0 0 -410.91225760573633 1027.7874719018728 0 1027.7874719018728 -2498.7689981072381 0 0 0 0 -2.5204008980913386 56.088206491760502 0 56.088206491760502 -118.70877167496656 0 0 0 0 56.323928355560383 -21.55055449892825 0 -21.55055449892825 -149.30639579641502 0 0 0 0 19.376778421644445 6.3550967540220142 0 6.3550967540220142 -15.538568939006574 0 0 0 0 66.699469415348176 0.95261884993851709 0 0.95261884993851709 -165.75873690746084 0 0 0 0 9.2888998400398375 -17.149392381501016 0 -17.149392381501016 -70.722509576687287 0 0 0 0 11.892035625632388 6.0543299674582158 0 6.0543299674582158 -67.901662617266993 0 0 0 0 13.976972366554037 7.0888748161887634 0 7.0888748161887634 -70.63250040524872 0 0 0 0 17.433947144956619 -1.0255483015680511 0 -1.0255483015680511 -63.095166814207914 0 0 0 0 12.279199096086444 -6.8606197749376605 0 -6.8606197749376605 -46.237256112993677 0 0 0 0 18.887241936311284 9.8305384437189787 0 9.8305384437189787 -68.247094111240585 0 0 0 0 8.8126473369112013 -11.271917924373085 0 -11.271917924373085 -25.477460404095439 0 0 0 0 -0.082079528450776706 -68.127708936574891 0 -68.127708936574891 -46.746768296536175 0 0 0 0 -0.96795790318856234 12.654087043514664 0 12.654087043514664 -59.926040328202362 0 0 0 0 7.7063042998607596 -2.0963762126560255 0 -2.0963762126560255 -50.336232900276258 0 0 0 0 5.3286955259877686 9.2036757377791218 0 9.2036757377791218 -58.400368915121362 0 0 0 0 -3.5101343896349135 14.771170075229747 0 14.771170075229747 -63.183611175511032 0 0 0 0 2.8623365416037814 17.639434056833124 0 17.639434056833124 -67.584099019120004 0 0 0 0 3.3728859102620055 0.21178537614956383 0 0.21178537614956383 -3.7818094458574905 0 0 0 0 0.72798619867813841 17.000594159566845 0 17.000594159566845 -64.570757793044322 0 0 0 0 5.2977824639149276 -8.5707871838840219 0 -8.5707871838840219 -7.943057483600569 0 0 0 0 6.094328141159167 -1.9156696743521024 0 -1.9156696743521024 -28.764952632096538 0 0 0 0 3.4242243229755331 -0.77679993616948195 0 -0.77679993616948195 -25.239054155143094 0 0 0 0 0.71974975759030713 17.40236716340587 0 17.40236716340587 -57.69786492100684 0 0 0 0 1.4461601066951335 10.67316621441681 0 10.67316621441681 -22.626741624481724 0 0 0 0 7.2736729549990109 2.5584751391726002 0 2.5584751391726002 -17.085120838162709 0 0 0 0 5.936201010067883 3.1689624002888195 0 3.1689624002888195 -23.867977068737673 0 0 0 0 5.4964039916139882 4.5492196408522432 0 4.5492196408522432 -23.230773518291244 0 0 0 0 4.4091786082399356 0.34756820551901058 0 0.34756820551901058 -16.423660908123523 0 0 0 0 9.3831071079093817 2.4975070933287498 0 2.4975070933287498 -22.120172146554978 0 0 0 0 6.4835776402852332 3.3758286466894845 0 3.3758286466894845 -17.322221621670366 0 0 0 0 5.4026895688315708 0.99458622296648969 0 0.99458622296648969 -13.499620333332416 0 0 0 0 2.2998056744439062 5.0378252694843155 0 5.0378252694843155 -21.826390674817958 0 0 0 0 25.581426082730104 -10.440586215703661 0 -10.440586215703661 1.7016160214043339 0 0 0 0 0.059198963003403549 -0.47753800309617134 0 -0.47753800309617134 -0.67821630201927974 0 0 0 0 14.898725733854008 -15.956122550971486 0 -15.956122550971486 8.6968982244143263 0 0 0 0 9.6130415401808023 -2.4935810493051349 0 -2.4935810493051349 -14.0866130483939 0 0 0 0 28.137246965710801 28.572834793325455 0 28.572834793325455 -102.03041560033307 0 0 0 0 -8.9562638490888276 3.5417009158845758 0 3.5417009158845758 -71.515800201625098 0 0 0 0 -3.8593427200681845 -30.03445915165139 0 -30.03445915165139 -80.641493992625328 0 0 0 0 11.221291308675063 6.8800784144332283 0 6.8800784144332283 -2.5089844004232873 0 0 0 0 -0.20595432751324694 0.80310207419327639 0 0.80310207419327639 -1.4416541650136594 0 0 0 0 6.9503978067059506 7.8649850895599229 0 7.8649850895599229 -2.7338509447217803 0 0 0 0 7.2334067215079045 1.2793075375825254 0 1.2793075375825254 -6.1912925183121246 0 0 0 0 9.747986821052109 1.5150078250808292 0 1.5150078250808292 -16.834526083184755 0 0 0 0 8.873916273299983 0.25175189937363029 0 0.25175189937363029 -16.524245375556347 0 0 0 0 8.0147705318793463 -2.5145704961313768 0 -2.5145704961313768 -6.7296849209340195 0 0 0 0 7.6389631916444269 1.3985688156091456 0 1.3985688156091456 -9.296833582998886 0 0 0 0 8.7247287179309794 -3.0971379513412103 0 -3.0971379513412103 -10.103394904850219 0 0 0 0 8.2620889681884364 0.25989188154926524 0 0.25989188154926524 -19.842442970781121 0 0 0 0 6.3681383043298894 3.6358414473572083 0 3.6358414473572083 -10.407289822659479 0 0 0 0 0.89208905759005575 2.8109876597154653 0 2.8109876597154653 -19.385288259436493 0 0 0 0 8.8496940006353384 -1.8676164134770943 0 -1.8676164134770943 -7.2950580044801967 0 0 0 0 2.6709616358310981 5.552867270228603 0 5.552867270228603 -5.8853198575875467 0 0 0 0 1.9242202736841136 9.9589419185649604 0 9.9589419185649604 -20.82452328502518 0 0 0 0 6.9019206609691537 6.6941301391270827 0 6.6941301391270827 -20.963396920022205 0 0 0 0 1.5883035914266657 5.4680624029642786 0 5.4680624029642786 -21.176646032683493 0 0 0 0 6.4925572682664097 3.3249147901242395 0 3.3249147901242395 -2.2364353533776011 0 0 0 0 8.4847646333764715 1.3223927347498829 0 1.3223927347498829 -1.0825440334665473 0 0 0 0 13.796939087100327 1.8959913290964323 0 1.8959913290964323 -1.961195799152847 0 0 0 0 4.4249150861942326 1.2707510379477753 0 1.2707510379477753 -1.036386109313753 0 0 0 0 10.234688656928483 -0.13878102250600932 0 -0.13878102250600932 3.0325953789870255 0 0 0 0 8.2706175073035411 3.7072295720208785 0 3.7072295720208785 -3.9596709314791951 0 0 0 0 -0.17243882257205101 0.6911029965681621 0 0.6911029965681621 2.2122296927046108 0 0 0 0 -5.4690070331198513 6.1957316682965029 0 6.1957316682965029 -17.267913228861289 0 0 0 0 -0.6238607020713971 1.9393519930854382 0 1.9393519930854382 -13.529215118585853 0 0 0 0 -2.325720665307017 9.2651236056990456 0 9.2651236056990456 -18.247319946662174 0 0 0 0 -2.2422750785663084 6.717261930112727 0 6.717261930112727 -10.080104907367058 0 0 0 0 1.2224813879802241 2.502458412804117 0 2.502458412804117 -5.285450230454444 0 0 0 0 7.2917509293993135 1.2594835380732547 0 1.2594835380732547 -8.0398852282960434 0 0 0 0 1.8087521368324815 -2.0134403629344888 0 -2.0134403629344888 -7.5531378141131427 0 0 0 0 1.8219074218686728 -1.3646692779439036 0 -1.3646692779439036 -3.7043586524596321 0 0 0 0 -0.19574421947072551 1.2853550342406379 0 1.2853550342406379 -11.215749773298739 0 0 0 0 2.6695397970834165 4.3393475347547792 0 4.3393475347547792 -8.4044383705186192 0 0 0 0 7.7666000576064107 7.1634546027344186 0 7.1634546027344186 -9.7179840737662744 0 0 0 0 0.89895861183413217 4.1655677450798976 0 4.1655677450798976 -4.2029723019804806 0 0 0 0 5.2246497928726967 5.5836767186901852 0 5.5836767186901852 -8.6961390257783933 0 0 0 0 4.5544674340026177 6.5370967641829338 0 6.5370967641829338 -12.236017290822929 0 0 0 0 5.4533685285550746 5.5320218785964244 0 5.5320218785964244 -12.011793452984421 0 0 0 0 4.9927427358015848 5.2464106471234118 0 5.2464106471234118 -12.02714854144142 0 0 0 0 3.4111309993331815 4.948549758290028 0 4.948549758290028 -14.368854461354204 0 0 0 0 2.3714372116482991 2.9112757789116586 0 2.9112757789116586 -14.874745836714283 0 0 0 0 1.6419804204888351 6.3396185129095102 0 6.3396185129095102 -14.993896532999315 0 0 0 0 1.3273395183459797 9.8933721051726025 0 9.8933721051726025 -15.564425988168296 0 0 0 0 2.7701178953911949 6.8740358207360259 0 6.8740358207360259 -13.299391503693187 0 0 0 0 3.6884962379247099 8.7982557120976708 0 8.7982557120976708 -21.159204305215098 0 0 0 0 6.1622327056702488 6.754008576819615 0 6.754008576819615 -19.89518129627686 0 0 0 0 32.299086514294686 11.828089338803693 0 11.828089338803693 -19.125547755073057 0 0 0 0 11.912437382544134 -1.1524396508990549 0 -1.1524396508990549 -6.3292492912389093 0 0 0 0 -8.1739311669234667 -63.0124732528202 0 -63.0124732528202 10.340576653956305 0 0 0 0 1.0136038926918491 -0.13926975068084602 0 -0.13926975068084602 -0.53881273787013129 0 0 0 0 8.0958269967491105 62.653388551681928 0 62.653388551681928 -110.92280045218649 0 0 0 0 -17.353376708704332 39.151473930131033 0 39.151473930131033 -82.436141828758991 0 0 0 0 45.90075387216848 44.546003412651771 0 44.546003412651771 -107.44080046869203 0 0 0 0 44.687576998588568 45.511608810035341 0 45.511608810035341 -46.971876436597086 0 0 0 0 -11.414455462940868 24.347360409299654 0 24.347360409299654 -45.840885509605869 0 0 0 0 9.4381622137917773 -0.89530207889440305 0 -0.89530207889440305 -6.7079975045110842 0 0 0 0 4.8550276599107747 7.0522868718981044 0 7.0522868718981044 -22.682687760818226 0 0 0 0 23.038795651616866 -6.5023761669687286 0 -6.5023761669687286 -10.734135910427597 0 0 0 0 24.086803964802129 -16.144523173406924 0 -16.144523173406924 -5.4334100865817163 0 0 0 0 6.9690700749197276 6.3655730477767065 0 6.3655730477767065 -23.874785229490953 0 0 0 0 13.199300253561404 -0.9214239631382668 0 -0.9214239631382668 -14.867430359938858 0 0 0 0 40.901430614019773 29.65103230249224 0 29.65103230249224 -81.723509744158946 0 0 0 0 45.959733947125642 21.688579844983906 0 21.688579844983906 -72.658285500736383 0 0 0 0 50.547269292570491 15.801929257540905 0 15.801929257540905 -87.79505878672353 0 0 0 0 46.719349420462095 6.4937331188521057 0 6.4937331188521057 -108.10890660679433 0 0 0 0 3.8977584174333875 6.7442476434659504 0 6.7442476434659504 -17.844066932691106 0 0 0 0 13.318553858567611 8.8033054982333852 0 8.8033054982333852 -19.513921459085395 0 0 0 0 9.8877120835709142 1.5637112558948516 0 1.5637112558948516 -7.9880301165080709 0 0 0 0 7.1808343905959191 4.7857812411530176 0 4.7857812411530176 -14.241508317732951 0 0 0 0 15.439275697689482 6.4438895023849909 0 6.4438895023849909 -13.636716256507498 0 0 0 0 13.438729174809851 4.3100088694191072 0 4.3100088694191072 -14.821636577042227 0 0 0 0 8.8317627374453878 5.7587685168255121 0 5.7587685168255121 -14.219828188797692 0 0 0 0 8.8778614916955121 6.0192256331865792 0 6.0192256331865792 -12.996081093035173 0 0 0 0 10.031426522451511 5.0980640711204614 0 5.0980640711204614 -13.499285509635229 0 0 0 0 10.9155304021333 6.4649900462682126 0 6.4649900462682126 -12.922748296085047 0 0 0 0 11.718981259156863 4.8807620233128546 0 4.8807620233128546 -13.529694915210712 0 0 0 0 9.5150056784059416 5.9001832623325754 0 5.9001832623325754 -11.469416958250804 0 0 0 0 8.9022122682035842 6.8088373826612951 0 6.8088373826612951 -11.439259035541909 0 0 0 0 11.219537410288467 8.6614901191933313 0 8.6614901191933313 -8.5864951857511187 0 0 0 0 7.3714780614409392 8.0760886686589402 0 8.0760886686589402 -6.0823558470510761 0 0 0 0 14.526704668729508 7.6056214606378489 0 7.6056214606378489 -11.522775624391215 0 0 0 0 -1.7693922101364288 9.8864199562002035 0 9.8864199562002035 -11.512641228477861 0 0 0 0 6.8127181199160987 8.0700874328686041 0 8.0700874328686041 -5.9253785528126173 0 0 0 0 -5.937416282868071 33.458709770595306 0 33.458709770595306 18.304503392559127 0 0 0 0 3.2797960730842739 4.6749476432878438 0 4.6749476432878438 -6.5167091701522111 0 0 0 0 13.149355756368095 8.3087999640301859 0 8.3087999640301859 -9.8936500185955083 0 0 0 0 -3.9808692422263903 29.278769701779765 0 29.278769701779765 34.392448494720156 0 0 0 0 7.0796019162371522 -1.4419073522440158 0 -1.4419073522440158 -52.307103379873297 0 0 0 0 37.28837918316276 42.026243896521919 0 42.026243896521919 -32.657665926923073 0 0 0 0 20.595255661353804 67.73330468396307 0 67.73330468396307 26.249033302490716 0 0 0 0 -7.4279117686128302 43.734337404264807 0 43.734337404264807 28.123845434463874 0 0 0 0 -25.073911871237215 62.846518395766907 0 62.846518395766907 79.044734264021827 0 0 0 0 19.043196946393437 94.257078387134243 0 94.257078387134243 84.387399702216499 0 0 0 0 21.979122126074799 82.850851700306521 0 82.850851700306521 53.94855392822501 0 0 0 0 45.739169168700755 -28.043545886699576 0 -28.043545886699576 64.423691641743062 0 0 0 0 102.51596126654476 70.661311733332695 0 70.661311733332695 48.875799896588433 0 0 0 0 70.190704812746844 29.513270287374326 0 29.513270287374326 -114.26149147182878 0 0 0 0 75.124012558055256 61.574656590208178 0 61.574656590208178 -53.125650262794807 0 0 0 0 153.37941424470046 -77.475886256084777 0 -77.475886256084777 52.07336766080698 0 0 0 0 66.735605139172549 25.286241126053937 0 25.286241126053937 -119.37908273054927 0 0 0 0 -1.9196943848655792 26.923651309698471 0 26.923651309698471 -123.13293571509712 0 0 0 0 35.633726739186386 16.945485596515937 0 16.945485596515937 -120.8377821828617 0 0 0 0 1.1643644530078774 -1.3312459154205811 0 -1.3312459154205811 0.24956934825408794 0 0 0 0 -35.023620264493729 71.03591002808389 0 71.03591002808389 114.15548223512815 0 0 0 0 -65.891950528844973 39.528572524970514 0 39.528572524970514 93.593289360120252 0 0 0 0 -26.058871950694083 59.488731192837804 0 59.488731192837804 67.597864399998798 0 0 0 0 -24.301777334419967 35.453927982518508 0 35.453927982518508 61.573604183538919 0 0 0 0 -42.183461152893869 8.4017310871367954 0 8.4017310871367954 20.852368700943771 0 0 0 0 -8.5975469596742187 26.915279603985255 0 26.915279603985255 9.2183660118716944 0 0 0 0 -1.5379384731350001 39.187285021420394 0 39.187285021420394 5.1266431130497949 0 0 0 0 227.25537710246317 -5.1363024282072729 0 -5.1363024282072729 -38.372258056100691 0 0 0 0 68.295620503167811 48.700214447446342 0 48.700214447446342 -44.085390213956998 0 0 0 0 26.648180832952676 -56.369433794739962 0 -56.369433794739962 77.365911607485032 0 0 0 0 1.7472172034880344 1.3474806424731725 0 1.3474806424731725 -0.28969219498389975 0 0 0 0 269.81642609233677 -19.353671285454766 0 -19.353671285454766 36.433368899335619 0 0 0 0 -31.105628364623044 15.060175410031661 0 15.060175410031661 0.65906826227001147 0 0 0 0 7.9801809174005029 -3.7380361572322727 0 -3.7380361572322727 -13.81854483425559 0 0 0 0 -0.99318687201608924 -1.2536887919626807 0 -1.2536887919626807 0.59639750798698898 0 0 0 0 2.5287561529907308 -1.4370455465756251 0 -1.4370455465756251 -1.0900975846375642 0 0 0 0 -118.53172259368512 -51.627057686746411 0 -51.627057686746411 102.6083522942572 0 0 0 0 6.81705102741671 -12.434683644952202 0 -12.434683644952202 -182.91783621320064 0 0 0 0 -10.768271834533607 -9.1113723574117103 0 -9.1113723574117103 -90.441103605953685 0 0 0 0 -0.50142712133992973 23.71816751342476 0 23.71816751342476 -90.159990796499187 0 0 0 0 -14.6193996219572 -6.2784668497806706 0 -6.2784668497806706 -63.848076393216616 0 0 0 0 -12.443280379904536 -23.345996406344057 0 -23.345996406344057 -86.38461223701961 0 0 0 0 25.866474076574377 -7.0180551942466991 0 -7.0180551942466991 -134.59646459466967 0 0 0 0 39.297281248702348 15.720648415410324 0 15.720648415410324 -96.101459526093095 0 0 0 0 -3.1688500664167805 -8.0892673452581221 0 -8.0892673452581221 -61.32483262574533 0 0 0 0 -19.627881817912566 31.570064811916382 0 31.570064811916382 -106.62422369538035 0 0 0 0 -2.0435287835489362 1.0548165004511247 0 1.0548165004511247 -0.05660156266822014 0 0 0 0 28.9073632624943 -4.1746386436529974 0 -4.1746386436529974 -63.250175474837306 0 0 0 0 -3.5362518478677885 -5.7039045300443831 0 -5.7039045300443831 -15.5357867196999 0 0 0 0 8.9160586185912507 11.961004273877734 0 11.961004273877734 -53.345519396294549 0 0 0 0 -1.4893472468868367 -14.990388192218234 0 -14.990388192218234 5.055444571415137 0 0 0 0 -15.818176862854671 -1.2764194989540556 0 -1.2764194989540556 -98.202725474555336 0 0 0 0 37.182081360004304 32.516040371374402 0 32.516040371374402 -76.928043650066684 0 0 0 0 5.2871506207820858 25.7531575085859 0 25.7531575085859 -284.7108601369182 0 0 0 0 -58.182146172677676 81.574425486836844 0 81.574425486836844 -96.067372801924648 0 0 0 0 18.710721350278618 83.352366459403129 0 83.352366459403129 -155.25484459403924 0 0 0 0 25.884586560404841 55.10422090830707 0 55.10422090830707 -146.80836935926345 0 0 0 0 4.587081492811194 20.225914063295932 0 20.225914063295932 -142.84333742332819 0 0 0 0 -15.810393881265554 31.869472941919412 0 31.869472941919412 -83.27577258823294 0 0 0 0 -6.697935851417558 2.2718496716604193 0 2.2718496716604193 -0.84176783636215191 0 0 0 0 59.825402056738312 31.133130128328048 0 31.133130128328048 4.9148643286462175 0 0 0 0 48.899546220728553 49.672903238348226 0 49.672903238348226 16.723583118409806 0 0 0 0 1.1003234544876364 4.8485478314033017 0 4.8485478314033017 -0.63302125333453318 0 0 0 0 7.6709330131966453 7.3773376579065371 0 7.3773376579065371 -12.167596590588801 0 0 0 0 -7.2182195401419449 15.091638619272999 0 15.091638619272999 -10.086538359260885 0 0 0 0 -6.0894293836020346 7.067198997787429 0 7.067198997787429 -4.6133082417838764 0 0 0 0 -9.2082852321382234 11.281843529646721 0 11.281843529646721 21.078331636784242 0 0 0 0 -0.2978982843106337 0.75361415458655756 0 0.75361415458655756 -5.8082033514462523 0 0 0 0 -16.708231870719828 32.620288657643869 0 32.620288657643869 -79.899763075911324 0 0 0 0 -62.61730613988675 16.47266759741251 0 16.47266759741251 13.582427350171201 0 0 0 0 3.1306946600996071 22.330040153914524 0 22.330040153914524 -9.8705673092408688 0 0 0 0 -0.074518734695777633 0.040387996848835428 0 0.040387996848835428 -1.3569693595866568 0 0 0 0 -18.63157331520415 15.024334921679838 0 15.024334921679838 2.3581403549669631 0 0 0 0 -6.747308436595393 9.0331813128260734 0 9.0331813128260734 -7.0648586562343851 0 0 0 0 -0.28643167625546195 3.0173946233848987 0 3.0173946233848987 -3.5992031848170143 0 0 0 0 20.469022423037131 5.6304318603797583 0 5.6304318603797583 -27.468157071074529 0 0 0 0 -4.6007059032908728 7.4393946052259707 0 7.4393946052259707 -25.296486928811646 0 0 0 0 -8.7531924703907862 10.548646300907421 0 10.548646300907421 -18.933393682345923 0 0 0 0 -16.27109332771397 -1.2328652325304574 0 -1.2328652325304574 8.3325149516240344 0 0 0 0 -23.671659477433423 -12.795457983313099 0 -12.795457983313099 4.1412051057668577 0 0 0 0 -65.810547321897502 -70.270870861706499 0 -70.270870861706499 -42.914825325067795 0 0 0 0 -63.68028072215202 -81.146833249722476 0 -81.146833249722476 -94.611927871286753 0 0 0 0 -7.9883983641966552 -30.163149415406224 0 -30.163149415406224 -110.4031642464688 0 0 0 0 -17.057355538901902 -63.264312056217022 0 -63.264312056217022 -204.71070751649677 0 0 0 0 -68.303370149966213 53.800851039224654 0 53.800851039224654 -189.36011580221475 0 0 0 0 0.64666004904039198 -0.05255378166149427 0 -0.05255378166149427 -2.0935998249809984 0 0 0 0 39.684817128887516 -97.358297108912666 0 -97.358297108912666 -220.27533646536904 0 0 0 0 -108.55897933181313 174.0519800942302 0 174.0519800942302 -205.32745681907545 0 0 0 0 -111.09013374273309 -15.947196832079499 0 -15.947196832079499 -226.96580250325496 0 0 0 0 -113.31285643092451 99.134921212105837 0 99.134921212105837 -193.92097061229288 0 0 0 0 -195.52978591586543 -13.75515615430777 0 -13.75515615430777 -39.380436437895696 0 0 0 0 -42.602208602183964 54.664817034696171 0 54.664817034696171 -71.254016492424853 0 0 0 0 -57.08290861578098 64.248744017531862 0 64.248744017531862 -12.423307304903574 0 0 0 0 3.9181268809261383 63.405277214165835 0 63.405277214165835 -97.881241280847462 0 0 0 0 -11.175053404609116 26.347017914481512 0 26.347017914481512 -81.513210455297667 0 0 0 0 -10.085432848688924 38.112484088065685 0 38.112484088065685 -195.11408163937449 0 0 0 0 -111.03659815526407 61.699333642151032 0 61.699333642151032 -69.842935942513577 0 0 0 0 17.180027447934663 27.904669403864318 0 27.904669403864318 -21.120816076880146 0 0 0 0 44.264594053243854 52.376782774594176 0 52.376782774594176 -53.975069723731394 0 0 0 0 29.524317794182934 12.470806385106698 0 12.470806385106698 -63.502313889050129 0 0 0 0 62.205523635317149 30.048762912592792 0 30.048762912592792 -45.319284772340325 0 0 0 0 49.484167113790136 41.034187133234809 0 41.034187133234809 -53.959680553678481 0 0 0 0 54.376859116948708 34.577600971781067 0 34.577600971781067 -66.66707718444377 0 0 0 0 44.539568124644575 30.94654864596032 0 30.94654864596032 -57.470778100410826 0 0 0 0 -2.2047240955133134 7.6789350634644506 0 7.6789350634644506 -35.102451068873052 0 0 0 0 48.541549258099622 23.980472833995009 0 23.980472833995009 -71.687269765096062 0 0 0 0 -4.7360661509246711 -38.763905004030676 0 -38.763905004030676 -91.262536474063381 0 0 0 0 29.970045144350479 24.361379505786317 0 24.361379505786317 -118.61217750483775 0 0 0 0 0.65631265539013839 -23.188464058886893 0 -23.188464058886893 -67.487859533510345 0 0 0 0 -34.944488390847255 -43.115445588726288 0 -43.115445588726288 -52.487796525383601 0 0 0 0 -32.488825648342981 -46.153312427807577 0 -46.153312427807577 -59.002998658761499 0 0 0 0 2.5674683039542288 -0.056943437608424574 0 -0.056943437608424574 -57.926758902352958 0 0 0 0 8.6125469774033263 22.828112816534485 0 22.828112816534485 -18.559491487932974 0 0 0 0 7.8944631165140891 16.997745356766245 0 16.997745356766245 -39.185796721358201 0 0 0 0 -9.6715859953073959 7.0472185877224547 0 7.0472185877224547 -18.897860810357088 0 0 0 0 -23.80560908050029 -93.345626514968899 0 -93.345626514968899 -118.10605885198311 0 0 0 0 -29.675060115452766 -31.91499758217924 0 -31.91499758217924 -37.079756057544728 0 0 0 0 7.155153946898281 22.630258667017188 0 22.630258667017188 7.9931894501487477 0 0 0 0 -0.53551204480926984 0.18168975548373112 0 0.18168975548373112 -0.028555678310752342 0 0 0 0 -29.79397410681338 2.9973782169156493 0 2.9973782169156493 -63.310856385702209 0 0 0 0 8.1920339274220169 -16.421760745859501 0 -16.421760745859501 -55.799228422984015 0 0 0 0 98.843082940040404 27.637954004167113 0 27.637954004167113 -34.450399128731192 0 0 0 0 105.92265407003561 -2.4422276566897381 0 -2.4422276566897381 1.7777393596697948 0 0 0 0 0.66541155115751494 1.2275644482795229 0 1.2275644482795229 -2.5900597242598167 0 0 0 0 46.08184359018378 65.029124565800885 0 65.029124565800885 20.263050295936409 0 0 0 0 13.095564087309299 30.468987653780687 0 30.468987653780687 15.866955143930682 0 0 0 0 46.014825211390416 -58.829905418147973 0 -58.829905418147973 -40.004384758070955 0 0 0 0 112.39337506830452 17.063129684924206 0 17.063129684924206 -52.35379305020615 0 0 0 0 16.628995732292424 -13.338022047239065 0 -13.338022047239065 -60.143339486574405 0 0 0 0 46.816504399283076 14.437177507468732 0 14.437177507468732 -69.49251827209082 0 0 0 0 25.816980149014853 -17.667129982146434 0 -17.667129982146434 -78.508832178083139 0 0 0 0 -2.4719746297719087 7.0432948472908947 0 7.0432948472908947 -14.114939346918362 0 0 0 0 14.946501457015074 29.070480111202414 0 29.070480111202414 -3.4489250064798398 0 0 0 0 19.289401976088811 27.183175696694889 0 27.183175696694889 -2.9312972110201372 0 0 0 0 23.062190111737436 -43.436964805572643 0 -43.436964805572643 -57.458464292889403 0 0 0 0 24.254750373253046 35.683867043182545 0 35.683867043182545 -11.31409604921646 0 0 0 0 16.553822285126444 19.845042359560466 0 19.845042359560466 -20.781439513535588 0 0 0 0 6.4813855918910122 27.640679017727962 0 27.640679017727962 28.530463972735561 0 0 0 0 15.853081904235296 33.510331005687476 0 33.510331005687476 14.164965964358998 0 0 0 0 -3.8249964702699799 0.21258196960843634 0 0.21258196960843634 -15.956603078171611 0 0 0 0 -26.404124575237802 5.6166375206521479 0 5.6166375206521479 -13.086005875200499 0 0 0 0 0.50819158857692415 4.5036071885362787 0 4.5036071885362787 -16.240752473534698 0 0 0 0 1.2283500880539577 4.0212154918372107 0 4.0212154918372107 -20.823011605854845 0 0 0 0 1.5659169619168924 3.8573928269445368 0 3.8573928269445368 -14.155872746934932 0 0 0 0 1.4264961514062868 2.5368417642439454 0 2.5368417642439454 -12.416976855248791 0 0 0 0 5.5589255120794405 1.7365118107409216 0 1.7365118107409216 -6.6980228644388262 0 0 0 0 4.1180918978266163 -4.5483352940545956 0 -4.5483352940545956 -20.514577120484319 0 0 0 0 4.4528239725298846 -1.3658693388826464 0 -1.3658693388826464 -17.875858533142335 0 0 0 0 5.3374192714727542 5.7431048387516057 0 5.7431048387516057 -23.071173903041199 0 0 0 0 -2.1301278767823284 11.397514739173772 0 11.397514739173772 -19.694799507756073 0 0 0 0 2.8138442741692415 9.4519139926196658 0 9.4519139926196658 -12.246222666770336 0 0 0 0 32.582749616167348 42.494074091307994 0 42.494074091307994 -34.260224880563328 0 0 0 0 54.264261255730162 28.465809146000538 0 28.465809146000538 -77.630706774300052 0 0 0 0 8.8530753795239434 -1.942647741510882 0 -1.942647741510882 -47.663632230607618 0 0 0 0 -33.356785404965194 -11.839338144563953 0 -11.839338144563953 -16.842501898878254 0 0 0 0 -17.95795453194296 -16.928999290408683 0 -16.928999290408683 -31.980052716608043 0 0 0 0 13.668754486572652 -1.5183318783419963 0 -1.5183318783419963 -51.522315433598123 0 0 0 0 4.0799237814694607 -5.1285100183049508 0 -5.1285100183049508 -28.844144015922211 0 0 0 0 0.35062708505036966 -0.26476163269884978 0 -0.26476163269884978 -1.7196664925882175 0 0 0 0 80.62597360680229 30.873396610870259 0 30.873396610870259 -9.0837406799018936 0 0 0 0 -10.54377082571682 -48.8608011375145 0 -48.8608011375145 -71.219686433818424 0 0 0 0 71.90273911967779 58.393608736718306 0 58.393608736718306 -33.724417555443324 0 0 0 0 29.193970200124568 -28.023386290646158 0 -28.023386290646158 -102.48825001287332 0 0 0 0 40.356379392409508 68.328026679711911 0 68.328026679711911 20.375299073621136 0 0 0 0 -1.7363740146081419 9.1061170653187347 0 9.1061170653187347 -15.295177071537836 0 0 0 0 56.14080971878866 2.3715519918987411 0 2.3715519918987411 -107.60890002483848 0 0 0 0 0.5529657315237273 11.482042721610924 0 11.482042721610924 -17.470162173569406 0 0 0 0 0.70831265048036585 12.675670452219492 0 12.675670452219492 -18.176541318265663 0 0 0 0 0.37755615391733954 12.323910843811973 0 12.323910843811973 -20.838624811833142 0 0 0 0 0.48979925470848684 5.112318277493614 0 5.112318277493614 -11.050097317151085 0 0 0 0 -0.84059147713560378 10.552609123627917 0 10.552609123627917 -17.586431496871228 0 0 0 0 -2.6031577913428716 5.4267875591802408 0 5.4267875591802408 -12.405304193923371 0 0 0 0 0.41407789759293223 6.7750290868515322 0 6.7750290868515322 -19.175432399577403 0 0 0 0 -0.3502070896256555 6.3732854553418292 0 6.3732854553418292 -7.2480422578300931 0 0 0 0 -0.16054432168766652 7.3436857115038947 0 7.3436857115038947 -10.926445769480779 0 0 0 0 1.4352237003467962 5.3500396529379941 0 5.3500396529379941 -10.972419834324683 0 0 0 0 5.2362624918687288 -0.9031468866198793 0 -0.9031468866198793 -4.3917089810856851 0 0 0 0 5.7848437540324085 7.2232134272162511 0 7.2232134272162511 -7.6137151813245509 0 0 0 0 -3.6980933177601401 3.6203745519815129 0 3.6203745519815129 -6.2503230373549741 0 0 0 0 -9.9039374550394541 -32.481213974210277 0 -32.481213974210277 -63.280531999887899 0 0 0 0 -1.8818655875649384 3.6512370014764315 0 3.6512370014764315 -6.2324917943488174 0 0 0 0 -12.92907060191169 -7.5204239963127293 0 -7.5204239963127293 -32.083051190013066 0 0 0 0 -0.3710541544149919 7.7115258623340139 0 7.7115258623340139 -17.45152579882479 0 0 0 0 14.263915049856678 24.525877993327413 0 24.525877993327413 -36.267748959835444 0 0 0 0 23.84844000275416 -1.4682897788761693 0 -1.4682897788761693 -83.61946118355263 0 0 0 0 -8.4923295153193976 6.8788549177515961 0 6.8788549177515961 -14.729159206799523 0 0 0 0 109.17110329214756 -167.17205445498257 0 -167.17205445498257 -208.89578175664064 0 0 0 0 -13.31779913606897 37.567900645852205 0 37.567900645852205 2.9085998997543356 0 0 0 0 -7.1959723031613567 13.268731905598912 0 13.268731905598912 -15.053329475585301 0 0 0 0 -8.3782562956034781 15.801969830150483 0 15.801969830150483 -25.289291451510508 0 0 0 0 0.1197927545176185 0.86946524884321974 0 0.86946524884321974 -2.9039560830476603 0 0 0 0 -143.27737314664046 7.6297712503874209 0 7.6297712503874209 -2.1698126321789459 0 0 0 0 -38.832049213808205 -15.766013453907362 0 -15.766013453907362 -2.9134074414432689 0 0 0 0 -41.868355796363176 40.789704033770249 0 40.789704033770249 -16.37402399606799 0 0 0 0 49.338849367146395 54.804054755448306 0 54.804054755448306 -128.40948335173016 0 0 0 0 -2.1655341379846504 30.163062030456786 0 30.163062030456786 -38.952188512150315 0 0 0 0 1.3317539020899858 91.014961392487749 0 91.014961392487749 -72.629053117831063 0 0 0 0 0.60183703831416935 6.2169747636214936 0 6.2169747636214936 -6.607171412669274 0 0 0 0 -524.42778447525052 -133.22447998868302 0 -133.22447998868302 33.963386274816003 0 0 0 0 -200.17339758277922 156.10752984834107 0 156.10752984834107 20.377185685065342 0 0 0 0 -121.43947716131879 288.31864797998423 0 288.31864797998423 240.10229550427175 0 0 0 0 9.3923023813160853 151.76361213874134 0 151.76361213874134 -269.42871513491264 0 0 0 0 170.54726298167225 529.57287013919267 0 529.57287013919267 -167.19472696986122 0 0 0 0 28.850124646873155 13.213825739672757 0 13.213825739672757 -135.91210395775852 0 0 0 0 19.03107514421572 41.011426566998125 0 41.011426566998125 -13.13428504823969 0 0 0 0 278.7831759490623 -311.44890534435763 0 -311.44890534435763 -0.58792127060587518 0 0 0 0 62.613644381248378 7.2883857432025252 0 7.2883857432025252 -223.93003182531538 0 0 0 0 14.384938302207502 12.677306320791104 0 12.677306320791104 -19.375323642481817 0 0 0 0 -1.9258886797414583 -1.6006658538822336 0 -1.6006658538822336 -2.3872932224671075 0 0 0 0 3.7466784841202134 3.3973660259747902 0 3.3973660259747902 -9.1837703268020618 0 0 0 0 60.615521211207692 -29.265204428241759 0 -29.265204428241759 -8.2588103735397453 0 0 0 0 -0.94809575989984296 60.284119157855457 0 60.284119157855457 66.232144817364315 0 0 0 0 -6.285972375104393 17.587671681896609 0 17.587671681896609 0.78065659531785059 0 0 0 0 12.879542281885278 12.477822556995307 0 12.477822556995307 -4.2201556849831832 0 0 0 0 1.2554696414389532 6.4678569410835394 0 6.4678569410835394 -12.937745818375475 0 0 0 0 37.552133290572783 36.749756024135422 0 36.749756024135422 38.59903441118513 0 0 0 0 44.744651165752657 103.8801663139202 0 103.8801663139202 49.257047127735859 0 0 0 0 -19.320549134651628 77.61447909596609 0 77.61447909596609 21.678001061460236 0 0 0 0 44.876746966982139 40.09352298098414 0 40.09352298098414 43.586530927103013 0 0 0 0 -62.760245082470647 22.264222899309971 0 22.264222899309971 63.0412312642693 0 0 0 0 -6.4587648069591523 56.154810781597917 0 56.154810781597917 -11.743096843905732 0 0 0 0 -69.475335240806089 -21.514405521415028 0 -21.514405521415028 -38.905328273214309 0 0 0 0 -104.30962114973863 74.678034141903481 0 74.678034141903481 15.5350694572262 0 0 0 0 -48.373918500086802 43.305725487276504 0 43.305725487276504 63.884193420715746 0 0 0 0 -18.801906733625174 36.840849359836852 0 36.840849359836852 67.779910725315858 0 0 0 0 -13.785558993678592 -51.197788548250628 0 -51.197788548250628 73.848446813062765 0 0 0 0 -5.4552773351178985 11.835865053097223 0 11.835865053097223 99.579549296810001 0 0 0 0 3.7074440496144447 2.2383996361932077 0 2.2383996361932077 -0.85262586167512211 0 0 0 0 -62.284418479202031 9.7942522162011301 0 9.7942522162011301 -3.0418124468087626 0 0 0 0 -18.445472022932563 -52.634863259369467 0 -52.634863259369467 -220.84212760107039 0 0 0 0 -1.7221720045265556 0.70991286431962664 0 0.70991286431962664 -0.047668780526564092 0 0 0 0 -13.913233484421653 84.739601947159827 0 84.739601947159827 -167.2148731532925 0 0 0 0 -29.505365620395423 -13.317166475553677 0 -13.317166475553677 -100.34854940690275 0 0 0 0 -47.388152383031695 93.573659534871695 0 93.573659534871695 -95.970322332337673 0 0 0 0 -36.61960868101869 63.508425475065451 0 63.508425475065451 -56.060437347528932 0 0 0 0 -15.978088503613435 20.305507542427222 0 20.305507542427222 -156.82395301268116 0 0 0 0 -20.800160206650162 35.123918253975717 0 35.123918253975717 -65.195704361649405 0 0 0 0 -25.102658856900916 34.395373360357553 0 34.395373360357553 -47.100066696853901 0 0 0 0 -1.1679463241489429 71.363146779778617 0 71.363146779778617 -71.212690782511345 0 0 0 0 -35.638415410725429 55.833177417067418 0 55.833177417067418 -74.461412846376334 0 0 0 0 -18.657263042437989 90.404577710138255 0 90.404577710138255 -110.32528449699748 0 0 0 0 0.982840936699791 -0.25506762718792686 0 -0.25506762718792686 -0.34207184926644629 0 0 0 0 1.6119994599185254 0.89112890329882077 0 0.89112890329882077 0.69645410347436609 0 0 0 0 -30.2435699658663 -23.015637997945305 0 -23.015637997945305 205.64140974987095 0 0 0 0 44.664427873162822 -52.366038628621027 0 -52.366038628621027 44.52890193258645 0 0 0 0 -50.819682986864549 -64.264457713859883 0 -64.264457713859883 53.750792920021922 0 0 0 0 -18.107410280431395 -88.128310649532068 0 -88.128310649532068 255.77627433488669 0 0 0 0 33.56946399339995 27.940360992459318 0 27.940360992459318 34.871073444213835 0 0 0 0 -10.198824527255354 14.267163920470921 0 14.267163920470921 15.298045012903458 0 0 0 0 3.8290571025231515 45.457009027784807 0 45.457009027784807 -10.553304447304981 0 0 0 0 -8.7318980862933131 18.318899690144463 0 18.318899690144463 -29.486631182619021 0 0 0 0 -19.581106424800424 34.62349507764884 0 34.62349507764884 -14.33895769364608 0 0 0 0 -77.031076408411877 -86.432973036906333 0 -86.432973036906333 -14.590629109297879 0 0 0 0 -0.36128252953345108 0.1443156099107199 0 0.1443156099107199 0.55856776602959712 0 0 0 0 -50.137853778229875 14.05454061607179 0 14.05454061607179 -4.0574535072373692 0 0 0 0 2.1227650317324915 -1.8056083852560789 0 -1.8056083852560789 -2.7001462219944301 0 0 0 0 27.510591334884914 -2.0118460500598303 0 -2.0118460500598303 -24.178801033020136 0 0 0 0 27.247903343722584 8.4776771724609716 0 8.4776771724609716 -14.053584044188028 0 0 0 0 1.7270974934947496 6.4441236434322491 0 6.4441236434322491 -34.820477928704349 0 0 0 0 -16.532260967782811 9.5573491879622452 0 9.5573491879622452 -14.738722826587036 0 0 0 0 11.00119768121629 -11.722396817378467 0 -11.722396817378467 -6.9308075229928363 0 0 0 0 -15.650185070485612 14.167778423274285 0 14.167778423274285 -43.804169510432985 0 0 0 0 -13.641869214362648 19.205370953211968 0 19.205370953211968 -54.486795050288492 0 0 0 0 -11.124591262422173 23.369037040130934 0 23.369037040130934 -47.633937542181229 0 0 0 0 -0.020318556599611105 9.8011741603913833 0 9.8011741603913833 -34.000840515465825 0 0 0 0 0.00084289591873321426 26.884493425775872 0 26.884493425775872 -58.55335825678776 0 0 0 0 -20.897963538633398 28.356848311501381 0 28.356848311501381 -49.582195169281476 0 0 0 0 -27.448317522702254 36.706331557987141 0 36.706331557987141 -40.102353873553511 0 0 0 0 -19.485281015278353 27.672395035137015 0 27.672395035137015 -48.402397237150581 0 0 0 0 -19.503967397944479 23.055538430868182 0 23.055538430868182 -31.481339690304594 0 0 0 0 -23.936304643258122 26.81476680163496 0 26.81476680163496 -100.14960896683624 0 0 0 0 -23.747727766954142 48.248140918236459 0 48.248140918236459 -61.429878976516193 0 0 0 0 -8.1166878660812127 38.550952709079866 0 38.550952709079866 -75.316928768479556 0 0 0 0 -23.669493493902209 53.604400691110641 0 53.604400691110641 -84.063434071034862 0 0 0 0 -0.092113204914689911 39.745356294109001 0 39.745356294109001 -97.390506040603213 0 0 0 0 -18.440485984669294 7.5730439217732055 0 7.5730439217732055 -81.617985656164819 0 0 0 0 38.364716620600603 -64.427096966261161 0 -64.427096966261161 -46.035490276855853 0 0 0 0 -16.716579117750371 8.802514071976475 0 8.802514071976475 -143.32906273395929 0 0 0 0 -21.643450761499437 22.575004378144513 0 22.575004378144513 -60.06507216564205 0 0 0 0 -193.62650364772014 -21.522052245771192 0 -21.522052245771192 -72.37700099759968 0 0 0 0 -85.503194505201066 92.118662797656725 0 92.118662797656725 -132.76473502135013 0 0 0 0 2.0358590435814428 35.087435997264038 0 35.087435997264038 -55.913186765508726 0 0 0 0 -1.6320210575549936 -32.297980020899558 0 -32.297980020899558 -26.376228018023539 0 0 0 0 -44.072205448849559 -75.022165904330905 0 -75.022165904330905 -55.618507256789599 0 0 0 0 -43.916496927448065 -58.258361428190256 0 -58.258361428190256 -17.095089420356089 0 0 0 0 18.157554497212004 -61.049879032390891 0 -61.049879032390891 -41.845184227713617 0 0 0 0 -85.152918525696606 -34.119908817112446 0 -34.119908817112446 -76.360582516907016 0 0 0 0 -91.225703733229182 -64.715547331943526 0 -64.715547331943526 -152.79942983583896 0 0 0 0 -41.868977548154305 -5.0132048359955661 0 -5.0132048359955661 -81.667621827931725 0 0 0 0 -4.6571124486663393 -23.95057532460487 0 -23.95057532460487 -90.355866465833969 0 0 0 0 -16.615808806139512 -31.017403482284863 0 -31.017403482284863 -98.269328815033077 0 0 0 0 -17.622906007822891 -28.820237942956737 0 -28.820237942956737 -21.32683915249072 0 0 0 0 27.094834528179376 0.62935025960905477 0 0.62935025960905477 -72.471115587541135 0 0 0 0 39.974310223137536 61.786485266115051 0 61.786485266115051 -123.63092516071629 0 0 0 0 -166.41845629651434 168.78409222961272 0 168.78409222961272 -111.6870471273869 0 0 0 0 0.22098649372114718 0.08081125024625635 0 0.08081125024625635 -2.067443360583411 0 0 0 0 0.80930174402851662 6.6931674317602301 0 6.6931674317602301 -190.87445831479272 0 0 0 0 13.418392100306846 29.982666991705628 0 29.982666991705628 -38.362528712797939 0 0 0 0 201.53630323895987 53.435589754677494 0 53.435589754677494 -138.07991264695011 0 0 0 0 0.73509267076074392 6.2453002443803074 0 6.2453002443803074 -30.429113754709675 0 0 0 0 39.586921886207747 62.340248917670579 0 62.340248917670579 -44.958822893328033 0 0 0 0 3.7650163586466556 1.2588848921423335 0 1.2588848921423335 -14.020163979129762 0 0 0 0 -14.150082429556278 11.411767782614334 0 11.411767782614334 -15.179942550610576 0 0 0 0 0.27341335972814718 0.53294122915690068 0 0.53294122915690068 -0.86707573522144799 0 0 0 0 -24.662852257519262 -26.159441683004843 0 -26.159441683004843 -13.768661822847207 0 0 0 0 -50.135940943163178 37.481046477347263 0 37.481046477347263 -19.332589663186809 0 0 0 0 -2.3222807368285689 2.1146795643470995 0 2.1146795643470995 -6.236826529254742 0 0 0 0 4.1513233919609718 0.45957280356878982 0 0.45957280356878982 -10.021951908944175 0 0 0 0 2.8443873025928479 1.7497769077479148 0 1.7497769077479148 -14.002091200969687 0 0 0 0 -1.1070996405566405 3.3255396015763381 0 3.3255396015763381 -21.623420593037736 0 0 0 0 3.6003944258674099 1.1579803467812386 0 1.1579803467812386 -12.531377109320346 0 0 0 0 -0.95447540365967143 5.2345626868955151 0 5.2345626868955151 -23.316745468269801 0 0 0 0 190.65629720346081 -72.354548791998241 0 -72.354548791998241 -61.346078267059056 0 0 0 0 -0.96730855005243244 6.6468698623177334 0 6.6468698623177334 -25.259342160046572 0 0 0 0 58.781333916964513 -17.383906750095775 0 -17.383906750095775 -37.800165615655715 0 0 0 0 123.44911999038197 -71.495385715097655 0 -71.495385715097655 -23.447297146718483 0 0 0 0 118.78964515229546 -96.930633636318817 0 -96.930633636318817 16.448956820589956 0 0 0 0 54.450770960042746 26.028804086527089 0 26.028804086527089 31.89449113124283 0 0 0 0 82.70223771666214 -60.133335380563381 0 -60.133335380563381 60.449631855153712 0 0 0 0 82.876360419738148 -24.14658652440994 0 -24.14658652440994 -24.473958864929045 0 0 0 0 31.070792359331506 -18.326750808366342 0 -18.326750808366342 17.365332287503406 0 0 0 0 16.185812490095245 13.552592312105787 0 13.552592312105787 -11.657320358935976 0 0 0 0 -0.25615297846603136 5.1463471777797647 0 5.1463471777797647 -11.362720990880831 0 0 0 0 19.549211060011658 8.8771231000864645 0 8.8771231000864645 -19.708543769491371 0 0 0 0 2.8392717767301292 7.3424717412926839 0 7.3424717412926839 -16.432281832789158 0 0 0 0 -0.042848918626946286 4.2145154133313838 0 4.2145154133313838 -12.518233354775774 0 0 0 0 2.4637610475128895 2.803561822642223 0 2.803561822642223 -18.407106352417031 0 0 0 0 3.9904345468694373 5.7297190442477586 0 5.7297190442477586 -19.637138000536652 0 0 0 0 3.4375796480162535 6.0874953536113026 0 6.0874953536113026 -16.973222894375795 0 0 0 0 2.5471706847094993 1.8708478023418138 0 1.8708478023418138 -9.9521374659234425 0 0 0 0 3.6773890571804912 4.3770663471417919 0 4.3770663471417919 -13.772688590528503 0 0 0 0 -9.6689986645294539 -10.324290573087637 0 -10.324290573087637 -2.7629869191441685 0 0 0 0 42.458859340180879 -18.542670729759266 0 -18.542670729759266 -24.192567867065009 0 0 0 0 8.1540918749656157 -4.3043987833807478 0 -4.3043987833807478 -23.653032719623297 0 0 0 0 1.3551066233030724 6.03997918159439 0 6.03997918159439 -22.138489169538843 0 0 0 0 2.0209055564464506 -3.6813955530888052 0 -3.6813955530888052 -20.998834810008702 0 0 0 0 2.1152106961783232 1.7274600823585615 0 1.7274600823585615 -35.773352949574473 0 0 0 0 -5.6241744497910986 13.997318498819368 0 13.997318498819368 -38.690659098028846 0 0 0 0 -8.0564395505462016 0.53624415196463815 0 0.53624415196463815 -21.867014571467735 0 0 0 0 9.1645333194237537 5.2365982635419641 0 5.2365982635419641 -22.151242965788697 0 0 0 0 7.4897684047209623 7.0585700332085253 0 7.0585700332085253 -19.839280500862515 0 0 0 0 -0.35319113175539024 4.9256827283816031 0 4.9256827283816031 -19.572865499887286 0 0 0 0 1.1051711074592276 11.792615134221705 0 11.792615134221705 -37.018414644175209 0 0 0 0 3.3794311294074717 1.855553716115466 0 1.855553716115466 -15.552602039393832 0 0 0 0 4.1441268269045395 7.4967146696653799 0 7.4967146696653799 -15.092824988809298 0 0 0 0 -0.051626791355353419 11.794993205972062 0 11.794993205972062 -17.569629888053072 0 0 0 0 10.925494074790549 2.2659558726081741 0 2.2659558726081741 -16.837445917582954 0 0 0 0 3.9409956072288579 2.4675637245859079 0 2.4675637245859079 -17.421707718135963 0 0 0 0 5.0224566482011141 4.9852477586591704 0 4.9852477586591704 -18.295538100035628 0 0 0 0 6.4352088082165118 -0.21392375499763006 0 -0.21392375499763006 -21.826417253246461 0 0 0 0 -24.440741970058298 9.0436345434645773 0 9.0436345434645773 -19.266706048249034 0 0 0 0 -18.930011968937379 18.902610560802714 0 18.902610560802714 -27.021798428235343 0 0 0 0 -0.68427644680991762 6.7192362756518946 0 6.7192362756518946 -23.641612684863503 0 0 0 0 4.5068988760268631 -0.91482704532666048 0 -0.91482704532666048 -7.2498026185916729 0 0 0 0 -13.311025103641441 12.708218384097563 0 12.708218384097563 -25.873776344727958 0 0 0 0 0.1080876827798285 3.9758187788626458 0 3.9758187788626458 -13.093806698111848 0 0 0 0 -4.3068584185766667 6.0927270977845183 0 6.0927270977845183 -26.506586464413886 0 0 0 0 -10.759299692375862 2.4263508696494682 0 2.4263508696494682 -25.28761782188667 0 0 0 0 -3.1231223010636313 19.111094813371892 0 19.111094813371892 -47.039059562870534 0 0 0 0 -22.888500200474482 16.478421082989371 0 16.478421082989371 -23.330012320511742 0 0 0 0 -13.915452950690451 12.659490787278628 0 12.659490787278628 -21.763011788701988 0 0 0 0 -10.393422262523018 12.46802558748459 0 12.46802558748459 -22.367610794972279 0 0 0 0 0.8756470955986515 4.4607709344454634 0 4.4607709344454634 -26.261027345201001 0 0 0 0 -10.960905453652231 11.637219536176417 0 11.637219536176417 -23.044553230487509 0 0 0 0 -0.9866246208521261 8.8304620249691652 0 8.8304620249691652 -27.439502311419346 0 0 0 0 -1.8026489597036743 1.592174803423859 0 1.592174803423859 -13.789540935540572 0 0 0 0 -7.01928334322929 12.234444131030614 0 12.234444131030614 -14.21908426077789 0 0 0 0 -48.460282090822147 -4.387816317655961 0 -4.387816317655961 12.173684033143218 0 0 0 0 -3.7485931045632821 2.7910581175171671 0 2.7910581175171671 2.486261562226403 0 0 0 0 14.685164846045382 19.683550149426082 0 19.683550149426082 -39.413863281428348 0 0 0 0 -27.149468362789776 24.062240303115686 0 24.062240303115686 -18.129336217578384 0 0 0 0 -0.53640788321056831 0.071679518541721166 0 0.071679518541721166 0.37711624179425485 0 0 0 0 -1.4396759658169958 5.311333560601545 0 5.311333560601545 -12.501171054643549 0 0 0 0 -2.4991612348030685 11.960213770937116 0 11.960213770937116 -17.581536434787267 0 0 0 0 0.0019949279339925852 5.1694942773647199 0 5.1694942773647199 -10.576999197968689 0 0 0 0 19.813060363757813 36.24517082989405 0 36.24517082989405 -20.11808350298088 0 0 0 0 -2.044313043576734 6.2718175141980126 0 6.2718175141980126 -15.174841553686434 0 0 0 0 139.44564423880698 -16.013388850165938 0 -16.013388850165938 -36.715982163899753 0 0 0 0 16.275161894805024 3.6505314403548255 0 3.6505314403548255 -26.63348102002783 0 0 0 0 1.9825662627049496 2.6208144095570276 0 2.6208144095570276 -15.361472204685271 0 0 0 0 0.96239840215139338 6.0690837450529216 0 6.0690837450529216 -23.177661509151221 0 0 0 0 14.511096811508708 4.9890098612049769 0 4.9890098612049769 -19.186094340286218 0 0 0 0 2.2391204110062932 0.81629178940598379 0 0.81629178940598379 -14.086109134757407 0 0 0 0 -1.2469461880718882 -2.1010893459315412 0 -2.1010893459315412 -6.3398708442764473 0 0 0 0 -3.2901255753477017 14.894778258330916 0 14.894778258330916 -14.788468878251479 0 0 0 0 3.7971965200440536 -5.3444545883066894 0 -5.3444545883066894 -4.5649639334733365 0 0 0 0 -0.18005034248186425 3.5934182444557869 0 3.5934182444557869 -11.052713245274703 0 0 0 0 5.8435058969162128 -6.9776128449011594 0 -6.9776128449011594 -17.833093605746399 0 0 0 0 -19.594175965794136 -32.428263986788807 0 -32.428263986788807 -10.029459997516824 0 0 0 0 44.58238861237345 -53.104254166584724 0 -53.104254166584724 -38.115420242624168 0 0 0 0 42.808645771988267 -40.148801126204489 0 -40.148801126204489 -15.495194063420058 0 0 0 0 5.9322673866381592 -4.0126359390983453 0 -4.0126359390983453 -30.517442784301238 0 0 0 0 1.1891604267762408 1.6548477141428761 0 1.6548477141428761 -20.572841244319108 0 0 0 0 -1.0585447952267089 0.55004891827456959 0 0.55004891827456959 -18.117493951664073 0 0 0 0 -0.81785169516638234 -0.68885954751385725 0 -0.68885954751385725 -16.94767614002194 0 0 0 0 0.59706808654477195 1.3279289629033428 0 1.3279289629033428 -19.897160280820287 0 0 0 0 -0.32981645002827298 8.4849509448848934 0 8.4849509448848934 -22.40555979824228 0 0 0 0 15.775666542666841 -4.6598847928689793 0 -4.6598847928689793 -16.071060180693166 0 0 0 0 25.866867047161577 -1.619622862272081 0 -1.619622862272081 -13.135531070409343 0 0 0 0 -29.777933502192354 16.218977185162657 0 16.218977185162657 -8.3367008627974428 0 0 0 0 10.548927483837991 -11.435203236588222 0 -11.435203236588222 -16.150006131778895 0 0 0 0 3.5358933289663397 -0.79566588477184297 0 -0.79566588477184297 -15.697718607344996 0 0 0 0 3.7417472995649366 -0.29349975578881704 0 -0.29349975578881704 -23.39206907544667 0 0 0 0 -29.146432973327279 -31.01707828279018 0 -31.01707828279018 47.490847766021034 0 0 0 0 -26.932450542067272 11.756808132488914 0 11.756808132488914 -9.1527817178284749 0 0 0 0 -1.2902373687827371 0.8499129109852408 0 0.8499129109852408 -1.3047663352982966 0 0 0 0 -12.883459896118438 -1.620946895563975 0 -1.620946895563975 -7.5244759790148237 0 0 0 0 -9.0353058503915236 158.2284505324933 0 158.2284505324933 -209.41488499238039 0 0 0 0 -0.87159726592393838 0.96088523154880079 0 0.96088523154880079 -1.2826267166284708 0 0 0 0 -262.23900066234773 175.61551823502305 0 175.61551823502305 91.061148441935075 0 0 0 0 -35.286743646175637 121.02073712748097 0 121.02073712748097 -126.19006015791092 0 0 0 0 -14.019215842619815 87.21236604693695 0 87.21236604693695 -206.48872165795183 0 0 0 0 -16.609220700354854 -51.436058868559485 0 -51.436058868559485 84.07554791875009 0 0 0 0 21.295222228451166 39.713694094461971 0 39.713694094461971 -201.2998792888684 0 0 0 0 84.491217950851933 -168.3832071225479 0 -168.3832071225479 -119.67744647222207 0 0 0 0 -0.63623927711739059 1.8228146491564328 0 1.8228146491564328 -0.60443164148460937 0 0 0 0 -5.0541489701772662 31.664880500764411 0 31.664880500764411 -23.229516227191198 0 0 0 0 -7.3424384535300788 -11.604096620046789 0 -11.604096620046789 -1.5753235672891606 0 0 0 0 -2.3748065844722079 7.1545718000782301 0 7.1545718000782301 -20.316549849166137 0 0 0 0 -3.8890247316548994 -1.0048358042440668 0 -1.0048358042440668 -22.173421098224935 0 0 0 0 41.422279916107193 12.344617704746554 0 12.344617704746554 -48.687954191118479 0 0 0 0 -2.4168619307228623 3.1420987277591692 0 3.1420987277591692 -18.73631619029203 0 0 0 0 17.643307109608031 5.0370885565353092 0 5.0370885565353092 -34.118774884424056 0 0 0 0 -2.3317226129765913 -2.7220184125180822 0 -2.7220184125180822 -19.971099977781705 0 0 0 0 -24.90418406506069 -31.040051260664768 0 -31.040051260664768 -53.098442129157775 0 0 0 0 15.242443977026596 15.302820902765234 0 15.302820902765234 -73.469870873232139 0 0 0 0 -16.461326753953472 13.365513461278169 0 13.365513461278169 -38.893855671121855 0 0 0 0 -20.050236526344634 38.312129985664797 0 38.312129985664797 -145.39521832040919 0 0 0 0 -9.8017250685838917 73.884046781302459 0 73.884046781302459 -45.499808302512974 0 0 0 0 -15.751953230347681 -37.846962632407667 0 -37.846962632407667 -130.02542442765844 0 0 0 0 -1.3833458395028817 0.57951135031225931 0 0.57951135031225931 0.055885579783904404 0 0 0 0 6.959543556936751 -21.554985297072562 0 -21.554985297072562 -18.992606119652919 0 0 0 0 49.72520302293492 -36.032362012083468 0 -36.032362012083468 -9.9555663725623162 0 0 0 0 4.1039598676297828 -34.430448454884754 0 -34.430448454884754 -2.7044355940997775 0 0 0 0 -1.1581318370781446 2.5994381356467784 0 2.5994381356467784 -23.449462579248575 0 0 0 0 12.28955018555871 -16.880682599185093 0 -16.880682599185093 -28.436543698346213 0 0 0 0 0.025487914967789349 1.8840086254419273 0 1.8840086254419273 -24.17119317880551 0 0 0 0 -0.76727331154389411 1.1510343927930933 0 1.1510343927930933 -6.3711195335178274 0 0 0 0 -0.68893173989736622 5.3609872376406731 0 5.3609872376406731 -14.275695638519039 0 0 0 0 -21.647076731384914 13.052151683492411 0 13.052151683492411 -8.0064208700787276 0 0 0 0 2.769492806397011 7.0921878181434295 0 7.0921878181434295 -16.500801668764325 0 0 0 0 -10.451275456203348 19.805954592724447 0 19.805954592724447 -8.8722085330373375 0 0 0 0 6.0978625081593236 14.708094808662281 0 14.708094808662281 -18.308201056679536 0 0 0 0 7.0028438035801628 23.379410195000673 0 23.379410195000673 32.119010226619139 0 0 0 0 -7.064919202564397 8.1020648551057093 0 8.1020648551057093 -17.945823889960593 0 0 0 0 16.193437688340282 -22.026701773334935 0 -22.026701773334935 -56.201667450724926 0 0 0 0 -1.0403570755647706 10.016372509493522 0 10.016372509493522 -18.191106255469094 0 0 0 0 -10.807295842640087 32.91789599283652 0 32.91789599283652 -13.299828888484626 0 0 0 0 -16.612523471949885 -14.80343999552224 0 -14.80343999552224 6.673914398154011 0 0 0 0 3.0372339616128556 -16.359988754331425 0 -16.359988754331425 -16.064501010971071 0 0 0 0 -3.5327127979677639 8.9254598697009015 0 8.9254598697009015 -18.739994855440102 0 0 0 0 16.207631520247787 33.122577157919295 0 33.122577157919295 -6.0039526309265057 0 0 0 0 -24.791273925674886 -5.5169257687884965 0 -5.5169257687884965 8.6428600995695888 0 0 0 0 -29.913740806342048 31.461294697066478 0 31.461294697066478 -49.622957881676484 0 0 0 0 -43.908463449210558 51.134126189179369 0 51.134126189179369 -6.6102591142989695 0 0 0 0 -1.0069757639424584 0.1895693851972311 0 0.1895693851972311 0.43331868936849105 0 0 0 0 -7.5151970641004482 -11.78500185476878 0 -11.78500185476878 -63.88092300225253 0 0 0 0 -7.8717549534312212 -6.7729438048975226 0 -6.7729438048975226 -17.073274981608847 0 0 0 0 5.4251407325059517 -7.1570901900340687 0 -7.1570901900340687 -29.323479099229928 0 0 0 0 -4.4565019149144973 13.414156752827694 0 13.414156752827694 -29.170154794764983 0 0 0 0 8.5250800991982487 0.24458105881058145 0 0.24458105881058145 -14.895552719332045 0 0 0 0 13.248297210075179 -3.0054090778867248 0 -3.0054090778867248 -16.407019338092141 0 0 0 0 2.5664368318586526 -15.156796643545022 0 -15.156796643545022 -15.955345780268544 0 0 0 0 2.1888704806988999 -0.23505989950909623 0 -0.23505989950909623 -12.348304447863086 0 0 0 0 10.529350198006952 0.63960417935231817 0 0.63960417935231817 -22.735803220741218 0 0 0 0 11.841858294634392 -3.8044281041293289 0 -3.8044281041293289 -13.107708115421701 0 0 0 0 4.6892389971228567 -8.3721612944791559 0 -8.3721612944791559 -18.70614660749925 0 0 0 0 0.21934198875057387 0.43469326724616053 0 0.43469326724616053 -4.164142077623552 0 0 0 0 6.3958917851732622 -12.141474600510264 0 -12.141474600510264 -12.25676508772267 0 0 0 0 2.4275383299200675 -1.0717382112712031 0 -1.0717382112712031 -12.783462730384912 0 0 0 0 23.754248447457485 -13.762630249504582 0 -13.762630249504582 -36.850151612437912 0 0 0 0 3.180923645482526 -0.17872727751007034 0 -0.17872727751007034 -15.087754929916343 0 0 0 0 5.3784497772702764 -11.579251622501033 0 -11.579251622501033 -12.841454787645489 0 0 0 0 1.5791318492982849 -0.49860883373274589 0 -0.49860883373274589 -2.987692369925071 0 0 0 0 6.4796255738257837 -13.159097451650268 0 -13.159097451650268 -21.583482174799428 0 0 0 0 23.335544423694557 20.33348106873018 0 20.33348106873018 -11.254546984826902 0 0 0 0 3.7357530801053542 -4.9758134361418342 0 -4.9758134361418342 -19.959342871108674 0 0 0 0 -10.346845748715559 -15.365875029296149 0 -15.365875029296149 -25.425249472995347 0 0 0 0 7.4426485900712578 -10.506531961182191 0 -10.506531961182191 -18.055946727967239 0 0 0 0 15.823799060086898 -3.4824075078031456 0 -3.4824075078031456 -17.633254087995738 0 0 0 0 16.175210694381732 -3.9461574637934973 0 -3.9461574637934973 -17.652412472598371 0 0 0 0 15.83040573568611 25.968893957960972 0 25.968893957960972 -19.294101452542236 0 0 0 0 -12.452590291239844 60.225751195403063 0 60.225751195403063 20.031276858004276 0 0 0 0 -8.7198792205499487 -16.32262256964168 0 -16.32262256964168 -61.133784771803221 0 0 0 0 -0.090256609929377868 0.090472100846298531 0 0.090472100846298531 0.32640047664688154 0 0 0 0 37.226107886925703 -3.1444003010346933 0 -3.1444003010346933 -36.641632355909678 0 0 0 0 -1.6387312203914632 -19.16404704573506 0 -19.16404704573506 21.191089649667674 0 0 0 0 -21.490196049332226 -55.481410091830185 0 -55.481410091830185 -39.916308409443445 0 0 0 0 1.5466725554702574 18.975259889652079 0 18.975259889652079 -90.715106589108473 0 0 0 0 0.0034698037978641294 6.7808587739273207 0 6.7808587739273207 -45.941137811933004 0 0 0 0 -35.135891298684982 11.179953289130935 0 11.179953289130935 -7.3896046046866104 0 0 0 0 10.690973825217638 30.314456861236977 0 30.314456861236977 1.8862662893297966 0 0 0 0 0.6809274380872381 -1.8850768600750598 0 -1.8850768600750598 8.3568313340711029 0 0 0 0 -0.33493708535626515 0.31298336715612152 0 0.31298336715612152 -0.10387364202176741 0 0 0 0 -24.324044565449825 -11.249333574531192 0 -11.249333574531192 -18.652756560513808 0 0 0 0 14.827772893072975 2.889608769408369 0 2.889608769408369 -8.4772826239823189 0 0 0 0 1.1309316125563189 -0.32364145584278958 0 -0.32364145584278958 -3.3048072769762769 0 0 0 0 34.192207990539139 21.827700313606329 0 21.827700313606329 -21.85572811444581 0 0 0 0 -19.07639176112589 18.592445956106531 0 18.592445956106531 -12.065802529810753 0 0 0 0 -0.015864928443845107 -10.569143401375186 0 -10.569143401375186 -51.311692097515333 0 0 0 0 19.595482896771543 -7.5816882853541756 0 -7.5816882853541756 -58.597164211823838 0 0 0 0 -0.13320357519255938 0.24248535868969157 0 0.24248535868969157 -0.26598685643412523 0 0 0 0 -34.339471975326376 -32.563649554736912 0 -32.563649554736912 -22.682803841136774 0 0 0 0 7.7990348175255466 4.9471796157813515 0 4.9471796157813515 -27.173995590841514 0 0 0 0 0.67070886876710212 2.329757889292523 0 2.329757889292523 -2.7968776885536499 0 0 0 0 26.285410859668445 -16.416046187223401 0 -16.416046187223401 -26.105627672219271 0 0 0 0 4.3885940502678515 -16.89705764559767 0 -16.89705764559767 -3.8179047758981142 0 0 0 0 15.133204767343159 2.4828605390066514 0 2.4828605390066514 -25.296849978694809 0 0 0 0 1.7197811666827145 -0.0027779273073562649 0 -0.0027779273073562649 -11.908216724125595 0 0 0 0 0.0065773051679677095 -1.2244455022009788 0 -1.2244455022009788 2.8019257331397966 0 0 0 0 0.68874584940979222 -1.0723416960699126 0 -1.0723416960699126 -1.7536393994686534 0 0 0 0 2.4426495903721568 -2.7064845916975173 0 -2.7064845916975173 -4.4559379683632869 0 0 0 0 20.615829537248374 9.285930325910158 0 9.285930325910158 -15.109301848770428 0 0 0 0 13.474206730314563 -4.5917302995439968 0 -4.5917302995439968 -13.521192983331275 0 0 0 0 -18.376214354276271 6.0681790640664985 0 6.0681790640664985 10.242323368787766 0 0 0 0 4.9817854015361718 -4.8405689842620632 0 -4.8405689842620632 -4.9920096839487087 0 0 0 0 6.7152539493731638 -20.470839082023303 0 -20.470839082023303 -13.595445945727988 0 0 0 0 2.2234182238807358 -0.71211810347602267 0 -0.71211810347602267 -11.630013978878651 0 0 0 0 1.0535688654710036 -0.27338269698441309 0 -0.27338269698441309 -3.7839182156810978 0 0 0 0 11.342846099208828 -3.2114716190262698 0 -3.2114716190262698 -61.49467676270433 0 0 0 0 11.18378819133909 10.427572137588868 0 10.427572137588868 -14.810199007955134 0 0 0 0 -13.403491985151959 -19.984148122799525 0 -19.984148122799525 -16.523728115127597 0 0 0 0 -91.664546550345221 63.564815777499462 0 63.564815777499462 -100.02890018159815 0 0 0 0 -0.40589715713995833 -0.27924959549281425 0 -0.27924959549281425 -0.42027080100372416 0 0 0 0 -11.518662666962115 -10.461962427725211 0 -10.461962427725211 -84.001497719058534 0 0 0 0 -0.65517916965604694 0.4622029197306432 0 0.4622029197306432 -0.02686596524728202 0 0 0 0 -41.084661541686728 35.091281774795789 0 35.091281774795789 0.15082201690529473 0 0 0 0 -28.629258454986768 4.4213153431974206 0 4.4213153431974206 -0.46185384742420865 0 0 0 0 -37.814737746657272 -65.244430607697723 0 -65.244430607697723 81.171727616689168 0 0 0 0 -5.2045528446977434 4.7681407026044553 0 4.7681407026044553 1.9214860960631199 0 0 0 0 -7.9472941458756168 29.764642271791672 0 29.764642271791672 -32.291667097088066 0 0 0 0 -25.477074541139409 -71.99088377579028 0 -71.99088377579028 101.76531114781756 0 0 0 0 50.246474607920874 -35.05943569540068 0 -35.05943569540068 -252.28331903766957 0 0 0 0 -38.391297260839949 59.077152824234872 0 59.077152824234872 -51.145769618073246 0 0 0 0 0.10136245731446214 1.0067220703349449 0 1.0067220703349449 -7.4029303844581591 0 0 0 0 1.4648527453038014 16.083370009004284 0 16.083370009004284 -17.691634007485845 0 0 0 0 -6.6351856713426969 10.233126989463926 0 10.233126989463926 -14.363955442364386 0 0 0 0 -0.50110049185230143 3.2718327171126163 0 3.2718327171126163 -9.7742127167429658 0 0 0 0 -5.2294921965325178 3.8657486670794441 0 3.8657486670794441 2.7418941219994508 0 0 0 0 0.0019598970697268766 0.94796008377306862 0 0.94796008377306862 -5.7191738102992531 0 0 0 0 -0.29761668009672348 1.7663106946401967 0 1.7663106946401967 -4.0597330652817618 0 0 0 0 0.33055292579172896 0.71466148740648094 0 0.71466148740648094 -4.5553947592165969 0 0 0 0 -69.777049310399775 -21.596433489597985 0 -21.596433489597985 97.21766347202356 0 0 0 0 -1.4254442999629813 2.3939484302067058 0 2.3939484302067058 -2.3111126212561146 0 0 0 0 -0.32093988566320508 0.62851498732609912 0 0.62851498732609912 -1.1596454663167322 0 0 0 0 -0.41842112846137491 0.24427672130807565 0 0.24427672130807565 -0.57662643532540869 0 0 0 0 -0.0042001009423571316 1.0272961488153669 0 1.0272961488153669 -2.0184048037044704 0 0 0 0 65.66463180265778 -17.772739963638742 0 -17.772739963638742 -476.56199106962595 0 0 0 0 44.205978689651239 -60.646624078937748 0 -60.646624078937748 -492.77930587218543 0 0 0 0 0.22994415933737772 5.489756326580391 0 5.489756326580391 -579.98048027984623 0 0 0 0 22.592717418260129 46.524320768592588 0 46.524320768592588 -665.47526257998834 0 0 0 0 -136.95593462773849 4.2474545962468255 0 4.2474545962468255 -584.4844314165166 0 0 0 0 -133.40659751147874 -15.524455346788272 0 -15.524455346788272 -564.65405919484328 0 0 0 0 -0.87105119707940903 1.0169040498002495 0 1.0169040498002495 -1.7914539519516097 0 0 0 0 15.915425055181386 119.3696570380398 0 119.3696570380398 -212.02307991094131 0 0 0 0 -83.273425936460541 -128.86900431747199 0 -128.86900431747199 -355.4616876617074 0 0 0 0 38.81340536157947 22.395712433480639 0 22.395712433480639 -619.83510654406564 0 0 0 0 94.685275464739902 25.57378428246011 0 25.57378428246011 -596.89468164232676 0 0 0 0 66.966208226637121 56.475199107844674 0 56.475199107844674 -278.30258184082231 0 0 0 0 110.72793380850517 -61.93736911855342 0 -61.93736911855342 -577.80458418188209 0 0 0 0 109.84059757671398 -104.25163045471828 0 -104.25163045471828 -729.89233995667018 0 0 0 0 174.90260858556337 -15.423951867815049 0 -15.423951867815049 -654.46226791877416 0 0 0 0 146.23163577357968 59.995930209151993 0 59.995930209151993 -638.91581061818579 0 0 0 0 107.05538459291554 -69.219321853172005 0 -69.219321853172005 -546.08363301159989 0 0 0 0 23.101581595835569 -73.295325177870836 0 -73.295325177870836 -41.0168021042482 0 0 0 0 69.612003523590843 112.87751084132469 0 112.87751084132469 -389.5908886605248 0 0 0 0 60.75004570749136 170.59816398539078 0 170.59816398539078 -706.58833960342599 0 0 0 0 -0.1381712362931834 -2.8889712692835587 0 -2.8889712692835587 -7.4158000750792041 0 0 0 0 331.26844846014433 -121.77715509738846 0 -121.77715509738846 -302.29262103971269 0 0 0 0 50.078232388272653 -92.168211907715886 0 -92.168211907715886 -40.692056652800261 0 0 0 0 11.643761428583389 -25.429910157585255 0 -25.429910157585255 61.551823129528202 0 0 0 0 120.78450312154739 18.533506425061205 0 18.533506425061205 33.117257264522777 0 0 0 0 49.88798892263938 13.171739187775529 0 13.171739187775529 52.500458286333014 0 0 0 0 -96.447874548347457 92.122319106092618 0 92.122319106092618 43.686363472168523 0 0 0 0 -0.07082740902162693 22.901558027964317 0 22.901558027964317 -378.7732963886956 0 0 0 0 26.352339002603443 92.371601156388351 0 92.371601156388351 -449.03066632286209 0 0 0 0 82.920669491308814 -167.04446779922546 0 -167.04446779922546 -110.70890844997484 0 0 0 0 -85.688997714493382 158.92163861689914 0 158.92163861689914 -435.45657869128627 0 0 0 0 0.016576015523283437 -0.46913875861573473 0 -0.46913875861573473 -2.8881167841556987 0 0 0 0 -277.26717421490838 -632.80144696495563 0 -632.80144696495563 -657.208792642974 0 0 0 0 -110.03352601690062 -50.220613666035206 0 -50.220613666035206 -146.59178068493202 0 0 0 0 -0.53737537169797234 0.28706696538371812 0 0.28706696538371812 -11.422367855398875 0 0 0 0 -619.62892360121452 847.7035734690885 0 847.7035734690885 -1063.4545591819551 0 0 0 0 -187.46994085365782 93.468714932758303 0 93.468714932758303 -1479.8932812794155 0 0 0 0 -49.221249797703649 -306.94593199259907 0 -306.94593199259907 -542.00864394209202 0 0 0 0 221.46657418161425 217.0789213591197 0 217.0789213591197 -421.60700903263569 0 0 0 0 17.233908963027403 -455.42718893252822 0 -455.42718893252822 115.17758749083805 0 0 0 0 -0.62460112561326664 -1.9055321324317163 0 -1.9055321324317163 -3.7409009326837861 0 0 0 0 -215.18079023480402 -321.52573447776012 0 -321.52573447776012 -377.33034592754848 0 0 0 0 -6.7236357410820062 -317.04337501462214 0 -317.04337501462214 -559.87066008637339 0 0 0 0 -10.500682193550119 -26.249725056441093 0 -26.249725056441093 -372.23397191739787 0 0 0 0 -129.30046915720141 -189.12589663596737 0 -189.12589663596737 -307.67861964090116 0 0 0 0 -162.29604964140634 34.984562641977391 0 34.984562641977391 -113.59407256837585 0 0 0 0 -67.244998388389945 -19.023141465639128 0 -19.023141465639128 -48.226757005446416 0 0 0 0 86.291615018316406 85.464807904703775 0 85.464807904703775 -84.683461903554416 0 0 0 0 196.33011807641992 -43.952376081782859 0 -43.952376081782859 -229.7291802524378 0 0 0 0 -0.057386919550394516 0.5247121216931605 0 0.5247121216931605 -28.273773141615095 0 0 0 0 121.08327389165009 53.071843863604556 0 53.071843863604556 -55.529282866627909 0 0 0 0 1.0723401315386625 2.3352022812195408 0 2.3352022812195408 -37.270948225058845 0 0 0 0 28.110963038606087 68.801635815838381 0 68.801635815838381 33.317698299833864 0 0 0 0 -7.8376005425368476 110.21469439406428 0 110.21469439406428 -10.893023720727797 0 0 0 0 0.47677305330769038 9.7071189789991763 0 9.7071189789991763 -12.969670443773225 0 0 0 0 2.598779441621442 2.5058736408046798 0 2.5058736408046798 -24.414758047583746 0 0 0 0 -2.9903589755458597 6.143890180872404 0 6.143890180872404 -21.700372700775915 0 0 0 0 -0.025703602103585299 3.6467520107340272 0 3.6467520107340272 -20.331576796381029 0 0 0 0 8.3481433605341309 10.123890643191487 0 10.123890643191487 -22.058023883480928 0 0 0 0 -10.549148236783367 -10.962039890826418 0 -10.962039890826418 -14.348044738100725 0 0 0 0 -22.20010245484093 -33.503585220438254 0 -33.503585220438254 -81.216536396677839 0 0 0 0 -4.6593630472391396 6.0857628331286833 0 6.0857628331286833 -29.487857523461571 0 0 0 0 -3.1378727066194596 10.926499201910957 0 10.926499201910957 -5.77997312288025 0 0 0 0 -65.919309920064393 83.477769281373185 0 83.477769281373185 98.743196732066281 0 0 0 0 11.861517741950138 -10.202168526631795 0 -10.202168526631795 -16.845919046972995 0 0 0 0 -33.694889129457351 61.346110515252803 0 61.346110515252803 -42.279624667877215 0 0 0 0 62.794591395286034 28.209277476591524 0 28.209277476591524 -145.80769896260608 0 0 0 0 -20.3949583281983 16.537788438348798 0 16.537788438348798 -24.819106252298297 0 0 0 0 -0.091775234738967093 -4.0017815025521486 0 -4.0017815025521486 -5.1882621651371039 0 0 0 0 0.17157017116915085 -2.1453575637860922 0 -2.1453575637860922 -25.871897342804004 0 0 0 0 -46.012804648679889 -1.0401141891561565 0 -1.0401141891561565 -25.614155565359397 0 0 0 0 -6.1939489732394577 23.725326163163118 0 23.725326163163118 -28.290582714646007 0 0 0 0 -14.239197125873034 13.727511864104599 0 13.727511864104599 -30.56744380001328 0 0 0 0 -14.607401347986979 15.05109574974631 0 15.05109574974631 -12.726398008788237 0 0 0 0 -9.1446826014439466 33.480337790013436 0 33.480337790013436 -20.049662064149743 0 0 0 0 -26.504062187628278 27.223370900348527 0 27.223370900348527 -18.975390031380812 0 0 0 0 14.408333203573285 -1.0353240249713735 0 -1.0353240249713735 -46.476931070414139 0 0 0 0 2.8605403399525073 7.4022095298860791 0 7.4022095298860791 -26.672903711325489 0 0 0 0 -1.0050503874234626 1.9901696956324155 0 1.9901696956324155 -21.407497913960384 0 0 0 0 -6.5744290270495185 7.2034333438059548 0 7.2034333438059548 -21.802013892054674 0 0 0 0 -11.942900855423886 7.1350053306268819 0 7.1350053306268819 -17.367529854105669 0 0 0 0 1.6581922134598068 -3.1467164178831268 0 -3.1467164178831268 -4.6544382816531993 0 0 0 0 0.54310707747734899 -2.8091717052667917 0 -2.8091717052667917 -7.5221311363666814 0 0 0 0 -0.61789242620488949 9.4735467083592084 0 9.4735467083592084 -29.118966927740985 0 0 0 0 -4.2510166057919889 3.1263356060021579 0 3.1263356060021579 -26.769420492753852 0 0 0 0 1.355490144249643 -0.27734500737278722 0 -0.27734500737278722 -23.965479232640064 0 0 0 0 25.809961622800301 12.315900385583518 0 12.315900385583518 -36.652093689735921 0 0 0 0 -2.0231048944287569 7.276725460483604 0 7.276725460483604 -19.235844100317166 0 0 0 0 -2.6369079378750939 4.4357636339045712 0 4.4357636339045712 -10.863710308040027 0 0 0 0 -0.84519952176001256 5.0738113951730206 0 5.0738113951730206 -15.856942367280425 0 0 0 0 -3.9268488111779369 13.23272372637868 0 13.23272372637868 -27.780611072601459 0 0 0 0 5.8421677413134603 1.5899713339022128 0 1.5899713339022128 -10.555751974810846 0 0 0 0 -0.76966256487442841 -0.3203244266192371 0 -0.3203244266192371 -16.296907045433812 0 0 0 0 0.012484890969300722 10.934924940524823 0 10.934924940524823 -30.924204412775723 0 0 0 0 -0.62156986496156463 2.1180962708735933 0 2.1180962708735933 -18.443702137912624 0 0 0 0 -1.4761770599658004 1.7204504824320397 0 1.7204504824320397 -11.762540634054602 0 0 0 0 -9.8334060352372035 9.4876843206948251 0 9.4876843206948251 -13.768859352399886 0 0 0 0 -6.5585133012421828 2.6599063858852219 0 2.6599063858852219 -2.4882102180986578 0 0 0 0 -15.297989661165957 3.1356727812599274 0 3.1356727812599274 -17.065977069709334 0 0 0 0 -10.040255494878238 2.3930041419334884 0 2.3930041419334884 -32.962650861532893 0 0 0 0 -19.536738938687222 3.1815106631147501 0 3.1815106631147501 -15.675712034724711 0 0 0 0 -9.6784526836445366 -8.4128359156675288 0 -8.4128359156675288 -31.591385560883282 0 0 0 0 -26.378825124988452 -2.8945779338828288 0 -2.8945779338828288 -20.676691455226319 0 0 0 0 -8.7766960957271358 4.9484373727476907 0 4.9484373727476907 -4.6721294553745878 0 0 0 0 -26.847400886006199 14.69777390461968 0 14.69777390461968 -13.012193669026601 0 0 0 0 56.080639539462027 51.30898278659879 0 51.30898278659879 -24.814713132189354 0 0 0 0 -21.475709827539504 26.051721260660997 0 26.051721260660997 4.2123917121134582 0 0 0 0 -21.104278273386093 19.989422400690273 0 19.989422400690273 -17.006051146117343 0 0 0 0 56.547961140998268 52.543717067259422 0 52.543717067259422 -65.517555558384629 0 0 0 0 5.0697367515303995 28.387611185738933 0 28.387611185738933 -3.2982716941842227 0 0 0 0 -22.905842511653134 57.681259170817157 0 57.681259170817157 14.021598983126751 0 0 0 0 -19.261067907474974 17.809419108919222 0 17.809419108919222 -16.01067552192815 0 0 0 0 -37.409468322646433 12.887004448801235 0 12.887004448801235 5.1392076315460145 0 0 0 0 -33.684832524254716 1.660079893306829 0 1.660079893306829 -11.816697635516903 0 0 0 0 -57.216698368385096 16.541259698660724 0 16.541259698660724 -20.544334374211758 0 0 0 0 -63.703418893813534 9.7498347083183035 0 9.7498347083183035 -10.182561893525417 0 0 0 0 -42.643900511039647 -17.548345341665481 0 -17.548345341665481 -84.111801712802844 0 0 0 0 -82.609338110013368 106.91761389220846 0 106.91761389220846 -193.65708902033657 0 0 0 0 -14.701834736110868 12.855288791601197 0 12.855288791601197 -66.960398839437403 0 0 0 0 -69.877779708792332 23.837608579473454 0 23.837608579473454 -21.208125557823223 0 0 0 0 -14.675545925169445 5.7599306274933042 0 5.7599306274933042 -24.025097414934862 0 0 0 0 6.2187460266502885 6.8152858073162719 0 6.8152858073162719 -85.436411031725584 0 0 0 0 1.0712972928402387 -0.9695948635164342 0 -0.9695948635164342 -6.4331594543438797 0 0 0 0 -1.6085256504848076 -0.924504086462548 0 -0.924504086462548 -32.083500694119721 0 0 0 0 -19.823990305373741 -7.7307341101995917 0 -7.7307341101995917 -22.601327176322229 0 0 0 0 -22.140832703745673 -0.73624467924673809 0 -0.73624467924673809 -21.425358057795165 0 0 0 0 -40.61225214656622 -16.015055366085107 0 -16.015055366085107 -34.06144011439028 0 0 0 0 -56.999067914922534 3.9842128702184709 0 3.9842128702184709 10.461141987783776 0 0 0 0 -40.357958806886927 19.311495039306465 0 19.311495039306465 5.6782283358770655 0 0 0 0 -42.238504262394599 3.7851339970802655 0 3.7851339970802655 -69.205077110627826 0 0 0 0 -62.29997037144949 -15.705682468418672 0 -15.705682468418672 3.5194776416319655 0 0 0 0 -60.390564753905892 10.874905295906501 0 10.874905295906501 21.6194796419677 0 0 0 0 -25.479478614550771 39.657612650864394 0 39.657612650864394 -30.823201149585657 0 0 0 0 -147.74515715824509 -4.994999475300574 0 -4.994999475300574 -46.240156081221357 0 0 0 0 -28.021686706428227 80.755764547997387 0 80.755764547997387 -51.373245929524273 0 0 0 0 -13.602212220431284 4.7644371866444999 0 4.7644371866444999 20.777791018426797 0 0 0 0 14.688775953361983 126.62221423302617 0 126.62221423302617 37.584861368210113 0 0 0 0 -26.738232605621079 58.718980036275752 0 58.718980036275752 -32.564550424154731 0 0 0 0 0.73089892352845709 -7.8258301804253279 0 -7.8258301804253279 -228.38653550070012 0 0 0 0 19.594388291871013 -58.207647811611196 0 -58.207647811611196 -322.74879359939951 0 0 0 0 -6.1832427264034777 81.46183229592134 0 81.46183229592134 79.303995736803699 0 0 0 0 -15.972041503751365 14.958110299607114 0 14.958110299607114 -13.444192643914249 0 0 0 0 6.4827997971327704 6.8077066327862212 0 6.8077066327862212 -0.45919953621341847 0 0 0 0 -20.355506865084863 58.819028121764859 0 58.819028121764859 52.023589257603817 0 0 0 0 -11.138547503836133 10.442720266624178 0 10.442720266624178 -9.8776274634710006 0 0 0 0 7.7675185962359592 32.459314654413902 0 32.459314654413902 -377.14783918130706 0 0 0 0 -20.383623858276732 13.833421565098906 0 13.833421565098906 -63.897183946355653 0 0 0 0 -74.753372016171284 94.14015289062263 0 94.14015289062263 -1333.0808749839052 0 0 0 0 -28.179172790836105 -76.193896175864211 0 -76.193896175864211 -721.19544135361502 0 0 0 0 -4.4950720848667522 3.6446584453285027 0 3.6446584453285027 -3.9533085419110989 0 0 0 0 -31.527066373598927 1.1672612824604585 0 1.1672612824604585 -392.67766081396258 0 0 0 0 36.670530317208204 -43.33655892769093 0 -43.33655892769093 -638.57583148275444 0 0 0 0 43.723411622054527 75.457507367042126 0 75.457507367042126 -431.70744498037311 0 0 0 0 41.321696604403584 5.3369534909186882 0 5.3369534909186882 -547.62787963911978 0 0 0 0 52.180721047579539 118.66665993837432 0 118.66665993837432 -557.11240854029893 0 0 0 0 50.555566440977145 110.22593086492998 0 110.22593086492998 -803.05711305959994 0 0 0 0 68.107026963829639 135.07743651583132 0 135.07743651583132 -785.11233687028289 0 0 0 0 31.083025998137828 128.62301938702876 0 128.62301938702876 -686.57942733534128 0 0 0 0 36.767050234257681 103.82841527145865 0 103.82841527145865 -791.4246618256002 0 0 0 0 39.664769012637635 147.23461738141123 0 147.23461738141123 -824.97052875380541 0 0 0 0 -152.30874093832472 76.911439698360482 0 76.911439698360482 -720.78175808247033 0 0 0 0 -191.92053551571325 109.20843661949766 0 109.20843661949766 -715.20977604615473 0 0 0 0 -43.181608704368728 225.08129204264515 0 225.08129204264515 -928.15579789259937 0 0 0 0 -27.193483338864937 133.33601533266881 0 133.33601533266881 -244.33718252700783 0 0 0 0 -101.35320839364181 -8.2685604355719988 0 -8.2685604355719988 -71.928462510270037 0 0 0 0 -101.07099765052293 179.75657384958126 0 179.75657384958126 -261.23661399938283 0 0 0 0 -41.879420783263186 61.603458881774714 0 61.603458881774714 -269.42755788111754 0 0 0 0 -28.895906108100689 130.09460793262042 0 130.09460793262042 -288.47809316284474 0 0 0 0 -0.64678049695589834 148.29678255006002 0 148.29678255006002 -462.47865040605393 0 0 0 0 93.146049445129734 182.56342766051966 0 182.56342766051966 -877.29933606090344 0 0 0 0 184.61239184910619 98.827521453822555 0 98.827521453822555 -850.71931679832232 0 0 0 0 2.7512699902213171 212.97472482519879 0 212.97472482519879 -454.0738132505353 0 0 0 0 78.974413807748078 174.08613860394325 0 174.08613860394325 -991.17770234473937 0 0 0 0 -66.627271313612141 441.05555708042084 0 441.05555708042084 -955.39047920420126 0 0 0 0 -355.26382797983547 234.64166035997914 0 234.64166035997914 -145.73389771148686 0 0 0 0 -354.76216871135466 -15.27193739455106 0 -15.27193739455106 -1784.034159923729 0 0 0 0 -75.717830443317212 399.79095669486742 0 399.79095669486742 -1320.1750385717751 0 0 0 0 21.522064088359684 -63.130438897629574 0 -63.130438897629574 -1408.3952482840687 0 0 0 0 -547.88421128114624 476.08246114837311 0 476.08246114837311 -1397.5239469841254 0 0 0 0 226.55255774339116 -86.667012765683467 0 -86.667012765683467 -1437.9486214916978 0 0 0 0 -96.614007447581116 -155.39031526371764 0 -155.39031526371764 -528.21657264239911 0 0 0 0 108.77226069785547 119.86324471877742 0 119.86324471877742 -1085.8621938775877 0 0 0 0 54.46520637030244 -69.896745425172412 0 -69.896745425172412 -544.47596993700427 0 0 0 0 96.074289697457516 -220.19852924311999 0 -220.19852924311999 -1039.3995626693604 0 0 0 0 164.26196031520504 -16.431669226354643 0 -16.431669226354643 -977.24746703355049 0 0 0 0 166.3099223274404 170.47830992582385 0 170.47830992582385 -1120.3859584797174 0 0 0 0 220.69721961207568 80.423995453582393 0 80.423995453582393 -979.04130318554235 0 0 0 0 165.38873692409254 88.675218494921864 0 88.675218494921864 -621.05465632366395 0 0 0 0 210.9387180757044 24.831520705592993 0 24.831520705592993 -954.44989775688009 0 0 0 0 80.633533087703199 -80.164466557071137 0 -80.164466557071137 -501.83591955122392 0 0 0 0 -53.510415820470371 -3.0979429977378459 0 -3.0979429977378459 -8.6393058931571431 0 0 0 0 14.514316339830202 -9.7625056319011492 0 -9.7625056319011492 -14.611398961606028 0 0 0 0 43.16708032288966 81.060310554086755 0 81.060310554086755 -319.62965855619404 0 0 0 0 65.784179808348199 38.99724750763562 0 38.99724750763562 -197.75791110242062 0 0 0 0 150.09621910071291 -11.788967419226537 0 -11.788967419226537 -107.55882932713575 0 0 0 0 -26.732308502638716 -9.4728004772732675 0 -9.4728004772732675 -85.167524783100816 0 0 0 0 41.482095288534083 -111.20945259917244 0 -111.20945259917244 -543.38091603085923 0 0 0 0 79.888550479628748 -91.583888951186964 0 -91.583888951186964 -548.2520883955076 0 0 0 0 46.573645328571388 -21.477860456155213 0 -21.477860456155213 -232.71130510223884 0 0 0 0 -11.717967654677523 -28.83915613447607 0 -28.83915613447607 -684.1765497093802 0 0 0 0 -21.512477309705559 -37.23825027575549 0 -37.23825027575549 -588.98809765381156 0 0 0 0 -9.1906260757428981 15.007356595840065 0 15.007356595840065 -709.53720599791268 0 0 0 0 -38.664672727635605 118.77321602052416 0 118.77321602052416 -822.41241478739539 0 0 0 0 143.31524584998783 -5.3260619211832818 0 -5.3260619211832818 -748.99512060785855 0 0 0 0 64.30243825458524 0.44542690938760643 0 0.44542690938760643 -929.83235378942845 0 0 0 0 90.874959913318662 121.04653218034946 0 121.04653218034946 -940.43886596038283 0 0 0 0 -11.047161434790496 135.83050468714646 0 135.83050468714646 -812.42925543923775 0 0 0 0 14.329694333019006 359.69935166413416 0 359.69935166413416 -432.07962716085967 0 0 0 0 0.27728158451649187 0.4854817865447183 0 0.4854817865447183 -5.400230227087718 0 0 0 0 56.444612975263681 186.95604994168752 0 186.95604994168752 -110.20694755688419 0 0 0 0 264.29625900113427 -300.72634662779637 0 -300.72634662779637 -589.19170690087776 0 0 0 0 -26.425517681949486 -57.63682138464992 0 -57.63682138464992 -445.08671476537711 0 0 0 0 -41.106470973625846 -55.645493364987487 0 -55.645493364987487 -35.518680875731661 0 0 0 0 -112.37788968528548 36.802360716719704 0 36.802360716719704 -191.05413927365953 0 0 0 0 -16.814078259890721 23.98683502287895 0 23.98683502287895 -575.43735038712384 0 0 0 0 -61.009314930024402 -5.705473239055209 0 -5.705473239055209 -458.80299514219951 0 0 0 0 -179.3071510670286 187.82461672947102 0 187.82461672947102 -192.3657741015777 0 0 0 0 -91.193218381332372 226.32759073151828 0 226.32759073151828 -191.44001042110995 0 0 0 0 -132.7745592518998 185.75514860884732 0 185.75514860884732 -189.73032241343753 0 0 0 0 -133.90735102818201 196.36327806648569 0 196.36327806648569 -193.15202395587403 0 0 0 0 -167.33407242622661 202.22185742324655 0 202.22185742324655 -169.54713093389728 0 0 0 0 -115.71376125863117 155.66741372032993 0 155.66741372032993 -234.02903597068871 0 0 0 0 -154.58300119180308 137.68081541749416 0 137.68081541749416 -178.89862901318702 0 0 0 0 -67.284131483749661 75.20145564501945 0 75.20145564501945 -100.517972935937 0 0 0 0 -50.432653817044411 231.82264845576719 0 231.82264845576719 -209.46090597427974 0 0 0 0 -103.54297069748191 237.67453871842736 0 237.67453871842736 -101.71415428449546 0 0 0 0 -97.131275331833876 155.43023708443434 0 155.43023708443434 49.386669493625959 0 0 0 0 351.98658954796952 27.174131651729112 0 27.174131651729112 -130.30250359498314 0 0 0 0 0.55458488275314266 1.1555905743704118 0 1.1555905743704118 -9.966910653298072 0 0 0 0 247.92190418465566 44.137074043996449 0 44.137074043996449 -26.074137539078947 0 0 0 0 36.848922694972771 3.3201808479170722 0 3.3201808479170722 70.827020057575282 0 0 0 0 162.32988315545117 113.36954912743386 0 113.36954912743386 -557.76566795516555 0 0 0 0 224.95422102205501 -84.791710986364535 0 -84.791710986364535 -205.53836245572893 0 0 0 0 0.14314674129857699 0.90224357734090699 0 0.90224357734090699 -4.5708886542699361 0 0 0 0 -72.342880744493414 219.97436560103233 0 219.97436560103233 -477.11284252281257 0 0 0 0 -147.22786068907089 42.968551835070684 0 42.968551835070684 -319.77368009017664 0 0 0 0 -8.6632886368847721 7.8338375103412545 0 7.8338375103412545 -506.20080382827655 0 0 0 0 -6.2007661935217584 43.639387714829354 0 43.639387714829354 -299.70630380806688 0 0 0 0 -1.3629736806442452 263.73844731808276 0 263.73844731808276 -525.84035717926736 0 0 0 0 -133.90231313713022 325.8376704881004 0 325.8376704881004 -227.06291638455878 0 0 0 0 -0.50287495928870385 249.02057928528802 0 249.02057928528802 -280.05049569350376 0 0 0 0 -55.125532796272182 225.76917496417445 0 225.76917496417445 -214.13035422539542 0 0 0 0 -58.958243940095599 214.88497407088653 0 214.88497407088653 -244.61365924886195 0 0 0 0 -83.278267276700717 213.80345130244677 0 213.80345130244677 -240.59310518410348 0 0 0 0 -6.9124907721608508 163.80027436932232 0 163.80027436932232 -230.35880698286928 0 0 0 0 -9.7736702180541215 198.7104837727311 0 198.7104837727311 -384.10918969624618 0 0 0 0 20.924787672009188 47.458638906340639 0 47.458638906340639 -353.51862227804122 0 0 0 0 32.527345422739018 27.50274967700534 0 27.50274967700534 -304.49515557366431 0 0 0 0 11.462463866505004 24.755088437923405 0 24.755088437923405 -304.77522787099588 0 0 0 0 20.988105562794281 42.123111417689984 0 42.123111417689984 -276.44709479427547 0 0 0 0 56.196560128763849 40.767599262551812 0 40.767599262551812 -303.1586749588314 0 0 0 0 20.05040426015546 20.262818942483136 0 20.262818942483136 -25.649815314100124 0 0 0 0 0.05849031381761538 0.21647891232451855 0 0.21647891232451855 -1.2990281833137374 0 0 0 0 0.71131607805318708 96.112685678672278 0 96.112685678672278 -341.06339689062224 0 0 0 0 29.834617161493952 18.760413606425573 0 18.760413606425573 -308.06551234170911 0 0 0 0 28.604852669696811 18.276304651808459 0 18.276304651808459 -308.24006005028059 0 0 0 0 -19.57804950611262 44.16780748860765 0 44.16780748860765 -287.60671206649567 0 0 0 0 0.13247956293181495 0.1465841805797794 0 0.1465841805797794 -0.36416223606414633 0 0 0 0 -82.629558407263573 214.49524628957715 0 214.49524628957715 -250.88397143216571 0 0 0 0 -11.166106128907131 15.920305626175832 0 15.920305626175832 -23.41721836780016 0 0 0 0 -127.47460117436867 178.97030041378093 0 178.97030041378093 -248.45313497788447 0 0 0 0 102.2266382501989 140.33062414442975 0 140.33062414442975 169.52083450544887 0 0 0 0 246.30633510857024 -36.700366228404164 0 -36.700366228404164 -36.115648066665017 0 0 0 0 0.96629906441586222 1.8895734769611465 0 1.8895734769611465 -4.4896914353643353 0 0 0 0 -0.73544172434223976 4.7228909220217474 0 4.7228909220217474 -12.627239689569734 0 0 0 0 1.6199083710423565 4.048166588148888 0 4.048166588148888 -10.665880279644625 0 0 0 0 69.67163760322137 116.49081649895015 0 116.49081649895015 76.169564044757863 0 0 0 0 99.976204681220679 118.48911083650819 0 118.48911083650819 69.331214127130806 0 0 0 0 192.09563757145702 108.81257446827112 0 108.81257446827112 36.47983726944949 0 0 0 0 34.766917720314723 7.2010666587593732 0 7.2010666587593732 -13.107264751088223 0 0 0 0 -10.376165623051747 14.250471518971608 0 14.250471518971608 10.813735524843651 0 0 0 0 141.76172545563122 -39.09306173261939 0 -39.09306173261939 -54.146566196683125 0 0 0 0 -24.681659778743324 -35.706176071285881 0 -35.706176071285881 50.536871320255159 0 0 0 0 10.623875021840377 82.848983750256593 0 82.848983750256593 -115.33919473290734 0 0 0 0 35.919769084849577 -38.198355722670385 0 -38.198355722670385 26.190265158438706 0 0 0 0 86.150089073410982 134.29300779874029 0 134.29300779874029 127.82459581847343 0 0 0 0 82.333442658513604 -71.846401979099028 0 -71.846401979099028 86.400060629108339 0 0 0 0 34.979427319582555 21.309716377621953 0 21.309716377621953 -67.668931621061347 0 0 0 0 -2.1983956352510177 199.10583668156323 0 199.10583668156323 -143.12217499427061 0 0 0 0 148.76131722325999 21.422565238917741 0 21.422565238917741 -243.90337987120802 0 0 0 0 134.48481031694064 165.67541313567926 0 165.67541313567926 -555.70164645248587 0 0 0 0 128.43372302797252 70.695848923154699 0 70.695848923154699 -562.5310783631312 0 0 0 0 -141.74290418295254 -515.81018308044804 0 -515.81018308044804 -895.19652937773935 0 0 0 0 -0.091708934360500649 1.0660371721551058 0 1.0660371721551058 -5.8957494478892158 0 0 0 0 -48.204739276119653 435.8340243713028 0 435.8340243713028 -423.73514884241013 0 0 0 0 123.65358416433514 40.655404840959818 0 40.655404840959818 -96.631351439056743 0 0 0 0 115.95656422500679 48.686139711979195 0 48.686139711979195 -83.59088075721229 0 0 0 0 0.18136786051982012 4.5014686209068842 0 4.5014686209068842 -13.909207953211364 0 0 0 0 -82.013589324793713 -39.536341490478662 0 -39.536341490478662 -88.155859129685268 0 0 0 0 -0.8460512563330429 3.550527736427469 0 3.550527736427469 -2.9214981378529643 0 0 0 0 53.992148746915063 13.438686034818602 0 13.438686034818602 -301.79242660653836 0 0 0 0 34.090937152324386 -143.62121983943507 0 -143.62121983943507 -288.88563231611261 0 0 0 0 74.080869773494783 -247.48614868949517 0 -247.48614868949517 -774.26488774816244 0 0 0 0 81.526947964481749 -194.55621433536362 0 -194.55621433536362 -828.1312371261738 0 0 0 0 -67.569524936463267 -302.67805746347949 0 -302.67805746347949 -693.90113905173348 0 0 0 0 1.7352196097715193 -97.381999980792898 0 -97.381999980792898 -1044.2743458425684 0 0 0 0 61.594077266611492 -456.45326879803542 0 -456.45326879803542 -1511.9711107257826 0 0 0 0 150.53131840118294 550.12678470066021 0 550.12678470066021 -1268.6085993280285 0 0 0 0 89.392449313937334 -153.69277723626874 0 -153.69277723626874 100.60591031231161 0 0 0 0 -2.4009477675653326 -2.5981866237161313 0 -2.5981866237161313 -4.1199750906901613 0 0 0 0 -62.788690444924498 34.275970480444812 0 34.275970480444812 -265.55841843695816 0 0 0 0 156.97023837157525 -105.06083810653945 0 -105.06083810653945 1.5839371659094468 0 0 0 0 -24.725913003367623 288.5153984578501 0 288.5153984578501 -429.21213130028627 0 0 0 0 112.0875306274927 -28.443755996660911 0 -28.443755996660911 -1014.0064658449264 0 0 0 0 -0.79150771221572636 -1.3203187560166469 0 -1.3203187560166469 -1.0143294449468101 0 0 0 0 0.35188582323108458 1.7064407341790258 0 1.7064407341790258 -12.464021001012696 0 0 0 0 2.467233546396983 5.1481920637670555 0 5.1481920637670555 -13.515788891316333 0 0 0 0 148.74382106766677 -28.626284211884922 0 -28.626284211884922 -89.76276196744584 0 0 0 0 66.001802977792863 -78.06139292363514 0 -78.06139292363514 72.518900409144408 0 0 0 0 40.306022685086347 17.459698109063538 0 17.459698109063538 -57.288232076389249 0 0 0 0 -117.67631743837245 236.14954891413072 0 236.14954891413072 -121.20676201453534 0 0 0 0 -1.2290106129427159 -39.106598481637775 0 -39.106598481637775 -1.4572443931028829 0 0 0 0 -101.37287382410375 223.73037902079523 0 223.73037902079523 -528.84776477179912 0 0 0 0 -94.763743791091429 176.42911502826882 0 176.42911502826882 -230.65961447383597 0 0 0 0 -81.00591747024859 153.09992210810742 0 153.09992210810742 -297.3375536056119 0 0 0 0 30.945007662066928 -43.531516347116849 0 -43.531516347116849 -193.06026687328449 0 0 0 0 -134.43014784357763 -68.260040889559605 0 -68.260040889559605 -36.190055665341788 0 0 0 0 -189.79939782220822 -101.20733201856638 0 -101.20733201856638 -355.66833762540773 0 0 0 0 -173.18195769888996 -45.887028026707412 0 -45.887028026707412 -313.74587473026986 0 0 0 0 -153.06148850101667 -16.786041406059667 0 -16.786041406059667 -166.73117388300307 0 0 0 0 -153.68381680896488 -349.70959795510498 0 -349.70959795510498 -637.09658203688741 0 0 0 0 -283.86288373923225 -419.21064334909897 0 -419.21064334909897 -188.38583955498098 0 0 0 0 -216.84981588369442 -235.69963495635602 0 -235.69963495635602 313.17200474746642 0 0 0 0 41.521434204826249 31.597170829823881 0 31.597170829823881 17.92873608294758 0 0 0 0 -52.366560071450806 -120.5757930407126 0 -120.5757930407126 -1324.2762686577935 0 0 0 0 -1.9661712944860052 -2.0953758126968296 0 -2.0953758126968296 -1.519380775628548 0 0 0 0 -218.57390077487563 -295.47855629979586 0 -295.47855629979586 -1257.0377078623424 0 0 0 0 120.72179715805629 393.24793272598708 0 393.24793272598708 -339.63918750222365 0 0 0 0 -196.65710256001404 35.904219954223663 0 35.904219954223663 -604.44770177851751 0 0 0 0 -284.66856267191912 20.731794302300841 0 20.731794302300841 -297.22697992436588 0 0 0 0 -202.26939029870971 -261.87865712448547 0 -261.87865712448547 -384.88663140344215 0 0 0 0 -172.10339220095287 -36.411289237556048 0 -36.411289237556048 -210.43171693788463 0 0 0 0 -188.75540959506955 -100.36837017728612 0 -100.36837017728612 -311.3091432432775 0 0 0 0 27.944659606162134 -44.183544087667542 0 -44.183544087667542 -227.42460219474015 0 0 0 0 -154.55959655562134 -125.28361900071468 0 -125.28361900071468 -171.09696298409108 0 0 0 0 -257.77663180551451 -464.74313882346542 0 -464.74313882346542 -611.60783349140547 0 0 0 0 -139.86323853102851 -127.49056361374824 0 -127.49056361374824 -479.78988366125668 0 0 0 0 -149.60012168017187 -286.01751406818948 0 -286.01751406818948 -441.53501307589613 0 0 0 0 -0.31523539650253168 -80.436304546528845 0 -80.436304546528845 -75.697325184544752 0 0 0 0 0.059591450753829933 0.11222253184050857 0 0.11222253184050857 -4.9536669950814769 0 0 0 0 77.994143739532007 326.21497292463027 0 326.21497292463027 -417.81053358957797 0 0 0 0 0.55918640183354984 -119.80689160292604 0 -119.80689160292604 -922.64464258754379 0 0 0 0 -144.07610697104477 91.208089011677657 0 91.208089011677657 -835.39205376592145 0 0 0 0 -226.93128071166035 65.857121182632 0 65.857121182632 -750.04078479997406 0 0 0 0 -211.4708103244653 -34.37302019488061 0 -34.37302019488061 -923.42003553685936 0 0 0 0 -120.49864606870537 -72.263877299697924 0 -72.263877299697924 -406.93983832709637 0 0 0 0 -110.68727083642963 36.712476128224807 0 36.712476128224807 -884.80763186100012 0 0 0 0 -87.439532620869102 -32.739945610170253 0 -32.739945610170253 -728.30012852198706 0 0 0 0 -139.4189476503619 153.20581454620697 0 153.20581454620697 -654.53471327039733 0 0 0 0 -62.849472585354874 181.11046938305117 0 181.11046938305117 -748.82335909789253 0 0 0 0 -68.152174703971156 198.3164751365066 0 198.3164751365066 -672.03979524834722 0 0 0 0 -78.358872255515791 262.75220378351332 0 262.75220378351332 -634.41785230181995 0 0 0 0 -57.773843364594825 265.71169349953561 0 265.71169349953561 -723.89244245607733 0 0 0 0 -72.371338556074647 212.20240944872603 0 212.20240944872603 -892.746288024573 0 0 0 0 36.568635156430133 396.35004858505636 0 396.35004858505636 -771.72511054466304 0 0 0 0 -72.682391076445441 137.00326562169448 0 137.00326562169448 -1114.1995410582967 0 0 0 0 -1.3740625076137285 11.008341584536538 0 11.008341584536538 -922.80917909539858 0 0 0 0 -72.001733297602854 163.00771047956368 0 163.00771047956368 -798.13742523967812 0 0 0 0 -92.145561218537068 317.81251267372863 0 317.81251267372863 -854.7752612871318 0 0 0 0 -77.821857329763631 346.0351409944451 0 346.0351409944451 -890.78365238489641 0 0 0 0 -138.29393443510037 530.5878611560438 0 530.5878611560438 -929.55120588566206 0 0 0 0 -32.745405780357686 399.84021856307663 0 399.84021856307663 -1164.6454584361563 0 0 0 0 0.064072968621537094 0.22454032405752855 0 0.22454032405752855 -3.7570897023125553 0 0 0 0 0.029209474200066535 -6.9784074673803262 0 -6.9784074673803262 7.338836433365941 0 0 0 0 -171.23164648514316 530.0959376206556 0 530.0959376206556 -664.03351024896256 0 0 0 0 80.054420961813378 -122.16847553309344 0 -122.16847553309344 -50.891671960511303 0 0 0 0 57.723843823468613 -44.893347282331888 0 -44.893347282331888 28.630440000051749 0 0 0 0 193.40857595879595 -65.541834519768599 0 -65.541834519768599 -24.01316881243838 0 0 0 0 24.392347224343411 -35.579786565816903 0 -35.579786565816903 -6.9404178305721871 0 0 0 0 -0.041217335510855109 -6.9855555174253823 0 -6.9855555174253823 7.3385726968117524 0 0 0 0 0.24636272715993579 -0.9328528891529615 0 -0.9328528891529615 -6.1870794303445109 0 0 0 0 153.08446687761545 306.09782493673265 0 306.09782493673265 -768.97034366083244 0 0 0 0 11.886753233829864 371.47678257169173 0 371.47678257169173 -796.43256343488611 0 0 0 0 2.2529899947734862 322.6433969024838 0 322.6433969024838 -925.73948326934624 0 0 0 0 0.12463138886937819 -0.73446176268745944 0 -0.73446176268745944 -3.8462012972785828 0 0 0 0 -159.46949827837653 532.30445806818898 0 532.30445806818898 -798.28252380599588 0 0 0 0 72.462093394548646 -26.840892017607985 0 -26.840892017607985 34.403275449789362 0 0 0 0 -91.142553689985021 354.40271081448554 0 354.40271081448554 -340.5273597648702 0 0 0 0 154.51094495790437 43.244478550783242 0 43.244478550783242 -708.51629610964301 0 0 0 0 124.50838969880195 454.6036179907328 0 454.6036179907328 -783.59613379112852 0 0 0 0 22.943232164028132 403.1984139928536 0 403.1984139928536 -797.68500643043762 0 0 0 0 25.027562224078885 447.4785717238957 0 447.4785717238957 -1171.4422660341806 0 0 0 0 -189.3908764727521 570.00014920691319 0 570.00014920691319 -837.56952573158924 0 0 0 0 -213.14509343943428 296.14708537831757 0 296.14708537831757 -889.69921376735147 0 0 0 0 16.7565510909468 259.84428633069547 0 259.84428633069547 -1006.3886132405605 0 0 0 0 -855.15822157952925 479.3697343274398 0 479.3697343274398 -1239.9773679727441 0 0 0 0 -210.81536923687531 293.88152526095655 0 293.88152526095655 -1372.9069716752056 0 0 0 0 -1118.8078774688356 194.25741790211396 0 194.25741790211396 -1136.7246309502661 0 0 0 0 -1040.2482190214771 180.44172408600571 0 180.44172408600571 -1146.3325173803532 0 0 0 0 -1375.9714588074569 787.48718146179817 0 787.48718146179817 -476.74049948160246 0 0 0 0 -697.51142995207499 110.2735231539009 0 110.2735231539009 -1845.826706433174 0 0 0 0 -685.63480597882051 1054.0426951487025 0 1054.0426951487025 -1718.0707896474923 0 0 0 0 -553.58868594240744 451.7933056774491 0 451.7933056774491 -1152.4236020773169 0 0 0 0 -598.76629374239349 697.83862864978801 0 697.83862864978801 -757.33935477005434 0 0 0 0 -190.13726428488485 606.66621982514334 0 606.66621982514334 -1406.7468178028575 0 0 0 0 -357.98608436595339 496.60823545532548 0 496.60823545532548 -350.17690584652883 0 0 0 0 -366.08161695679973 644.14584687221941 0 644.14584687221941 -761.56525182535279 0 0 0 0 -309.2802881070258 53.166759855055716 0 53.166759855055716 43.223748470560167 0 0 0 0 -291.69181763609208 443.17658757921231 0 443.17658757921231 -405.5436366044014 0 0 0 0 0.1603787204371373 1.899027213719636 0 1.899027213719636 -9.9087366861409691 0 0 0 0 172.75229776680169 -416.46535546151063 0 -416.46535546151063 -641.59893086778175 0 0 0 0 1.7992422985190637 -2.1707614326404823 0 -2.1707614326404823 -1.1000390175815937 0 0 0 0 -926.01127506995044 563.68338179427519 0 563.68338179427519 -40.965315067631309 0 0 0 0 -95.670818393869354 36.504814296911718 0 36.504814296911718 177.92260528869519 0 0 0 0 286.89474179862464 235.03685029592816 0 235.03685029592816 -84.716451598833373 0 0 0 0 11.227224898515146 3.2294033317702997 0 3.2294033317702997 -12.549643086311335 0 0 0 0 0.1304255423531169 3.4884007625045292 0 3.4884007625045292 -9.9238156593684437 0 0 0 0 72.670909428249232 100.01979015842835 0 100.01979015842835 -204.98914116498781 0 0 0 0 0.93141942435545477 1.4977665330104912 0 1.4977665330104912 -12.529813303769231 0 0 0 0 -111.5919315250606 207.31273567668177 0 207.31273567668177 -194.71000671694492 0 0 0 0 -127.87757684415374 404.76638385115439 0 404.76638385115439 -549.03105213876552 0 0 0 0 -3.409997636439698 473.13773874173057 0 473.13773874173057 -806.91939145629249 0 0 0 0 -107.23673866067867 452.91538075689823 0 452.91538075689823 -518.14345953724842 0 0 0 0 -166.20406992619178 595.83253137345309 0 595.83253137345309 -849.21922158974667 0 0 0 0 -247.01472940453095 -340.68756862124064 0 -340.68756862124064 240.75136515259783 0 0 0 0 -110.3503385560291 -301.26317783757167 0 -301.26317783757167 -3.665823848510172 0 0 0 0 -1.2402684291991002 -5.5483813773936888 0 -5.5483813773936888 -1.2279897266902786 0 0 0 0 14.162688674040965 -57.24238864353174 0 -57.24238864353174 93.71436889942197 0 0 0 0 -106.64160437627606 -276.66647169493717 0 -276.66647169493717 -192.85495896331668 0 0 0 0 -40.968586923642761 -46.698042959733357 0 -46.698042959733357 -1683.9879511978379 0 0 0 0 -262.05744862118672 -270.26838226678365 0 -270.26838226678365 415.22285970809389 0 0 0 0 -3.3324470949962066 -4.6688096171868629 0 -4.6688096171868629 -2.4487602130416199 0 0 0 0 -355.12678665084513 -497.22781649907483 0 -497.22781649907483 -80.122963876411632 0 0 0 0 57.396576268633794 -310.94966062990898 0 -310.94966062990898 -813.77450406209755 0 0 0 0 -146.9456213048868 11.920647124254174 0 11.920647124254174 -637.86818978901283 0 0 0 0 168.64086561477916 -284.00915808996069 0 -284.00915808996069 -631.25458812692341 0 0 0 0 202.1356478633104 -242.9402009581454 0 -242.9402009581454 -656.12794062997637 0 0 0 0 221.58892786402657 -56.105696608574362 0 -56.105696608574362 -460.09437529004754 0 0 0 0 78.058478399521732 -181.55068347198903 0 -181.55068347198903 -324.22659488119825 0 0 0 0 209.17186029701645 -135.0736248103849 0 -135.0736248103849 -799.62948742736398 0 0 0 0 40.679616132337287 -381.54874562640362 0 -381.54874562640362 -653.15909594890218 0 0 0 0 165.62109321394337 -242.76396435890092 0 -242.76396435890092 -533.89013130999592 0 0 0 0 -75.39969753736932 8.9734490824848763 0 8.9734490824848763 -213.26415057741724 0 0 0 0 -7.8060032735915819 -1.1576425562038537 0 -1.1576425562038537 -22.787620945235254 0 0 0 0 150.10610729191285 -222.78310102547584 0 -222.78310102547584 -905.44207605841802 0 0 0 0 25.088215641017086 20.469907827256975 0 20.469907827256975 -299.0355750945273 0 0 0 0 111.57141270124384 22.777255821945801 0 22.777255821945801 -160.64487101267059 0 0 0 0 -16.619853375136614 98.399003172866969 0 98.399003172866969 -932.484155242204 0 0 0 0 -7.6408213903170576 -305.80430903385923 0 -305.80430903385923 -943.71278863539192 0 0 0 0 111.74301084986564 109.73727401705946 0 109.73727401705946 33.540198394685831 0 0 0 0 -0.37396300719269249 -2.0276408499860139 0 -2.0276408499860139 -7.4675393512308723 0 0 0 0 -16.725261401818898 -222.95473898771502 0 -222.95473898771502 -538.37938994160868 0 0 0 0 19.101419511635356 5.3486094837186702 0 5.3486094837186702 -118.09223454630688 0 0 0 0 -53.191762240144385 -85.136993153997082 0 -85.136993153997082 -241.90470051343073 0 0 0 0 -65.374099170231602 97.375488963918542 0 97.375488963918542 -314.24239819257855 0 0 0 0 -45.351509172047372 -123.77268317976996 0 -123.77268317976996 -733.52074468150022 0 0 0 0 -119.46864734986957 -288.70104604449261 0 -288.70104604449261 -548.28398322369139 0 0 0 0 -71.231530454403583 -40.776440397599799 0 -40.776440397599799 -450.96496350802772 0 0 0 0 39.76134839643521 2.0276031392026184 0 2.0276031392026184 -109.3574850293717 0 0 0 0 6.6665314668261999 25.160485500330651 0 25.160485500330651 -122.8430075200049 0 0 0 0 5.7233103224461956 16.089478044646967 0 16.089478044646967 -100.50424967754952 0 0 0 0 5.5601991680459957 17.606219473873004 0 17.606219473873004 -56.146607120853865 0 0 0 0 -1.6855128491024516 14.651545819215244 0 14.651545819215244 -22.794845884258393 0 0 0 0 90.873010465811603 54.22098922274381 0 54.22098922274381 -85.328517080630263 0 0 0 0 -0.16809578226632738 -2.6113773264119828 0 -2.6113773264119828 -11.74380033890138 0 0 0 0 134.92440568445346 -7.1304258470700006 0 -7.1304258470700006 -145.97018036294321 0 0 0 0 -14.117142468453068 -91.095173420760148 0 -91.095173420760148 -169.10926513397317 0 0 0 0 -129.96882885700472 -40.548748065537438 0 -40.548748065537438 -93.080184799305243 0 0 0 0 -111.76194624693517 23.345124831791509 0 23.345124831791509 -223.36022299423712 0 0 0 0 -148.16820185431146 9.1071763965865102 0 9.1071763965865102 -117.72692686626851 0 0 0 0 65.859123055695818 74.472127603155059 0 74.472127603155059 -1053.6238438670116 0 0 0 0 176.04692605039213 192.95290259081776 0 192.95290259081776 -246.70247712179298 0 0 0 0 -380.45964876472271 -153.73110178665775 0 -153.73110178665775 -293.82403053843154 0 0 0 0 -10.77281659627215 -192.0111497819662 0 -192.0111497819662 -973.57071596328024 0 0 0 0 11.260427493833049 28.370579770952645 0 28.370579770952645 -428.21819056055847 0 0 0 0 -287.49347647020249 86.185221097062822 0 86.185221097062822 -185.11187165392948 0 0 0 0 -72.12059103674801 91.992839153866953 0 91.992839153866953 -223.7408590909572 0 0 0 0 -180.30979370008117 -5.7742699827258548 0 -5.7742699827258548 -113.79035474432385 0 0 0 0 -111.62076664665506 48.756408220820958 0 48.756408220820958 -77.815875330406925 0 0 0 0 -42.900634115829462 27.75715196092824 0 27.75715196092824 -94.916233335192373 0 0 0 0 82.552736969652415 6.904598533889839 0 6.904598533889839 -99.52115939382611 0 0 0 0 40.444014119691019 90.896012547003465 0 90.896012547003465 -228.70901828820934 0 0 0 0 102.16922284708107 84.212386951800909 0 84.212386951800909 -116.43682816567934 0 0 0 0 167.12670655831016 -17.398685364479434 0 -17.398685364479434 -52.69299835205311 0 0 0 0 47.415559775507063 -1.1277982396377411 0 -1.1277982396377411 -54.487555857652865 0 0 0 0 135.50047071637482 62.170501908876531 0 62.170501908876531 -57.947049937651173 0 0 0 0 127.38960070593839 -22.486223775484177 0 -22.486223775484177 -41.149323887482751 0 0 0 0 164.15729669843449 -75.800181341786811 0 -75.800181341786811 -53.026885328283242 0 0 0 0 99.41481985549126 -56.2507311294994 0 -56.2507311294994 -117.29852446916448 0 0 0 0 145.4262359980421 -112.85794661771524 0 -112.85794661771524 -111.20578340478232 0 0 0 0 44.443132575269715 -97.106039276844058 0 -97.106039276844058 -128.20918643477125 0 0 0 0 1.6129722983450847 0.55341350480148321 0 0.55341350480148321 -29.156070492423169 0 0 0 0 0.24230477307316001 -1.8797181225463993 0 -1.8797181225463993 -22.0799727648558 0 0 0 0 57.063048153735508 -38.726424659167606 0 -38.726424659167606 -5.9911399294851435 0 0 0 0 -20.226749799518075 4.9140258554853062 0 4.9140258554853062 -25.683385863862895 0 0 0 0 7.2385570276419458 3.9763139194692485 0 3.9763139194692485 -38.717161922994819 0 0 0 0 1.5849344563908225 -2.1058679183781095 0 -2.1058679183781095 -4.4512669727645795 0 0 0 0 41.807680046451424 10.302255120780501 0 10.302255120780501 -40.179203017714826 0 0 0 0 -7.0620291142812128 -11.072849003008052 0 -11.072849003008052 -19.839520861626028 0 0 0 0 29.166669154201372 -53.600785747698865 0 -53.600785747698865 -26.229896042874316 0 0 0 0 6.7554572615517827 -24.842945617303485 0 -24.842945617303485 -23.132634798559593 0 0 0 0 5.2383772469354728 0.99242056914496324 0 0.99242056914496324 -6.7495828626802776 0 0 0 0 -6.5435312095007916 -1.9753729479081343 0 -1.9753729479081343 -6.953575180709441 0 0 0 0 -27.162311084977773 -53.656200960074784 0 -53.656200960074784 56.380386375701164 0 0 0 0 24.890670716040404 -30.678273928379213 0 -30.678273928379213 -49.811751093244311 0 0 0 0 7.4515978231984263 -6.1755334328272511 0 -6.1755334328272511 -139.75867762556391 0 0 0 0 -0.78037733209235682 0.95578791740067626 0 0.95578791740067626 -0.22632429946461574 0 0 0 0 -226.83277549026479 84.097431270097331 0 84.097431270097331 -983.31453550195238 0 0 0 0 -13.542234470527546 3.292090356528206 0 3.292090356528206 -37.539024863008081 0 0 0 0 -236.47073599157557 222.52702283630606 0 222.52702283630606 -1103.4454272032035 0 0 0 0 26.423940669345029 -9.3916618976209065 0 -9.3916618976209065 -60.586250021957312 0 0 0 0 1.0267164044217481 0.93011861232726467 0 0.93011861232726467 -4.14233621593573 0 0 0 0 -7.5924290338116407 -20.66080919201886 0 -20.66080919201886 -11.751643764949677 0 0 0 0 -7.4282157235524302 -12.57356620995623 0 -12.57356620995623 -22.459022221919501 0 0 0 0 299.71177512626673 317.81204632275148 0 317.81204632275148 -2344.2817098436244 0 0 0 0 -222.96703399221224 318.64839584260335 0 318.64839584260335 541.28841387053126 0 0 0 0 -6.1393691763742027 2.8841506039859723 0 2.8841506039859723 -1.7949533631960941 0 0 0 0 152.51753453953643 -148.18233117063301 0 -148.18233117063301 -1905.2522210752668 0 0 0 0 113.6394398414136 -164.06091386492062 0 -164.06091386492062 -79.807373079815534 0 0 0 0 77.597316340951693 -156.25897826862911 0 -156.25897826862911 91.53376466411828 0 0 0 0 77.657799861111926 -72.783985947831752 0 -72.783985947831752 -48.529745479291705 0 0 0 0 48.812899792022108 -14.510830554901986 0 -14.510830554901986 -38.490399796189422 0 0 0 0 -10.324847001818954 -10.877613250531503 0 -10.877613250531503 -7.888940620474469 0 0 0 0 -187.89746900188766 -77.362235072600015 0 -77.362235072600015 -1254.9387272152853 0 0 0 0 -2.1127054796252196 74.085382892024427 0 74.085382892024427 -1110.8879564568342 0 0 0 0 8.7840162237480399 -8.7076252170008956 0 -8.7076252170008956 -1232.3798527801773 0 0 0 0 -472.47846832530558 893.01903515004597 0 893.01903515004597 -1587.6952602807019 0 0 0 0 62.201359061647963 604.22976149850365 0 604.22976149850365 -1579.0684161197241 0 0 0 0 -2.5621150085228948 -0.12230054727619599 0 -0.12230054727619599 1.4832464599504718 0 0 0 0 135.24042350437048 620.81130620728345 0 620.81130620728345 -458.62986156075203 0 0 0 0 108.53987963619875 325.22925229297834 0 325.22925229297834 -1347.7944367355126 0 0 0 0 -52.199718805852171 145.11672298789927 0 145.11672298789927 -819.09440376433486 0 0 0 0 -60.361616165580926 89.241960146453494 0 89.241960146453494 -1113.7840870769196 0 0 0 0 -127.39382146721209 94.185718864951468 0 94.185718864951468 -841.79342790043665 0 0 0 0 -155.81606143185331 -65.253444962613685 0 -65.253444962613685 -899.82168986685065 0 0 0 0 -167.26860036691596 -5.5371513440904891 0 -5.5371513440904891 -511.51734915808993 0 0 0 0 -110.71639349916768 -24.324022439788678 0 -24.324022439788678 -591.28704380541421 0 0 0 0 -97.466407573512697 250.68583080631652 0 250.68583080631652 -738.04092427507203 0 0 0 0 -88.733224165604042 181.78228054577789 0 181.78228054577789 -236.63691941164507 0 0 0 0 -79.596606303550288 30.071885957559061 0 30.071885957559061 -496.80164931953186 0 0 0 0 -66.280146239741953 -30.000624323790362 0 -30.000624323790362 -305.45913114062205 0 0 0 0 -111.78302488970803 -36.777363438083739 0 -36.777363438083739 -544.75604367669075 0 0 0 0 -31.578053939727397 -38.678980354979103 0 -38.678980354979103 -451.19610263948198 0 0 0 0 -86.185239887621719 -91.233966330017211 0 -91.233966330017211 -429.54195720909411 0 0 0 0 -92.927641911563114 -56.771514405611015 0 -56.771514405611015 -487.49926665320527 0 0 0 0 -213.11750840262721 -111.24338630979582 0 -111.24338630979582 -472.5283774836571 0 0 0 0 -247.57206526989381 5.3932485596108108 0 5.3932485596108108 -336.12730672067119 0 0 0 0 -67.36068856795373 -209.50598375641175 0 -209.50598375641175 256.98663750138621 0 0 0 0 140.15593971979433 -192.642371951933 0 -192.642371951933 -290.26671977420119 0 0 0 0 -7.7751548907690449 -51.855318526289921 0 -51.855318526289921 -195.71267370462363 0 0 0 0 55.828461472807248 147.08716341715444 0 147.08716341715444 -190.07313165744563 0 0 0 0 23.553947493532178 11.91519173400593 0 11.91519173400593 -359.19228981859123 0 0 0 0 33.180467399957706 -50.601747681619599 0 -50.601747681619599 -460.62092811543334 0 0 0 0 7.0132691070321016 -57.50546084868256 0 -57.50546084868256 -525.64776641892604 0 0 0 0 -50.047318086113592 66.012668625991864 0 66.012668625991864 -554.34927000033531 0 0 0 0 140.28141392723592 -79.535326502765201 0 -79.535326502765201 -459.06889382454028 0 0 0 0 -44.862405839208805 -85.62580236165013 0 -85.62580236165013 -471.10777447167129 0 0 0 0 110.91472896215669 67.0287149166262 0 67.0287149166262 -636.90841837098196 0 0 0 0 28.025254244857024 118.06713466747897 0 118.06713466747897 -587.34692444685788 0 0 0 0 40.457118306975644 105.66445689726697 0 105.66445689726697 -608.41628533191761 0 0 0 0 -110.00225394178779 172.9373581181535 0 172.9373581181535 -638.23572687660635 0 0 0 0 -150.75805943050682 253.83754735801267 0 253.83754735801267 -796.8804850372544 0 0 0 0 -32.968311232649285 -34.136556877594558 0 -34.136556877594558 -538.34686592476646 0 0 0 0 -182.15221764773344 15.837711496166321 0 15.837711496166321 -524.96156571951724 0 0 0 0 -27.863818132200322 44.875856239383211 0 44.875856239383211 -681.37499660530375 0 0 0 0 -164.05986074800967 349.15793998334266 0 349.15793998334266 -345.4488806247864 0 0 0 0 -196.16675660426699 128.04328663565138 0 128.04328663565138 -17.75666845318483 0 0 0 0 -183.38251707448217 227.09862764583522 0 227.09862764583522 -350.90093853258441 0 0 0 0 33.906879694044619 105.17159988885169 0 105.17159988885169 -658.09471552572722 0 0 0 0 26.511753203030821 69.449699183300254 0 69.449699183300254 -830.43947847546951 0 0 0 0 18.066222804158315 90.801874369444704 0 90.801874369444704 -883.92530295132292 0 0 0 0 -178.5429599233903 -214.78303072326526 0 -214.78303072326526 -257.35638577851932 0 0 0 0 -3.5703348716224212 -0.11734794605767007 0 -0.11734794605767007 -2.7693169106786044 0 0 0 0 -0.6099425838755046 -1.4304894001277475 0 -1.4304894001277475 0.49916909029390411 0 0 0 0 -186.75364087468006 63.907134072784174 0 63.907134072784174 -334.03753569412584 0 0 0 0 -168.0834351665992 91.429147968378402 0 91.429147968378402 -294.31316825529211 0 0 0 0 -114.21455704250002 16.166368019667061 0 16.166368019667061 -488.85231553721314 0 0 0 0 -95.358353916870328 -51.511073893139837 0 -51.511073893139837 -442.74043329642518 0 0 0 0 -121.17248102122358 138.06160341637769 0 138.06160341637769 -319.21902899320412 0 0 0 0 -20.919007397031919 127.5087889945404 0 127.5087889945404 -380.00864078008453 0 0 0 0 -102.13844589317205 164.26478439842049 0 164.26478439842049 -302.492323025308 0 0 0 0 -192.69810595895274 198.6625386264277 0 198.6625386264277 -184.92717270869252 0 0 0 0 -198.49622807620563 193.82972790917665 0 193.82972790917665 -184.1461859075489 0 0 0 0 -184.51138821621907 144.60921753728508 0 144.60921753728508 -17.56184752095578 0 0 0 0 -192.79530516538108 78.540071039865552 0 78.540071039865552 -18.882719084191194 0 0 0 0 -172.94744221999008 44.415794670589094 0 44.415794670589094 -254.84655054935865 0 0 0 0 -87.322108287997764 193.21433108427846 0 193.21433108427846 -144.4612678759986 0 0 0 0 -254.00501906777026 107.76388194327774 0 107.76388194327774 -136.56308966850884 0 0 0 0 -216.74079467503361 -33.353910798308789 0 -33.353910798308789 -450.13249393109072 0 0 0 0 -280.27070286901886 59.01427242227237 0 59.01427242227237 -245.36249875079739 0 0 0 0 -170.99638046829364 -102.54711025544202 0 -102.54711025544202 -438.51032847429997 0 0 0 0 -157.03210578609105 39.843174914048518 0 39.843174914048518 -316.34140946813568 0 0 0 0 67.437312707386468 -150.95953415365875 0 -150.95953415365875 -546.64483558745269 0 0 0 0 -469.06044076884541 -332.41053328310772 0 -332.41053328310772 -711.54814032525428 0 0 0 0 -200.26644887450311 13.872080629997981 0 13.872080629997981 -604.50622317533816 0 0 0 0 -415.70105990081083 -103.21151103022203 0 -103.21151103022203 -457.79667770937522 0 0 0 0 110.86969141748193 43.207672497412545 0 43.207672497412545 -8.5106054473035329 0 0 0 0 -97.247773546571352 -326.45069502333354 0 -326.45069502333354 -223.97755656867048 0 0 0 0 73.323763801976611 -123.35243823457677 0 -123.35243823457677 -417.1832942182009 0 0 0 0 120.24735421664991 -181.44072004440204 0 -181.44072004440204 -355.87665925504552 0 0 0 0 23.189148619826028 49.932828292516206 0 49.932828292516206 -142.31402565965618 0 0 0 0 17.508232835459125 -45.419587393143956 0 -45.419587393143956 -286.10827400841299 0 0 0 0 -1.4647388442509177 6.3811655449923306 0 6.3811655449923306 -26.647461749622444 0 0 0 0 414.24313943645529 104.15062065099301 0 104.15062065099301 -222.02440977840888 0 0 0 0 176.98230879806778 -95.171524777512786 0 -95.171524777512786 -23.141298844831908 0 0 0 0 -441.35216691517553 -244.4031640204139 0 -244.4031640204139 24.402654346071358 0 0 0 0 270.1413984923654 245.80408674935097 0 245.80408674935097 -28.669960427551132 0 0 0 0 -0.47912329862534175 2.6818773389515007 0 2.6818773389515007 -15.563802908804817 0 0 0 0 31.047552254964444 -18.820880706616663 0 -18.820880706616663 21.127648822064657 0 0 0 0 -513.38592911873184 -402.02168411978573 0 -402.02168411978573 61.807767814880208 0 0 0 0 210.31854651411777 39.390702012973634 0 39.390702012973634 -31.685047291619412 0 0 0 0 249.45401997707631 23.286411591983779 0 23.286411591983779 -99.090576403701562 0 0 0 0 0.39379939305126388 -0.88619376335580569 0 -0.88619376335580569 -11.152301738105493 0 0 0 0 153.05011594196276 -57.171020673784369 0 -57.171020673784369 -337.10439569293158 0 0 0 0 235.38024798646256 18.893181784234912 0 18.893181784234912 -81.28226104206442 0 0 0 0 148.94775290656617 -51.512815410871553 0 -51.512815410871553 -102.73168548098147 0 0 0 0 67.006059748655389 -19.161334418007755 0 -19.161334418007755 -169.07401651801047 0 0 0 0 105.97159308373466 -6.3510226671533019 0 -6.3510226671533019 -16.566887901325572 0 0 0 0 69.509610758805138 -39.643280877580764 0 -39.643280877580764 -10.31587692687026 0 0 0 0 167.37134168302828 -16.140000328046881 0 -16.140000328046881 -71.891386099669035 0 0 0 0 7.3107270283051911 -10.725846348727664 0 -10.725846348727664 -8.2483511498662665 0 0 0 0 133.08972742029255 -132.30362766075632 0 -132.30362766075632 -87.382969803926244 0 0 0 0 9.8074170651295329 2.7374036325992996 0 2.7374036325992996 -94.191637415326511 0 0 0 0 112.54718738823112 -49.963995071251702 0 -49.963995071251702 -43.128768047140966 0 0 0 0 72.824393878957949 -24.704468102492683 0 -24.704468102492683 -52.467421621331596 0 0 0 0 108.08383336700763 -42.678929342251649 0 -42.678929342251649 -124.91343914392201 0 0 0 0 220.89286058077141 65.984410245961044 0 65.984410245961044 -46.097512616471477 0 0 0 0 -24.445394427310369 66.730210758171324 0 66.730210758171324 -127.16558158944099 0 0 0 0 -1.6517850422675879 2.3709906385278003 0 2.3709906385278003 1.4351237418829328 0 0 0 0 -226.21934081081918 -247.91704122718511 0 -247.91704122718511 3.2651710125210229 0 0 0 0 -148.17550162238058 -127.53196488936373 0 -127.53196488936373 56.204083010132308 0 0 0 0 46.608774888299195 -185.48517289637675 0 -185.48517289637675 -192.97930778136651 0 0 0 0 -19.402601551058979 -9.6016097364699817 0 -9.6016097364699817 40.625568733073123 0 0 0 0 244.77825484806272 -14.315810677842819 0 -14.315810677842819 -134.73015360736463 0 0 0 0 55.714328227318674 -108.31512373420628 0 -108.31512373420628 -76.305825377552537 0 0 0 0 31.753092153705438 -66.884776401653653 0 -66.884776401653653 -142.13118828777806 0 0 0 0 28.319240345595063 -107.91834945799201 0 -107.91834945799201 -109.80116995066055 0 0 0 0 90.305698984866467 -74.126251295252587 0 -74.126251295252587 -93.215684185073769 0 0 0 0 -51.791196683157978 -27.377176240086555 0 -27.377176240086555 -10.233871191259823 0 0 0 0 -0.050449886545556488 -0.82207437031144082 0 -0.82207437031144082 -0.54817391291246764 0 0 0 0 -56.139955269939037 -58.142173728479975 0 -58.142173728479975 28.438826821322436 0 0 0 0 12.671064308473206 -74.880618199687888 0 -74.880618199687888 -61.011839995844639 0 0 0 0 -48.381142753311906 -82.958948311570566 0 -82.958948311570566 -54.890632882881619 0 0 0 0 -117.54609833785798 -80.5247504457584 0 -80.5247504457584 -42.979218162465259 0 0 0 0 -113.77275135250738 -55.895519063917163 0 -55.895519063917163 -8.8334796095878119 0 0 0 0 -134.45046802977822 -69.625332220704877 0 -69.625332220704877 -49.200857108386117 0 0 0 0 -46.142005109303682 -133.979038321806 0 -133.979038321806 -124.69746496416337 0 0 0 0 -92.226630014024522 -89.454381977964658 0 -89.454381977964658 -77.781555918383674 0 0 0 0 -49.13651320665349 -91.534435544788721 0 -91.534435544788721 -78.415139012271538 0 0 0 0 -73.998140772312127 -176.32585974026006 0 -176.32585974026006 -267.71469766293012 0 0 0 0 -30.731010105926089 -98.041175044643751 0 -98.041175044643751 -147.62588230788242 0 0 0 0 -163.02934357815275 -137.22479793476668 0 -137.22479793476668 -125.33264078074717 0 0 0 0 -101.65772222422629 -117.97465898158407 0 -117.97465898158407 -131.38878702005604 0 0 0 0 -147.90470954856346 -101.58855258793483 0 -101.58855258793483 -137.56333089951659 0 0 0 0 -166.74818069965841 -119.93314354185713 0 -119.93314354185713 -110.32013507820375 0 0 0 0 104.03698162119963 -130.33971490369731 0 -130.33971490369731 -146.88348752894672 0 0 0 0 163.50363462564155 -104.75537027961036 0 -104.75537027961036 -149.41946640699462 0 0 0 0 5.5724493633406382 -103.81547607376706 0 -103.81547607376706 -96.652756059309468 0 0 0 0 6.4228869095964001 -100.79900429546979 0 -100.79900429546979 -103.99629379971884 0 0 0 0 49.268162641310937 -144.47689851505856 0 -144.47689851505856 -254.07317498757038 0 0 0 0 84.09403486894098 -81.133770918502705 0 -81.133770918502705 -142.40189929694316 0 0 0 0 362.14855149959567 32.469577040843433 0 32.469577040843433 -178.88652267902944 0 0 0 0 158.38306009836617 -114.98609967664925 0 -114.98609967664925 -51.176478924651747 0 0 0 0 259.69671220477358 -6.5639975591402617 0 -6.5639975591402617 -179.66614587628283 0 0 0 0 226.39877146192498 84.759202954972352 0 84.759202954972352 -126.38033193777665 0 0 0 0 11.49236347875496 4.8384260625384812 0 4.8384260625384812 -91.416547230057063 0 0 0 0 169.50178532193695 -5.2723565886462893 0 -5.2723565886462893 155.5194826977604 0 0 0 0 -403.35214955391075 -131.13938432377108 0 -131.13938432377108 361.31812047764834 0 0 0 0 210.85937160081812 -66.105645219115104 0 -66.105645219115104 -987.63142812654405 0 0 0 0 244.63376552447062 -298.41225376844341 0 -298.41225376844341 -632.58558844872459 0 0 0 0 -0.081028739614013967 -0.53668604821177546 0 -0.53668604821177546 -4.1086809989169097 0 0 0 0 229.40506046962992 32.998100583858104 0 32.998100583858104 -21.091177789508947 0 0 0 0 12.090570653565116 -0.81352564568368635 0 -0.81352564568368635 -92.120560153373916 0 0 0 0 325.00247074787148 -158.50471596448097 0 -158.50471596448097 -144.12075758718856 0 0 0 0 -5.1309413688472887 11.555438158280595 0 11.555438158280595 -8.1329327420571644 0 0 0 0 3.8304370897416549 0.87930241843866952 0 0.87930241843866952 -4.1608662141825619 0 0 0 0 -12.158858418110128 13.286483535523075 0 13.286483535523075 -19.402883182396181 0 0 0 0 -4.6985046740805734 0.32638416691462169 0 0.32638416691462169 -0.36409293964153733 0 0 0 0 -23.721704263941319 61.611572077694291 0 61.611572077694291 -250.3655361027777 0 0 0 0 -7.7585991413309898 21.240932502358191 0 21.240932502358191 -210.63952058518771 0 0 0 0 7.9312183361853386 43.399490752515703 0 43.399490752515703 -233.73868268208025 0 0 0 0 -3.0636795605224165 49.313958899405407 0 49.313958899405407 -213.80113235328463 0 0 0 0 -12.54409390888452 38.133715862219105 0 38.133715862219105 -169.97403994294291 0 0 0 0 2.2992063108450225 13.072172957993644 0 13.072172957993644 -16.005089233382023 0 0 0 0 -3.1179634638322291 -0.32716944894852418 0 -0.32716944894852418 -0.25702530278304891 0 0 0 0 -15.631288866355135 3.0341904865599645 0 3.0341904865599645 7.1324777412191906 0 0 0 0 8.0466901932935571 33.284305667690205 0 33.284305667690205 -182.65248108189553 0 0 0 0 -7.575039724711246 7.4825390423138742 0 7.4825390423138742 38.037351178430981 0 0 0 0 -1.4400298736368362 -0.57210181308101937 0 -0.57210181308101937 -0.37244325618438978 0 0 0 0 -24.817144812218029 29.440211387736781 0 29.440211387736781 -127.12848932490306 0 0 0 0 -30.026173965191674 14.296432339418971 0 14.296432339418971 -60.875748772374209 0 0 0 0 70.519648476890325 -34.907081914898299 0 -34.907081914898299 -97.549282627536741 0 0 0 0 5.8724946194946597 6.4794306689836958 0 6.4794306689836958 -24.864060166495619 0 0 0 0 -107.37353298360662 5.6368219853611663 0 5.6368219853611663 -15.596830029695411 0 0 0 0 -80.746247047592988 -16.605567934897408 0 -16.605567934897408 -45.283896663342603 0 0 0 0 -187.6423838193316 -44.457471497837105 0 -44.457471497837105 -37.342820315854624 0 0 0 0 -160.8285073687652 -63.980040299542452 0 -63.980040299542452 -97.727902585291304 0 0 0 0 -57.346097121620929 102.10131070679199 0 102.10131070679199 31.146317216422176 0 0 0 0 -104.92921930553007 8.4971314561989857 0 8.4971314561989857 -30.942968965275213 0 0 0 0 -166.74371514773998 2.9943601510444751 0 2.9943601510444751 -2.9785387318115681 0 0 0 0 -27.202392575758921 21.528342166413495 0 21.528342166413495 -39.439411789426231 0 0 0 0 -24.258373687886746 36.895718481563563 0 36.895718481563563 -30.903335552633507 0 0 0 0 -194.53663967540928 120.98666538079124 0 120.98666538079124 -62.213588821919984 0 0 0 0 27.917673031672507 24.937862224505807 0 24.937862224505807 -39.95198653821717 0 0 0 0 91.439705770553473 47.760798295661516 0 47.760798295661516 -53.708790286327712 0 0 0 0 66.877253164448575 -21.793029781634687 0 -21.793029781634687 -26.504580630366036 0 0 0 0 1.310895109675287 1.0733162338397761 0 1.0733162338397761 -1.7456796120302442 0 0 0 0 -39.004983798382455 -16.276062168704811 0 -16.276062168704811 9.7492866707616486 0 0 0 0 -1.6227929993907209 -1.8804261262722974 0 -1.8804261262722974 -4.3585149136977464 0 0 0 0 15.599527390084063 4.426193311383031 0 4.426193311383031 -24.931492886855267 0 0 0 0 -7.8178019489259327 32.649499440825821 0 32.649499440825821 -2.8122629230347229 0 0 0 0 3.3655983213482159 7.1657478835841175 0 7.1657478835841175 -8.3836753297364339 0 0 0 0 -7.4656590493930253 14.946265555343416 0 14.946265555343416 -3.8717275549970509 0 0 0 0 -5.5672261464723647 19.961626660746333 0 19.961626660746333 -10.64533708296949 0 0 0 0 2.7350508821784789 -0.33814708465941123 0 -0.33814708465941123 -5.4131451345464257 0 0 0 0 -15.647073069833368 17.706405299642938 0 17.706405299642938 -22.712172916770214 0 0 0 0 -1.9598246853860397 0.62447827464046668 0 0.62447827464046668 -0.15869252329227379 0 0 0 0 -194.62382505778237 210.55841709162269 0 210.55841709162269 -175.37408395653074 0 0 0 0 -170.95037889895048 130.00216169815394 0 130.00216169815394 -154.42744032099108 0 0 0 0 -170.26413383001795 222.49544732775757 0 222.49544732775757 -313.81141400898923 0 0 0 0 -150.84160031386273 174.19170706311706 0 174.19170706311706 -194.6162535758358 0 0 0 0 -181.86683449390057 187.61035168831586 0 187.61035168831586 -188.755645091107 0 0 0 0 -150.71472407825649 169.37906399679196 0 169.37906399679196 -308.54382238941253 0 0 0 0 -174.66460061367806 206.81569692281664 0 206.81569692281664 -195.54950484442816 0 0 0 0 -15.884112904006088 17.774018482203246 0 17.774018482203246 -15.311888022348285 0 0 0 0 -0.7453335645430732 0.21786778739451051 0 0.21786778739451051 0.24962642790711698 0 0 0 0 -173.86325941670714 189.39190076936757 0 189.39190076936757 -193.91010372660821 0 0 0 0 -68.409918995625503 16.614880252782314 0 16.614880252782314 -721.60798419912317 0 0 0 0 -60.109406932025422 62.133486675102176 0 62.133486675102176 -620.88756736160576 0 0 0 0 -135.67148799535028 136.17934170814806 0 136.17934170814806 -441.4335808440519 0 0 0 0 -139.70450191108011 147.09264929824712 0 147.09264929824712 -299.20267683018392 0 0 0 0 -97.109942774076671 88.661385887666256 0 88.661385887666256 -470.48283511649061 0 0 0 0 -148.2528470633174 216.47723258326005 0 216.47723258326005 -398.73181678958645 0 0 0 0 -99.907206210330969 150.14112021353139 0 150.14112021353139 -483.64040515255329 0 0 0 0 -191.17960602255107 217.18988602910395 0 217.18988602910395 -398.56063689799339 0 0 0 0 -99.130668309241628 -14.849525434605312 0 -14.849525434605312 -700.0681798820624 0 0 0 0 -97.792944851531956 56.436406869048369 0 56.436406869048369 -1156.3016138207313 0 0 0 0 -97.919335144892784 165.23024800870189 0 165.23024800870189 -807.76676165487152 0 0 0 0 -77.183353363963079 9.6808128893826506 0 9.6808128893826506 -698.83080813515699 0 0 0 0 -225.16408389602975 12.772182171647728 0 12.772182171647728 -907.73403509410855 0 0 0 0 -487.60795094606647 265.76474234558555 0 265.76474234558555 -1150.6230663993192 0 0 0 0 -507.83634654030197 -19.339576014241175 0 -19.339576014241175 -824.81597451781272 0 0 0 0 -260.13937551582876 237.97599424156215 0 237.97599424156215 -829.51939764836425 0 0 0 0 -164.47379379233314 173.48377157125833 0 173.48377157125833 -786.1677944270632 0 0 0 0 -294.56768639300799 203.2828495138674 0 203.2828495138674 -548.71603266098828 0 0 0 0 -171.84079237729884 388.39718367856403 0 388.39718367856403 -449.71578346801107 0 0 0 0 6.9770786097283235 56.900766406142793 0 56.900766406142793 -24.066421981580788 0 0 0 0 -199.26635378355701 206.77065797671185 0 206.77065797671185 -719.86753993581806 0 0 0 0 -210.97184251666573 86.072544974138509 0 86.072544974138509 -832.48314847872825 0 0 0 0 1.5224615564455917 0.39973811432311379 0 0.39973811432311379 -2.0341401123541232 0 0 0 0 -76.359644860226467 -205.45165546017961 0 -205.45165546017961 -717.5202970384853 0 0 0 0 -0.034361586552389634 -1.1987035906903145 0 -1.1987035906903145 -2.1251073453320544 0 0 0 0 -261.48128597999875 -122.46360177271708 0 -122.46360177271708 -29.892859115934698 0 0 0 0 -155.79051645678675 22.1734370974591 0 22.1734370974591 50.601199576965882 0 0 0 0 -273.3398961818632 -70.841592422017129 0 -70.841592422017129 4.3513897248194553 0 0 0 0 -260.2700351658782 -92.585455700864259 0 -92.585455700864259 -66.011084612742707 0 0 0 0 -225.88877853547086 -117.7331864928492 0 -117.7331864928492 -156.96001999740838 0 0 0 0 -378.23872357899592 -297.43323234675336 0 -297.43323234675336 -196.83920122249219 0 0 0 0 -147.84667766372388 -346.07625136861679 0 -346.07625136861679 -756.45424059880315 0 0 0 0 -436.37938937839999 -135.74316609356174 0 -135.74316609356174 -730.83162001035089 0 0 0 0 -422.46672660956347 -209.50283926993598 0 -209.50283926993598 -823.19921660493128 0 0 0 0 -328.40931075592664 -93.832274818072619 0 -93.832274818072619 -919.56551880008192 0 0 0 0 -936.06631206414636 -243.41812554044736 0 -243.41812554044736 -949.25770171282784 0 0 0 0 -205.46359082631511 -254.91698435556827 0 -254.91698435556827 -1559.658113069956 0 0 0 0 -2.3029316884414777 -3.9639666936984241 0 -3.9639666936984241 -6.8135635393689142 0 0 0 0 -373.81032478366274 -295.69718923217806 0 -295.69718923217806 -47.905493414895318 0 0 0 0 -148.5230971426551 485.93679311464803 0 485.93679311464803 -1479.4338573607124 0 0 0 0 99.609334741545581 75.174166670942213 0 75.174166670942213 -154.02054648680496 0 0 0 0 36.186515464918557 213.00910593166191 0 213.00910593166191 -117.57768187662441 0 0 0 0 -146.70628276653133 118.35791021654586 0 118.35791021654586 -64.091041449064505 0 0 0 0 -261.37080603773506 -119.41824693937451 0 -119.41824693937451 -261.88080634272774 0 0 0 0 -306.59421978845444 -62.359528169428813 0 -62.359528169428813 -333.63876573099697 0 0 0 0 -305.46450541146851 42.226871692459099 0 42.226871692459099 -125.36593814616208 0 0 0 0 -306.82542514908437 21.533435754616221 0 21.533435754616221 -425.63739140039252 0 0 0 0 -351.81054138542777 -89.473654602305032 0 -89.473654602305032 -301.68648984562606 0 0 0 0 -179.44984668114375 -198.91011145959783 0 -198.91011145959783 -1373.9751842974747 0 0 0 0 -176.01211310207694 -247.3785161001847 0 -247.3785161001847 -750.49458731658524 0 0 0 0 -349.02804460463665 -471.39245321963017 0 -471.39245321963017 -543.34684414505318 0 0 0 0 -198.77670182521933 -124.11676119794356 0 -124.11676119794356 -674.67809255985776 0 0 0 0 -84.523217048176775 -69.374337355635362 0 -69.374337355635362 -751.50622136627499 0 0 0 0 -184.28284146263377 -166.80010797722571 0 -166.80010797722571 -579.97747973467631 0 0 0 0 -228.7355752902854 -28.172628222320782 0 -28.172628222320782 -632.904820795251 0 0 0 0 -327.30025394586994 -130.51779947811337 0 -130.51779947811337 -583.00829895951028 0 0 0 0 -228.56126550336649 -37.873765770313184 0 -37.873765770313184 -502.7748067449138 0 0 0 0 -139.35122770231419 -13.241598883094412 0 -13.241598883094412 -685.98190075992898 0 0 0 0 -114.03410225403968 -58.537869711522944 0 -58.537869711522944 -624.86641678009983 0 0 0 0 -97.234937832906326 -43.556596190246637 0 -43.556596190246637 -627.55873176459863 0 0 0 0 163.58182932301133 -250.17362912761382 0 -250.17362912761382 -725.4315614288098 0 0 0 0 -45.48532551239623 -603.80310842929612 0 -603.80310842929612 -1219.9649402958985 0 0 0 0 591.17890040575094 -48.301053743263765 0 -48.301053743263765 -1546.0887933508056 0 0 0 0 276.56028490465997 -5.6830041423054354 0 -5.6830041423054354 -793.53546826442471 0 0 0 0 -534.09522492037468 -369.53195807674456 0 -369.53195807674456 -9.1808818091012654 0 0 0 0 17.265182821164331 -0.15975874557083003 0 -0.15975874557083003 -108.34603486904783 0 0 0 0 201.39316782844298 -837.97089172862616 0 -837.97089172862616 -2267.5536502006726 0 0 0 0 -139.8159560883978 527.85190057823638 0 527.85190057823638 -685.76717366476805 0 0 0 0 -1560.0401059009018 -109.59760103133158 0 -109.59760103133158 2181.6790966299595 0 0 0 0 22.519936638196118 -23.743461941507569 0 -23.743461941507569 -23.825342119839121 0 0 0 0 -126.86009467382428 -420.61061290019825 0 -420.61061290019825 -521.82721303513244 0 0 0 0 6.8640096705457623 -4.7317446803647574 0 -4.7317446803647574 -44.694101523343747 0 0 0 0 1.5487946354578686 59.08228988763171 0 59.08228988763171 -153.3100451917187 0 0 0 0 -458.3652378679617 -77.40621851781907 0 -77.40621851781907 -913.24675625975942 0 0 0 0 27.687750625161243 -334.91215551505002 0 -334.91215551505002 -814.43782624866071 0 0 0 0 259.328626538864 -122.18498655418625 0 -122.18498655418625 -301.47418345820915 0 0 0 0 279.73522464370308 109.8789210110117 0 109.8789210110117 -137.00398420750571 0 0 0 0 117.15934285554067 -163.80392403958103 0 -163.80392403958103 -226.18019031812946 0 0 0 0 -0.37357295510729216 11.143609049285828 0 11.143609049285828 -34.266762690471317 0 0 0 0 620.81337003375256 217.84179489604139 0 217.84179489604139 -783.35241135449905 0 0 0 0 -33.647629647030044 -145.84151224581001 0 -145.84151224581001 -249.20205752320544 0 0 0 0 161.48617809950156 -15.244056147104857 0 -15.244056147104857 -524.2141259079217 0 0 0 0 117.69743970265489 -132.29335844240359 0 -132.29335844240359 -666.44172750602593 0 0 0 0 154.81522515969573 18.846545282576699 0 18.846545282576699 -164.57798958628337 0 0 0 0 -236.17052677707827 -229.66639154811583 0 -229.66639154811583 -271.32010612986051 0 0 0 0 -110.73599577696041 -148.77316554755816 0 -148.77316554755816 -383.05763746102457 0 0 0 0 -24.921089874188283 -93.987646716435847 0 -93.987646716435847 -319.42703635334328 0 0 0 0 -111.78335830308902 -235.04939376862603 0 -235.04939376862603 -450.19466569253564 0 0 0 0 114.31750594186724 -80.77337850384356 0 -80.77337850384356 -688.10188071595621 0 0 0 0 -252.06482726505146 -72.577460478743888 0 -72.577460478743888 -727.28784350288697 0 0 0 0 98.294465780506016 67.652516193018528 0 67.652516193018528 -787.78947200550829 0 0 0 0 19.638006965898057 -104.82318034112905 0 -104.82318034112905 -975.69334616391279 0 0 0 0 -130.83344159466901 -202.4711764245294 0 -202.4711764245294 -1031.466822674156 0 0 0 0 20.625594490132698 -76.145777521363925 0 -76.145777521363925 -670.51839597807339 0 0 0 0 -83.795170693794716 22.079884410653904 0 22.079884410653904 -1006.6881387529866 0 0 0 0 189.97333448409245 -66.918694939216948 0 -66.918694939216948 -898.5214219230038 0 0 0 0 263.48828525677118 59.124774879062898 0 59.124774879062898 -684.14832789308412 0 0 0 0 333.19743726929528 -74.001977723804885 0 -74.001977723804885 -946.44030820768239 0 0 0 0 70.912034188449752 144.34345078427941 0 144.34345078427941 -839.9452705947333 0 0 0 0 107.33386813205152 9.2017582169210073 0 9.2017582169210073 -479.29817257807736 0 0 0 0 -102.43635925765238 212.13394451420754 0 212.13394451420754 -373.81504118819976 0 0 0 0 86.246637604483794 0.51894969598652096 0 0.51894969598652096 -1135.6885185991414 0 0 0 0 -143.53755595925708 424.89045836697096 0 424.89045836697096 -794.13221777741273 0 0 0 0 -5.4758686319213812 -6.9008936786443371 0 -6.9008936786443371 -23.19095279223589 0 0 0 0 143.7449436641208 -1.9778614768492844 0 -1.9778614768492844 -75.669688685615256 0 0 0 0 11.057483127343403 12.464348625391722 0 12.464348625391722 -311.04992086560196 0 0 0 0 -9.8746044955783443 16.127574822023234 0 16.127574822023234 -10.543143557234828 0 0 0 0 -59.411450139326803 19.550343555560175 0 19.550343555560175 -238.45026701635288 0 0 0 0 -25.567848932028937 121.06749782486804 0 121.06749782486804 -484.05362054733871 0 0 0 0 -98.258015277974437 30.600298521141667 0 30.600298521141667 -358.51927597368194 0 0 0 0 -66.093519011585613 -68.549606087046413 0 -68.549606087046413 -490.05832859716611 0 0 0 0 76.664898211834952 -46.604251581986318 0 -46.604251581986318 -578.25320825874587 0 0 0 0 52.452541111439132 146.82695560906359 0 146.82695560906359 -269.45952014890645 0 0 0 0 219.43450537484296 82.849776973162079 0 82.849776973162079 -459.3224513528985 0 0 0 0 -1.7349051626479195 12.337697750779625 0 12.337697750779625 -47.226007267516252 0 0 0 0 -2.0029643946179836 17.011570410778496 0 17.011570410778496 -23.501740619377848 0 0 0 0 -18.392076262793701 19.243313112801161 0 19.243313112801161 -24.920790104111219 0 0 0 0 94.552950043680539 5.8449920568818925 0 5.8449920568818925 -506.09556388307101 0 0 0 0 -0.76222451188368723 -7.4960412100917893 0 -7.4960412100917893 -131.99711083969305 0 0 0 0 -14.912710080371198 20.352929999444314 0 20.352929999444314 -49.564685311903304 0 0 0 0 -6.7570372374274257 0.76969470927178918 0 0.76969470927178918 -68.740230449135197 0 0 0 0 0.83950253502962369 11.654162255350457 0 11.654162255350457 -103.36850023617808 0 0 0 0 3.6148496257039824 27.137472233154767 0 27.137472233154767 -132.1057047623508 0 0 0 0 -1.8502971208775989 21.613366557774498 0 21.613366557774498 -104.87315918072636 0 0 0 0 -2.8829054787523773 -0.91610017895072815 0 -0.91610017895072815 -117.3201995728632 0 0 0 0 -20.622497938628385 5.3859734898032912 0 5.3859734898032912 -97.301183621581004 0 0 0 0 -38.254448073002607 5.0184554426832619 0 5.0184554426832619 -45.569944242419297 0 0 0 0 -7.2647599001961325 20.08504625613039 0 20.08504625613039 -31.442759981858416 0 0 0 0 -7.6150711655174064 -3.3689735837324406 0 -3.3689735837324406 -77.426357684623326 0 0 0 0 -8.4698509160240292 6.1471427158612642 0 6.1471427158612642 -52.905415012093727 0 0 0 0 -2.153591237909688 -3.1004724002240494 0 -3.1004724002240494 -34.723429612523731 0 0 0 0 -1.0635900759954318 -12.857835245207355 0 -12.857835245207355 -19.492698259812641 0 0 0 0 -6.5227681781286719 8.4321821230096248 0 8.4321821230096248 -52.339315333098057 0 0 0 0 -2.4970193748800771 11.304261253290719 0 11.304261253290719 -15.708261335493276 0 0 0 0 28.071237230517909 32.377490547631169 0 32.377490547631169 -44.644550998124032 0 0 0 0 -277.11435049594184 486.60611703329778 0 486.60611703329778 -329.06336861954878 0 0 0 0 -251.79933707202872 337.52868026997203 0 337.52868026997203 -547.77197564864764 0 0 0 0 -1080.9286304657771 1547.453154490111 0 1547.453154490111 -940.71936361026019 0 0 0 0 502.34191492067566 383.10203077044571 0 383.10203077044571 -1116.1306725461909 0 0 0 0 12.418445199877834 -24.130321725650553 0 -24.130321725650553 -43.91166500977269 0 0 0 0 5.88676109696803 -10.198173011129256 0 -10.198173011129256 -23.945670521716238 0 0 0 0 1.6003332076107386 -18.317046291576133 0 -18.317046291576133 -32.378204784741499 0 0 0 0 -3.9733632180778344 -12.376478338676471 0 -12.376478338676471 -57.683872237451084 0 0 0 0 2.8773752426869272 -3.0988794444904357 0 -3.0988794444904357 -11.298384383946811 0 0 0 0 168.24851715949762 405.64445177066227 0 405.64445177066227 608.87489192784415 0 0 0 0 -904.89261897072993 -899.56324191225576 0 -899.56324191225576 -787.96072982884652 0 0 0 0 -499.38247946744559 -739.61775793145353 0 -739.61775793145353 -189.41907826015085 0 0 0 0 -94.181983650089478 603.2740618430762 0 603.2740618430762 -699.43398530256127 0 0 0 0 -378.6893793322638 1284.1214854675418 0 1284.1214854675418 -1541.5414569144632 0 0 0 0 257.7434561250825 266.37102518662141 0 266.37102518662141 -2612.1157263703208 0 0 0 0 -1.8963251157027841 9.2012541890884059 0 9.2012541890884059 -26.03206721490838 0 0 0 0 837.27806163560558 -142.59009760987465 0 -142.59009760987465 -1235.8258859981688 0 0 0 0 350.58473565716213 806.94810082008917 0 806.94810082008917 -2206.5223744533396 0 0 0 0 334.0898575615729 -305.57067118582745 0 -305.57067118582745 -179.36576898365456 0 0 0 0 -894.50231544151893 1008.853105069737 0 1008.853105069737 -497.30165537946596 0 0 0 0 -105.35922126548212 -59.736852306314177 0 -59.736852306314177 317.42848306909218 0 0 0 0 -454.82173739711016 858.02752137176503 0 858.02752137176503 -1226.9825244197073 0 0 0 0 -401.57148280009369 491.88896843341718 0 491.88896843341718 -594.32717731199045 0 0 0 0 126.28035958359226 -127.07010567875545 0 -127.07010567875545 -840.70289743739704 0 0 0 0 -980.9161201923489 1249.7419691783507 0 1249.7419691783507 -986.11319592220752 0 0 0 0 4.6003564744989625 -0.73062768602341066 0 -0.73062768602341066 -12.23115347555094 0 0 0 0 131.76098084592633 10.466380076183441 0 10.466380076183441 24.943992772365164 0 0 0 0 23.05655783247537 -28.931084971896865 0 -28.931084971896865 -43.770750189427211 0 0 0 0 15.316444090036384 -64.351042613183381 0 -64.351042613183381 60.277246177894995 0 0 0 0 -33.183916104581613 508.2861117326438 0 508.2861117326438 -1084.45758050312 0 0 0 0 2.9635677855120974 -13.847940860186512 0 -13.847940860186512 -11.009198507628128 0 0 0 0 -498.00778886516127 830.0985394350937 0 830.0985394350937 -964.48703359741921 0 0 0 0 -299.72937567792019 1025.5142010063319 0 1025.5142010063319 -794.59787615515233 0 0 0 0 -214.4136102385346 121.38072218674279 0 121.38072218674279 -688.88297371299268 0 0 0 0 -163.79357195948441 -15.534873975808978 0 -15.534873975808978 -649.0878518470272 0 0 0 0 -284.78096831425978 24.553848665676924 0 24.553848665676924 -659.54160820056859 0 0 0 0 -274.05500200996858 36.699442225581151 0 36.699442225581151 -599.41418886021711 0 0 0 0 -141.34264128946825 50.700179197714533 0 50.700179197714533 -698.64519385500171 0 0 0 0 -183.81047145428101 -21.404638207703101 0 -21.404638207703101 -770.68402681532461 0 0 0 0 -76.455193539955417 -7.4279486495979654 0 -7.4279486495979654 -777.50425883287426 0 0 0 0 -73.937344066141577 28.280377793875232 0 28.280377793875232 -821.2988773721936 0 0 0 0 -17.472186902055455 116.79485838041728 0 116.79485838041728 -820.77778307750123 0 0 0 0 -51.87712284867564 223.4104929788009 0 223.4104929788009 -899.59092669433448 0 0 0 0 -79.043384992572555 72.929838867094077 0 72.929838867094077 -806.61510007495963 0 0 0 0 -178.7926179285023 119.1551280061467 0 119.1551280061467 -625.72841350985254 0 0 0 0 -182.06183780653552 163.09015039419273 0 163.09015039419273 -656.88572208656115 0 0 0 0 -263.31175604970304 101.21191119568903 0 101.21191119568903 -357.66128087107791 0 0 0 0 -249.10192916834649 146.66207443291569 0 146.66207443291569 -294.68585761968279 0 0 0 0 -268.96618180169116 250.41298010756145 0 250.41298010756145 -545.8255344692152 0 0 0 0 -275.49706855684872 247.84639085813251 0 247.84639085813251 -200.50446953419305 0 0 0 0 -293.84317501726582 534.90651121434348 0 534.90651121434348 -790.47806065660552 0 0 0 0 -124.65799404446625 218.67711114644771 0 218.67711114644771 -792.85031428527145 0 0 0 0 -129.72264709354386 203.88875455498055 0 203.88875455498055 -836.03070807020413 0 0 0 0 -226.00534492672932 278.95655989029183 0 278.95655989029183 -824.92096978808695 0 0 0 0 -100.67651786462966 429.35717442948226 0 429.35717442948226 -1085.8556072616448 0 0 0 0 -468.57526751824116 519.61150581090624 0 519.61150581090624 125.5019432977715 0 0 0 0 77.712297786045838 61.682337415826623 0 61.682337415826623 -0.67121905903331935 0 0 0 0 -0.63440018404749665 2.0341305720283742 0 2.0341305720283742 -5.6659638867193962 0 0 0 0 0.62251376635873878 1.9017749303700811 0 1.9017749303700811 -4.8468758098608902 0 0 0 0 -115.57109433664664 -95.656791448636795 0 -95.656791448636795 11.481141420896165 0 0 0 0 2.8908243368659896 115.36665707623615 0 115.36665707623615 109.75390078569762 0 0 0 0 -1.5619801901752908 294.75900678234393 0 294.75900678234393 -968.4141364726238 0 0 0 0 195.82366920868253 186.75469522374988 0 186.75469522374988 -972.31379942862714 0 0 0 0 -69.139364144622505 260.06302166110254 0 260.06302166110254 -949.40519428353582 0 0 0 0 54.968740239135514 515.6442690555632 0 515.6442690555632 -1131.0634844387823 0 0 0 0 282.11089932251798 113.60470546680335 0 113.60470546680335 -935.97780606429296 0 0 0 0 293.59546531634533 -10.260467549160239 0 -10.260467549160239 -923.62423295692179 0 0 0 0 154.62584481037311 174.94493138400867 0 174.94493138400867 -363.61025461143072 0 0 0 0 78.139654365478464 195.71243861478797 0 195.71243861478797 121.0208642455018 0 0 0 0 121.56295863970558 -32.249747790765468 0 -32.249747790765468 -337.37315158693673 0 0 0 0 -54.623834682168081 195.14985646606874 0 195.14985646606874 -390.67023188024177 0 0 0 0 141.84593372635868 119.17259757815737 0 119.17259757815737 -844.66798482160084 0 0 0 0 49.974993395955494 -37.964235966782326 0 -37.964235966782326 -837.01085490538389 0 0 0 0 -368.71574631645569 270.3587221597495 0 270.3587221597495 -168.40648322858033 0 0 0 0 -321.48128709678303 -21.040816724860633 0 -21.040816724860633 68.180625474651606 0 0 0 0 -378.15919611276877 -202.46372753993273 0 -202.46372753993273 -861.51237887060415 0 0 0 0 -53.74784451653818 196.68882921101977 0 196.68882921101977 -910.62969714218889 0 0 0 0 -448.71283406392422 158.02109643438962 0 158.02109643438962 -694.10036363365361 0 0 0 0 -122.76108862583169 65.515247907245794 0 65.515247907245794 32.235291451219382 0 0 0 0 -122.17756421468675 -21.323082132899799 0 -21.323082132899799 22.928660760106141 0 0 0 0 -132.51790154558876 34.073134816004313 0 34.073134816004313 -16.065177008920728 0 0 0 0 -176.9562429883465 102.20236485425448 0 102.20236485425448 36.408588315658562 0 0 0 0 -14.505280639833472 133.59900960377854 0 133.59900960377854 33.712954846199409 0 0 0 0 110.63028190207274 126.58845961920088 0 126.58845961920088 -15.056544801816926 0 0 0 0 104.75775638896584 190.54148810839251 0 190.54148810839251 9.3429474252461659 0 0 0 0 -31.15656691152401 231.32988025284249 0 231.32988025284249 -50.228940503620834 0 0 0 0 11.806013591440433 53.131731395216775 0 53.131731395216775 -179.13594605843537 0 0 0 0 276.26274447320833 253.47955330859986 0 253.47955330859986 13.395329334176495 0 0 0 0 147.50319326719742 200.28478642656319 0 200.28478642656319 29.160032628198678 0 0 0 0 159.44522549585099 140.88530311370414 0 140.88530311370414 5.7916492788644973 0 0 0 0 198.4662524987416 183.19283650618308 0 183.19283650618308 1.5542130498652114 0 0 0 0 304.74654289031844 94.823484456208462 0 94.823484456208462 -48.772073017782532 0 0 0 0 192.35906622282937 86.946975474475039 0 86.946975474475039 -45.248052411676326 0 0 0 0 181.85260777759868 121.35671530802938 0 121.35671530802938 -13.652561237799091 0 0 0 0 87.912389855516608 82.907358587246563 0 82.907358587246563 14.377028950169915 0 0 0 0 79.564805600965428 106.98594637287169 0 106.98594637287169 4.1295311431349546 0 0 0 0 84.716137537709528 141.65068673920359 0 141.65068673920359 21.660406387345574 0 0 0 0 5.2578162951785998 114.48611580766556 0 114.48611580766556 28.935847564694996 0 0 0 0 114.86824712077851 112.04363138772896 0 112.04363138772896 -2.7402721373873646 0 0 0 0 -100.90050056143036 52.041090061713476 0 52.041090061713476 33.130098245819681 0 0 0 0 -10.501033186145037 85.298852281320251 0 85.298852281320251 27.292904699526844 0 0 0 0 -12.977544298881639 89.565997489422443 0 89.565997489422443 29.596676146924437 0 0 0 0 -38.624804606224188 66.560218495382287 0 66.560218495382287 16.124930031746771 0 0 0 0 -37.45366426298915 38.305903663920617 0 38.305903663920617 -38.464515640625905 0 0 0 0 -346.86441914983789 166.86251507465022 0 166.86251507465022 -134.19356909947965 0 0 0 0 -209.52705996712507 104.94455732617462 0 104.94455732617462 -338.04543103527612 0 0 0 0 -497.51890083006037 358.80957125289933 0 358.80957125289933 -300.08388241584726 0 0 0 0 -418.71343077810707 464.34348817176669 0 464.34348817176669 -433.6425501172198 0 0 0 0 -720.48212597991733 541.31690317125322 0 541.31690317125322 -403.393982598609 0 0 0 0 -547.22520930219832 287.874965639121 0 287.874965639121 -687.37407400229858 0 0 0 0 -494.33509801616128 480.7341592476696 0 480.7341592476696 -391.31282262169771 0 0 0 0 -366.01615271613537 142.99070904023029 0 142.99070904023029 104.11625116164942 0 0 0 0 -509.0612309768062 496.30380105373479 0 496.30380105373479 -318.58508116676967 0 0 0 0 -289.16786309441932 602.16765605525507 0 602.16765605525507 -486.17293628199332 0 0 0 0 650.39784454589858 252.33331429927421 0 252.33331429927421 -91.683752613982506 0 0 0 0 -2.0231560679828795 17.23994677225177 0 17.23994677225177 -67.625509764986219 0 0 0 0 941.89943627184221 303.86274508910901 0 303.86274508910901 -327.61124417411702 0 0 0 0 54.565310820025616 349.45333340862089 0 349.45333340862089 311.32487010818295 0 0 0 0 72.922931414143477 135.6641298869381 0 135.6641298869381 -212.4052655256819 0 0 0 0 -212.8231794824494 84.52761877022931 0 84.52761877022931 87.256716405398038 0 0 0 0 90.825851457561356 429.21734963432039 0 429.21734963432039 -672.72494042171456 0 0 0 0 28.590460936443222 -285.20405173798054 0 -285.20405173798054 -281.06393763556844 0 0 0 0 1055.3664119221828 419.43450577645308 0 419.43450577645308 -1166.0970589003846 0 0 0 0 448.11871127243847 209.26254579878878 0 209.26254579878878 -80.639185762862326 0 0 0 0 851.5221179242476 -296.62669682110572 0 -296.62669682110572 -165.24896590648768 0 0 0 0 -2.2211292892649639 18.293658276921338 0 18.293658276921338 -89.109865338192861 0 0 0 0 0.34912001639124579 -0.88526162020085053 0 -0.88526162020085053 -2.6160795581910889 0 0 0 0 -416.62578098585027 -161.32056181101871 0 -161.32056181101871 803.74185960577961 0 0 0 0 -69.110830034596475 110.95196556924577 0 110.95196556924577 2.4088174683274701 0 0 0 0 859.99064547862326 -349.42755477451647 0 -349.42755477451647 -328.78132051345165 0 0 0 0 0.65945453096803441 -1.9163659988118589 0 -1.9163659988118589 -9.505803125517744 0 0 0 0 34.063508941624605 -709.30144810529964 0 -709.30144810529964 -212.31451851323345 0 0 0 0 253.22543818680128 115.66857382562557 0 115.66857382562557 -607.37867955406671 0 0 0 0 47.293925222326607 280.55471233893422 0 280.55471233893422 -271.96260951090699 0 0 0 0 -103.57953213869652 25.688148512157056 0 25.688148512157056 -279.40826679052407 0 0 0 0 10.524377190480664 -66.093874329115351 0 -66.093874329115351 -628.84715028559367 0 0 0 0 -101.50646189750023 203.2923249028463 0 203.2923249028463 -404.75098714801334 0 0 0 0 -292.48485039062507 339.41675393070727 0 339.41675393070727 -465.90818833280355 0 0 0 0 11.130140303594089 175.66713953392536 0 175.66713953392536 -467.15143764575362 0 0 0 0 -391.02897733587452 373.40549698982159 0 373.40549698982159 -440.90553337396159 0 0 0 0 -112.21372171676194 457.47675481482111 0 457.47675481482111 -610.65613369200219 0 0 0 0 -349.44082279422582 401.5952926709524 0 401.5952926709524 -741.38472040428223 0 0 0 0 -912.52010545177473 561.70623379186327 0 561.70623379186327 -783.20100414345052 0 0 0 0 -1400.5094749364216 1168.1317373970687 0 1168.1317373970687 -1139.9702232737072 0 0 0 0 -1269.5324142932732 818.6597160395977 0 818.6597160395977 -666.39074470426021 0 0 0 0 -1241.4178700197153 565.60878416255946 0 565.60878416255946 -445.02426542660396 0 0 0 0 -1654.390745837909 457.29995871264782 0 457.29995871264782 -360.02515309794398 0 0 0 0 -1224.9958351278569 442.42010967822489 0 442.42010967822489 -369.35134883179489 0 0 0 0 -867.30441181183414 553.74506925981404 0 553.74506925981404 -534.97714552907928 0 0 0 0 -782.52493546505866 634.84842765643043 0 634.84842765643043 -570.86946161943888 0 0 0 0 -760.08142089069042 437.02620423603184 0 437.02620423603184 -420.75581531416174 0 0 0 0 -1132.0606267384755 400.33169078258652 0 400.33169078258652 -373.53711346018463 0 0 0 0 -536.37992424359254 593.12024090374325 0 593.12024090374325 -601.89733669735688 0 0 0 0 -252.24246387186213 398.09367069795144 0 398.09367069795144 -502.57651902827638 0 0 0 0 -486.41267695328497 437.82226140712373 0 437.82226140712373 -461.33654064075381 0 0 0 0 -203.53705456250827 550.2957854549868 0 550.2957854549868 -1368.0462170045721 0 0 0 0 -308.640321474757 897.43800005009507 0 897.43800005009507 -1098.1646037624269 0 0 0 0 -321.12493186594111 807.24901596019481 0 807.24901596019481 -1369.8616906540283 0 0 0 0 -258.36241212845016 785.04530202158912 0 785.04530202158912 -1364.2576635085679 0 0 0 0 -142.51900345441391 718.20641758158035 0 718.20641758158035 -1796.3623653288141 0 0 0 0 4961.7473464870145 -2145.0827848519116 0 -2145.0827848519116 4986.0489146868658 0 0 0 0 4.2936083594483332 -3.0843372271493692 0 -3.0843372271493692 -30.297002141889951 0 0 0 0 -1036.9100610706755 1238.0133742845437 0 1238.0133742845437 -1189.7790484553625 0 0 0 0 -257.94212084157488 1232.0539631044101 0 1232.0539631044101 -2591.5708082094206 0 0 0 0 -2808.9705757151214 1393.9858821233411 0 1393.9858821233411 -578.28509338908771 0 0 0 0 -2347.9573356468827 660.20259720347167 0 660.20259720347167 -327.21019385423278 0 0 0 0 -1182.50155945597 480.29283733721786 0 480.29283733721786 -335.69003097877066 0 0 0 0 617.96315942958699 -1411.6297331457622 0 -1411.6297331457622 1595.7153032329043 0 0 0 0 410.96739063457426 -167.6650788567631 0 -167.6650788567631 -2706.7280741918257 0 0 0 0 10.409902436595086 3.0502474927296319 0 3.0502474927296319 -89.608617755743808 0 0 0 0 4545.6663004281072 364.20507528858525 0 364.20507528858525 -8439.4644014553596 0 0 0 0 -24.954151305984851 185.91563423859225 0 185.91563423859225 -2993.5196729365011 0 0 0 0 -159.4292865652842 464.38834564373883 0 464.38834564373883 -636.97121382806836 0 0 0 0 -96.592952648379651 139.53772880959923 0 139.53772880959923 -870.4114009812929 0 0 0 0 -3.7237048912847968 338.15419440798814 0 338.15419440798814 -971.65495900012411 0 0 0 0 190.83103557062077 244.69058111079903 0 244.69058111079903 -1660.9576211501826 0 0 0 0 -43.597921870757091 65.191142586527349 0 65.191142586527349 0.29711370914782265 0 0 0 0 1.5176573504849951 4.5259732926711624 0 4.5259732926711624 -5.3670762386512934 0 0 0 0 -85.428884421661678 -165.90237233901235 0 -165.90237233901235 129.89142137859926 0 0 0 0 159.51974494649403 -7.8753159530347148 0 -7.8753159530347148 -268.07598534178032 0 0 0 0 11.654753733514344 12.917572288162573 0 12.917572288162573 8.9252386002689121 0 0 0 0 -159.12265276955327 55.488048493609199 0 55.488048493609199 99.874946929725411 0 0 0 0 -1146.9627273350088 82.982109203499704 0 82.982109203499704 1623.1384526481042 0 0 0 0 -542.99403959484425 -86.254199027157483 0 -86.254199027157483 -258.48009330051445 0 0 0 0 -89.006313619113826 940.31268327177213 0 940.31268327177213 1371.5017252964117 0 0 0 0 -33.15741628309479 301.73486103541086 0 301.73486103541086 -260.20468665787735 0 0 0 0 -199.78293517910424 143.48198081780686 0 143.48198081780686 -36.735906955606424 0 0 0 0 364.96724998869627 -201.75803707179114 0 -201.75803707179114 -386.38053825735597 0 0 0 0 -401.36955068096177 930.47961379566323 0 930.47961379566323 -1149.8224421288523 0 0 0 0 -37.310165519074872 19.107584541378458 0 19.107584541378458 28.279596809594523 0 0 0 0 -4.4925478917700872 2.2823859249427088 0 2.2823859249427088 -0.4765058536302389 0 0 0 0 -17.174102459014136 21.023706295851508 0 21.023706295851508 9.1119292126711571 0 0 0 0 -1.0626458185115553 30.735823711203466 0 30.735823711203466 -43.311501117001896 0 0 0 0 3.9342314162601317 6.0231334361374724 0 6.0231334361374724 -5.2665007387872986 0 0 0 0 2.1820512120402933 24.834997036451618 0 24.834997036451618 4.2103890026914836 0 0 0 0 -631.01620696722603 429.55433624654324 0 429.55433624654324 -399.3761618510689 0 0 0 0 -539.36144227934892 504.48371814151687 0 504.48371814151687 -409.74263218400665 0 0 0 0 -493.67717310655098 463.93291393444451 0 463.93291393444451 -418.994609500347 0 0 0 0 13.301638245506988 9.1824566902861022 0 9.1824566902861022 -113.35938849869589 0 0 0 0 1354.115164921905 96.563946101948943 0 96.563946101948943 -630.14011657436049 0 0 0 0 -742.91014220071156 384.2927216768021 0 384.2927216768021 -380.71017096264768 0 0 0 0 -618.48365329343142 402.53970704817584 0 402.53970704817584 -418.19480548824504 0 0 0 0 -417.75859687541742 184.13808246704866 0 184.13808246704866 -340.40582716709832 0 0 0 0 -367.65191004045482 484.9374240231582 0 484.9374240231582 -513.62311377700826 0 0 0 0 -293.87506337652485 385.70423205924817 0 385.70423205924817 -409.62986803965032 0 0 0 0 -355.66403628471198 737.2360265563475 0 737.2360265563475 -794.99454905842867 0 0 0 0 -167.58661085601489 -133.1319638520672 0 -133.1319638520672 -86.834956311387941 0 0 0 0 -98.99384614529481 418.54545084242272 0 418.54545084242272 -511.42350479647575 0 0 0 0 12.786409194713997 -6.537031677307823 0 -6.537031677307823 -158.83073111247541 0 0 0 0 -12.333511475885643 49.180867960854812 0 49.180867960854812 -143.92976046917283 0 0 0 0 29.159018830140297 -21.544380587847915 0 -21.544380587847915 -44.150027065580836 0 0 0 0 -9.9523418314756782 30.085505492596894 0 30.085505492596894 -101.41631369472452 0 0 0 0 -3.9329845429683701 14.379010636008388 0 14.379010636008388 -192.60039011637491 0 0 0 0 -68.569269579535103 22.911435545564018 0 22.911435545564018 -108.44000822880116 0 0 0 0 -79.174083707789578 119.53525228373837 0 119.53525228373837 -151.80230003753059 0 0 0 0 1.9605066379722644 -2.1821390707311812 0 -2.1821390707311812 0.63705526664845991 0 0 0 0 50.715217589367967 236.65453156928197 0 236.65453156928197 -542.28289660367955 0 0 0 0 20.521691830263304 9.6782811009438525 0 9.6782811009438525 -114.16211474645627 0 0 0 0 -11.460438901796806 60.190187687267098 0 60.190187687267098 -99.807489740131132 0 0 0 0 199.22429952455195 96.587585808744166 0 96.587585808744166 -239.1242024385183 0 0 0 0 -0.98191548988193311 23.967163210202614 0 23.967163210202614 0.87139235178920238 0 0 0 0 -5.3708087763875483 71.799430963814302 0 71.799430963814302 -79.520184857117783 0 0 0 0 39.928325223090724 53.116433942886033 0 53.116433942886033 -89.497564943659199 0 0 0 0 5.4490701256412812 28.478084757519177 0 28.478084757519177 12.433269222794573 0 0 0 0 1.2242020774050493 20.19161808708791 0 20.19161808708791 -51.650317200967272 0 0 0 0 9.8932400351859542 23.213421426590912 0 23.213421426590912 -44.26904852659618 0 0 0 0 2.8623622078407607 25.884527312465252 0 25.884527312465252 -41.913558898823567 0 0 0 0 3.3786506805213321 18.74101322822753 0 18.74101322822753 -46.822928676225274 0 0 0 0 -0.60835841767766397 14.524227426509697 0 14.524227426509697 -45.936310429779041 0 0 0 0 24.143357571098022 -5.0671216862792789 0 -5.0671216862792789 -69.013292916246883 0 0 0 0 29.78363849366724 3.2483947759783405 0 3.2483947759783405 -63.047847198798991 0 0 0 0 67.205704200657237 -1.2688004745350554 0 -1.2688004745350554 -88.158387956784281 0 0 0 0 20.112771916790734 -17.188717448396346 0 -17.188717448396346 -54.557545951463908 0 0 0 0 1.1833437004415828 151.3180291243616 0 151.3180291243616 -148.8928700320364 0 0 0 0 2.4732213570430304 16.033613552221595 0 16.033613552221595 -51.876984849962355 0 0 0 0 2.3422407077925569 12.098059301366035 0 12.098059301366035 -51.268519878393178 0 0 0 0 1.00055923677815 0.9692947470324107 0 0.9692947470324107 -7.5104228618723941 0 0 0 0 2.3671569150137657 14.778388085230745 0 14.778388085230745 -55.403975657787669 0 0 0 0 -85.05518040243976 54.209180363618088 0 54.209180363618088 -77.0040499947645 0 0 0 0 -87.354546754558214 42.409812251190488 0 42.409812251190488 -117.59088267482184 0 0 0 0 3.9143958070908411 73.958660294500078 0 73.958660294500078 -111.38289586679457 0 0 0 0 -83.754522467196693 57.763347041618545 0 57.763347041618545 -93.001586826735547 0 0 0 0 -184.31180499511265 63.556869901758546 0 63.556869901758546 -86.441210050146765 0 0 0 0 2.0033103648743849 -6.671640806346617 0 -6.671640806346617 -0.65468865440306701 0 0 0 0 -94.063539490694353 27.756753020064934 0 27.756753020064934 -63.905096022321231 0 0 0 0 -49.957228755327947 28.124790005314026 0 28.124790005314026 -67.152027657441067 0 0 0 0 12.855851659748623 44.276988503271241 0 44.276988503271241 -96.669536042330947 0 0 0 0 -59.366362428999309 90.556622718208018 0 90.556622718208018 -116.29448174892923 0 0 0 0 -96.297377697544107 6.6334791999943263 0 6.6334791999943263 -41.508364533081476 0 0 0 0 10.400742249260766 -23.671822203355276 0 -23.671822203355276 -45.264502692276437 0 0 0 0 21.08236311776464 -17.037740604748194 0 -17.037740604748194 -25.501765566411866 0 0 0 0 -4.301638659985656 14.634227430869942 0 14.634227430869942 -71.909433900545082 0 0 0 0 20.96502261283759 -16.895566426528973 0 -16.895566426528973 -24.744723447004763 0 0 0 0 -15.327356734634122 -1.5698257134645246 0 -1.5698257134645246 -40.153061804918252 0 0 0 0 10.465895240624377 -26.102202822541585 0 -26.102202822541585 -46.293486203463544 0 0 0 0 70.457132933679532 -6.7776156234967857 0 -6.7776156234967857 -92.461250900369123 0 0 0 0 29.320381637930495 -51.208430983140715 0 -51.208430983140715 -136.87843588419219 0 0 0 0 14.51903001444316 -6.4388713135522266 0 -6.4388713135522266 -29.56003117234286 0 0 0 0 0.57248326766000623 0.0074658659352735413 0 0.0074658659352735413 -3.2047625531412081 0 0 0 0 -0.92698022698684035 -6.4279176235774003 0 -6.4279176235774003 4.5304701033745971 0 0 0 0 -3.5006182155116221 22.71186786160979 0 22.71186786160979 -76.164809215057176 0 0 0 0 5.048950262435028 23.007172249344876 0 23.007172249344876 -79.427141039370326 0 0 0 0 -8.5947547198729808 21.303443225780939 0 21.303443225780939 -73.753595131749535 0 0 0 0 -3.684729704963047 -1.9485233852501551 0 -1.9485233852501551 -65.67010224355181 0 0 0 0 -9.2121940279971568 8.3632694607022131 0 8.3632694607022131 -82.833384874335934 0 0 0 0 -6.6619784081312901 15.642093742026191 0 15.642093742026191 -80.520557549203659 0 0 0 0 -6.3152843183729601 33.633753528660236 0 33.633753528660236 -130.98137680844957 0 0 0 0 -20.254343096491084 9.6396026653997069 0 9.6396026653997069 -83.030416742032685 0 0 0 0 -10.010566692070825 21.818233066525863 0 21.818233066525863 -109.74484525713979 0 0 0 0 17.276450959237991 -16.42225053963557 0 -16.42225053963557 -92.14435114474054 0 0 0 0 -29.047908444278619 7.0007298525688384 0 7.0007298525688384 -73.700510231603403 0 0 0 0 23.413954392500841 -4.2323535539289878 0 -4.2323535539289878 -71.712759761307098 0 0 0 0 -11.649615138464469 9.6624391758414276 0 9.6624391758414276 -50.039875841328467 0 0 0 0 -18.57115095511017 -33.189466427020307 0 -33.189466427020307 -111.61583737129831 0 0 0 0 61.907820355914737 43.980446227755237 0 43.980446227755237 -133.06867380234132 0 0 0 0 7.7190199777326143 25.663556356338972 0 25.663556356338972 -69.81856626303852 0 0 0 0 -1.7337887026806129 19.027157610093127 0 19.027157610093127 -74.204885060081324 0 0 0 0 11.853895925583856 -4.2370282963374848 0 -4.2370282963374848 -69.363677514462324 0 0 0 0 9.68008838527021 -9.8895385844357406 0 -9.8895385844357406 -49.930010525658872 0 0 0 0 8.6720095261871535 -5.9128574494680262 0 -5.9128574494680262 -48.789673507835325 0 0 0 0 3.7604981499108803 -3.6526759167296667 0 -3.6526759167296667 -6.8364788832275352 0 0 0 0 50.323137153148309 -14.369556624875258 0 -14.369556624875258 -39.502584164909877 0 0 0 0 13.925797302568299 -11.753229325290931 0 -11.753229325290931 -97.508214220384616 0 0 0 0 -0.16883064550558302 -1.8044760401032356 0 -1.8044760401032356 2.6217628728907592 0 0 0 0 105.04563425349124 53.244459405843372 0 53.244459405843372 -3.2669395210959919 0 0 0 0 120.39419002311024 153.10080279752856 0 153.10080279752856 17.438763537898012 0 0 0 0 10.913561566864246 55.535222979091486 0 55.535222979091486 -61.625948747194343 0 0 0 0 151.55844808745496 76.156433622018994 0 76.156433622018994 -102.68524352524582 0 0 0 0 101.4979819097216 94.366006314101469 0 94.366006314101469 -84.479730044335156 0 0 0 0 4.3017744496537489 69.224786201741153 0 69.224786201741153 -55.497017781255636 0 0 0 0 -28.979481637098615 189.65113900600591 0 189.65113900600591 36.24824751305141 0 0 0 0 94.529465263932252 38.524493625892319 0 38.524493625892319 -61.11090733974379 0 0 0 0 27.359259211023414 -37.823572081380632 0 -37.823572081380632 -198.33729254928949 0 0 0 0 22.341980002356649 -14.022646266132142 0 -14.022646266132142 -209.31526944465281 0 0 0 0 29.54839722521865 -50.528441341779398 0 -50.528441341779398 -207.73589142060155 0 0 0 0 2.0128096621205849 -1.3837786528871865 0 -1.3837786528871865 -0.98122638154131625 0 0 0 0 5.6324386655724084 39.123600431145405 0 39.123600431145405 -37.456330576858818 0 0 0 0 47.969520361928062 32.043543535014578 0 32.043543535014578 -59.059001744566558 0 0 0 0 36.755953525350378 43.568357170212948 0 43.568357170212948 -44.601286366521663 0 0 0 0 -1.9182126020832584 11.183867268463473 0 11.183867268463473 -52.29336963084188 0 0 0 0 -12.695705093102788 19.345972069357458 0 19.345972069357458 -39.752066987797662 0 0 0 0 10.524464974417242 29.269840156594 0 29.269840156594 -37.590575333008928 0 0 0 0 -0.56567060400766422 21.22866289189335 0 21.22866289189335 -38.573387829415879 0 0 0 0 13.345023916040191 17.021142286103327 0 17.021142286103327 -37.32858715197699 0 0 0 0 1.2531019488378661 23.784692245776341 0 23.784692245776341 -38.725413556798941 0 0 0 0 13.182027481311707 27.928251149476637 0 27.928251149476637 -45.591882902559519 0 0 0 0 19.230566073317277 26.769609034232417 0 26.769609034232417 -45.74868209487947 0 0 0 0 37.56157845809139 17.454612905159479 0 17.454612905159479 -50.778299018879579 0 0 0 0 44.25827727347405 28.347416383335656 0 28.347416383335656 -59.146514064853768 0 0 0 0 19.811124744039262 29.839534251222133 0 29.839534251222133 -44.778533014428596 0 0 0 0 33.639706953514178 18.096607467093918 0 18.096607467093918 -59.226560888255335 0 0 0 0 6.6637016257209325 22.098588502451776 0 22.098588502451776 -55.701191275910787 0 0 0 0 -12.117495912172672 23.909277301016118 0 23.909277301016118 -49.765373600034764 0 0 0 0 -1.99147062363636 21.27495260549307 0 21.27495260549307 -52.925217533148043 0 0 0 0 -0.56822041806390189 25.211673477467116 0 25.211673477467116 -45.139579381943349 0 0 0 0 -15.329540525470748 36.178709186475984 0 36.178709186475984 -8.9218534726222742 0 0 0 0 85.107662310600062 55.438421518707059 0 55.438421518707059 -42.564822489386756 0 0 0 0 24.443334433691689 38.019078064187497 0 38.019078064187497 -47.226246481819658 0 0 0 0 -17.242472578059278 65.892865713322635 0 65.892865713322635 33.254137925451687 0 0 0 0 -55.153092130294681 4.7813668435148884 0 4.7813668435148884 -19.008393669528004 0 0 0 0 -12.346832151659328 22.359229817851144 0 22.359229817851144 -35.797413812701365 0 0 0 0 15.098298082728434 -1.7077462886508172 0 -1.7077462886508172 -34.440342721957336 0 0 0 0 75.673609024089274 7.123006840058224 0 7.123006840058224 -50.067463119594777 0 0 0 0 44.943252906817179 19.207704733136268 0 19.207704733136268 -50.362250462069369 0 0 0 0 3.7450277802633973 -0.83801925070653294 0 -0.83801925070653294 -0.52619530125207925 0 0 0 0 50.50916829266589 -4.1623196212860876 0 -4.1623196212860876 -34.753584947150557 0 0 0 0 -47.052558858892553 154.80839989544029 0 154.80839989544029 12.298937629369107 0 0 0 0 -6.0453604279719002 -45.274728691859536 0 -45.274728691859536 61.601281572888183 0 0 0 0 25.751963479383221 37.215488000112714 0 37.215488000112714 10.649898689734073 0 0 0 0 -3.086854880859601 3.2669206421467187 0 3.2669206421467187 -0.72256596503611448 0 0 0 0 10.560172622823071 10.493164573562817 0 10.493164573562817 3.1141306212201521 0 0 0 0 -23.365505460573331 144.51053368399857 0 144.51053368399857 -1007.2036363743446 0 0 0 0 -24.052111606266408 274.4533296425484 0 274.4533296425484 -955.48014694238736 0 0 0 0 -138.32129550737045 426.29013685294376 0 426.29013685294376 -1105.5826605878033 0 0 0 0 -61.919354770416248 330.58361674669595 0 330.58361674669595 -1507.3520727142577 0 0 0 0 -335.3089997259558 527.73698685362706 0 527.73698685362706 -1058.5249382062066 0 0 0 0 -196.62969945742952 617.10197381615762 0 617.10197381615762 -1132.6002673520088 0 0 0 0 118.78495630571615 16.832269857417259 0 16.832269857417259 -399.74015206239073 0 0 0 0 1.1333460097938257 1.3257006186414024 0 1.3257006186414024 -5.0692250534188261 0 0 0 0 119.0649977583148 -104.29105501403814 0 -104.29105501403814 -94.698767407036485 0 0 0 0 -4.4357933109360168 13.165035601243005 0 13.165035601243005 -5.5014686409557747 0 0 0 0 44.926005922135118 32.536867219421765 0 32.536867219421765 -13.244486351891737 0 0 0 0 149.07765214252959 191.68966052714586 0 191.68966052714586 -940.94412887707767 0 0 0 0 15.577550409734613 338.25554415920942 0 338.25554415920942 -853.35445347003224 0 0 0 0 -64.218895723120568 120.8913259354822 0 120.8913259354822 -771.27399310881628 0 0 0 0 -173.3858363104755 133.88512703446122 0 133.88512703446122 -416.48660260500037 0 0 0 0 21.317886806146362 224.56504439375522 0 224.56504439375522 -1074.861911489068 0 0 0 0 -21.996028272080366 256.33573983060614 0 256.33573983060614 -951.23528206073593 0 0 0 0 -15.619604053719286 264.05135659299958 0 264.05135659299958 -956.26480287343111 0 0 0 0 -202.22351244545098 367.84865528190767 0 367.84865528190767 -786.56736031927767 0 0 0 0 -344.09378748473864 -2.3029947917957543 0 -2.3029947917957543 -740.8953607233625 0 0 0 0 -218.63995301303748 273.88128778951238 0 273.88128778951238 -405.78779975969883 0 0 0 0 -200.77505367095091 324.21446181955889 0 324.21446181955889 -767.55173820422351 0 0 0 0 -236.45177694140966 177.38231626643665 0 177.38231626643665 -279.99232638673675 0 0 0 0 -216.57867107301388 120.24099295620829 0 120.24099295620829 -28.483173877562876 0 0 0 0 -162.02686484243259 225.77893437298098 0 225.77893437298098 -251.7678463019738 0 0 0 0 -239.31023483212812 126.36255199102561 0 126.36255199102561 -311.45718065728761 0 0 0 0 -190.61143975419145 182.70725898393448 0 182.70725898393448 -258.97137901382666 0 0 0 0 -61.555859730899556 -71.961673646723739 0 -71.961673646723739 7.9237764056160813 0 0 0 0 15.80606907307174 19.165002495098179 0 19.165002495098179 15.37453483549325 0 0 0 0 3.8894149034704242 -22.492660608379538 0 -22.492660608379538 56.416901246348061 0 0 0 0 -0.35901690400484831 -1.8373172672364895 0 -1.8373172672364895 -12.667251313867851 0 0 0 0 0.30251351883141986 -1.1837044800112739 0 -1.1837044800112739 -5.478794975649965 0 0 0 0 -42.955698082847448 -47.422634656948503 0 -47.422634656948503 -73.450454753105419 0 0 0 0 0.15993081274703513 -1.7803851038161005 0 -1.7803851038161005 -1.9123818916579793 0 0 0 0 -433.01301213628903 312.76488929455263 0 312.76488929455263 -103.25646040657864 0 0 0 0 -69.266444034394226 31.35687474750921 0 31.35687474750921 -1.6407400247671831 0 0 0 0 130.44495094642025 -97.113203598089967 0 -97.113203598089967 -711.57658839326359 0 0 0 0 -273.19522317728115 -92.362772537046112 0 -92.362772537046112 -75.68178764910499 0 0 0 0 -414.50709313457719 530.42333786581275 0 530.42333786581275 -704.73376232303781 0 0 0 0 -0.3808364608486432 -1.353892120861353 0 -1.353892120861353 -6.4098338342551102 0 0 0 0 -199.7041208592691 402.09879169584929 0 402.09879169584929 -1037.5078442037175 0 0 0 0 -530.36193856212412 259.97802023180975 0 259.97802023180975 -939.39909076133699 0 0 0 0 -296.65765679186279 421.92206504822752 0 421.92206504822752 -924.38584336005806 0 0 0 0 -211.07772361924208 382.23351545444666 0 382.23351545444666 -907.05374502349696 0 0 0 0 -221.96157242136451 355.42365936298575 0 355.42365936298575 -934.44437588847177 0 0 0 0 -248.00893396710671 558.94402209073633 0 558.94402209073633 -743.23346114329252 0 0 0 0 -496.12678576944745 491.46253938932841 0 491.46253938932841 -705.60890689902953 0 0 0 0 -317.22268650939827 724.34303740726227 0 724.34303740726227 -783.54189763611066 0 0 0 0 -302.92625124895824 613.75755024720399 0 613.75755024720399 -778.54161245707292 0 0 0 0 -378.50683999806279 784.34612958749676 0 784.34612958749676 -549.81145189382414 0 0 0 0 88.563266411867517 224.42322789916034 0 224.42322789916034 -494.74293238855228 0 0 0 0 -177.40322103556719 -277.43743576827001 0 -277.43743576827001 284.96363848703197 0 0 0 0 -880.65067922602339 735.80501090593498 0 735.80501090593498 -188.6005816949546 0 0 0 0 -763.2730890912153 417.3256954914923 0 417.3256954914923 303.23321454027246 0 0 0 0 -318.17825231706229 476.8087490460457 0 476.8087490460457 -377.1794516442169 0 0 0 0 -682.51427202384366 972.74886995729321 0 972.74886995729321 -669.52409570417512 0 0 0 0 -2816.9737125826273 1870.9783592424462 0 1870.9783592424462 -922.51428491911429 0 0 0 0 3.8132527508703369 -0.98716618930625444 0 -0.98716618930625444 -33.816278197746755 0 0 0 0 4544.5368939301734 -2873.986923364123 0 -2873.986923364123 3766.2346615872666 0 0 0 0 -1177.7689366686063 1192.3000899215131 0 1192.3000899215131 -1400.6113595414081 0 0 0 0 -1273.4942537536367 785.38379542653615 0 785.38379542653615 -1021.0986204923029 0 0 0 0 -251.65107072185492 368.03590826746404 0 368.03590826746404 -3263.4957624077806 0 0 0 0 -691.81918450941066 -392.27991522539924 0 -392.27991522539924 -662.03840922403106 0 0 0 0 -1758.7359878580355 2126.0299767864499 0 2126.0299767864499 -2363.0168525146801 0 0 0 0 -58.754144798345806 4529.6093772962504 0 4529.6093772962504 -7855.0424847326867 0 0 0 0 -268.43057720701654 38.145423113735887 0 38.145423113735887 -462.49072591486492 0 0 0 0 235.61143881129487 -902.66264110855218 0 -902.66264110855218 -1474.6940816143651 0 0 0 0 -295.1839573045454 -301.23033119899083 0 -301.23033119899083 620.41082339228342 0 0 0 0 -138.20908774855707 -490.38578456122559 0 -490.38578456122559 -945.93437881273439 0 0 0 0 8.1962504563919545 -0.52126952196134724 0 -0.52126952196134724 -68.591367698661045 0 0 0 0 471.82513540768105 -277.6511523703748 0 -277.6511523703748 -378.89365890714726 0 0 0 0 1884.4098732309758 -310.01757419902788 0 -310.01757419902788 -2273.9840011937995 0 0 0 0 233.67607781255083 253.99271836100797 0 253.99271836100797 -116.32576179794523 0 0 0 0 9.1454551464075848 174.53822144325068 0 174.53822144325068 -631.65527410052528 0 0 0 0 -314.82894198381291 59.810757452301914 0 59.810757452301914 -222.33877874891732 0 0 0 0 -285.01285066687888 232.01352085858434 0 232.01352085858434 -889.15333818442377 0 0 0 0 -583.6811371969452 245.0470545177559 0 245.0470545177559 -751.07782924927142 0 0 0 0 -759.7835792855949 705.22077657889531 0 705.22077657889531 -877.44346079496245 0 0 0 0 -620.49661563363043 917.86692661812049 0 917.86692661812049 -1341.6329630605724 0 0 0 0 -985.21632340884753 -111.1023442581286 0 -111.1023442581286 -220.20518646586106 0 0 0 0 0.076881024058444325 1.4250257552974208 0 1.4250257552974208 2.0801228555365867 0 0 0 0 -438.45711296017953 210.93064972703451 0 210.93064972703451 -46.635290075591911 0 0 0 0 -77.875832370917124 -297.49337710972486 0 -297.49337710972486 -486.43638402443821 0 0 0 0 -106.4638459168018 72.715053053631891 0 72.715053053631891 55.656251416987288 0 0 0 0 -156.77693270476493 -160.42367187194696 0 -160.42367187194696 201.24793731395403 0 0 0 0 -277.11521459924916 -73.472574252610229 0 -73.472574252610229 -59.650050731914234 0 0 0 0 -281.44661458291375 -63.080098478674245 0 -63.080098478674245 211.63934061917553 0 0 0 0 6.7480309374423086 -133.65782190752134 0 -133.65782190752134 -26.216018811328468 0 0 0 0 -73.323726454940811 -51.960147207400951 0 -51.960147207400951 34.704810397483016 0 0 0 0 253.82528122605163 -294.29686599079059 0 -294.29686599079059 209.69474245325 0 0 0 0 -11.9624000128447 -25.411792180365435 0 -25.411792180365435 -41.003745567036262 0 0 0 0 115.73520457354789 -3.3888387186570981 0 -3.3888387186570981 122.26870553678236 0 0 0 0 -13.120131288273114 -214.60963953373266 0 -214.60963953373266 303.86378441269972 0 0 0 0 169.51103428576039 -338.70212378658459 0 -338.70212378658459 204.30069936580912 0 0 0 0 249.29519893849192 -185.75963558711919 0 -185.75963558711919 -38.984147488708004 0 0 0 0 8.319118983588865 2.5473002395131132 0 2.5473002395131132 -67.390476025012646 0 0 0 0 -88.364511685048228 -208.89825916110493 0 -208.89825916110493 78.406282479129004 0 0 0 0 -272.33544784344485 409.68174520199364 0 409.68174520199364 512.5513102140726 0 0 0 0 -650.37908231435904 211.12939316505549 0 211.12939316505549 94.620102813688391 0 0 0 0 -0.69899999170877436 2.0002529935406876 0 2.0002529935406876 7.013599930600062 0 0 0 0 -244.08135970171679 37.208116144884116 0 37.208116144884116 -69.188819490439528 0 0 0 0 247.26871233854581 -28.726967401958973 0 -28.726967401958973 -115.68028172072627 0 0 0 0 35.682359873369933 14.933064925231974 0 14.933064925231974 -65.661602008858608 0 0 0 0 -104.73373033995631 177.75898895618775 0 177.75898895618775 -90.903776303753148 0 0 0 0 -0.62961215166883377 1.5059473625207787 0 1.5059473625207787 7.2280772210517235 0 0 0 0 -436.07474109486066 113.43412784358497 0 113.43412784358497 22.762618025029951 0 0 0 0 -352.53019236649561 -54.63469452262666 0 -54.63469452262666 96.811960763765455 0 0 0 0 -125.42744577775011 -55.591753321181841 0 -55.591753321181841 -41.361652461573613 0 0 0 0 -188.77452588304368 20.80258606463849 0 20.80258606463849 -62.148396480903557 0 0 0 0 -259.76160473044001 21.086140308665563 0 21.086140308665563 -9.0336466895205376 0 0 0 0 -204.1295944594367 -52.176992959577547 0 -52.176992959577547 9.2833861940016504 0 0 0 0 -119.90321960915026 -26.620006086106059 0 -26.620006086106059 -16.726844523346699 0 0 0 0 -29.976267130710767 -34.655996886408502 0 -34.655996886408502 -44.065661617297792 0 0 0 0 -102.39798071004043 18.051810958263559 0 18.051810958263559 -27.026713443331118 0 0 0 0 -2.0718707014322355 -0.53983296696614858 0 -0.53983296696614858 3.5137989860275383 0 0 0 0 -26.011716523888026 44.794567458921847 0 44.794567458921847 -50.539039752857207 0 0 0 0 -274.49913166854981 132.55745220105115 0 132.55745220105115 -20.299013184898286 0 0 0 0 60.664491392643697 8.4418014644113555 0 8.4418014644113555 -177.4318474047941 0 0 0 0 518.04334677886891 -202.94222796144322 0 -202.94222796144322 61.688696934112158 0 0 0 0 -4.7099473318918434 -8.0884133004826211 0 -8.0884133004826211 -1.5334041191249561 0 0 0 0 61.092460901081722 -166.43708097276158 0 -166.43708097276158 5.3161792668843191 0 0 0 0 81.915222863626695 -95.029991468779372 0 -95.029991468779372 56.615920827752234 0 0 0 0 -7.2822061669730829 -211.31000603822645 0 -211.31000603822645 95.987040774216439 0 0 0 0 -59.320570799636698 -34.653767094081672 0 -34.653767094081672 88.92245416107653 0 0 0 0 -139.08191984836594 -118.97832013046855 0 -118.97832013046855 64.403671667494564 0 0 0 0 -96.15041012806978 -124.22728094655213 0 -124.22728094655213 -47.94641490857191 0 0 0 0 -9.4931274233204022 -94.773116649746498 0 -94.773116649746498 -82.939377477637663 0 0 0 0 52.102086323291587 -125.40190996127694 0 -125.40190996127694 -68.985638494187697 0 0 0 0 7.0340507349893144 3.003441704476419 0 3.003441704476419 -6.3893739077245613 0 0 0 0 52.99277314367464 72.486060262549699 0 72.486060262549699 -66.221594515045581 0 0 0 0 -0.55532020298780349 -20.659915431475813 0 -20.659915431475813 -49.488999347826237 0 0 0 0 8.8284352839231914 -0.095676263095040071 0 -0.095676263095040071 -11.029730370697308 0 0 0 0 0.42684503923692318 -14.245445268325057 0 -14.245445268325057 -29.920440398277606 0 0 0 0 0.17321642491310585 -9.9815340302329769 0 -9.9815340302329769 -27.392571124275428 0 0 0 0 -8.722726218461375 -17.857686943906508 0 -17.857686943906508 -29.896324113479491 0 0 0 0 24.983932640770945 -104.31217318474364 0 -104.31217318474364 -50.32392838582723 0 0 0 0 -64.980033828570868 19.203025757288515 0 19.203025757288515 71.410948596259914 0 0 0 0 -2.0101720262648541 -112.8568573616642 0 -112.8568573616642 -41.984060850574679 0 0 0 0 -11.289634453216816 -7.8115804063147927 0 -7.8115804063147927 -12.54830062365205 0 0 0 0 -199.33246917728229 -90.346185192860503 0 -90.346185192860503 9.4345223249601986 0 0 0 0 -492.54904779611752 -279.14428204541855 0 -279.14428204541855 333.24808596845105 0 0 0 0 -147.57219385354983 -27.85460700747899 0 -27.85460700747899 27.123152347465293 0 0 0 0 -3.60142307039626 1.2318479098357322 0 1.2318479098357322 -1.4111373357504018 0 0 0 0 -13.504099517367649 14.043877762250531 0 14.043877762250531 -249.52226427002461 0 0 0 0 -3.0511247701191948 1.375200186049284 0 1.375200186049284 -0.89808665960841694 0 0 0 0 -131.21631145138235 144.02566733579351 0 144.02566733579351 -122.5983596919923 0 0 0 0 -179.58918963082124 32.263666238403971 0 32.263666238403971 -4.4412003843108323 0 0 0 0 -76.120043365955553 -52.116756280342088 0 -52.116756280342088 -4.145897610575048 0 0 0 0 -50.286572950542904 73.594707292852036 0 73.594707292852036 -161.9885698262251 0 0 0 0 -112.57459582515003 19.560843990464491 0 19.560843990464491 84.826043074162499 0 0 0 0 2.0918656068395407 -5.2683950331170344 0 -5.2683950331170344 -5.8196837432047746 0 0 0 0 23.26062611737612 19.85097249155146 0 19.85097249155146 -7.3014504286184092 0 0 0 0 95.402513170458406 -121.13185588471424 0 -121.13185588471424 -120.80815689903056 0 0 0 0 -84.560943522679736 29.857424758227353 0 29.857424758227353 -20.633846068322782 0 0 0 0 -25.442173463264673 -24.967705742072759 0 -24.967705742072759 -21.840126281632688 0 0 0 0 -169.80847547662052 -16.475482011579516 0 -16.475482011579516 96.079247938514527 0 0 0 0 -115.70441036874763 -30.279432279806315 0 -30.279432279806315 -36.855650660430911 0 0 0 0 -413.1434026103525 -29.697583372680128 0 -29.697583372680128 -22.259576952989846 0 0 0 0 -147.8018033690405 220.12019092804394 0 220.12019092804394 -584.00981168637009 0 0 0 0 -115.23099606235883 108.32894870779637 0 108.32894870779637 -248.78176871751202 0 0 0 0 -164.06090639603281 61.557615231381533 0 61.557615231381533 52.717083179994006 0 0 0 0 -1.4158328431675318 3.2539088824752316 0 3.2539088824752316 -23.834773046466335 0 0 0 0 0.50067480627077465 6.1262770482133071 0 6.1262770482133071 -27.083864808242669 0 0 0 0 -47.335205426767061 -6.4000540818410627 0 -6.4000540818410627 -59.614555693864531 0 0 0 0 -1.6327820796491324 -4.4420562882171453 0 -4.4420562882171453 -26.857983686820717 0 0 0 0 131.00956724126945 107.83449871868174 0 107.83449871868174 -151.22558996174303 0 0 0 0 133.2611079512717 109.97191405064621 0 109.97191405064621 -250.20619011819326 0 0 0 0 27.74641519677607 -71.842827506446838 0 -71.842827506446838 -10.713928514300335 0 0 0 0 56.671535274266716 -6.3467943392197128 0 -6.3467943392197128 -42.993229602960916 0 0 0 0 14.082262637031818 -0.90286690401555347 0 -0.90286690401555347 -20.329613813570745 0 0 0 0 -105.38081317709293 -107.84520557646374 0 -107.84520557646374 -116.03310853386301 0 0 0 0 1.1872881999734091 19.833463917345853 0 19.833463917345853 24.419072932803829 0 0 0 0 -17.749516135856993 -1.9344024427837212 0 -1.9344024427837212 -24.805011462758557 0 0 0 0 245.27274144499097 -171.55941247266128 0 -171.55941247266128 119.07969847103959 0 0 0 0 -2.0268114206289312 3.5540945436328095 0 3.5540945436328095 -5.6798195120418526 0 0 0 0 -17.24956411428866 66.280003069485247 0 66.280003069485247 -56.722569138466497 0 0 0 0 -5.7615217087676456 0.19774423519810469 0 0.19774423519810469 -36.313797082907364 0 0 0 0 1.0576800186751587 -3.5349957699820109 0 -3.5349957699820109 -5.666524591197696 0 0 0 0 -44.756514325130411 5.8595929652101404 0 5.8595929652101404 -15.075711540584962 0 0 0 0 -38.395317642578448 7.5650414118026674 0 7.5650414118026674 -16.855517819005399 0 0 0 0 -15.771591111920316 20.598434864931733 0 20.598434864931733 -30.818628935287052 0 0 0 0 -36.396004996460761 8.6517098638660173 0 8.6517098638660173 -16.531522868695447 0 0 0 0 -6.0575347233443608 34.357899898485812 0 34.357899898485812 -49.608960410999316 0 0 0 0 -13.920690101570806 4.0533266354194595 0 4.0533266354194595 -2.9291007690408772 0 0 0 0 -12.94513805385651 -0.25128631258234968 0 -0.25128631258234968 2.0519523021630057 0 0 0 0 -1.8324746115754351 10.575395136771931 0 10.575395136771931 -31.878312452044156 0 0 0 0 349.29993097541046 68.788183174520782 0 68.788183174520782 -365.93148646643385 0 0 0 0 -4.3869520127121904 -5.3800232363819571 0 -5.3800232363819571 -18.518251919690609 0 0 0 0 -610.64618453819367 -33.563746941236786 0 -33.563746941236786 63.389456106015587 0 0 0 0 -185.11782751977898 125.80704572361583 0 125.80704572361583 1.4585976729249523 0 0 0 0 45.073396683194005 -0.075587274351164524 0 -0.075587274351164524 -33.578879330326345 0 0 0 0 -20.939808872613867 11.025694099334487 0 11.025694099334487 -17.802178380719852 0 0 0 0 -0.70277340297455382 -4.9685865104450695 0 -4.9685865104450695 -19.642120569905888 0 0 0 0 48.379154813583227 -35.512928411898201 0 -35.512928411898201 -43.242985516535555 0 0 0 0 -170.83565744115822 100.16631752715875 0 100.16631752715875 -42.936253395569217 0 0 0 0 -179.57162430246126 72.106352213461378 0 72.106352213461378 -126.39956406080455 0 0 0 0 -262.9621860535799 168.04309728677617 0 168.04309728677617 -88.4449309470765 0 0 0 0 35.891978396909053 -1.676002864005568 0 -1.676002864005568 -89.270330722883955 0 0 0 0 -0.80519855452019407 -4.3202670431813246 0 -4.3202670431813246 -17.031512175562362 0 0 0 0 -64.868749839632073 -54.440564780086788 0 -54.440564780086788 50.608712591754738 0 0 0 0 58.215045118629405 -62.112576913897783 0 -62.112576913897783 -28.596185535949189 0 0 0 0 20.261961743884058 32.954102272698947 0 32.954102272698947 -179.201490894774 0 0 0 0 49.535536496093755 113.35550974359194 0 113.35550974359194 -181.96440823228295 0 0 0 0 7.0070218661267045 8.783044134839681 0 8.783044134839681 -53.716891673185643 0 0 0 0 7.2066854862000547 -4.2094448179804447 0 -4.2094448179804447 -11.305676889056929 0 0 0 0 61.815008792703338 -74.459092649403829 0 -74.459092649403829 -41.456790224059887 0 0 0 0 -76.459110951756884 -57.823618999472274 0 -57.823618999472274 37.609909772028004 0 0 0 0 0.38920626453442253 5.6236983179997146 0 5.6236983179997146 -18.309187953453208 0 0 0 0 49.516441708203274 -40.831819890941915 0 -40.831819890941915 -30.969711208141234 0 0 0 0 -0.52265667214829925 4.8992076359076329 0 4.8992076359076329 -31.939337710000395 0 0 0 0 -0.056388275021205914 -0.01943550930346305 0 -0.01943550930346305 -1.3822594962130985 0 0 0 0 -12.25539300526907 51.613822824557246 0 51.613822824557246 -38.920483334872188 0 0 0 0 -40.215289697369371 11.83771167076884 0 11.83771167076884 -9.5870373198631569 0 0 0 0 -111.16022232817295 -0.19339565041377682 0 -0.19339565041377682 18.597621131651977 0 0 0 0 13.767223522597305 -21.208671652082558 0 -21.208671652082558 21.069646546049626 0 0 0 0 15.037792660948071 -1.4675311651189986 0 -1.4675311651189986 38.120481087775261 0 0 0 0 22.086613599738712 -15.153909867172842 0 -15.153909867172842 17.895962186157703 0 0 0 0 68.215749912245883 14.571284947040112 0 14.571284947040112 14.76556971223954 0 0 0 0 30.021868686158541 4.6083901598285593 0 4.6083901598285593 -61.657327884087863 0 0 0 0 84.764471054325554 30.015808895028385 0 30.015808895028385 -206.68299217614549 0 0 0 0 54.738509412478379 36.197972123805812 0 36.197972123805812 -56.257336489476984 0 0 0 0 45.090426502559694 52.865707411328913 0 52.865707411328913 -84.888620670855744 0 0 0 0 -15.362583844819198 65.845592838951688 0 65.845592838951688 -22.113098137611814 0 0 0 0 6.1618141411483975 63.406846889415647 0 63.406846889415647 -87.137905147086713 0 0 0 0 13.230480214687759 93.351604893137846 0 93.351604893137846 -48.287680584726331 0 0 0 0 12.904644420188561 100.21313274156455 0 100.21313274156455 18.225699665490538 0 0 0 0 46.400833589097488 137.54922362414436 0 137.54922362414436 -176.73194329979742 0 0 0 0 36.26343963519048 99.962593021253269 0 99.962593021253269 -46.488848694443732 0 0 0 0 -23.298209265491096 144.16159970733497 0 144.16159970733497 -30.451742145000026 0 0 0 0 91.311554764095945 75.272580305711017 0 75.272580305711017 -38.649067107992778 0 0 0 0 138.60552536813964 126.36353341109134 0 126.36353341109134 -0.99138314471201738 0 0 0 0 318.21384156526483 -83.942559559240181 0 -83.942559559240181 -57.760545860161074 0 0 0 0 2.6709010062050185 12.02561177050957 0 12.02561177050957 -17.375143784701805 0 0 0 0 101.03579574488015 147.71917502841461 0 147.71917502841461 -85.689656159440347 0 0 0 0 236.70124260594122 41.697712508146651 0 41.697712508146651 -264.77124526487023 0 0 0 0 0.46929401026179374 7.1967019604219127 0 7.1967019604219127 -73.02409032043559 0 0 0 0 39.377043387790039 -60.256396757444236 0 -60.256396757444236 -38.734901739138877 0 0 0 0 -0.50104360363489264 2.0615472441834513 0 2.0615472441834513 -2.4670159117810329 0 0 0 0 -33.69305029087559 134.72699280723282 0 134.72699280723282 -15.132835213044018 0 0 0 0 74.387159324408231 -37.885446763801156 0 -37.885446763801156 -99.974039031225402 0 0 0 0 5.7282292556868697 93.234724597437889 0 93.234724597437889 23.412523656013946 0 0 0 0 -0.81177836829179972 8.3797117714677007 0 8.3797117714677007 -66.923776981683488 0 0 0 0 226.04969368735919 39.282746023088293 0 39.282746023088293 -124.51025495517933 0 0 0 0 71.490739025690402 110.76981413139538 0 110.76981413139538 -71.706710839764128 0 0 0 0 -160.15680677918351 73.747896118016797 0 73.747896118016797 -26.384496716676949 0 0 0 0 20.49551864806763 46.396876402104681 0 46.396876402104681 -54.893435253048665 0 0 0 0 -87.536272501208259 123.44192902376744 0 123.44192902376744 -78.923000506115841 0 0 0 0 -83.308659678407608 123.19099170874324 0 123.19099170874324 -123.93898141729005 0 0 0 0 9.3681839605804171 0.42689017813961527 0 0.42689017813961527 -12.096180372694349 0 0 0 0 -1.4307486550906385 -7.4684562110295545 0 -7.4684562110295545 0.093014517750020786 0 0 0 0 469.63488444904391 -164.91883774833332 0 -164.91883774833332 -32.158468077028374 0 0 0 0 -139.10085775577261 151.57581750228564 0 151.57581750228564 -59.958266640944203 0 0 0 0 40.469642374237083 -24.555717629620631 0 -24.555717629620631 23.77141392086196 0 0 0 0 59.161716632781463 4.8134100950574066 0 4.8134100950574066 -4.3515805352399184 0 0 0 0 -7.717991256423403 4.7340543128648278 0 4.7340543128648278 -57.513955529866507 0 0 0 0 30.628174787310492 104.74121199175215 0 104.74121199175215 -82.632631884403963 0 0 0 0 7.5635941323131881 8.9685915521473376 0 8.9685915521473376 -25.178335262330272 0 0 0 0 49.516131003802002 -65.330066154931046 0 -65.330066154931046 -44.165257681328512 0 0 0 0 15.892276630504057 -78.482263886975488 0 -78.482263886975488 -49.006278176031628 0 0 0 0 -0.09456440694916779 16.385259094015634 0 16.385259094015634 -94.756845654291851 0 0 0 0 227.9429988961939 -13.94601730938416 0 -13.94601730938416 -141.26537413191909 0 0 0 0 93.289569010966716 -260.81919304301118 0 -260.81919304301118 254.51795114639026 0 0 0 0 461.31099386498937 179.4075247911519 0 179.4075247911519 -105.34418226833441 0 0 0 0 651.87059043709576 -264.27982027011967 0 -264.27982027011967 -63.808931871164532 0 0 0 0 -3.1165888783516493 -39.183282695244998 0 -39.183282695244998 -24.772205847686564 0 0 0 0 361.3708768051149 39.727249337930516 0 39.727249337930516 24.378053378364712 0 0 0 0 -1.3988182533870726 -4.297014187373378 0 -4.297014187373378 -3.8126117298031232 0 0 0 0 273.33468850776478 -93.291410537170123 0 -93.291410537170123 -139.69168026922125 0 0 0 0 -96.392971451746391 140.40714814079956 0 140.40714814079956 56.945921542755968 0 0 0 0 633.87184084633827 -304.95110925544213 0 -304.95110925544213 -239.32112908378076 0 0 0 0 -4.5191007492198407 -10.484623374607473 0 -10.484623374607473 -21.231225632073603 0 0 0 0 -69.5453899294248 149.77526834947503 0 149.77526834947503 -151.18071557865187 0 0 0 0 246.89852401466487 -180.4997351364982 0 -180.4997351364982 -51.281744170836646 0 0 0 0 -74.04090295987362 -137.29163845407993 0 -137.29163845407993 159.24063571661463 0 0 0 0 489.6235416492209 17.460638963350902 0 17.460638963350902 -308.97459331756045 0 0 0 0 -114.26539059269234 51.824373656932039 0 51.824373656932039 29.965095934065175 0 0 0 0 474.98362337513936 -382.03196483209013 0 -382.03196483209013 -53.724139606122662 0 0 0 0 -11.736010945599542 -19.319831202077751 0 -19.319831202077751 -30.094247866658925 0 0 0 0 292.34486397504179 -233.19125014072233 0 -233.19125014072233 43.654393945043921 0 0 0 0 140.38103216506352 -99.1518529771256 0 -99.1518529771256 168.18019255859326 0 0 0 0 54.085003510036245 -218.20476728211179 0 -218.20476728211179 34.265854630204558 0 0 0 0 149.59478958998758 -29.344905005451437 0 -29.344905005451437 47.743001359671325 0 0 0 0 235.03443031349542 -85.608273680806633 0 -85.608273680806633 109.95584159238206 0 0 0 0 190.0963578106817 -150.05198644248048 0 -150.05198644248048 17.70195319854065 0 0 0 0 133.02624183998267 -76.553195862896246 0 -76.553195862896246 -63.94671721162922 0 0 0 0 134.91546208737449 -29.28389249392967 0 -29.28389249392967 38.977990948544175 0 0 0 0 -45.651422629048888 -119.63828971777593 0 -119.63828971777593 38.420669942977838 0 0 0 0 239.81122127168794 -4.2053437131453393 0 -4.2053437131453393 -12.750600454146479 0 0 0 0 -28.657081675143161 -134.63477358414821 0 -134.63477358414821 -68.178542558927802 0 0 0 0 -29.138018817412995 -106.31028512591439 0 -106.31028512591439 81.475471556237608 0 0 0 0 -42.606049753466152 96.705953650622178 0 96.705953650622178 -224.10125061158033 0 0 0 0 2.2346069727233875 -3.6261355814582288 0 -3.6261355814582288 -8.0351632478521395 0 0 0 0 391.36185328038209 -257.85537311515509 0 -257.85537311515509 58.536831523646015 0 0 0 0 2.348486131986677 -2.9659222691651141 0 -2.9659222691651141 0.92127456076731562 0 0 0 0 -204.161684453573 110.65838424425556 0 110.65838424425556 -183.75825819371676 0 0 0 0 -197.7293620430346 139.32439959230396 0 139.32439959230396 -126.98337727670514 0 0 0 0 -311.44975677127456 388.46908903913572 0 388.46908903913572 -372.65022093913285 0 0 0 0 -244.5036386359489 188.43348286766559 0 188.43348286766559 -161.95060160864887 0 0 0 0 -26.23402649215339 32.246343645872457 0 32.246343645872457 -271.30366261259769 0 0 0 0 -134.40083662428935 195.3099871785289 0 195.3099871785289 -314.17638682139659 0 0 0 0 -57.95615065196796 221.29462899600912 0 221.29462899600912 -569.40065437336489 0 0 0 0 178.10274599734205 -400.89278117667345 0 -400.89278117667345 136.04977993991133 0 0 0 0 139.87723674889699 -284.24993035469925 0 -284.24993035469925 63.880899314244743 0 0 0 0 -0.5298094953782958 -1.2523013661354803 0 -1.2523013661354803 -2.8161741199291299 0 0 0 0 191.80065444783645 130.32006077192932 0 130.32006077192932 -234.41476479696212 0 0 0 0 -74.054220209047969 -60.900232876564587 0 -60.900232876564587 22.077958901230886 0 0 0 0 27.607250505192496 -3.4687873133461835 0 -3.4687873133461835 -53.244643675396219 0 0 0 0 9.1590103716495399 -3.106487136939009 0 -3.106487136939009 -5.5100164042133315 0 0 0 0 -91.758340843764444 97.668300940908011 0 97.668300940908011 168.88271472691667 0 0 0 0 87.687414133220415 -2.1563271380136939 0 -2.1563271380136939 -38.599780554111931 0 0 0 0 33.090659997449194 -68.01623939077399 0 -68.01623939077399 -185.99696790318194 0 0 0 0 -96.753404748100593 7.1643752694180876 0 7.1643752694180876 -39.021316225920145 0 0 0 0 4.8409036626112254 -81.132412935126013 0 -81.132412935126013 -370.48300570971696 0 0 0 0 -39.557933294211352 57.329403642139368 0 57.329403642139368 -194.42165404163279 0 0 0 0 27.626826660967254 -25.444437179834495 0 -25.444437179834495 -120.08107231729446 0 0 0 0 102.28764111293842 -44.468281678320636 0 -44.468281678320636 -138.55596862707171 0 0 0 0 111.7005279978496 -80.25944131268443 0 -80.25944131268443 -104.67813987143745 0 0 0 0 41.169062502917669 7.0401108538426342 0 7.0401108538426342 -25.871730670536635 0 0 0 0 2.6629643708686346 -0.85692490688749245 0 -0.85692490688749245 1.20341224548892 0 0 0 0 -7.7889237213233145 -81.010209986504378 0 -81.010209986504378 37.229669990403636 0 0 0 0 70.842324866470619 48.943960109485488 0 48.943960109485488 131.91886071134832 0 0 0 0 68.026642089460623 -66.787702331545006 0 -66.787702331545006 -23.925390287531627 0 0 0 0 194.77832255161587 -117.44235952438976 0 -117.44235952438976 -4.9587295323290164 0 0 0 0 83.283072996249629 -94.672269072689232 0 -94.672269072689232 -44.553592785196088 0 0 0 0 73.731257147729892 -58.530314056988573 0 -58.530314056988573 -76.412317052418075 0 0 0 0 79.842540828973966 -65.613360749830463 0 -65.613360749830463 -80.918981137518131 0 0 0 0 113.90482803159659 -23.505130171066412 0 -23.505130171066412 -112.15175447670117 0 0 0 0 82.577397693350463 43.390331906379288 0 43.390331906379288 -135.63217258850455 0 0 0 0 63.907193534815612 9.5336596404831653 0 9.5336596404831653 -176.09421472739632 0 0 0 0 78.981877357132731 -38.635227626291453 0 -38.635227626291453 -98.894378286440769 0 0 0 0 55.479896160631256 -7.7008844782958477 0 -7.7008844782958477 -212.13494573128264 0 0 0 0 -57.02974215171389 82.415907883902037 0 82.415907883902037 -202.20726977839513 0 0 0 0 -58.500927234384704 81.510554739816143 0 81.510554739816143 -200.69612704946849 0 0 0 0 16.405821990448374 0.33371358853946731 0 0.33371358853946731 -148.54339057948164 0 0 0 0 -50.298799887020749 93.48854286018468 0 93.48854286018468 -172.67643189518367 0 0 0 0 -59.702415631258489 73.706830000404807 0 73.706830000404807 -212.65092267609725 0 0 0 0 -274.96137637499646 172.20325308189877 0 172.20325308189877 -148.63465783833817 0 0 0 0 -79.579003527859243 88.557942203242419 0 88.557942203242419 -128.91201870511622 0 0 0 0 -80.45711079736472 83.358072867449664 0 83.358072867449664 -84.43100083626814 0 0 0 0 23.674286870807691 98.649864761928256 0 98.649864761928256 -147.42276038553973 0 0 0 0 46.828112626740591 37.282447004335609 0 37.282447004335609 -19.212294857312372 0 0 0 0 29.65996380608081 10.536198604373567 0 10.536198604373567 -111.06634072985617 0 0 0 0 153.77041875911269 -35.443534750016624 0 -35.443534750016624 -86.523002208177786 0 0 0 0 173.44536832948131 -25.001387765269101 0 -25.001387765269101 -13.315100279731269 0 0 0 0 -0.40362167086656719 2.9638478333052349 0 2.9638478333052349 -7.1603417984010491 0 0 0 0 184.83842456772118 49.409250923210493 0 49.409250923210493 -104.01576842924078 0 0 0 0 216.36074873145071 -15.897196906495083 0 -15.897196906495083 -116.94822086208114 0 0 0 0 -102.65933077248621 37.713847565182732 0 37.713847565182732 58.206953303350019 0 0 0 0 -0.25103894611696304 5.9051177694673829 0 5.9051177694673829 -60.156537751339883 0 0 0 0 230.26988386090972 26.409551942093458 0 26.409551942093458 -119.29105278333009 0 0 0 0 107.65484740503416 -9.0019690942444868 0 -9.0019690942444868 -34.208990217179235 0 0 0 0 0.029883797193525186 3.9525209579460974 0 3.9525209579460974 -54.14961935019582 0 0 0 0 88.934033550576828 -38.130808410236568 0 -38.130808410236568 -65.05597478207892 0 0 0 0 89.745278373162904 -46.680652679375271 0 -46.680652679375271 -45.527535311452084 0 0 0 0 64.492176265394448 -56.299271544773774 0 -56.299271544773774 -35.582114021730376 0 0 0 0 -34.403482994521028 -5.7032533649544348 0 -5.7032533649544348 10.85095467103929 0 0 0 0 82.587717819094451 -65.623289881674282 0 -65.623289881674282 -50.243048430558702 0 0 0 0 -0.36412385818202875 3.1721677522688685 0 3.1721677522688685 -8.0844545629770721 0 0 0 0 -55.720553496446314 -22.985600566807079 0 -22.985600566807079 38.740179747903312 0 0 0 0 -135.16229531999124 120.92829777902989 0 120.92829777902989 145.56245471555667 0 0 0 0 295.64405771284555 -20.234843553411338 0 -20.234843553411338 -289.11806906542188 0 0 0 0 -0.57317500474163641 2.3809013881653254 0 2.3809013881653254 -3.3534407298159863 0 0 0 0 -77.789165119294921 142.79027290649174 0 142.79027290649174 113.49916370459687 0 0 0 0 -79.113786571883338 183.29173609202189 0 183.29173609202189 -0.35070104070473462 0 0 0 0 97.982275795068631 -70.967625394139759 0 -70.967625394139759 -175.30467635184323 0 0 0 0 57.340449699122473 65.507664428012504 0 65.507664428012504 5.2627244882532977 0 0 0 0 6.1485080525658304 147.92865232143231 0 147.92865232143231 -86.328981908343849 0 0 0 0 51.638182524427975 41.010596917960356 0 41.010596917960356 25.991321311317733 0 0 0 0 -81.842979346398351 74.98450891003813 0 74.98450891003813 124.17850908752007 0 0 0 0 -3.1849571925073921 -0.024762870356639155 0 -0.024762870356639155 0.45693033710745112 0 0 0 0 36.725284462526361 6.5930518710447359 0 6.5930518710447359 -347.68899416855493 0 0 0 0 -29.001863842587682 66.024690894188097 0 66.024690894188097 -60.571056779801438 0 0 0 0 -25.729608350285616 147.36756774867536 0 147.36756774867536 -179.86506429398287 0 0 0 0 -6.8233598326869469 20.561201061736938 0 20.561201061736938 -25.462380809585738 0 0 0 0 -30.702656351973928 68.989528093308763 0 68.989528093308763 36.090327517857077 0 0 0 0 38.371255429391567 -59.24753150405013 0 -59.24753150405013 64.915975791587698 0 0 0 0 13.054984308264011 -32.111357589463296 0 -32.111357589463296 33.138336860050913 0 0 0 0 -12.053219439686018 29.62512133846576 0 29.62512133846576 -5.75284524269955 0 0 0 0 -6.271234635588371 0.7260831317944394 0 0.7260831317944394 5.7647799877086072 0 0 0 0 27.545952137553741 -9.8261876897886395 0 -9.8261876897886395 -53.761822111497167 0 0 0 0 -0.40516822309291456 9.422125963603321 0 9.422125963603321 -56.280257784455898 0 0 0 0 -1.6496067539928845 18.133064227902651 0 18.133064227902651 -60.663608278156971 0 0 0 0 -3.0867451028416326 6.9026867079883232 0 6.9026867079883232 -54.379583925003317 0 0 0 0 1.7219461329362957 17.028472795164362 0 17.028472795164362 -52.376554849397507 0 0 0 0 -3.4816640593289776 14.354992211774515 0 14.354992211774515 -32.040981182835822 0 0 0 0 9.1825539138657177 13.1301101130598 0 13.1301101130598 -73.830086728048627 0 0 0 0 5.8656606067947905 21.94926277098466 0 21.94926277098466 -29.878497924051771 0 0 0 0 -0.45289717173447208 -2.8549039935781266 0 -2.8549039935781266 -9.7536856559743086 0 0 0 0 -5.1701063118089223 -4.820757731795311 0 -4.820757731795311 -64.292872468899077 0 0 0 0 -1.5203324140486831 -1.1727773557288188 0 -1.1727773557288188 -0.34361977200854099 0 0 0 0 -105.20951513527962 27.245220927889022 0 27.245220927889022 77.032499087605174 0 0 0 0 1.9969352878119935 -9.3003931573421141 0 -9.3003931573421141 -106.97964848950869 0 0 0 0 104.98249379222034 105.66435454471502 0 105.66435454471502 -31.530576506822399 0 0 0 0 3.975825728877453 66.140351854616711 0 66.140351854616711 -12.328136395844922 0 0 0 0 13.390671532544047 75.8674558534467 0 75.8674558534467 -299.66261061045225 0 0 0 0 -182.05247003182012 -162.54888332979317 0 -162.54888332979317 -8.960955522947188 0 0 0 0 -34.271772356915676 215.7534087860804 0 215.7534087860804 -77.193737494686502 0 0 0 0 9.7064373160158084 0.38131662957130175 0 0.38131662957130175 -70.300606819684617 0 0 0 0 -2.5716122822427678 -8.5438909848162439 0 -8.5438909848162439 -52.308014746369736 0 0 0 0 -0.21163325825622348 -7.5140939214068041 0 -7.5140939214068041 -7.2278986079316994 0 0 0 0 -93.618050900185438 -19.419903598593464 0 -19.419903598593464 118.35523558009299 0 0 0 0 1.7708044007270782 5.3002579280590396 0 5.3002579280590396 -5.6575877863160713 0 0 0 0 2.1338940559840012 -8.1564543629792752 0 -8.1564543629792752 -57.939940510115775 0 0 0 0 -1.2188535393954634 2.0128038582508054 0 2.0128038582508054 -30.340362661048118 0 0 0 0 -0.73291549247323928 -4.3880415851526777 0 -4.3880415851526777 -50.546155458847352 0 0 0 0 -0.63909269458656137 4.9243836186355168 0 4.9243836186355168 -15.158984563752767 0 0 0 0 0.38697012716748358 4.1764435382304113 0 4.1764435382304113 -48.893713731941375 0 0 0 0 -36.628985254852523 152.93719635519119 0 152.93719635519119 122.02882651957043 0 0 0 0 97.295318229144868 8.8080680091588874 0 8.8080680091588874 -54.490083139811759 0 0 0 0 82.180618075561597 -27.750736482222237 0 -27.750736482222237 -142.46858197520487 0 0 0 0 97.593132491553661 59.830711335958767 0 59.830711335958767 -278.52182794715918 0 0 0 0 -0.59012947726880216 -1.3581749752157393 0 -1.3581749752157393 -10.893095365559724 0 0 0 0 1.1787280689282795 18.602461073720406 0 18.602461073720406 -103.09212416270748 0 0 0 0 -2.7111081961560899 0.43956375361858591 0 0.43956375361858591 -59.608962945327221 0 0 0 0 -46.628815933927569 35.99816389280204 0 35.99816389280204 -35.02683786876878 0 0 0 0 14.398110036020853 17.946426604790759 0 17.946426604790759 -45.460999006736529 0 0 0 0 0.31829854415374315 -0.95392900659790314 0 -0.95392900659790314 -12.221134945159037 0 0 0 0 3.5370915209811642 -5.0655371479388123 0 -5.0655371479388123 -65.343620438030484 0 0 0 0 -9.8124775389039769 15.942738563448074 0 15.942738563448074 -14.664570356013201 0 0 0 0 9.6419054357312461 28.828217172962468 0 28.828217172962468 -50.213468842226575 0 0 0 0 14.058276638309167 12.329437978362876 0 12.329437978362876 -32.505676020871761 0 0 0 0 16.917617330850476 -4.3469543149130914 0 -4.3469543149130914 -97.317485024317648 0 0 0 0 -1.8891891509535665 -0.3725171231777864 0 -0.3725171231777864 -10.584952573560315 0 0 0 0 12.299397406797134 11.448867665333637 0 11.448867665333637 -16.018701616663748 0 0 0 0 -0.17683020941226468 3.6274977761471767 0 3.6274977761471767 -39.068209824786365 0 0 0 0 4.8631044921455668 -6.1829391905630473 0 -6.1829391905630473 -56.951646499299386 0 0 0 0 8.7879342177893705 14.801878807088542 0 14.801878807088542 -32.727228144118271 0 0 0 0 -0.55590134568755745 4.8855015583768697 0 4.8855015583768697 -39.489142676167745 0 0 0 0 12.958365556335593 19.495297220195425 0 19.495297220195425 -28.702733649337461 0 0 0 0 16.457627552720851 -2.235472054737329 0 -2.235472054737329 -82.354445136606955 0 0 0 0 19.351266524920902 18.838917601158755 0 18.838917601158755 -36.6138650939954 0 0 0 0 20.609488938306114 26.461385841466836 0 26.461385841466836 -23.085916688032739 0 0 0 0 16.23342317541767 18.669853729454189 0 18.669853729454189 -36.622654287410114 0 0 0 0 47.633983245890022 27.558304812777351 0 27.558304812777351 -47.975372464892644 0 0 0 0 30.231997212952464 29.978113341808239 0 29.978113341808239 -9.5833308380788367 0 0 0 0 29.953675109768653 23.98856765866185 0 23.98856765866185 -40.693880716355807 0 0 0 0 27.680177012699858 20.796739648891162 0 20.796739648891162 -41.024114515844758 0 0 0 0 38.604981289014631 24.381033780784492 0 24.381033780784492 -46.800916588540076 0 0 0 0 45.638170672578212 13.817894638052167 0 13.817894638052167 -76.52972867216522 0 0 0 0 38.844552961978707 15.870813234800153 0 15.870813234800153 -19.989872274050867 0 0 0 0 39.445031108994954 31.952304525289946 0 31.952304525289946 -45.975405078186668 0 0 0 0 37.632810500291782 29.563342291029585 0 29.563342291029585 28.618747479700687 0 0 0 0 83.23052776351301 22.728434426069725 0 22.728434426069725 -18.952330748063105 0 0 0 0 37.073403678440229 24.142592973283172 0 24.142592973283172 -8.9239415800088864 0 0 0 0 22.090855431787247 31.555680924572698 0 31.555680924572698 18.598124673697384 0 0 0 0 -0.8555713396043394 0.58064701171910116 0 0.58064701171910116 0.02032087124336357 0 0 0 0 -3.1871485767516585 -85.227765776988349 0 -85.227765776988349 -164.60847520343304 0 0 0 0 9.7360046991675944 46.753024215166079 0 46.753024215166079 -141.85802520958532 0 0 0 0 48.819317835056722 102.71562759112749 0 102.71562759112749 -68.777199576878047 0 0 0 0 -15.251203805618971 -57.321134652335331 0 -57.321134652335331 105.15268102844129 0 0 0 0 20.094798090088716 -54.173132865056687 0 -54.173132865056687 1.1172070916945813 0 0 0 0 107.49978558295422 -197.54267784094714 0 -197.54267784094714 -236.15291520620303 0 0 0 0 -0.30166161332060337 -0.17103356710946827 0 -0.17103356710946827 0.069937595606027969 0 0 0 0 99.981531921932628 89.816812285520427 0 89.816812285520427 67.828221253952506 0 0 0 0 137.98063635506014 14.458749371969589 0 14.458749371969589 -23.614006870717276 0 0 0 0 52.757741659432213 -26.62870353033577 0 -26.62870353033577 -34.796421939983702 0 0 0 0 -4.0711210368199318 -21.937342618419279 0 -21.937342618419279 -32.477384310244815 0 0 0 0 18.265436560835951 -6.2970382362982491 0 -6.2970382362982491 -36.445859244598978 0 0 0 0 -0.2082956689636859 1.8256593148752653 0 1.8256593148752653 -20.065587977605048 0 0 0 0 36.67041929376046 -2.3387757350656102 0 -2.3387757350656102 -6.5803406884206197 0 0 0 0 33.278752033281535 13.384859061382031 0 13.384859061382031 -24.435741062508896 0 0 0 0 58.796359408128865 -7.4201186182581296 0 -7.4201186182581296 -2.1160397285211729 0 0 0 0 56.019474695219856 -0.26425341294816462 0 -0.26425341294816462 -19.303769823474795 0 0 0 0 44.714221344576345 -4.9247470105920002 0 -4.9247470105920002 -10.394733398290555 0 0 0 0 65.387017297216062 -2.8307733228930374 0 -2.8307733228930374 -18.616214791271886 0 0 0 0 -111.50451771021125 -84.803867620133133 0 -84.803867620133133 -64.981824807571684 0 0 0 0 -0.073796537513850513 0.89751335154669931 0 0.89751335154669931 -12.510386862852656 0 0 0 0 -317.39354459089486 -235.15954440411178 0 -235.15954440411178 -155.73017169796367 0 0 0 0 25.557972431431153 92.17417455533996 0 92.17417455533996 -117.58931547920292 0 0 0 0 -0.26359668358992461 0.43991246221568403 0 0.43991246221568403 -4.2905371452839631 0 0 0 0 62.510177937565913 18.941592689139725 0 18.941592689139725 -149.22897032550281 0 0 0 0 5.6648901967987513 54.159483549596189 0 54.159483549596189 -24.754140999049923 0 0 0 0 78.770683313738573 72.961536453487497 0 72.961536453487497 -238.46117055595823 0 0 0 0 87.770837233714133 -106.87974515120823 0 -106.87974515120823 -278.86038503293457 0 0 0 0 -374.18057230656768 32.320517452538297 0 32.320517452538297 143.83175295764158 0 0 0 0 151.84755664498834 -88.925524028998552 0 -88.925524028998552 -339.31304253633243 0 0 0 0 -8.57314924078233 -3.0725119312919915 0 -3.0725119312919915 -0.26014357091300688 0 0 0 0 -157.78320473722152 -383.94975753536892 0 -383.94975753536892 -1979.0397199883919 0 0 0 0 17.533464294742394 -409.01053641876797 0 -409.01053641876797 -2501.2254775548263 0 0 0 0 -45.327783239309042 -588.49557308588555 0 -588.49557308588555 -2200.567485811056 0 0 0 0 -4.7427510644801734 -9.7542368451599906 0 -9.7542368451599906 3.7685825467622358 0 0 0 0 25.778513426687255 -72.579956517222854 0 -72.579956517222854 -68.987685727081953 0 0 0 0 -1.2050579843468405 -720.05361092376461 0 -720.05361092376461 -1855.4566879609702 0 0 0 0 158.29825940821203 -1033.4615206675171 0 -1033.4615206675171 -2495.8089077445511 0 0 0 0 -4.9480353828246235 -13.886677281613174 0 -13.886677281613174 -78.192224655434984 0 0 0 0 -3.798811809466315 -53.174467545753032 0 -53.174467545753032 -74.68291220271567 0 0 0 0 29.15807850010782 -6.4976722215324116 0 -6.4976722215324116 -74.687344055979338 0 0 0 0 12.289904390765685 -22.534643217632038 0 -22.534643217632038 -75.793137102857258 0 0 0 0 46.494033798869395 -60.337931533103983 0 -60.337931533103983 -105.66958747124772 0 0 0 0 74.183285295426003 -87.39899687025536 0 -87.39899687025536 -91.447632484244423 0 0 0 0 51.094243600879736 -9.4878517719680531 0 -9.4878517719680531 -133.77477363606886 0 0 0 0 61.51484206251277 20.237255080460272 0 20.237255080460272 -82.544110734310379 0 0 0 0 35.354278204080806 1.2610362471909866 0 1.2610362471909866 -67.586941016263154 0 0 0 0 38.196351600347811 13.601030957606781 0 13.601030957606781 -71.914195689168992 0 0 0 0 15.514932638036669 4.8632643757246115 0 4.8632643757246115 -49.995084571714415 0 0 0 0 25.275195404157444 16.359253337681366 0 16.359253337681366 -49.199708947744512 0 0 0 0 26.13838860695887 9.2994975958908981 0 9.2994975958908981 -45.287425192846968 0 0 0 0 17.770824625414662 15.081570796915003 0 15.081570796915003 -37.332657875915174 0 0 0 0 -0.83756418351700468 5.3934459211395591 0 5.3934459211395591 -36.189317513837679 0 0 0 0 9.4991250753580516 -11.857804753502933 0 -11.857804753502933 -50.865342933565898 0 0 0 0 21.847674917660072 11.785977734381049 0 11.785977734381049 -46.547524506202535 0 0 0 0 4.5933068499898582 -28.071199502723175 0 -28.071199502723175 -73.645572733381414 0 0 0 0 14.846759996307696 -23.339905891754825 0 -23.339905891754825 -99.085167556620945 0 0 0 0 14.569384484015345 -2.4616966669464091 0 -2.4616966669464091 -71.585486244806816 0 0 0 0 5.8914335161497657 -15.793117751195485 0 -15.793117751195485 0.20860704296250177 0 0 0 0 -4.5866665926420138 -5.6723864158262387 0 -5.6723864158262387 -1.24327980471746 0 0 0 0 -48.925623144350737 295.59577657583213 0 295.59577657583213 -2498.4504587583574 0 0 0 0 -902.12022502233697 -463.85019890040257 0 -463.85019890040257 -210.4971280578975 0 0 0 0 139.214981114208 -938.91473659379699 0 -938.91473659379699 -2496.7483407600921 0 0 0 0 -46.584040964545508 246.96170819686779 0 246.96170819686779 -1609.0649851493508 0 0 0 0 5.609055101725744 -8.8089272373272252 0 -8.8089272373272252 -24.138531158223486 0 0 0 0 -0.10003892591540614 -5.4093564895706692 0 -5.4093564895706692 -12.336706206466651 0 0 0 0 5.8072562000019303 -12.924749359855298 0 -12.924749359855298 -58.733172556800127 0 0 0 0 5.4522410418094607 -15.740641317546721 0 -15.740641317546721 -23.819042643332157 0 0 0 0 24.449284045718514 -9.5351066602406718 0 -9.5351066602406718 -64.841482194835407 0 0 0 0 2.5224285386389393 -1.4703826920700322 0 -1.4703826920700322 -34.976793337772598 0 0 0 0 -218.92583298873527 -143.11298232663103 0 -143.11298232663103 2.4964664120288944 0 0 0 0 15.383549818682159 -12.393608341429449 0 -12.393608341429449 -29.438278227136408 0 0 0 0 2.318767111698298 -0.92027758689192929 0 -0.92027758689192929 -32.953153097545865 0 0 0 0 318.6208288026113 148.65151310066312 0 148.65151310066312 -257.49549825004215 0 0 0 0 -486.73651739775391 175.54956490366021 0 175.54956490366021 249.33569157279089 0 0 0 0 -99.782024991045745 516.39862582269006 0 516.39862582269006 -2826.6854478181995 0 0 0 0 -5.0124477786995305 2.2765454138377237 0 2.2765454138377237 -4.9629961515849814 0 0 0 0 -5.1018049859270871 0.94438593905259083 0 0.94438593905259083 -1.4319778181566107 0 0 0 0 -974.62493992867053 1335.8505102904164 0 1335.8505102904164 -2499.0357463285036 0 0 0 0 133.47308196885703 870.36527219689378 0 870.36527219689378 -2355.2296036467724 0 0 0 0 -890.50898252303591 1053.0817764796739 0 1053.0817764796739 -768.18256513458618 0 0 0 0 81.180401145625524 1.14438107892056 0 1.14438107892056 -553.04200565978181 0 0 0 0 11.842683421205436 -9.7335291978945406 0 -9.7335291978945406 -19.74732011314336 0 0 0 0 4.6340615709805206 4.2371635189774679 0 4.2371635189774679 -25.502438969430841 0 0 0 0 12.190057308412065 7.4577768008980456 0 7.4577768008980456 -30.077653814478253 0 0 0 0 -4.140531789927735 1.8338978392011427 0 1.8338978392011427 -28.025094198070292 0 0 0 0 6.3629614881110683 4.3674136801491841 0 4.3674136801491841 -27.413992547295493 0 0 0 0 12.217606518717048 -8.5268852317713026 0 -8.5268852317713026 -21.603283488693705 0 0 0 0 -1.9638409022636552 1.7934298524778569 0 1.7934298524778569 -18.842864776081115 0 0 0 0 -520.95485378919966 -437.97980532043903 0 -437.97980532043903 -418.56307632825883 0 0 0 0 -178.13469948862257 -156.60044241404103 0 -156.60044241404103 -245.83744070475495 0 0 0 0 -361.80651299383032 -491.03000927022504 0 -491.03000927022504 -448.64736644558616 0 0 0 0 75.31836194929474 139.22417646684698 0 139.22417646684698 -44.178923752364426 0 0 0 0 2.4409253939347764 -213.97308932483975 0 -213.97308932483975 -385.1239770831869 0 0 0 0 -93.133343888990112 102.68386430271516 0 102.68386430271516 -86.762665433370785 0 0 0 0 -142.82175001735868 -137.47585024645468 0 -137.47585024645468 -307.73385788419364 0 0 0 0 -59.944478229891502 47.512308760432461 0 47.512308760432461 -14.355559409525085 0 0 0 0 -26.889839463543467 224.88354917572178 0 224.88354917572178 35.644631984084754 0 0 0 0 -184.19654704124241 21.525713042453845 0 21.525713042453845 75.986043589523774 0 0 0 0 -131.74282233187114 -127.96329374232027 0 -127.96329374232027 -279.26750322230419 0 0 0 0 468.13989630143715 79.323590995340851 0 79.323590995340851 -347.22921108166554 0 0 0 0 -298.21652713189405 245.6528809662006 0 245.6528809662006 -96.626989668467331 0 0 0 0 -651.65930064072427 -295.38358435417149 0 -295.38358435417149 -804.99241698659603 0 0 0 0 -488.00171220527272 -523.91569695134376 0 -523.91569695134376 -549.63151961553376 0 0 0 0 -323.30762834431471 -67.115453976737172 0 -67.115453976737172 -258.81485431696774 0 0 0 0 -338.30799572498768 -469.8119799619235 0 -469.8119799619235 -782.94724905144449 0 0 0 0 -700.96742462041357 -868.59462174934515 0 -868.59462174934515 -944.22246702946495 0 0 0 0 -253.81708418796279 -613.92942683100046 0 -613.92942683100046 -1113.3802222294398 0 0 0 0 -149.56012717364183 -314.20934671671648 0 -314.20934671671648 -595.30579103203991 0 0 0 0 -309.3554919325224 -657.55906857032733 0 -657.55906857032733 -921.93727299646434 0 0 0 0 -421.03589380778385 -741.3225879323395 0 -741.3225879323395 -940.93313194974507 0 0 0 0 -424.43006799838076 -430.33109380884207 0 -430.33109380884207 -507.13764378203814 0 0 0 0 -352.11539145637516 -394.56786621214633 0 -394.56786621214633 -397.25720574739626 0 0 0 0 -9.1180185714529216 36.947818858316168 0 36.947818858316168 -318.9876343611395 0 0 0 0 -143.64244021043382 -73.144685770087392 0 -73.144685770087392 -110.65129289646757 0 0 0 0 -66.262351304030517 17.504658797986394 0 17.504658797986394 -4.9233516190706723 0 0 0 0 -0.76601472933155268 2.1877401436873001 0 2.1877401436873001 -3.0628690264277587 0 0 0 0 -267.06413192946479 -397.09278244103007 0 -397.09278244103007 -711.63096674111603 0 0 0 0 33.210269905457949 -245.97797617789547 0 -245.97797617789547 -825.39994727343401 0 0 0 0 -167.91749189486154 -228.73500026169404 0 -228.73500026169404 -317.61720279514157 0 0 0 0 -136.02734994442648 -120.23319668794647 0 -120.23319668794647 -54.999743057787782 0 0 0 0 -4.0602270569158918 19.399801570910313 0 19.399801570910313 -200.45947880460199 0 0 0 0 -105.40926027844876 63.887358434451016 0 63.887358434451016 26.828626942045958 0 0 0 0 -24.518246307388381 -27.323455172871945 0 -27.323455172871945 46.514862637377519 0 0 0 0 -4.9028619470927639 -1.3534532255672396 0 -1.3534532255672396 1.7740482412801164 0 0 0 0 -614.75073485671328 -507.88599243204226 0 -507.88599243204226 368.03442898927096 0 0 0 0 -16.092460774596109 -6.9422996154808896 0 -6.9422996154808896 -5.8822938864686929 0 0 0 0 -22.056302869426304 -10.165570859386662 0 -10.165570859386662 1.2860335620898695 0 0 0 0 -23.351545266887342 40.922034667502203 0 40.922034667502203 -22.861633010117657 0 0 0 0 -52.244892172009713 28.061249248476088 0 28.061249248476088 -11.748997768650952 0 0 0 0 -64.523708802143574 74.540665536313099 0 74.540665536313099 -48.066328169519693 0 0 0 0 -30.130323311555571 25.889301638716461 0 25.889301638716461 -24.126598243594344 0 0 0 0 40.502684445228169 3.220533653043276 0 3.220533653043276 -66.041638222762685 0 0 0 0 2.514953038913136 1.3815503684387664 0 1.3815503684387664 -23.241481427351925 0 0 0 0 -20.729699353101751 -93.95287581723278 0 -93.95287581723278 183.85122424113433 0 0 0 0 -107.77762308723368 110.29454930044722 0 110.29454930044722 214.40499895544417 0 0 0 0 -72.768620669320626 124.8525691826203 0 124.8525691826203 48.330728435590572 0 0 0 0 -0.59156889270724111 2.7043543888672374 0 2.7043543888672374 -0.89746658326899365 0 0 0 0 -16.177353460677296 50.059481318405233 0 50.059481318405233 57.973911086884073 0 0 0 0 -20.497987880176424 -7.0611301143776473 0 -7.0611301143776473 -80.07043846318993 0 0 0 0 178.25091321902528 160.66107878308048 0 160.66107878308048 -17.102734081583549 0 0 0 0 -6.8647583831617176 14.608547550197008 0 14.608547550197008 -10.139729804167867 0 0 0 0 -0.81300425528515285 -1.9105114557198384 0 -1.9105114557198384 -73.749279878093319 0 0 0 0 21.724001376105662 74.208316284457396 0 74.208316284457396 73.313708810944263 0 0 0 0 -9.5289431725434799 10.197315638972544 0 10.197315638972544 -26.973140961937066 0 0 0 0 -17.076133692546136 6.9953358729488855 0 6.9953358729488855 -20.544198431718144 0 0 0 0 -4.1398220728326578 6.1651475277980694 0 6.1651475277980694 -37.753876312689499 0 0 0 0 -15.046646631749354 42.74952915891231 0 42.74952915891231 14.035728562517761 0 0 0 0 -51.336528095034737 45.127373473796979 0 45.127373473796979 55.110045694459586 0 0 0 0 -32.042866504991252 19.826073293942045 0 19.826073293942045 -10.358407479019661 0 0 0 0 -76.984835731462226 20.764082418856106 0 20.764082418856106 32.9707283494281 0 0 0 0 -26.111801973524372 -19.727831767399316 0 -19.727831767399316 -17.619972625794112 0 0 0 0 -67.009307171769706 -89.680373208524827 0 -89.680373208524827 77.951100314068754 0 0 0 0 27.426266698736072 -30.167059702078404 0 -30.167059702078404 -58.63873164382494 0 0 0 0 -5.7980559326349237 -3.6986488431468629 0 -3.6986488431468629 -5.0104727763541206 0 0 0 0 -37.620346662867632 9.4996436307492331 0 9.4996436307492331 -17.919030995539288 0 0 0 0 -19.008361567653083 -17.255333829774827 0 -17.255333829774827 -55.768070604277455 0 0 0 0 16.869341446617227 22.135493378832962 0 22.135493378832962 -61.145958380715456 0 0 0 0 -20.076509540068855 -10.870945247033887 0 -10.870945247033887 -47.708407777407047 0 0 0 0 -18.4507735436041 -21.299492865698994 0 -21.299492865698994 -72.70537631017578 0 0 0 0 -19.801971137051169 -24.067096724393195 0 -24.067096724393195 -76.386276554327196 0 0 0 0 -24.710261102037293 -21.035548398613173 0 -21.035548398613173 -74.26144512641855 0 0 0 0 -16.575094347789673 1.5704389018246729 0 1.5704389018246729 -71.659471754473998 0 0 0 0 -41.978219517854654 -41.595639838608349 0 -41.595639838608349 -98.265661114332033 0 0 0 0 -5.8337186666894922 3.6493081089229236 0 3.6493081089229236 -141.69365835438293 0 0 0 0 -79.404676290452699 -69.034463657240849 0 -69.034463657240849 -21.340666267178676 0 0 0 0 -66.585691065226456 18.774072426353086 0 18.774072426353086 -72.2071269787848 0 0 0 0 -36.229726718696874 -14.431757905893674 0 -14.431757905893674 -28.027955711131735 0 0 0 0 -10.987195988305377 -0.040487595374433027 0 -0.040487595374433027 9.4107815550812504 0 0 0 0 1.4868761620279827 3.1573007495588605 0 3.1573007495588605 -26.370779876548504 0 0 0 0 -136.55746355823658 -86.7133821083562 0 -86.7133821083562 33.002270157319799 0 0 0 0 -165.69580019202886 26.566234815372809 0 26.566234815372809 -15.01458215202365 0 0 0 0 137.10837326872138 61.347727684870051 0 61.347727684870051 -210.29455483805941 0 0 0 0 -2.574376969783394 -0.016812155818247021 0 -0.016812155818247021 0.2164336116303236 0 0 0 0 -95.03493802308185 40.929982681609545 0 40.929982681609545 -60.022745289545128 0 0 0 0 29.462306701976559 -32.699719656506204 0 -32.699719656506204 -198.15515955654155 0 0 0 0 -62.230906802300069 -46.591051586166031 0 -46.591051586166031 -23.734230467773159 0 0 0 0 -74.619254763567824 10.036781804948987 0 10.036781804948987 -55.721024467751704 0 0 0 0 -78.614802936873787 -17.5295561590641 0 -17.5295561590641 2.4680511431106424 0 0 0 0 15.802096015477218 -66.594304750207584 0 -66.594304750207584 -31.002873982608435 0 0 0 0 -59.495144288662686 -35.349905168214718 0 -35.349905168214718 -29.332062223349567 0 0 0 0 -71.53453206544782 -44.803454667972801 0 -44.803454667972801 -32.888594564512914 0 0 0 0 -32.85000054029797 -43.147248982331803 0 -43.147248982331803 -50.507344117804905 0 0 0 0 -54.721308762172612 -40.337589235085034 0 -40.337589235085034 -50.079712331375049 0 0 0 0 -44.604343581966646 -25.795549176924396 0 -25.795549176924396 -55.574848183427093 0 0 0 0 -58.375806778827609 -69.257874249678935 0 -69.257874249678935 -76.502732876824666 0 0 0 0 -17.019992318743334 -45.959892761740775 0 -45.959892761740775 -80.895598176740577 0 0 0 0 -7.0661843326690814 -15.619193086951782 0 -15.619193086951782 -66.161035830180936 0 0 0 0 -35.672376653459878 -17.418953907555078 0 -17.418953907555078 -65.887529300522147 0 0 0 0 -21.385044703071344 -25.696804579438322 0 -25.696804579438322 -74.151433265504807 0 0 0 0 -22.673662672952332 -26.508627313332909 0 -26.508627313332909 -66.203758398598438 0 0 0 0 -13.619995127208313 -25.6024263989475 0 -25.6024263989475 -66.960484685616393 0 0 0 0 -17.845012129108909 -29.855954934770125 0 -29.855954934770125 -62.034536886023488 0 0 0 0 -6.2051153316037926 -31.313668045942904 0 -31.313668045942904 -75.519850797426443 0 0 0 0 -33.400255620809645 -39.907744793855045 0 -39.907744793855045 -68.140724768323707 0 0 0 0 -11.680010624996612 -24.667333375787166 0 -24.667333375787166 -62.363884186226642 0 0 0 0 4.6577211654381019 -5.4204985689745557 0 -5.4204985689745557 -64.875695439661797 0 0 0 0 -5.7347998449680517 -15.540637474984578 0 -15.540637474984578 -57.198867887382221 0 0 0 0 -14.741203963841258 -25.034484184951452 0 -25.034484184951452 -65.764353625259901 0 0 0 0 -38.251372846259642 -3.5644197020345132 0 -3.5644197020345132 -50.930898196438648 0 0 0 0 14.868602750367927 -6.4574193028010995 0 -6.4574193028010995 -64.517935341809789 0 0 0 0 4.0464944721951106 -8.5041828866058413 0 -8.5041828866058413 -48.331030936106174 0 0 0 0 8.5798719348827035 -12.022097720149759 0 -12.022097720149759 -60.939449055260411 0 0 0 0 6.0812565494616138 -5.6925961664856004 0 -5.6925961664856004 -58.874913440170531 0 0 0 0 2.8887286133342513 -17.472758771096323 0 -17.472758771096323 -71.330365395886474 0 0 0 0 25.068711097618689 4.4432305097870994 0 4.4432305097870994 -79.173220677887002 0 0 0 0 7.1455206903292492 -8.8728950133354374 0 -8.8728950133354374 -64.405317910748636 0 0 0 0 7.6477505502630123 -23.831561448186193 0 -23.831561448186193 -90.814130514856515 0 0 0 0 -372.13249647817781 -1141.8014535834955 0 -1141.8014535834955 -2599.0272592252368 0 0 0 0 0.65097997414506903 4.8968475127302398 0 4.8968475127302398 -10.760836300104792 0 0 0 0 3.641033786735079 2.4716533981154498 0 2.4716533981154498 -48.753193034620381 0 0 0 0 -798.67158722039312 -1018.3124735035872 0 -1018.3124735035872 -2641.2688271242928 0 0 0 0 -963.28830484495666 -1503.760691430969 0 -1503.760691430969 -2508.0824602387138 0 0 0 0 -1274.8671956302787 -1799.5460773989325 0 -1799.5460773989325 -4647.9761157379507 0 0 0 0 -667.53673189818892 -1386.5988056323904 0 -1386.5988056323904 -4459.0387424550936 0 0 0 0 -0.69226954046662392 0.48599326034261203 0 0.48599326034261203 -0.28875894081936693 0 0 0 0 418.69382865807711 -1060.8198455186575 0 -1060.8198455186575 -4716.7856910538976 0 0 0 0 -50.682848733843002 -61.795404223702462 0 -61.795404223702462 -73.812102181719638 0 0 0 0 -48.694580392474023 -70.983543214878637 0 -70.983543214878637 -100.62966407142267 0 0 0 0 -15.767882384868244 -33.388914889334046 0 -33.388914889334046 -74.874795457346409 0 0 0 0 15.884515191336504 -27.957112427822722 0 -27.957112427822722 -123.92952141116757 0 0 0 0 -6.4784183573811598 2.7895563898107874 0 2.7895563898107874 -2.4648299959087403 0 0 0 0 24.741491405198303 69.762716635489596 0 69.762716635489596 -22.51627911074047 0 0 0 0 46.605461585703068 -453.38365547371086 0 -453.38365547371086 -2155.2041931500935 0 0 0 0 -492.99443251510911 -481.40020032368011 0 -481.40020032368011 -1831.582710603574 0 0 0 0 -255.3940696124198 -674.46548876856878 0 -674.46548876856878 -1795.7153728333815 0 0 0 0 -940.82525274407806 -465.31761055162133 0 -465.31761055162133 -1841.4895696656477 0 0 0 0 -97.683096538301072 -466.67996370385663 0 -466.67996370385663 -2151.891681260493 0 0 0 0 -358.50676864889658 -164.15259535270479 0 -164.15259535270479 -2497.3370076442134 0 0 0 0 -953.82587695087932 -753.06779110203706 0 -753.06779110203706 -1569.8147477040748 0 0 0 0 -484.08550028600911 -1013.1487676126168 0 -1013.1487676126168 -2090.4964480998569 0 0 0 0 -6.1533136417619465 6.8563109323464921 0 6.8563109323464921 -13.818901641224441 0 0 0 0 -481.25330439650861 -1319.8596779744007 0 -1319.8596779744007 -1785.6390924420448 0 0 0 0 -350.594828956323 -940.67178279303153 0 -940.67178279303153 -2538.2483483733658 0 0 0 0 -851.98416408350579 -1489.88951878322 0 -1489.88951878322 -2499.2184776690801 0 0 0 0 -815.77004963025684 -744.03675614946496 0 -744.03675614946496 -1315.5722340470729 0 0 0 0 -3.5332131291962705 1.5397177495483128 0 1.5397177495483128 -8.1383736318383235 0 0 0 0 -636.60612789380798 -1130.8033642749181 0 -1130.8033642749181 -1929.6757020132845 0 0 0 0 -342.94999165672311 -1159.4460796287067 0 -1159.4460796287067 -2499.6784166770794 0 0 0 0 -229.78450192495458 -897.18520594353276 0 -897.18520594353276 -2177.8092711991153 0 0 0 0 -178.24994689265748 -777.10174371922938 0 -777.10174371922938 -1905.9120577626345 0 0 0 0 -432.39969629803613 -1045.4516556572507 0 -1045.4516556572507 -1747.0122443763164 0 0 0 0 -559.08860445501523 -1020.5705679773178 0 -1020.5705679773178 -1915.1201896452626 0 0 0 0 -494.5183662012692 -1143.3255019412768 0 -1143.3255019412768 -1899.2542572103609 0 0 0 0 -1314.5760701438635 -1083.2500553904731 0 -1083.2500553904731 -1479.5276571626327 0 0 0 0 -1058.5983347054935 -2434.1262501170845 0 -2434.1262501170845 -3600.2835401492775 0 0 0 0 -1282.5138338018073 -1733.6511948809352 0 -1733.6511948809352 -1943.5201692407645 0 0 0 0 -7.7058580689150826 -2.4542187051935738 0 -2.4542187051935738 -8.1082160480590559 0 0 0 0 -237.4821517521159 -1985.6051900113089 0 -1985.6051900113089 -5173.5540379813028 0 0 0 0 -869.19120828806808 -1362.1067942092241 0 -1362.1067942092241 -2774.0521453437173 0 0 0 0 -2.4103213424246501 3.8495383199004172 0 3.8495383199004172 -10.215475579206224 0 0 0 0 -412.68988506044866 -536.15896835936462 0 -536.15896835936462 -1389.7403748078889 0 0 0 0 -803.98894624488685 -641.35653260707818 0 -641.35653260707818 -1247.598522451502 0 0 0 0 -322.40690686340167 -584.27499474067633 0 -584.27499474067633 -2742.6415713999095 0 0 0 0 -573.04317329488049 -1280.627521750846 0 -1280.627521750846 -1612.3641836387746 0 0 0 0 -989.81596471190005 -864.73012121381953 0 -864.73012121381953 -221.08701744861412 0 0 0 0 -112.64432120750797 -703.86523310190739 0 -703.86523310190739 -1639.4025649511364 0 0 0 0 -556.7065320069421 -1101.4403685148841 0 -1101.4403685148841 -1553.6078178800178 0 0 0 0 -113.85391812315743 -668.62104850064497 0 -668.62104850064497 -2162.7694182461637 0 0 0 0 -411.01838387535469 -582.32024612473901 0 -582.32024612473901 -1916.9216426526571 0 0 0 0 -51.165515214154745 -528.33951007408291 0 -528.33951007408291 -1998.122738262884 0 0 0 0 -49.831651157487578 -442.78793773364265 0 -442.78793773364265 -1916.6384434809756 0 0 0 0 -120.77207049290553 -811.86127397472296 0 -811.86127397472296 -2500.1693819476513 0 0 0 0 183.01295016186171 -282.41313476572566 0 -282.41313476572566 -2496.3523064794213 0 0 0 0 243.73084914457291 56.132183503052744 0 56.132183503052744 -1745.421171419029 0 0 0 0 120.03923362430351 246.51370437234897 0 246.51370437234897 -816.62937206622928 0 0 0 0 198.98549884475219 -428.90033739376577 0 -428.90033739376577 -1706.7230664422373 0 0 0 0 17.643111859337978 -553.49765542429691 0 -553.49765542429691 -1642.2571859040568 0 0 0 0 -46.567675336170453 -425.95972357094888 0 -425.95972357094888 -1888.5207916245292 0 0 0 0 -352.74467736219805 -870.76018430721433 0 -870.76018430721433 -1780.3430732026536 0 0 0 0 261.72646909530135 -761.88830887454287 0 -761.88830887454287 -2499.5673053706714 0 0 0 0 2.2814471800138545 1.4022778425271216 0 1.4022778425271216 -7.4232871721204026 0 0 0 0 -542.54788035950753 -1273.9132408172582 0 -1273.9132408172582 -2499.086428077554 0 0 0 0 -25.924538704436145 -553.41503341424936 0 -553.41503341424936 -1201.6296428342148 0 0 0 0 -23.584791410734525 -566.41436022084179 0 -566.41436022084179 -1750.3682593308322 0 0 0 0 24.292724047869626 -552.14882876142292 0 -552.14882876142292 -1711.9899596263419 0 0 0 0 4.3583227318038604 3.6712840974804628 0 3.6712840974804628 -11.177236631366164 0 0 0 0 -100.86534865175565 -449.22256527794116 0 -449.22256527794116 -1669.3889826819423 0 0 0 0 41.066700135779683 -489.99390976046152 0 -489.99390976046152 -1742.4080524674232 0 0 0 0 -28.455241823836971 -652.43748228418394 0 -652.43748228418394 -1848.699855206447 0 0 0 0 5.767653352195623 -519.01539704801451 0 -519.01539704801451 -1699.2988172779801 0 0 0 0 19.705614168681052 -549.22691448784894 0 -549.22691448784894 -1645.0799358020868 0 0 0 0 -148.58783662564431 -524.66449446487468 0 -524.66449446487468 -1648.4053050533685 0 0 0 0 -114.21604042232369 -591.14288803888485 0 -591.14288803888485 -1521.2068248876444 0 0 0 0 -244.06591156454286 -824.65998081218333 0 -824.65998081218333 -1432.2714504444384 0 0 0 0 0.21963929224936818 -0.25399393267493586 0 -0.25399393267493586 -2.9213105148935448 0 0 0 0 -241.56751687254774 -493.58296751264288 0 -493.58296751264288 -1153.3131137412879 0 0 0 0 -308.96236228391729 -537.29612726156211 0 -537.29612726156211 -1022.1465092655149 0 0 0 0 -384.79497592706235 -393.54512516996101 0 -393.54512516996101 -1183.9559403310996 0 0 0 0 -320.17565161083786 -540.56196701224781 0 -540.56196701224781 -1020.4031493129071 0 0 0 0 -30.894428004604549 -404.97489015016117 0 -404.97489015016117 -1528.5760343131474 0 0 0 0 -0.16620012119928584 0.10659457151266949 0 0.10659457151266949 -3.566605648922156 0 0 0 0 -12.143373591024897 -370.21347092970336 0 -370.21347092970336 -1751.3340876952004 0 0 0 0 -176.76075651665758 -236.56752476762767 0 -236.56752476762767 -1263.9591232859157 0 0 0 0 -0.19446850107159319 0.30749552132912683 0 0.30749552132912683 -2.6698750441088439 0 0 0 0 -86.775523514867814 -382.80775967604416 0 -382.80775967604416 -1406.7571509599966 0 0 0 0 -66.121077587101865 -234.19170346751525 0 -234.19170346751525 -1124.2635518368161 0 0 0 0 -186.57885559195745 -219.38266765175285 0 -219.38266765175285 -793.49887940511871 0 0 0 0 -47.247461083661278 -134.82129220068782 0 -134.82129220068782 -1182.2365024700107 0 0 0 0 65.480624183559087 -381.27825453290689 0 -381.27825453290689 -1043.296828236329 0 0 0 0 -78.997741919552681 -351.30657152012645 0 -351.30657152012645 -346.24400463259008 0 0 0 0 -31.993285163505902 -128.90647247955985 0 -128.90647247955985 -729.80154957456307 0 0 0 0 -73.684490072327975 -468.77778018929621 0 -468.77778018929621 -753.49003813737932 0 0 0 0 -95.07816838402573 -128.74075997531872 0 -128.74075997531872 -181.77717793294323 0 0 0 0 -267.4836551375351 -34.547013218137181 0 -34.547013218137181 -157.58321117548167 0 0 0 0 -849.20086563790051 -699.46835999715495 0 -699.46835999715495 -703.10633120845432 0 0 0 0 -251.87292054222326 367.41455473961923 0 367.41455473961923 61.430521864396724 0 0 0 0 -7.4648445094198177 -2.4269009362157341 0 -2.4269009362157341 -1.1647387540505889 0 0 0 0 -802.24229582615521 445.48915716485044 0 445.48915716485044 82.205055068124238 0 0 0 0 -28.303313633438183 -278.18546424855748 0 -278.18546424855748 -1237.0464135363218 0 0 0 0 -16.364683856116471 69.50561967730755 0 69.50561967730755 -354.4727472947261 0 0 0 0 -620.67907692000597 -108.58314977867849 0 -108.58314977867849 -1141.6420330749816 0 0 0 0 -45.478030999639373 -211.01620918709295 0 -211.01620918709295 -1340.9732304847694 0 0 0 0 -821.66966648393736 -576.29426846977185 0 -576.29426846977185 -906.03696494438555 0 0 0 0 -248.52890205716179 -319.45819602185111 0 -319.45819602185111 -1191.2315060215769 0 0 0 0 -272.8442974512904 -359.32691358162106 0 -359.32691358162106 -1011.765099538572 0 0 0 0 -756.85578282738015 -356.11870489700505 0 -356.11870489700505 -978.81132233980952 0 0 0 0 -36.580467965785829 -52.262538840531306 0 -52.262538840531306 -781.46136444368312 0 0 0 0 63.015876913946954 -163.91112534748117 0 -163.91112534748117 -1060.0692438464594 0 0 0 0 -54.206994290981584 -323.48153876964352 0 -323.48153876964352 -736.3199780633604 0 0 0 0 -40.985221182366786 -137.95782748477995 0 -137.95782748477995 -466.03794097213358 0 0 0 0 -20.733751485631615 -346.59417694084732 0 -346.59417694084732 -856.7076420524827 0 0 0 0 -86.023943539210109 -432.40381390041875 0 -432.40381390041875 -1209.7869880066564 0 0 0 0 14.696248326081673 -195.86882636513747 0 -195.86882636513747 -999.79154344487779 0 0 0 0 -123.01624577518487 -438.50415912507742 0 -438.50415912507742 -1078.3219427722665 0 0 0 0 -97.271301398824562 -251.28656955896622 0 -251.28656955896622 -1360.4976297362841 0 0 0 0 -82.366569380189674 -412.07143599391645 0 -412.07143599391645 -1587.6252270447967 0 0 0 0 -161.72773304623041 -227.23961234868875 0 -227.23961234868875 -1453.7948036290973 0 0 0 0 -117.52951762995843 -377.94156751839768 0 -377.94156751839768 -1229.8449212374762 0 0 0 0 -22.234763213960605 -147.55993434821085 0 -147.55993434821085 -1431.6786806648183 0 0 0 0 -23.44043053320371 16.286725632702655 0 16.286725632702655 -1683.9576495155407 0 0 0 0 -38.615677841750994 -273.9638237240174 0 -273.9638237240174 -1740.1709774797218 0 0 0 0 228.71814354343758 -65.551051138555522 0 -65.551051138555522 -1964.4638269354673 0 0 0 0 200.39957019689268 66.106712211412741 0 66.106712211412741 -1719.0858197049756 0 0 0 0 -72.605064446714437 -152.91356475925932 0 -152.91356475925932 -1814.6536024929123 0 0 0 0 -211.0662521252666 -934.2282379197004 0 -934.2282379197004 -2682.5659497139563 0 0 0 0 2.2273232676024 1.6178692752646029 0 1.6178692752646029 -6.2260770486402599 0 0 0 0 358.58352524646341 319.60689330582773 0 319.60689330582773 -697.66129139981058 0 0 0 0 94.975981892153499 -678.4850438075664 0 -678.4850438075664 -1683.7195530589761 0 0 0 0 507.93840045722806 57.42800082641088 0 57.42800082641088 -1942.0136796954466 0 0 0 0 642.49700826439391 -304.1645689338261 0 -304.1645689338261 -2499.6737920841524 0 0 0 0 536.46597878075067 -314.01889744126493 0 -314.01889744126493 -1936.0695642172186 0 0 0 0 148.63548116726943 192.160310034752 0 192.160310034752 -1823.5114436462845 0 0 0 0 419.27733995308319 -67.376307030113821 0 -67.376307030113821 -1809.4003187879362 0 0 0 0 396.53003901550153 49.963295195127102 0 49.963295195127102 -2086.7540182419252 0 0 0 0 377.19455540848764 289.47918882554677 0 289.47918882554677 -2499.239457948257 0 0 0 0 338.32458552845992 342.79541675810151 0 342.79541675810151 -1928.2094670133374 0 0 0 0 272.38333787284512 573.02633288361176 0 573.02633288361176 -2500.8781409818384 0 0 0 0 132.55062103328873 246.39018386743737 0 246.39018386743737 -1889.3429948240046 0 0 0 0 67.117228072369471 661.0378022165487 0 661.0378022165487 -1716.9618684183479 0 0 0 0 -154.54424246961528 1555.5626089439756 0 1555.5626089439756 -2493.8336285068049 0 0 0 0 -2.0658534265207158 4.9624868700199549 0 4.9624868700199549 -12.001336253063428 0 0 0 0 -494.87639512794851 1320.3132197636933 0 1320.3132197636933 -119.32911010173848 0 0 0 0 58.283948330923181 -208.09137365447077 0 -208.09137365447077 -10.317256976479257 0 0 0 0 -278.54350061581522 452.4607341312867 0 452.4607341312867 -1273.1814273277505 0 0 0 0 22.627733713139193 667.7542809026927 0 667.7542809026927 -1129.3994880654664 0 0 0 0 -21.45084294575426 80.779944262299068 0 80.779944262299068 -988.52177540766206 0 0 0 0 -76.027743041404364 235.93097298886346 0 235.93097298886346 -1377.9904830710129 0 0 0 0 379.25208170826238 48.692043601921796 0 48.692043601921796 -1344.5060956149755 0 0 0 0 -71.73249040629851 91.485198863907499 0 91.485198863907499 -1230.6922788378761 0 0 0 0 -84.774872897583364 124.02429772508731 0 124.02429772508731 -1296.8099746697408 0 0 0 0 -27.281973374493219 70.319111327288709 0 70.319111327288709 -1469.9413277108706 0 0 0 0 -29.500622301926711 313.91021426490715 0 313.91021426490715 -1606.4588961755435 0 0 0 0 -17.471952183809833 260.74014380580593 0 260.74014380580593 -1374.5998218933109 0 0 0 0 616.44269266807078 -192.77002000458742 0 -192.77002000458742 -2499.0354611877174 0 0 0 0 54.438005278151394 463.46431266892341 0 463.46431266892341 -1746.3435037049549 0 0 0 0 256.63727593256255 664.44693836191254 0 664.44693836191254 -1559.136551160962 0 0 0 0 92.008418208168749 -1130.6487921234584 0 -1130.6487921234584 -2497.0615017685718 0 0 0 0 300.00996293377875 -253.43778082360132 0 -253.43778082360132 -397.64084670496231 0 0 0 0 830.65657443563941 58.711014124881331 0 58.711014124881331 -1034.7791855253017 0 0 0 0 491.57469705128494 -212.53144617482849 0 -212.53144617482849 -1048.4551550048236 0 0 0 0 -2.7335657012831995 11.650387606807712 0 11.650387606807712 -25.610178778979147 0 0 0 0 83.083056189754984 -587.2660064043248 0 -587.2660064043248 -793.86493780641467 0 0 0 0 627.0953787515466 423.7512757696245 0 423.7512757696245 -488.71984623130993 0 0 0 0 340.57918873759138 220.42169847752848 0 220.42169847752848 -2103.8397482055698 0 0 0 0 338.22394357801556 468.55161303476598 0 468.55161303476598 -1594.8822367956054 0 0 0 0 32.57253999749986 1418.0898094971526 0 1418.0898094971526 -4067.9538695380379 0 0 0 0 190.36649702684133 -808.30719883296661 0 -808.30719883296661 -3441.6523715067233 0 0 0 0 -905.8234910960374 1027.1464317609352 0 1027.1464317609352 249.2007167984666 0 0 0 0 -2.1292046610517987 6.2060340390091042 0 6.2060340390091042 -13.577150361904813 0 0 0 0 -401.34734197133616 1955.1981909998249 0 1955.1981909998249 -738.04230985483809 0 0 0 0 -278.00751082673077 1208.4232128159942 0 1208.4232128159942 -1908.701430019988 0 0 0 0 -312.4115449930938 891.97374532340154 0 891.97374532340154 -863.43761006648128 0 0 0 0 -875.85234521142297 2295.3555061193692 0 2295.3555061193692 -1649.9883938775092 0 0 0 0 -1760.792606758843 540.25266087514501 0 540.25266087514501 -4074.3262082656693 0 0 0 0 -359.93151358350337 1597.7947643517909 0 1597.7947643517909 -3772.2293743595947 0 0 0 0 991.89553687391083 -391.86240562036073 0 -391.86240562036073 -3462.5267478460737 0 0 0 0 481.16536294349783 -131.82593977780925 0 -131.82593977780925 -1611.4759139057642 0 0 0 0 288.60859841912145 1790.5797190469639 0 1790.5797190469639 -4304.4479102525147 0 0 0 0 605.09457176450974 916.78138271150965 0 916.78138271150965 -1902.0812454889383 0 0 0 0 415.82953862118438 626.75845502712036 0 626.75845502712036 -2326.9517887402326 0 0 0 0 503.66684626470374 -222.50803321623607 0 -222.50803321623607 -1706.4677852736131 0 0 0 0 253.01524661568214 250.53414847641216 0 250.53414847641216 -1555.0998946291656 0 0 0 0 459.19955646298422 420.46763740279539 0 420.46763740279539 -1460.0593441156307 0 0 0 0 135.58182285955945 798.5229026270863 0 798.5229026270863 -1556.4375541082882 0 0 0 0 268.96678267943298 768.89767005750582 0 768.89767005750582 -1776.0960075282565 0 0 0 0 -37.462686887894506 343.35098050801753 0 343.35098050801753 -82.59848010708447 0 0 0 0 35.860361608684741 300.58372010128187 0 300.58372010128187 98.685818881327577 0 0 0 0 6.2805486488990141 132.9365255011146 0 132.9365255011146 -278.06099265790544 0 0 0 0 15.63340095995693 138.37253068923928 0 138.37253068923928 -285.44143139066728 0 0 0 0 246.02060834332895 -9.7487086631535931 0 -9.7487086631535931 -829.5456073320529 0 0 0 0 153.18567126949597 50.78084989501258 0 50.78084989501258 -827.43873855362472 0 0 0 0 74.94342360070516 -87.313797732776948 0 -87.313797732776948 -225.07619759255613 0 0 0 0 181.53461872115622 205.92328327535142 0 205.92328327535142 457.07355514092706 0 0 0 0 0.37817106484119978 2.2543298071297091 0 2.2543298071297091 -17.228221546615273 0 0 0 0 882.89952633159419 -718.3888952988018 0 -718.3888952988018 -1680.9534619522747 0 0 0 0 352.39559489772284 -782.7571675269628 0 -782.7571675269628 -481.05262978481187 0 0 0 0 881.64305975649006 232.17780813462196 0 232.17780813462196 -153.6042907777919 0 0 0 0 350.12122512802875 296.77446680566209 0 296.77446680566209 -88.822796727014065 0 0 0 0 339.59522214990034 49.487661588289484 0 49.487661588289484 20.055841195149696 0 0 0 0 1.9775263416488833 3.4603035765653498 0 3.4603035765653498 -35.642195268287566 0 0 0 0 -199.61852743491391 81.171185393523501 0 81.171185393523501 72.411006453385198 0 0 0 0 205.73175411386637 25.617515107205691 0 25.617515107205691 -298.96891794261501 0 0 0 0 -648.83573881591576 290.98873456329784 0 290.98873456329784 361.40326140883735 0 0 0 0 -1682.8336769060875 1984.9883932295074 0 1984.9883932295074 -1631.5548644377996 0 0 0 0 -317.99742211402429 1009.3659365027129 0 1009.3659365027129 -1628.2312441100403 0 0 0 0 -104.75839540489051 289.36501034010325 0 289.36501034010325 -665.04930253731618 0 0 0 0 -78.524926161870638 399.65133354347472 0 399.65133354347472 -568.49932949236791 0 0 0 0 -126.5770527297384 -105.98868275414952 0 -105.98868275414952 -109.68554414413302 0 0 0 0 -242.22271343255451 -303.12707880625931 0 -303.12707880625931 -760.72200593855314 0 0 0 0 -130.42872144832057 16.841019842185233 0 16.841019842185233 86.577901909497086 0 0 0 0 2.5728401161197567 -0.70344784254942283 0 -0.70344784254942283 -5.5302065597721635 0 0 0 0 -123.25134070507113 -566.8329918052018 0 -566.8329918052018 -1228.489929794112 0 0 0 0 -119.00637488851839 468.02305157883347 0 468.02305157883347 -1030.7772248751899 0 0 0 0 -0.76683983815670642 2.0462339637427753 0 2.0462339637427753 -4.1651175115109282 0 0 0 0 201.43945443785117 64.027188171569833 0 64.027188171569833 -37.655505569739034 0 0 0 0 2.1223854648641893 4.946288907667082 0 4.946288907667082 -35.848096754126374 0 0 0 0 186.34204952556217 -97.142233963520084 0 -97.142233963520084 -133.47023417515811 0 0 0 0 129.85558134673374 177.23736542789629 0 177.23736542789629 48.811421194310242 0 0 0 0 223.37487969115932 240.41418043040903 0 240.41418043040903 -157.52004032977857 0 0 0 0 173.79441327592735 327.60073705737523 0 327.60073705737523 -195.88237400553044 0 0 0 0 75.668615363480512 269.27372795092742 0 269.27372795092742 -48.485984340266441 0 0 0 0 -182.35143655578599 239.93962855812606 0 239.93962855812606 -568.01802305592719 0 0 0 0 171.6336867943495 291.94790930047202 0 291.94790930047202 407.48040571869933 0 0 0 0 -5.2131293062545101 9.3459969945216557 0 9.3459969945216557 -6.7872492737650578 0 0 0 0 91.753389469133936 -2.5369982183365209 0 -2.5369982183365209 -1116.7698822805323 0 0 0 0 -2.2093825552925215 5.9525141783998023 0 5.9525141783998023 -1.4623497515195005 0 0 0 0 -115.97593877654674 112.3643519449015 0 112.3643519449015 769.96568016211313 0 0 0 0 -1.3618527695557363 0.8826728444585612 0 0.8826728444585612 0.351764344995523 0 0 0 0 78.36504435748445 57.739364609842596 0 57.739364609842596 680.99165805001394 0 0 0 0 172.55026909922572 223.75409169723571 0 223.75409169723571 -293.23073979043875 0 0 0 0 16.286816263950641 161.37804842078913 0 161.37804842078913 -117.32282042699808 0 0 0 0 60.82567360419057 275.77946619002341 0 275.77946619002341 -41.443905726482626 0 0 0 0 80.695515045535558 309.48128143772556 0 309.48128143772556 -49.100409891179879 0 0 0 0 -303.27100135713545 -21.767295522104178 0 -21.767295522104178 -1088.0108508202702 0 0 0 0 -412.62869251308223 -217.72655266985294 0 -217.72655266985294 -1152.4779897157975 0 0 0 0 -158.98883154151054 -149.82381925656682 0 -149.82381925656682 -1139.1610720085901 0 0 0 0 -210.00527395078257 -59.160065400667008 0 -59.160065400667008 -1294.8262091677989 0 0 0 0 -114.39070881179417 92.857382698079618 0 92.857382698079618 -1058.2173619707519 0 0 0 0 33.524600081190258 94.208877907653005 0 94.208877907653005 -1254.0930372268458 0 0 0 0 59.732050581631626 203.13029473829192 0 203.13029473829192 -1419.0077645977954 0 0 0 0 -210.76453365599869 79.169809834727857 0 79.169809834727857 -705.60797282336353 0 0 0 0 -67.321521407746673 445.35996790495039 0 445.35996790495039 -1066.436467266898 0 0 0 0 -226.41210303434633 122.22244636226696 0 122.22244636226696 -820.3094618615778 0 0 0 0 -117.1698842148441 3.9750134230380354 0 3.9750134230380354 -816.88345975481752 0 0 0 0 -239.43016250055288 -75.372689308213921 0 -75.372689308213921 -598.93846275884425 0 0 0 0 -271.58281047973537 -182.24577694894288 0 -182.24577694894288 -953.00467994793371 0 0 0 0 -410.25808356319112 -177.09065390530623 0 -177.09065390530623 -1005.35511055387 0 0 0 0 -312.57438281822181 -99.152205762938593 0 -99.152205762938593 -1120.8438846733352 0 0 0 0 -303.79871459928222 -54.110022157864478 0 -54.110022157864478 -981.11582598897076 0 0 0 0 -631.09718803880992 11.564401374866065 0 11.564401374866065 -1155.7272753400357 0 0 0 0 -752.26046314485484 -483.87081093447273 0 -483.87081093447273 -1039.0574239036723 0 0 0 0 -293.96997361808053 -226.93568183155912 0 -226.93568183155912 -1474.0149657811016 0 0 0 0 -223.50784955920494 -108.65046681981948 0 -108.65046681981948 -797.45311168372245 0 0 0 0 -345.74540031478159 -378.45506348321578 0 -378.45506348321578 -923.36340091751299 0 0 0 0 -207.05100722661359 -368.9488811864876 0 -368.9488811864876 -1101.3616980153602 0 0 0 0 -310.93212381880977 -303.75321193796083 0 -303.75321193796083 -998.8014506599593 0 0 0 0 -88.387038894127102 -358.7886837479 0 -358.7886837479 -997.40187043626611 0 0 0 0 -262.17498395131031 -258.09529517505371 0 -258.09529517505371 -1055.6424866267007 0 0 0 0 -149.76737151071836 -238.84462338949561 0 -238.84462338949561 -1053.3226877999759 0 0 0 0 -201.84994359359314 -344.23759462867201 0 -344.23759462867201 -1004.6914745769973 0 0 0 0 -395.26243178665368 -335.25787094732186 0 -335.25787094732186 -965.98269170308595 0 0 0 0 -58.560042371236477 46.939310305834624 0 46.939310305834624 -867.33712712676424 0 0 0 0 -328.2445995752164 -129.51404118376968 0 -129.51404118376968 -1098.1644199625116 0 0 0 0 -184.97888317455443 -423.26755629151194 0 -423.26755629151194 -1144.9114443968101 0 0 0 0 -0.75851879994806515 1.5196523377624871 0 1.5196523377624871 -5.4784747144063175 0 0 0 0 -254.59782165713955 183.36459400414333 0 183.36459400414333 -124.19959926311094 0 0 0 0 178.27445855936094 -79.943975161233539 0 -79.943975161233539 -218.85290579045432 0 0 0 0 -226.44437350269664 -46.056232612001622 0 -46.056232612001622 -218.38704119136582 0 0 0 0 -172.46061648086948 185.22883724031635 0 185.22883724031635 110.52863530211835 0 0 0 0 -125.02455791630155 -143.40566465406391 0 -143.40566465406391 -49.397701185027472 0 0 0 0 92.767320195339835 20.092669622827088 0 20.092669622827088 -595.01144564073184 0 0 0 0 -139.40955685929953 -165.42150346389644 0 -165.42150346389644 -759.93511527283044 0 0 0 0 -243.06424009280431 -119.03094553057053 0 -119.03094553057053 -591.04740133629821 0 0 0 0 -6.1086535073332016 -143.2115172130525 0 -143.2115172130525 -821.13482757452039 0 0 0 0 -243.38797432113631 -400.92572321273656 0 -400.92572321273656 -967.17509847785004 0 0 0 0 79.07400074694209 -138.38079627074057 0 -138.38079627074057 -773.87578078083243 0 0 0 0 122.52658362053697 -48.507324940947001 0 -48.507324940947001 -938.39495079108747 0 0 0 0 84.104332526166189 -35.006954746934525 0 -35.006954746934525 -1020.9643030493535 0 0 0 0 100.74231545971122 -43.672036355785167 0 -43.672036355785167 -1042.6668710199374 0 0 0 0 77.85218137781969 25.357659838489894 0 25.357659838489894 -982.20502112165195 0 0 0 0 -246.57175578279291 -305.55898384169996 0 -305.55898384169996 -1135.2141335601191 0 0 0 0 129.76572578961529 76.049204213744815 0 76.049204213744815 -1395.5592747734227 0 0 0 0 72.446430710089729 -67.834140813502017 0 -67.834140813502017 -917.04732061318282 0 0 0 0 -343.94800025981897 -159.08003231868179 0 -159.08003231868179 -327.56420096743932 0 0 0 0 39.442152591541074 24.71894945195254 0 24.71894945195254 -785.09650374191915 0 0 0 0 -337.26358194317515 -273.66749989307027 0 -273.66749989307027 -849.69354685570306 0 0 0 0 -447.72972487614965 -58.575106073490133 0 -58.575106073490133 -964.99177177782985 0 0 0 0 -285.68690808527907 -26.817622249665874 0 -26.817622249665874 -1296.1207343452152 0 0 0 0 -100.6970751047545 -226.41592880132703 0 -226.41592880132703 -1090.3617990990624 0 0 0 0 -131.4385131453048 -233.66816277866383 0 -233.66816277866383 -1063.3786017673192 0 0 0 0 -332.16145128626272 -247.43386337129959 0 -247.43386337129959 -1063.8333195741625 0 0 0 0 -149.87855500324403 -261.18108423109754 0 -261.18108423109754 -1122.4193885421155 0 0 0 0 -173.71415549374942 -156.91877568959262 0 -156.91877568959262 -1065.5518977398988 0 0 0 0 -240.6041312970236 -403.73143373780931 0 -403.73143373780931 -516.24870349686171 0 0 0 0 -53.029488871376088 -295.27177139282139 0 -295.27177139282139 -725.7263416720391 0 0 0 0 -397.07629208266428 -448.14019057149608 0 -448.14019057149608 -721.65076177178707 0 0 0 0 -3.6352852734323884 -1.5403757431336658 0 -1.5403757431336658 -1.1667321422266674 0 0 0 0 -68.406312264943949 -475.16094121145852 0 -475.16094121145852 -1333.9193978872536 0 0 0 0 -169.49777256770835 -442.59987707886467 0 -442.59987707886467 -761.7649250185932 0 0 0 0 -74.261732709271655 -311.28619581180374 0 -311.28619581180374 -756.9202349936204 0 0 0 0 -98.148099832294747 231.17755736372237 0 231.17755736372237 -649.55018757500147 0 0 0 0 68.158282106534898 86.679996151393425 0 86.679996151393425 -53.837841017433675 0 0 0 0 -8.4803949653469317 -91.252660751200892 0 -91.252660751200892 -12.139277404418408 0 0 0 0 -3.383532952525691 -2.5897829025168981 0 -2.5897829025168981 -1.1589509777566889 0 0 0 0 -4.2359582747847231 -2.6059900231593076 0 -2.6059900231593076 -3.2760428277591984 0 0 0 0 -10.79232573129741 -403.44371713196506 0 -403.44371713196506 -1133.8286139074735 0 0 0 0 -344.77220496628343 -566.53501120229157 0 -566.53501120229157 -791.3562210497912 0 0 0 0 91.727218047557415 -116.19422536652337 0 -116.19422536652337 -595.79553364804451 0 0 0 0 -117.52046234865539 -217.71978900894482 0 -217.71978900894482 -510.20507946469297 0 0 0 0 -117.16029631094648 -453.55103549281921 0 -453.55103549281921 -791.29713449514747 0 0 0 0 -97.049255772490682 -60.955178038100939 0 -60.955178038100939 -235.85216484860575 0 0 0 0 -89.685607734089217 -257.05633950379706 0 -257.05633950379706 -480.10698337251233 0 0 0 0 -109.9589930172956 -85.499756220075142 0 -85.499756220075142 -109.98537989064425 0 0 0 0 -36.576236156038362 -46.002848958926734 0 -46.002848958926734 -239.71924738754024 0 0 0 0 30.427115916950243 -57.410129321946442 0 -57.410129321946442 -348.17962469712074 0 0 0 0 -71.070298999525221 -162.51697610066913 0 -162.51697610066913 -306.30681959609501 0 0 0 0 -63.516945472390262 -50.296683031097928 0 -50.296683031097928 -103.51837156102556 0 0 0 0 11.380909860185056 -44.056438204064762 0 -44.056438204064762 -102.9987837088629 0 0 0 0 -0.50967120221729911 0.34860087864865186 0 0.34860087864865186 0.44744384844166518 0 0 0 0 -23.500279050062545 -1.6182987610573036 0 -1.6182987610573036 -31.676174904601794 0 0 0 0 -84.831597895976529 -118.81072283354297 0 -118.81072283354297 -193.23741799837444 0 0 0 0 -244.29427047955869 -319.56972545339158 0 -319.56972545339158 -424.45092334289075 0 0 0 0 -81.369471199761648 -73.926839693102863 0 -73.926839693102863 -248.47596911658911 0 0 0 0 -2.1733922316670942 -71.92878605659098 0 -71.92878605659098 -284.98294627426912 0 0 0 0 -168.57145811366729 -26.385660620657291 0 -26.385660620657291 -291.14529719503571 0 0 0 0 -27.965642508063411 48.981973156051026 0 48.981973156051026 -10.008532770211787 0 0 0 0 -151.7722749754451 -37.29002938143276 0 -37.29002938143276 42.956349532883905 0 0 0 0 -18.071842695760779 -12.085493945197413 0 -12.085493945197413 3.2864888930198504 0 0 0 0 -5.7413904376890059 -3.5355771065214867 0 -3.5355771065214867 -28.098312184629322 0 0 0 0 -5.3081062597401694 1.6306919215669105 0 1.6306919215669105 -6.636610084319706 0 0 0 0 -4.0180431824312111 4.3681871852455796 0 4.3681871852455796 -12.760763691029304 0 0 0 0 -10.119816006331348 -78.74364844529191 0 -78.74364844529191 -70.564687891670474 0 0 0 0 -32.92917803897771 -1.20753370033556 0 -1.20753370033556 0.1596636499683477 0 0 0 0 559.76497015777204 -345.97756736189876 0 -345.97756736189876 -601.49046990655916 0 0 0 0 -2.5113115798776562 196.85275750860637 0 196.85275750860637 83.063505746213195 0 0 0 0 -55.395336989442512 -38.485397490846935 0 -38.485397490846935 -63.664300023698161 0 0 0 0 -7.4160827455496818 -6.3258250793923292 0 -6.3258250793923292 -22.251871833816168 0 0 0 0 -57.121298223029044 -38.60208912973394 0 -38.60208912973394 -51.838682580058958 0 0 0 0 -19.635339841588799 -7.7607152819038703 0 -7.7607152819038703 -9.6706362245324939 0 0 0 0 -15.616239485145801 -14.246223988941548 0 -14.246223988941548 -18.83320731868271 0 0 0 0 -8.3419525215722388 -8.2128540297562722 0 -8.2128540297562722 -6.8759120403701672 0 0 0 0 -30.105709137785581 -17.416097510166406 0 -17.416097510166406 -11.51035159103219 0 0 0 0 -15.680357110060868 -10.056389279976429 0 -10.056389279976429 -21.537558260810329 0 0 0 0 -18.809039532396127 -14.419164422142785 0 -14.419164422142785 -21.042970835838787 0 0 0 0 -19.096169260508759 -13.620861817929836 0 -13.620861817929836 -24.780573744472349 0 0 0 0 -19.080855503341809 -16.287484983169634 0 -16.287484983169634 -26.77993162535131 0 0 0 0 -19.766400710329435 -11.285854200674294 0 -11.285854200674294 -15.036040254344698 0 0 0 0 -21.850139226735337 -20.172441562390304 0 -20.172441562390304 -22.5146677698649 0 0 0 0 -32.008925629421356 -4.726484384140349 0 -4.726484384140349 -7.0406818197952816 0 0 0 0 -18.641541602900876 -5.2605064825375365 0 -5.2605064825375365 -14.005184458518237 0 0 0 0 -18.639356456422512 -2.6995835433373614 0 -2.6995835433373614 -8.6806164215194244 0 0 0 0 -21.210247459712264 -13.070309497357812 0 -13.070309497357812 -12.950463222456165 0 0 0 0 -21.047365595586598 -13.693354226095835 0 -13.693354226095835 -20.116046840506897 0 0 0 0 -36.074552986044282 -18.092038399689045 0 -18.092038399689045 -0.57028142117633251 0 0 0 0 -38.438297826503003 -17.271791557906909 0 -17.271791557906909 2.6798967743234243 0 0 0 0 -8.9507141222726467 -3.7307404183218549 0 -3.7307404183218549 0.25433527999049943 0 0 0 0 -45.281198597115235 -22.153150985064713 0 -22.153150985064713 31.619179337612877 0 0 0 0 -65.582643894736975 8.295370839539828 0 8.295370839539828 12.206184709008085 0 0 0 0 -15.275743456974141 -10.433437822970518 0 -10.433437822970518 -11.107442014115804 0 0 0 0 -15.143949588104078 -17.486524081199605 0 -17.486524081199605 -12.832356466562487 0 0 0 0 -17.774964476435684 -13.58962046023435 0 -13.58962046023435 -11.055406566487854 0 0 0 0 -13.287208095957112 -12.030951876921335 0 -12.030951876921335 -13.154497594718123 0 0 0 0 -22.001207153501316 -14.725099482993567 0 -14.725099482993567 -8.1009156733482257 0 0 0 0 -9.5620329752928228 -8.8337210771205719 0 -8.8337210771205719 -1.521414881455712 0 0 0 0 -21.242876226903181 -10.031820986863025 0 -10.031820986863025 -4.0585322444887453 0 0 0 0 -17.396651995536999 -12.743587851945868 0 -12.743587851945868 -14.15349772706594 0 0 0 0 -23.575826921980479 -9.929408499301644 0 -9.929408499301644 -2.6135892149759457 0 0 0 0 -26.716064130236372 -18.260003133910693 0 -18.260003133910693 -12.490302740163457 0 0 0 0 -19.848485278733278 -11.965711679331434 0 -11.965711679331434 -14.291739022475667 0 0 0 0 -23.896037834361778 -16.747720194718568 0 -16.747720194718568 -11.806340134644415 0 0 0 0 -24.106362388774869 -15.716998940246413 0 -15.716998940246413 -25.186540842958493 0 0 0 0 -23.639298185727966 -19.328051789576421 0 -19.328051789576421 -44.916314751979371 0 0 0 0 -15.241925115464255 -21.85286117783653 0 -21.85286117783653 -34.273810706879885 0 0 0 0 -0.27318351513164885 -0.67196189184080168 0 -0.67196189184080168 -1.5334437730704629 0 0 0 0 -19.170237555415952 -14.846244786069292 0 -14.846244786069292 -26.177615168417105 0 0 0 0 -6.1679709636723903 -11.277532368686533 0 -11.277532368686533 -24.442293299025692 0 0 0 0 -11.661409701338069 -7.8624249053481776 0 -7.8624249053481776 -15.390895339466354 0 0 0 0 -10.064548211866857 -7.7864441109493399 0 -7.7864441109493399 -5.8589299287932022 0 0 0 0 -15.184171994958675 -8.5636430444952367 0 -8.5636430444952367 2.6062599191030387 0 0 0 0 -18.605716818912697 -17.359328577076667 0 -17.359328577076667 -15.706525317607884 0 0 0 0 -22.818489067017254 -12.292574838240398 0 -12.292574838240398 -13.396853160309547 0 0 0 0 -22.858982333182212 -13.196066668983804 0 -13.196066668983804 -15.041278616743512 0 0 0 0 -21.243505130531048 -13.874294726811058 0 -13.874294726811058 -12.645134944252277 0 0 0 0 -22.262068363421349 -11.870484365372249 0 -11.870484365372249 -13.113473482248082 0 0 0 0 -21.136118611276601 -5.5194960586327753 0 -5.5194960586327753 4.5971975547716823 0 0 0 0 -22.995044612649053 -11.380519573214769 0 -11.380519573214769 -10.989663873515383 0 0 0 0 -23.718925448993105 -13.561578219036164 0 -13.561578219036164 -6.689262827305356 0 0 0 0 -14.701489737139553 -11.247774821120558 0 -11.247774821120558 -8.9123643436291431 0 0 0 0 -6.5774598123018775 1.0872629782589627 0 1.0872629782589627 -0.71018209176128266 0 0 0 0 -24.192354189067373 -15.460131305874711 0 -15.460131305874711 -10.557101402140688 0 0 0 0 77.211687489932046 11.422200397069219 0 11.422200397069219 -349.91250665737971 0 0 0 0 -672.72124587622966 239.38060841866536 0 239.38060841866536 87.502093164832331 0 0 0 0 -49.253835851299954 5.0017982522737263 0 5.0017982522737263 3.6307839983625207 0 0 0 0 -85.650784344947169 -26.344050194760712 0 -26.344050194760712 -34.100825882854224 0 0 0 0 -160.95950929303945 -7.8748890147726343 0 -7.8748890147726343 239.69934070335876 0 0 0 0 -5.5908183853831019 10.007970475086978 0 10.007970475086978 4.3066913107389144 0 0 0 0 108.25112154963062 -89.078253961801238 0 -89.078253961801238 -953.87497108911521 0 0 0 0 7.9333360857490334 -21.194827144146984 0 -21.194827144146984 -165.0468505433164 0 0 0 0 11.299567733800359 -50.76851191764581 0 -50.76851191764581 -238.68652025532356 0 0 0 0 -76.293163170083062 -74.530828125717562 0 -74.530828125717562 -148.17115252358781 0 0 0 0 -46.087914708940744 -14.07953799565917 0 -14.07953799565917 -3.2367059983005966 0 0 0 0 -114.42191996318525 41.435775093244956 0 41.435775093244956 -73.956268381178234 0 0 0 0 -134.69013094715228 -181.19516038211441 0 -181.19516038211441 -211.60102079241915 0 0 0 0 -7.4799971393770761 -6.1620701240983458 0 -6.1620701240983458 -1.5575470608954234 0 0 0 0 -74.313169507187922 -177.25092584122467 0 -177.25092584122467 -448.81307915063371 0 0 0 0 -76.036546104639456 178.6848594393532 0 178.6848594393532 -123.32210854672303 0 0 0 0 -12.696911526363561 9.8280885761219352 0 9.8280885761219352 -6.8808716500498868 0 0 0 0 -161.88701374049197 -417.17976518860814 0 -417.17976518860814 81.889853583640388 0 0 0 0 167.20528342271865 304.57361996736631 0 304.57361996736631 51.474889493767478 0 0 0 0 -199.90523211196614 143.40838171602263 0 143.40838171602263 93.936052711612348 0 0 0 0 451.49326956621837 -399.42994922518892 0 -399.42994922518892 130.90285874858819 0 0 0 0 176.46599986619003 -400.77825549103545 0 -400.77825549103545 -481.91337116091745 0 0 0 0 -989.35821701567102 -296.81820200470975 0 -296.81820200470975 535.57356509070087 0 0 0 0 -370.24770216945717 4.1627178616763558 0 4.1627178616763558 -48.381447218795074 0 0 0 0 -221.31909374903626 -46.562693210720681 0 -46.562693210720681 -21.314132384383811 0 0 0 0 -373.66166992455362 4.6229372353141116 0 4.6229372353141116 107.45393539666838 0 0 0 0 -101.73501223801554 24.101525269123158 0 24.101525269123158 -79.761944784746447 0 0 0 0 -181.24608230084141 157.08065205573985 0 157.08065205573985 -168.47391262605379 0 0 0 0 -760.80848186292462 409.35348263629749 0 409.35348263629749 -106.18616618550004 0 0 0 0 -322.84156248685213 102.38031441215207 0 102.38031441215207 107.04311830533186 0 0 0 0 54.638476276414394 16.570612138111755 0 16.570612138111755 -50.186489271978644 0 0 0 0 -1.0240690064304214 4.3318857726941413 0 4.3318857726941413 -11.667404308009495 0 0 0 0 29.930268684811381 -31.648876131308498 0 -31.648876131308498 -69.556012983470282 0 0 0 0 -6.0447840955842382 3.7615541255472031 0 3.7615541255472031 -2.0053278997640973 0 0 0 0 -3.3453178164234032 -27.937966835092084 0 -27.937966835092084 14.923276295150572 0 0 0 0 159.69269437107141 512.46403509945958 0 512.46403509945958 -605.87177184266329 0 0 0 0 5.3762275042481633 -30.612034070625668 0 -30.612034070625668 -3.8831404857955931 0 0 0 0 23.492433622204999 -50.170128125746487 0 -50.170128125746487 13.346735556006024 0 0 0 0 -140.18947173813331 127.15123047270936 0 127.15123047270936 -155.09128695435857 0 0 0 0 -7.3762313659144239 5.0498015131299923 0 5.0498015131299923 -3.4815511476033478 0 0 0 0 329.08126066758996 41.316731789753248 0 41.316731789753248 -399.99588463133659 0 0 0 0 -208.12690787170141 -300.13961928190838 0 -300.13961928190838 637.90934248955455 0 0 0 0 -3.7822167794048029 1.6657218924384267 0 1.6657218924384267 -0.59233504133520043 0 0 0 0 32.356552211235794 -72.961803844769747 0 -72.961803844769747 -78.577463821059808 0 0 0 0 -12.344791704342697 30.153282290146308 0 30.153282290146308 -118.19004776877227 0 0 0 0 -74.797335289104012 -568.72553622590385 0 -568.72553622590385 107.32050608839927 0 0 0 0 557.05304113569218 -155.03018279906155 0 -155.03018279906155 -772.61848898175231 0 0 0 0 -538.67523170450409 7.0966076743843587 0 7.0966076743843587 213.19826479063704 0 0 0 0 -46.906086216672271 9.7998332018905963 0 9.7998332018905963 5.1054073356554106 0 0 0 0 -13.830853186364038 -107.62615420403017 0 -107.62615420403017 -117.38898512754167 0 0 0 0 -702.29985687031694 751.07513590950839 0 751.07513590950839 119.21435877526892 0 0 0 0 -560.72379716493651 -740.25097164185809 0 -740.25097164185809 -406.26534282425564 0 0 0 0 -1149.4467870308727 504.47073020059906 0 504.47073020059906 162.93604263031557 0 0 0 0 311.18117969830746 -689.33167595540181 0 -689.33167595540181 -899.37215136693339 0 0 0 0 -172.65113040252254 -995.42114593965744 0 -995.42114593965744 -622.65970663297412 0 0 0 0 22.407377812691266 -637.41553987967563 0 -637.41553987967563 -271.69176411266744 0 0 0 0 66.777354411293345 364.30185116322718 0 364.30185116322718 -2100.9540847073367 0 0 0 0 -304.7804388415243 -99.893274867205037 0 -99.893274867205037 131.80989731131922 0 0 0 0 -937.68422800477856 -729.24935715165338 0 -729.24935715165338 -908.74849460717451 0 0 0 0 -9.2649440477221816 -5.1206660111166471 0 -5.1206660111166471 -3.9286954924513822 0 0 0 0 83.464806090971251 -54.636594299812714 0 -54.636594299812714 -775.4562854321448 0 0 0 0 15.642846425341531 -0.33440190688384064 0 -0.33440190688384064 -665.66162232206261 0 0 0 0 60.327164564456325 -364.28551417573544 0 -364.28551417573544 -631.53323745881789 0 0 0 0 -33.078530516737374 -157.05055791439554 0 -157.05055791439554 -76.911336631579616 0 0 0 0 -23.294941661493795 -185.60708026364591 0 -185.60708026364591 -287.09730092376776 0 0 0 0 35.332468310349213 -71.493004996631498 0 -71.493004996631498 -460.65814723624135 0 0 0 0 41.643732535502068 -107.52317615971356 0 -107.52317615971356 -574.07401017045777 0 0 0 0 34.00154427148118 -98.97763427641712 0 -98.97763427641712 -603.80414125578864 0 0 0 0 89.169931058730981 -152.33322270388646 0 -152.33322270388646 -554.75608069053123 0 0 0 0 25.33393492849973 -217.875388444294 0 -217.875388444294 -832.81449018209241 0 0 0 0 -35.309230777809717 -149.26800662341338 0 -149.26800662341338 -548.46611520796523 0 0 0 0 -1.6840596239774044 3.8865763495036187 0 3.8865763495036187 -2.9105873080470239 0 0 0 0 -51.008293165385794 -83.121749168469137 0 -83.121749168469137 -591.94918431632323 0 0 0 0 -185.6998042677551 -97.123062746069991 0 -97.123062746069991 -450.16748256432766 0 0 0 0 -69.613404812234648 -329.78821607998015 0 -329.78821607998015 -1227.6490503206587 0 0 0 0 3.6755524971504201 54.05116549977356 0 54.05116549977356 -294.9231566653998 0 0 0 0 49.179430102220067 -48.481412919523791 0 -48.481412919523791 -635.27972134901574 0 0 0 0 60.303255766906659 3.1067972329838085 0 3.1067972329838085 -243.08777497683332 0 0 0 0 -40.266055660436557 -14.511283812988005 0 -14.511283812988005 -5.0770851347562136 0 0 0 0 -87.333807200910087 -55.053290531481252 0 -55.053290531481252 -49.477481770647501 0 0 0 0 -63.352301547987736 3.6919234655651962 0 3.6919234655651962 -103.74079653387707 0 0 0 0 -113.03095664329612 -28.233166516794881 0 -28.233166516794881 -118.70137731126488 0 0 0 0 -268.07636826935777 97.553105409333511 0 97.553105409333511 -177.61566625824889 0 0 0 0 149.77315905439355 -59.287016878193754 0 -59.287016878193754 -215.85641031002706 0 0 0 0 24.232862759752607 -70.203740840163846 0 -70.203740840163846 -172.92090291569912 0 0 0 0 116.54457690992422 -130.71237188040323 0 -130.71237188040323 -152.54402442927039 0 0 0 0 -105.25721599931126 171.6113277601753 0 171.6113277601753 -337.54664090945516 0 0 0 0 -143.16773976270451 123.2211911951963 0 123.2211911951963 -199.63571152120858 0 0 0 0 -222.93792884221693 92.493537946762444 0 92.493537946762444 -171.79185535927536 0 0 0 0 -142.37339526625146 170.35348156444888 0 170.35348156444888 -311.50853544796746 0 0 0 0 -85.494100873701427 119.63754228738344 0 119.63754228738344 -204.92787801597478 0 0 0 0 -20.973123390209366 -23.314664734194594 0 -23.314664734194594 -131.24965625427876 0 0 0 0 -118.38371170521577 61.275891474467244 0 61.275891474467244 -85.136367754829735 0 0 0 0 -31.405850812149094 -10.861245519685745 0 -10.861245519685745 -4.0571202537457136 0 0 0 0 -82.046973238185728 83.731753531147206 0 83.731753531147206 -616.31135072054894 0 0 0 0 74.215358022953296 254.61659146092279 0 254.61659146092279 -791.14205239650164 0 0 0 0 73.910921399210565 334.72608108503846 0 334.72608108503846 149.02669624191276 0 0 0 0 -1.1525950126754125 0.5273522578915788 0 0.5273522578915788 -1.0962687871530292 0 0 0 0 -24.135366146891101 63.820515146848265 0 63.820515146848265 -609.77864289290483 0 0 0 0 59.281025350919663 180.445053669765 0 180.445053669765 -514.34988380430332 0 0 0 0 -32.846765916867298 -41.538721385820281 0 -41.538721385820281 -608.81803160527488 0 0 0 0 -30.894474856908118 -62.033848759150544 0 -62.033848759150544 -549.60054725472764 0 0 0 0 -103.97705888975725 133.59663992457354 0 133.59663992457354 -270.15144844999577 0 0 0 0 -69.488464172986369 157.4070455985634 0 157.4070455985634 -417.90837109083986 0 0 0 0 -30.844832866023353 120.16863391921288 0 120.16863391921288 -755.45997331060062 0 0 0 0 -19.279199731414558 -6.7024145989617807 0 -6.7024145989617807 -3.2745200225884794 0 0 0 0 -314.67715055880672 361.31245193233326 0 361.31245193233326 -743.52827788800823 0 0 0 0 -6.3905430276197706 -2.3402338357732546 0 -2.3402338357732546 -2.1364045278082386 0 0 0 0 -16.641679451789969 48.402828940772451 0 48.402828940772451 -1095.895131620862 0 0 0 0 -190.6148735683546 308.68396419642886 0 308.68396419642886 -574.33144437765304 0 0 0 0 -388.66604011146848 248.34891396608748 0 248.34891396608748 -385.72098898293552 0 0 0 0 -204.57543482454844 255.22465879212291 0 255.22465879212291 -360.40343343677705 0 0 0 0 -212.64816561973112 219.70964037860085 0 219.70964037860085 -384.50179797590772 0 0 0 0 -220.13837982197128 183.97533836797447 0 183.97533836797447 -265.59799772537917 0 0 0 0 -270.01460695488186 259.76312840036007 0 259.76312840036007 -319.93102295217614 0 0 0 0 -327.83467684622929 188.44378640491823 0 188.44378640491823 -219.28406181590253 0 0 0 0 -230.8164115068721 172.4574195103105 0 172.4574195103105 -239.87351594699157 0 0 0 0 -76.745116895912133 173.08058510616547 0 173.08058510616547 -347.42063632542886 0 0 0 0 -42.692631200368851 83.859656659633401 0 83.859656659633401 -263.15594004593186 0 0 0 0 -137.04599905211535 218.84892006175232 0 218.84892006175232 -353.28597994156189 0 0 0 0 -185.01583197923264 199.78937825292451 0 199.78937825292451 -360.85380478376192 0 0 0 0 -146.38201858278808 195.77151369153307 0 195.77151369153307 -310.71793066817099 0 0 0 0 -117.87592439197215 209.79156232935475 0 209.79156232935475 -400.10910268115549 0 0 0 0 -142.14581837808873 190.32873458549875 0 190.32873458549875 -294.38329013588509 0 0 0 0 -126.20603733913208 158.93555989456354 0 158.93555989456354 -486.50361381598123 0 0 0 0 -117.9033623926598 192.19216078845602 0 192.19216078845602 -400.58475780981649 0 0 0 0 -136.8743497753685 171.19892729899038 0 171.19892729899038 -344.23030633576855 0 0 0 0 -169.16162749927207 120.26126305410708 0 120.26126305410708 -415.83076427160267 0 0 0 0 -155.88588579709904 -6.6932780325469139 0 -6.6932780325469139 -378.11122727717157 0 0 0 0 -145.44347450165233 17.396370104980917 0 17.396370104980917 -494.79912829438035 0 0 0 0 -145.79780383003379 19.898272040047232 0 19.898272040047232 -340.12846895794792 0 0 0 0 -23.672591195611631 50.304027643263453 0 50.304027643263453 -727.56365625356193 0 0 0 0 -45.424273538095804 14.58204383354132 0 14.58204383354132 -586.97974315645115 0 0 0 0 -268.93969548787845 184.47932694702013 0 184.47932694702013 -182.40634276476885 0 0 0 0 -250.62444356174638 75.237719143075083 0 75.237719143075083 -183.70032253024476 0 0 0 0 -209.74959170207876 178.91196391981839 0 178.91196391981839 -306.57753887618674 0 0 0 0 -168.64899459523804 101.14327905441496 0 101.14327905441496 -286.04758469679109 0 0 0 0 -142.91737478629511 -59.087765002233937 0 -59.087765002233937 -223.87377130925461 0 0 0 0 -228.51885662303266 68.38206454383635 0 68.38206454383635 -265.11159252234211 0 0 0 0 -251.80396149844501 110.36393465490528 0 110.36393465490528 -59.777967142201305 0 0 0 0 -349.55674023383381 -29.22218243428415 0 -29.22218243428415 -76.040992822025487 0 0 0 0 -274.22746220456429 -103.48215746232108 0 -103.48215746232108 -179.27687621503355 0 0 0 0 -183.57468820052873 -93.246800682445155 0 -93.246800682445155 -102.92499471356859 0 0 0 0 -136.90646159701646 -151.57485553388688 0 -151.57485553388688 -167.63520875330732 0 0 0 0 -15.925791989288903 3.8745807201584732 0 3.8745807201584732 -0.072668470717434985 0 0 0 0 8.1218004574273355 -263.4878704235291 0 -263.4878704235291 -29.861918252101532 0 0 0 0 -6.1571112049995183 2.4061400924085774 0 2.4061400924085774 -0.8253557742674289 0 0 0 0 -409.74688726189288 -366.66623109744614 0 -366.66623109744614 -336.3721283386385 0 0 0 0 -220.37480410099374 647.59541487771571 0 647.59541487771571 306.59059916021215 0 0 0 0 -19.665050378591577 1.6988201778568346 0 1.6988201778568346 -0.97371494911595846 0 0 0 0 -75.031200454565806 25.87224898750901 0 25.87224898750901 -2.907857560062439 0 0 0 0 -2.3780107058226925 1.4913221679987316 0 1.4913221679987316 -0.70177002666710386 0 0 0 0 -115.87844766486876 -35.972938639604763 0 -35.972938639604763 316.89573215440123 0 0 0 0 -69.26645034410285 -194.10488659130897 0 -194.10488659130897 -244.72131315943534 0 0 0 0 -208.05928930047483 136.87080784614318 0 136.87080784614318 604.97649786906641 0 0 0 0 38.200818075024358 -145.88315336878031 0 -145.88315336878031 -186.08563963504275 0 0 0 0 -13.087331857453705 -4.0697001245362117 0 -4.0697001245362117 -200.28813905756215 0 0 0 0 44.373104805127014 18.537979458545124 0 18.537979458545124 -476.65352400145457 0 0 0 0 -21.135264729419816 -6.4202962378996951 0 -6.4202962378996951 -2.632781730404842 0 0 0 0 -34.55521839292669 -29.610794874704879 0 -29.610794874704879 -9.2241105808661814 0 0 0 0 -110.5532080078396 -145.84299153176244 0 -145.84299153176244 35.731138583149004 0 0 0 0 -1.8515360519943584 -1.0805173256779881 0 -1.0805173256779881 -2.4130761772917033 0 0 0 0 -17.453984056659063 -6.6700365219955167 0 -6.6700365219955167 -2.9736222818901563 0 0 0 0 -357.89802630372196 86.083938226145619 0 86.083938226145619 -71.948628455797007 0 0 0 0 9.5823797115017442 250.5271677300334 0 250.5271677300334 -510.86035694934981 0 0 0 0 27.305593695951526 -204.1756136657884 0 -204.1756136657884 -404.69641210300506 0 0 0 0 -122.40086902874617 -53.35437374000503 0 -53.35437374000503 -503.93178969329711 0 0 0 0 -704.55844805557797 256.54606145476492 0 256.54606145476492 -398.41748574969097 0 0 0 0 -147.89806009118647 -442.16158725124842 0 -442.16158725124842 -1452.6611316228682 0 0 0 0 -7.4116841341818862 -2.2907365185270301 0 -2.2907365185270301 -1.9058086012070738 0 0 0 0 -133.27393195776267 389.26371053413459 0 389.26371053413459 -675.17639820577642 0 0 0 0 -37.600124830875529 218.2684299442235 0 218.2684299442235 -546.03630159437853 0 0 0 0 15.567521256812825 280.73900986353692 0 280.73900986353692 -1050.097710054667 0 0 0 0 -448.89282134711118 515.96234640661851 0 515.96234640661851 -706.11595044587011 0 0 0 0 -228.68290984629886 287.24962747248503 0 287.24962747248503 -775.81043105201024 0 0 0 0 144.76420341049425 27.985824754514397 0 27.985824754514397 -609.38708668961408 0 0 0 0 -98.456588068222118 -137.11486361947664 0 -137.11486361947664 8.8234067328103265 0 0 0 0 -5.4085668939868956 4.5318494505405695 0 4.5318494505405695 -3.957199932170326 0 0 0 0 -351.9156750731845 142.91048673091973 0 142.91048673091973 8.5612199578572472 0 0 0 0 -260.18901994757107 124.5834847709084 0 124.5834847709084 -141.0318650245863 0 0 0 0 -480.55291815222199 455.28540792039757 0 455.28540792039757 -435.52778333333845 0 0 0 0 -167.07975813538997 170.78085971103792 0 170.78085971103792 -310.80859608608944 0 0 0 0 -268.51769312685724 364.5553646626056 0 364.5553646626056 -597.88817253008892 0 0 0 0 -105.25687577185522 191.15122437102491 0 191.15122437102491 -563.88933024611833 0 0 0 0 -177.36366749041008 254.14644114307521 0 254.14644114307521 -381.48297747263314 0 0 0 0 -91.481883076347003 177.19905753760395 0 177.19905753760395 -556.38659208967238 0 0 0 0 6.3371804077619345 68.911755989599442 0 68.911755989599442 -895.75563660023181 0 0 0 0 -69.983603473227504 197.33896645891718 0 197.33896645891718 -764.36207930172532 0 0 0 0 -125.2246802734162 348.58855957758442 0 348.58855957758442 -1259.9775705168267 0 0 0 0 -96.473568653236725 195.71416629665691 0 195.71416629665691 -618.66006033590008 0 0 0 0 -422.80423121231854 -53.127564706726673 0 -53.127564706726673 -687.47340317704584 0 0 0 0 8.2840178513702085 16.018953935184982 0 16.018953935184982 -61.746846908175939 0 0 0 0 17.167080711069715 -27.810688201192534 0 -27.810688201192534 -193.1485295606326 0 0 0 0 -0.21217823406258968 42.970060329473199 0 42.970060329473199 -78.793666594407114 0 0 0 0 8.2918334633368787 -4.7805227388598723 0 -4.7805227388598723 -26.183151827524853 0 0 0 0 5.9514821811159848 42.686152737074735 0 42.686152737074735 11.668478854648129 0 0 0 0 25.827029522934083 6.8793895161288674 0 6.8793895161288674 -57.709404608947807 0 0 0 0 -0.53546224518650565 -1.4117644464237458 0 -1.4117644464237458 -11.973246000102591 0 0 0 0 37.256238129471399 -12.020117238713283 0 -12.020117238713283 -96.477073473433848 0 0 0 0 24.768105163025155 23.171829257207719 0 23.171829257207719 -40.991545370525273 0 0 0 0 79.106303845894331 23.047880510464893 0 23.047880510464893 -61.887148121211794 0 0 0 0 1.3466292373236954 7.75773415578848 0 7.75773415578848 -50.131954681489617 0 0 0 0 65.841398975143079 81.269290773496323 0 81.269290773496323 40.972729497261753 0 0 0 0 4.2840695534918272 -0.86177744551631008 0 -0.86177744551631008 -14.653947813657766 0 0 0 0 13.541361071486904 2.9816641131910728 0 2.9816641131910728 -58.488015218237706 0 0 0 0 1.2734928011062947 5.8868688194558985 0 5.8868688194558985 -51.998619966145299 0 0 0 0 62.924887342236389 17.28341630664363 0 17.28341630664363 -74.721443223475944 0 0 0 0 23.928687492350747 -0.92698785343236523 0 -0.92698785343236523 -57.167944497299686 0 0 0 0 23.684910375779417 -6.6135756562877077 0 -6.6135756562877077 -92.075718538966612 0 0 0 0 1.862280944874442 -5.5974644805173739 0 -5.5974644805173739 -52.975121147042955 0 0 0 0 -6.020540604461285 -5.8790056242463322 0 -5.8790056242463322 -6.0157221739610041 0 0 0 0 -25.942227954125883 -303.13297734623484 0 -303.13297734623484 -1293.3308446973551 0 0 0 0 -161.31767077969425 -159.43753773535536 0 -159.43753773535536 -956.87526161246205 0 0 0 0 3.3869097229357976 -87.934013372825575 0 -87.934013372825575 -1007.9801742754789 0 0 0 0 32.64545085496178 -129.40404789213244 0 -129.40404789213244 -1431.2043748404685 0 0 0 0 -13.516995345967985 -273.31196852668654 0 -273.31196852668654 -1690.6886239353194 0 0 0 0 -48.943112077091413 -50.002230549544038 0 -50.002230549544038 14.700601850330713 0 0 0 0 -2.3496869669841987 -2.7086484683746761 0 -2.7086484683746761 -0.87532179686813549 0 0 0 0 -176.14065099734114 -202.85003509408125 0 -202.85003509408125 -168.9032849430896 0 0 0 0 -0.022304418654062269 -101.42244797962849 0 -101.42244797962849 -1087.479265186892 0 0 0 0 -141.76405148684051 -286.92675092184436 0 -286.92675092184436 -1326.5323613870132 0 0 0 0 -0.030836142605163541 -209.18582756279648 0 -209.18582756279648 -1408.3106837693485 0 0 0 0 290.90904346653207 -365.66445627271332 0 -365.66445627271332 -2498.3114938078106 0 0 0 0 -78.467960852700571 -211.70086503230596 0 -211.70086503230596 -1350.4376078957575 0 0 0 0 0.82050943170812762 -1.4236467098769054 0 -1.4236467098769054 -3.2627860992869788 0 0 0 0 -3.8474037760607303 -99.33077483451234 0 -99.33077483451234 -1976.695613846241 0 0 0 0 -0.55291188139381342 -101.03722215862945 0 -101.03722215862945 -1988.6217550132992 0 0 0 0 2.332175821792283 -2.529262067708629 0 -2.529262067708629 -3.6794928787628187 0 0 0 0 27.999568549445144 -330.56010493296344 0 -330.56010493296344 -1798.3054629224935 0 0 0 0 -61.502153677375077 -205.43322058103149 0 -205.43322058103149 -1440.2104886009679 0 0 0 0 -135.47453929267692 -244.98469120544905 0 -244.98469120544905 -1314.1404534292378 0 0 0 0 221.60411111530556 -179.85253601382828 0 -179.85253601382828 -2425.4278474883249 0 0 0 0 90.518772685476904 -581.43766232269854 0 -581.43766232269854 -1173.3830606953707 0 0 0 0 108.0142645411276 -640.5377202141317 0 -640.5377202141317 -1455.2994496349777 0 0 0 0 1.535984588344472 -0.91180743348893145 0 -0.91180743348893145 -3.2771448011511399 0 0 0 0 127.32469030115352 -818.16896442650068 0 -818.16896442650068 -1579.720955738821 0 0 0 0 -107.57145184783948 -470.00462381285979 0 -470.00462381285979 -1959.6879297315609 0 0 0 0 -146.11667983958773 -614.73200211045969 0 -614.73200211045969 -2471.4279725376036 0 0 0 0 -534.7556147367992 -719.42130942028234 0 -719.42130942028234 -976.68444375372928 0 0 0 0 -1126.1675378360951 -1607.8503468434537 0 -1607.8503468434537 -2311.078351121083 0 0 0 0 -251.26378217311219 -973.19263331849652 0 -973.19263331849652 -1481.9394408771695 0 0 0 0 -57.797210616546252 -568.85602100485266 0 -568.85602100485266 -1142.9042282793162 0 0 0 0 -340.69434114603405 -425.85135032434118 0 -425.85135032434118 -350.97859088186669 0 0 0 0 22.833886755425056 15.002093015089486 0 15.002093015089486 6.4165373760624789 0 0 0 0 2.0647258979609591 3.7114305681307584 0 3.7114305681307584 -23.688862346453874 0 0 0 0 -422.33912391540525 -657.69326072558397 0 -657.69326072558397 -992.16667214942845 0 0 0 0 3.9649244303023616 13.518630880752866 0 13.518630880752866 -9.5446835302147122 0 0 0 0 40.265027228375885 47.173715314119363 0 47.173715314119363 -3.0511286831169855 0 0 0 0 29.954279623423275 28.361765652929535 0 28.361765652929535 -3.7932847912743455 0 0 0 0 75.520053630927578 102.39785969349032 0 102.39785969349032 56.349859369627666 0 0 0 0 -0.17006366951090968 54.841701132092567 0 54.841701132092567 30.831963156393613 0 0 0 0 -15.653349370466458 16.880641084739182 0 16.880641084739182 83.936883726404631 0 0 0 0 -38.255015529533395 30.630373130789032 0 30.630373130789032 68.122359799211296 0 0 0 0 37.260219929247796 30.844014480332802 0 30.844014480332802 -13.752680137431428 0 0 0 0 95.792553947412671 82.939458332002687 0 82.939458332002687 3.3343898216553498 0 0 0 0 88.109113702204922 121.26080587893375 0 121.26080587893375 66.108105318383423 0 0 0 0 111.75229663569735 116.43924928097113 0 116.43924928097113 35.69599655662023 0 0 0 0 5.4706161686808414 10.748093819300841 0 10.748093819300841 2.8846597992217653 0 0 0 0 4.778537827762162 14.685310677669023 0 14.685310677669023 -23.445627782815308 0 0 0 0 -39.962814588376133 -48.895316895737778 0 -48.895316895737778 -536.57237017911393 0 0 0 0 3.383349519299486 -305.14361753469348 0 -305.14361753469348 -662.66523995506577 0 0 0 0 117.24588982267096 -7.3894202735609724 0 -7.3894202735609724 -711.11941856062094 0 0 0 0 172.64186919712643 -220.30717803953303 0 -220.30717803953303 -1482.8535254119511 0 0 0 0 -35.01197944826572 12.782309075315425 0 12.782309075315425 -879.63748629658949 0 0 0 0 1.2865502356512479 -245.47987748717424 0 -245.47987748717424 -617.45209242205601 0 0 0 0 -0.80883603412824012 16.60346634402481 0 16.60346634402481 -7.0207734703567457 0 0 0 0 5.0398035190162318 23.381231558676518 0 23.381231558676518 -43.176993383236095 0 0 0 0 -67.022594900604076 129.58653317711105 0 129.58653317711105 -265.61583972742665 0 0 0 0 -3.3891035282855997 1.5471420501267943 0 1.5471420501267943 1.3986663872915983 0 0 0 0 1.0709338949071825 8.8742460366933642 0 8.8742460366933642 -47.149232798115293 0 0 0 0 21.277455248759622 38.730380462329776 0 38.730380462329776 -42.986778215214144 0 0 0 0 -108.25681082354137 -135.75144764690413 0 -135.75144764690413 -161.40043905528728 0 0 0 0 4.3160186179543354 16.260557947177588 0 16.260557947177588 -13.204718460213257 0 0 0 0 -18.642370596350588 9.1216717348288512 0 9.1216717348288512 -34.751912246353186 0 0 0 0 -109.63374383207702 171.40973410203151 0 171.40973410203151 246.88574026842252 0 0 0 0 12.660554473414024 17.075777377586085 0 17.075777377586085 -52.29173357224586 0 0 0 0 -13.520376348196891 33.695206962878729 0 33.695206962878729 -40.617292258655652 0 0 0 0 7.6526737782245391 29.421148012279446 0 29.421148012279446 -65.579527416120982 0 0 0 0 10.329417669810709 20.702197533391882 0 20.702197533391882 -37.491878035081754 0 0 0 0 57.134211710678983 42.221730612171996 0 42.221730612171996 -56.103861892072018 0 0 0 0 7.6862671330077807 15.433864287392829 0 15.433864287392829 -68.87198749834667 0 0 0 0 -48.130908984326652 45.648559428202134 0 45.648559428202134 -18.487258801716962 0 0 0 0 -57.151569094772071 -28.914731083375955 0 -28.914731083375955 -56.504062413653173 0 0 0 0 15.692811749792099 5.2779948402530863 0 5.2779948402530863 -39.31106427666964 0 0 0 0 108.98887955869031 171.74532897443351 0 171.74532897443351 -19.255167563820763 0 0 0 0 62.440346686756129 -112.4772247187575 0 -112.4772247187575 -73.61212928585519 0 0 0 0 207.00382571863668 248.07738746745008 0 248.07738746745008 109.45374082856506 0 0 0 0 -24.084190945368327 19.268647167231038 0 19.268647167231038 -3.3352713787887325 0 0 0 0 73.688225343792965 102.80785246481139 0 102.80785246481139 10.326357271718734 0 0 0 0 68.647025956232483 53.337759899017328 0 53.337759899017328 6.3982633728483052 0 0 0 0 -5.9383892467917576 71.675253617291219 0 71.675253617291219 19.474335430219071 0 0 0 0 4.9446089598977778 38.226276106786827 0 38.226276106786827 -16.937531364143069 0 0 0 0 14.995773749024579 58.016107535652282 0 58.016107535652282 6.6745889675366925 0 0 0 0 -34.336194581303971 72.556655638651137 0 72.556655638651137 12.895551579516905 0 0 0 0 12.317013250142452 71.21127741936948 0 71.21127741936948 57.137742801060085 0 0 0 0 49.988440114996308 103.77664744928279 0 103.77664744928279 29.425031551909342 0 0 0 0 -13.462883122176663 69.498675249058579 0 69.498675249058579 32.945058637676993 0 0 0 0 45.81756791122578 68.02573794464206 0 68.02573794464206 14.077349588595098 0 0 0 0 -23.636848738579531 25.023292391301638 0 25.023292391301638 -1.5274004953899407 0 0 0 0 127.33409065593878 185.92058466846356 0 185.92058466846356 168.40325825493346 0 0 0 0 100.93681573553658 112.58079925475249 0 112.58079925475249 2.7703743677193415 0 0 0 0 68.429919641292145 -85.15457024177158 0 -85.15457024177158 -17.021312050608685 0 0 0 0 -3.9665630426788248 0.027687884745375868 0 0.027687884745375868 2.5355701338459085 0 0 0 0 -2.8837616712494372 8.8724448577959016 0 8.8724448577959016 -6.2515564409057163 0 0 0 0 -90.675289212010838 28.843970168469241 0 28.843970168469241 20.851782585308683 0 0 0 0 378.83228123744811 200.0270486851623 0 200.0270486851623 123.75916308568594 0 0 0 0 -19.866304752992619 68.306083225215843 0 68.306083225215843 24.050588737398357 0 0 0 0 -12.68593920560361 42.06517537232952 0 42.06517537232952 -0.39877778264053632 0 0 0 0 -170.10693690024118 4.9224791384094715 0 4.9224791384094715 12.382096698947862 0 0 0 0 -43.74385415850773 15.484426106297178 0 15.484426106297178 -28.383043541078223 0 0 0 0 -63.832944174046133 32.126113970833103 0 32.126113970833103 23.352856546076509 0 0 0 0 178.67574855163821 141.3503620162428 0 141.3503620162428 196.58794304550702 0 0 0 0 174.70487282023487 162.68264237972289 0 162.68264237972289 181.83901583535408 0 0 0 0 -2.3803171039448525 1.3113390546412589 0 1.3113390546412589 -0.083757352688245135 0 0 0 0 233.83028239840831 212.80558533796784 0 212.80558533796784 -241.63325849967077 0 0 0 0 118.35712524863084 139.84655546975409 0 139.84655546975409 203.74406074233229 0 0 0 0 104.10159887589043 107.93091360803373 0 107.93091360803373 132.77545892680791 0 0 0 0 278.39784536770298 80.567030385168437 0 80.567030385168437 59.794606826755626 0 0 0 0 159.15340464812562 70.14038373682115 0 70.14038373682115 73.811568040706334 0 0 0 0 36.349174366048715 119.39960453633466 0 119.39960453633466 142.03756813515793 0 0 0 0 157.58992934578464 51.754269878649211 0 51.754269878649211 -54.358655353244103 0 0 0 0 59.061322993753208 133.48705577819692 0 133.48705577819692 -148.92874982881767 0 0 0 0 61.315916035682221 161.04378068536971 0 161.04378068536971 -27.681804906167599 0 0 0 0 282.29763851431426 124.14292870746249 0 124.14292870746249 -55.694778142173163 0 0 0 0 185.82284009610339 45.77053614029137 0 45.77053614029137 -34.68521673851501 0 0 0 0 -4.1512689620412218 13.363999728301989 0 13.363999728301989 -2.3806449614502867 0 0 0 0 2.183268160307084 20.090157154388635 0 20.090157154388635 -36.543925783494885 0 0 0 0 -10.644087339995281 44.982143249932051 0 44.982143249932051 22.22129822709212 0 0 0 0 29.747681115703699 36.125898416263226 0 36.125898416263226 -11.061672737860135 0 0 0 0 -42.669673289707362 10.696822577785497 0 10.696822577785497 4.8343368023924995 0 0 0 0 6.1620948180593587 85.38689743624127 0 85.38689743624127 32.713107629192336 0 0 0 0 2.5335030916098926 27.046503634946333 0 27.046503634946333 -29.089778909431999 0 0 0 0 25.380467940753988 56.931761362378893 0 56.931761362378893 134.92795041754289 0 0 0 0 103.39418698113923 58.069339132078312 0 58.069339132078312 -109.26515972924972 0 0 0 0 -1894.0245808212155 -148.28094858906115 0 -148.28094858906115 -2502.1256218095477 0 0 0 0 -494.15727276117855 -1055.684570294914 0 -1055.684570294914 -2743.2611869072462 0 0 0 0 -1.5058715646591145 3.2712278210891839 0 3.2712278210891839 -12.646684308617125 0 0 0 0 51.754531462293528 38.216792591114427 0 38.216792591114427 -17.675137149504735 0 0 0 0 -164.11709704611869 70.387573984536175 0 70.387573984536175 121.26032218845648 0 0 0 0 -41.107466848466288 177.24210491543818 0 177.24210491543818 138.09805517651694 0 0 0 0 -141.77957576991344 -19.149178403258702 0 -19.149178403258702 72.403128326157457 0 0 0 0 0.83054492830624405 0.44204289588301293 0 0.44204289588301293 -9.8223768280166723 0 0 0 0 -73.797558241872139 93.319865195226157 0 93.319865195226157 -39.144380987243494 0 0 0 0 -491.42404054325391 -852.17673243359241 0 -852.17673243359241 -2615.8112996633463 0 0 0 0 -298.27967248465234 -1070.7405923518854 0 -1070.7405923518854 -2468.4638239981796 0 0 0 0 0.27427266580444343 0.30311046670514941 0 0.30311046670514941 -6.7598201988562607 0 0 0 0 -858.17227628881164 1834.0233235084524 0 1834.0233235084524 -4474.1130000342346 0 0 0 0 -574.89363075385154 -970.88043202346671 0 -970.88043202346671 -2830.009051537214 0 0 0 0 -2436.9950795468112 1273.534083921073 0 1273.534083921073 -767.56630091345141 0 0 0 0 -499.86734101994648 -430.98233448151223 0 -430.98233448151223 532.82040209036495 0 0 0 0 -3.7761823519629782 5.5953481849982083 0 5.5953481849982083 -20.223772025175663 0 0 0 0 -535.79721462200189 925.58033138218525 0 925.58033138218525 -2046.6593731911998 0 0 0 0 -1436.7040894380771 330.72479712642121 0 330.72479712642121 113.82609767940448 0 0 0 0 -1269.3250220430082 1759.8748536003752 0 1759.8748536003752 -1372.6938584339587 0 0 0 0 -462.80669761832934 788.34569207368077 0 788.34569207368077 -549.24589694436872 0 0 0 0 -735.9557083785653 806.75207733764546 0 806.75207733764546 -139.670104096047 0 0 0 0 -0.80307897626768643 17.058166072921455 0 17.058166072921455 -47.885279971601108 0 0 0 0 317.1093055038142 224.01472759642638 0 224.01472759642638 -225.75554214354634 0 0 0 0 98.558290858840337 3.8066751730984834 0 3.8066751730984834 -83.250526590745721 0 0 0 0 -33.148403551670526 -133.95358034248056 0 -133.95358034248056 -147.99589468607155 0 0 0 0 112.22389583286349 298.63430564669761 0 298.63430564669761 77.748426016241865 0 0 0 0 6.2169018454124299 -1.0568189024824619 0 -1.0568189024824619 -7.1488837701912757 0 0 0 0 -380.03772933214657 487.71781993418699 0 487.71781993418699 -174.43078653873818 0 0 0 0 -19.769441556343281 108.9760854537526 0 108.9760854537526 48.824165036638988 0 0 0 0 -355.48072557922956 695.65054062660056 0 695.65054062660056 -551.39694894174318 0 0 0 0 -195.21773015585524 557.40190920433088 0 557.40190920433088 -542.7599713248419 0 0 0 0 -117.11750403789621 799.54229345589374 0 799.54229345589374 -1140.6521751029941 0 0 0 0 -41.27730734151254 785.22442289408173 0 785.22442289408173 -1142.645583996833 0 0 0 0 -643.57226776860898 1114.3772526232933 0 1114.3772526232933 -688.98045764337803 0 0 0 0 -413.29663343890149 1286.510893076296 0 1286.510893076296 -1752.3317681761109 0 0 0 0 296.98418756773464 991.03748423064462 0 991.03748423064462 -2499.6398211960918 0 0 0 0 -55.832441509031355 1059.0939217220148 0 1059.0939217220148 -1711.6665255066 0 0 0 0 260.25042246415768 678.32115183677524 0 678.32115183677524 -1846.4593129130917 0 0 0 0 283.69921647400076 664.71952093751133 0 664.71952093751133 -1437.6650663163655 0 0 0 0 -44.475610651520412 915.25520175976999 0 915.25520175976999 -1317.5890198879861 0 0 0 0 175.44423541579624 921.2283518280783 0 921.2283518280783 -1694.879477510749 0 0 0 0 -62.08875801034975 587.47948800871563 0 587.47948800871563 -717.96696705306022 0 0 0 0 81.251886504370589 623.5997610349259 0 623.5997610349259 -1175.1532769279838 0 0 0 0 85.351727133212307 321.1217007083651 0 321.1217007083651 -947.50526409331178 0 0 0 0 74.650234524082236 647.08104881213512 0 647.08104881213512 -1228.7449374627322 0 0 0 0 43.464812991439203 155.31035718330168 0 155.31035718330168 -719.16093050262134 0 0 0 0 111.74429885904902 260.54361299329048 0 260.54361299329048 -816.23602401531389 0 0 0 0 -56.142128554056853 326.75821171959251 0 326.75821171959251 -284.6484394732131 0 0 0 0 -115.95856612012031 180.48342944303295 0 180.48342944303295 -294.3518085552605 0 0 0 0 -131.10406580766644 334.86457582620096 0 334.86457582620096 -579.94537293974645 0 0 0 0 -124.51188529501225 283.06487531930998 0 283.06487531930998 -343.58052631888131 0 0 0 0 -47.208624884442145 326.51550449814022 0 326.51550449814022 -403.03745992442782 0 0 0 0 -134.28974022691554 592.40265706458376 0 592.40265706458376 -709.26260026756972 0 0 0 0 -188.07090546676193 339.3892433440551 0 339.3892433440551 -178.12380096034394 0 0 0 0 118.89504875353441 89.010030500248831 0 89.010030500248831 -159.62755112481227 0 0 0 0 13.022200658872862 111.41538749483152 0 111.41538749483152 222.23198420846165 0 0 0 0 33.938391833551464 42.026731911864772 0 42.026731911864772 -10.850587068678578 0 0 0 0 58.581223168920133 134.61408720966028 0 134.61408720966028 -55.481613490585005 0 0 0 0 13.041733344988728 364.74405097479757 0 364.74405097479757 -297.40148296122607 0 0 0 0 -2.638404147410323 0.91575069239119955 0 0.91575069239119955 0.41281767334959341 0 0 0 0 70.150977601631212 170.70800866243917 0 170.70800866243917 510.59714986282415 0 0 0 0 -77.466175427218218 10.011875855892868 0 10.011875855892868 208.23497382807182 0 0 0 0 91.255077821258624 92.973730852949302 0 92.973730852949302 236.79942299653339 0 0 0 0 55.753980338866086 174.59950088421465 0 174.59950088421465 237.57940023703122 0 0 0 0 -4.5665328174716207 2.4414852075356137 0 2.4414852075356137 -0.0089808128625605832 0 0 0 0 -64.625307676482407 376.81269209587845 0 376.81269209587845 354.23171431336959 0 0 0 0 -69.782926954926552 199.13410543302234 0 199.13410543302234 -555.56690550694475 0 0 0 0 -68.582580510237577 172.35856850233984 0 172.35856850233984 -221.25665438076976 0 0 0 0 153.05872187344403 -82.658041422451788 0 -82.658041422451788 18.115352183998766 0 0 0 0 -62.606457735068339 82.732657281765569 0 82.732657281765569 689.04551144481593 0 0 0 0 -29.275325159460408 176.90583418944516 0 176.90583418944516 -596.23930132840269 0 0 0 0 -1.6807780868452222 0.78584707295902945 0 0.78584707295902945 0.092379336973653636 0 0 0 0 22.838029889697538 209.10386055623235 0 209.10386055623235 -664.1930749328385 0 0 0 0 13.027747505496805 218.3232172797733 0 218.3232172797733 732.83071708372881 0 0 0 0 17.716036763359824 100.42333609552225 0 100.42333609552225 665.64614358751533 0 0 0 0 -0.3868976448386332 1.7323278626255529 0 1.7323278626255529 -0.85523315003212552 0 0 0 0 -166.50939027186723 202.50578377692 0 202.50578377692 418.62538354395565 0 0 0 0 -2.859971998720618 2.5720174526143325 0 2.5720174526143325 0.50570873036357611 0 0 0 0 -111.48078742937022 258.6976131767924 0 258.6976131767924 82.046970372350188 0 0 0 0 15.58185525729235 96.635917321290648 0 96.635917321290648 114.42229273133853 0 0 0 0 92.829169308294667 107.42014450993156 0 107.42014450993156 248.34841724828584 0 0 0 0 -265.36290583595405 287.45882356985931 0 287.45882356985931 215.66079522421205 0 0 0 0 -18.607820807209919 -54.977672282613639 0 -54.977672282613639 522.20524752388519 0 0 0 0 32.222706393487783 -59.988489742851016 0 -59.988489742851016 -756.08281771663451 0 0 0 0 -93.817896097410028 -42.896870678337109 0 -42.896870678337109 -456.6952935470581 0 0 0 0 102.52835764007534 -56.875236125077208 0 -56.875236125077208 -1468.2742685697513 0 0 0 0 30.867130243599007 12.514755955995497 0 12.514755955995497 -1057.9196323506112 0 0 0 0 -29.75332545317292 44.1008256894238 0 44.1008256894238 -877.95805269510311 0 0 0 0 -43.688398885201934 17.677254425263527 0 17.677254425263527 -1042.3708453877152 0 0 0 0 -82.159141172426956 -129.63202034310871 0 -129.63202034310871 -1097.1131627779687 0 0 0 0 -121.9717141078645 -44.559627082891893 0 -44.559627082891893 -750.27004245681019 0 0 0 0 -57.10318841952278 180.16133134926895 0 180.16133134926895 -1073.0372635458243 0 0 0 0 -34.806926852821618 76.378353740435159 0 76.378353740435159 -623.57301657108474 0 0 0 0 -42.171563126710907 72.557601850150604 0 72.557601850150604 -620.68582452884584 0 0 0 0 -43.350949672636489 32.592604811310594 0 32.592604811310594 -433.31624478188314 0 0 0 0 5.9002933100543942 39.813336052783598 0 39.813336052783598 -521.57760053337915 0 0 0 0 70.645671309658155 -63.258159018603692 0 -63.258159018603692 -379.6542423511637 0 0 0 0 -42.920776584854508 -74.610790368715243 0 -74.610790368715243 -489.14671897099834 0 0 0 0 66.987769102344828 -147.90531999424093 0 -147.90531999424093 -816.4560624386238 0 0 0 0 -56.366841350547531 -113.90473617650241 0 -113.90473617650241 -607.37974734869022 0 0 0 0 -38.527035235889798 -112.10759129269172 0 -112.10759129269172 -636.07565333153082 0 0 0 0 -6.8740475575326387 -3.0246380381194342 0 -3.0246380381194342 -0.57590495921527918 0 0 0 0 -103.48214218967951 -166.82104597441958 0 -166.82104597441958 25.750549306641915 0 0 0 0 -2.5520103032684816 -1.2614005137138804 0 -1.2614005137138804 -0.53824611927558497 0 0 0 0 71.374059682962809 -123.19972942805589 0 -123.19972942805589 -482.92967622065407 0 0 0 0 62.225950858266742 -163.94904492435876 0 -163.94904492435876 -554.92852278783175 0 0 0 0 -76.982182469690315 -100.62331943871231 0 -100.62331943871231 -272.52749208126261 0 0 0 0 -7.9563068951973088 -3.2827520569989375 0 -3.2827520569989375 -0.77884740222570059 0 0 0 0 -195.701752569566 -253.41156517337004 0 -253.41156517337004 -570.83896931788922 0 0 0 0 -18.108274945341179 -186.63709387359313 0 -186.63709387359313 -656.02215173170407 0 0 0 0 -446.77052352101464 -198.05754149359745 0 -198.05754149359745 -623.47324282769205 0 0 0 0 1.4994298598817295 -212.62297007084817 0 -212.62297007084817 -988.17067261743796 0 0 0 0 -10.907779972298897 -235.73892851836831 0 -235.73892851836831 -677.05021810434846 0 0 0 0 -98.249191617860106 -333.07346084136043 0 -333.07346084136043 -391.00271567324307 0 0 0 0 7.7134649218146478 -384.72437745310071 0 -384.72437745310071 -730.48461391255114 0 0 0 0 -213.64584865614961 -605.78401981850766 0 -605.78401981850766 -846.95225989362007 0 0 0 0 -604.43629580515335 -271.80498895130586 0 -271.80498895130586 -42.830762580684677 0 0 0 0 7.273345674844677 26.868302585902711 0 26.868302585902711 -100.01374198678286 0 0 0 0 -294.4682700825847 -174.95305524104879 0 -174.95305524104879 -27.048143099367735 0 0 0 0 -113.43139428889981 -252.55543594062237 0 -252.55543594062237 -413.12708606091473 0 0 0 0 -84.798311932318711 -122.53019246158055 0 -122.53019246158055 -148.95854856787264 0 0 0 0 -35.385333156663762 -16.277332437735197 0 -16.277332437735197 -4.7186289768064533 0 0 0 0 -126.48026384428044 -130.48504798489284 0 -130.48504798489284 -130.47872828150503 0 0 0 0 -41.084520880973287 -30.015511189263634 0 -30.015511189263634 -1.208140820317567 0 0 0 0 -16.331803270065379 -10.0933312532011 0 -10.0933312532011 -1.0555396696059702 0 0 0 0 1.0644613697722889 39.857572358638208 0 39.857572358638208 -29.324643923172658 0 0 0 0 -27.434266978507367 -15.085098708492296 0 -15.085098708492296 -13.529366034963459 0 0 0 0 -10.172992731259395 -2.5247216399599495 0 -2.5247216399599495 -1.8320180815563987 0 0 0 0 -30.22080720213998 -13.530288453294567 0 -13.530288453294567 -4.5286172379957073 0 0 0 0 29.973128347948659 -18.460963701138098 0 -18.460963701138098 -36.270061715687916 0 0 0 0 -37.392673205878864 -16.173437328364301 0 -16.173437328364301 -6.5291956727140885 0 0 0 0 -79.389383465500941 -11.291023292629689 0 -11.291023292629689 43.083670077317947 0 0 0 0 20.426322379786143 -261.55203031050041 0 -261.55203031050041 188.50736920977579 0 0 0 0 -0.80576316584392771 -21.189904964176094 0 -21.189904964176094 -44.326813107880298 0 0 0 0 21.450018447250386 -134.44596451230427 0 -134.44596451230427 -570.05446631088489 0 0 0 0 42.260092645251916 -152.33623316386183 0 -152.33623316386183 -630.53380416951404 0 0 0 0 22.617579300603211 -146.57503448535863 0 -146.57503448535863 -627.66565438453108 0 0 0 0 50.071842246603751 -250.45037267804537 0 -250.45037267804537 -756.51945635413358 0 0 0 0 48.734448683100709 -283.9933302486279 0 -283.9933302486279 -531.16391082066093 0 0 0 0 0.89416593099304009 -285.98060680508752 0 -285.98060680508752 -586.43919369207788 0 0 0 0 9.1964845482766577 -386.07713560967022 0 -386.07713560967022 -633.57576360675102 0 0 0 0 20.167564873733454 -224.34324080477518 0 -224.34324080477518 -436.39441315694057 0 0 0 0 17.113067255329497 -290.36213854073321 0 -290.36213854073321 -656.79589840704102 0 0 0 0 -182.27433777030467 -429.82555420558367 0 -429.82555420558367 -308.50867654758622 0 0 0 0 -167.95131321083772 -187.59117643227364 0 -187.59117643227364 -24.785511393107299 0 0 0 0 -74.641448847086622 -219.69971327399503 0 -219.69971327399503 -1112.4293733710729 0 0 0 0 -319.60831007888419 -686.83425825519953 0 -686.83425825519953 -1586.8067252542432 0 0 0 0 -19.627334883403819 -468.81456123550379 0 -468.81456123550379 -832.79453371488125 0 0 0 0 -22.979003526413383 -11.056745120382331 0 -11.056745120382331 -6.3374664804178238 0 0 0 0 32.62932650857465 -49.846241939247193 0 -49.846241939247193 -1211.2815095804217 0 0 0 0 57.495925040892416 -40.557811809257146 0 -40.557811809257146 -1210.8792194344096 0 0 0 0 -152.88744621956357 308.39163762757016 0 308.39163762757016 -1780.9841934193028 0 0 0 0 131.68518692576345 -1.2474949592442499 0 -1.2474949592442499 68.738247226036037 0 0 0 0 -20.307231581304677 -303.54150834618713 0 -303.54150834618713 367.64466072987125 0 0 0 0 -20.882981436436804 -5.7725148763968193 0 -5.7725148763968193 0.17147112643881712 0 0 0 0 -68.200328223345423 1.7899015089060413 0 1.7899015089060413 54.195466885896167 0 0 0 0 115.9637030119884 -0.55450010324420873 0 -0.55450010324420873 -22.380769271352619 0 0 0 0 -354.5446157463075 -373.07491193234819 0 -373.07491193234819 107.64206977561435 0 0 0 0 -1356.9961788946771 -780.36444580957686 0 -780.36444580957686 164.69640062591498 0 0 0 0 -411.07191097132909 -219.40610822701638 0 -219.40610822701638 6.2625272084260359 0 0 0 0 17.203141457715901 -44.980022298221229 0 -44.980022298221229 -3043.886698346545 0 0 0 0 -674.63160997152499 -54.161247311640182 0 -54.161247311640182 633.65816648689361 0 0 0 0 -15.393650374644679 -1.9683608968904522 0 -1.9683608968904522 -1.1346342210934388 0 0 0 0 -233.4645579797766 -703.44186741486556 0 -703.44186741486556 -2643.5175819909346 0 0 0 0 -102.71155883282267 -968.3114070732172 0 -968.3114070732172 -1199.669936111859 0 0 0 0 -392.01455559912279 518.37879593144862 0 518.37879593144862 -826.76086411529104 0 0 0 0 -1499.5272195490088 -573.17812458257868 0 -573.17812458257868 -752.66892049855596 0 0 0 0 -262.80088118829622 277.66130922289994 0 277.66130922289994 -536.64001732642328 0 0 0 0 -285.84766873292733 -661.92491747943677 0 -661.92491747943677 -558.31889635088191 0 0 0 0 -373.95747005867156 141.73613798981751 0 141.73613798981751 -189.2917904024107 0 0 0 0 5.1260394084307146 2.8112414690162524 0 2.8112414690162524 1.0983636967463895 0 0 0 0 -99.026902717343546 -274.67873188836165 0 -274.67873188836165 323.80721686320976 0 0 0 0 -319.7438590655388 518.34172678657524 0 518.34172678657524 -256.04236680802751 0 0 0 0 149.22210764778742 209.88962425171121 0 209.88962425171121 -308.81379192734857 0 0 0 0 342.7508854350931 67.375382169740988 0 67.375382169740988 -153.25002378452336 0 0 0 0 312.00651684544573 -64.712199889139811 0 -64.712199889139811 -216.10155822058368 0 0 0 0 262.90910198610982 -8.3175667932737269 0 -8.3175667932737269 -164.05144631168514 0 0 0 0 -56.445116259666975 -184.15103395684673 0 -184.15103395684673 -192.57692837699142 0 0 0 0 -51.149171347097763 -180.22223543541077 0 -180.22223543541077 -262.21083230834552 0 0 0 0 317.60514051373065 -139.29687226392559 0 -139.29687226392559 -350.22292956406454 0 0 0 0 108.29416423522662 76.900413105910047 0 76.900413105910047 -212.14846014732211 0 0 0 0 -120.90057752815164 -135.83329544068056 0 -135.83329544068056 -215.4995809286047 0 0 0 0 81.897413869102664 162.62923203591714 0 162.62923203591714 -232.73643174234894 0 0 0 0 160.41528980395151 106.10232132152851 0 106.10232132152851 -324.50831468840715 0 0 0 0 176.03995232224889 189.7118856350819 0 189.7118856350819 108.97214848038129 0 0 0 0 759.52660491456277 294.32071578143859 0 294.32071578143859 -262.1042840662285 0 0 0 0 -1.9315046794894875 7.3632707947295541 0 7.3632707947295541 -7.0588068425282984 0 0 0 0 -70.414759760024936 53.280393333643588 0 53.280393333643588 -40.362283325790486 0 0 0 0 -77.961059523606309 9.8175549290044728 0 9.8175549290044728 -48.925604991673026 0 0 0 0 -411.03988604344181 96.615809681497467 0 96.615809681497467 2.1113426880037878 0 0 0 0 -0.53702518252180309 2.6396737955186236 0 2.6396737955186236 -3.5742363208236867 0 0 0 0 407.46168849493438 -151.7267239635521 0 -151.7267239635521 -69.244990552353556 0 0 0 0 762.35645896893175 29.293570167141297 0 29.293570167141297 -283.6348896678137 0 0 0 0 64.579388711676529 18.860865819864557 0 18.860865819864557 -49.076991714657197 0 0 0 0 -80.228031352109156 56.608541843224884 0 56.608541843224884 -28.06162135221166 0 0 0 0 25.069690398942839 62.991744098584604 0 62.991744098584604 -83.681634144742929 0 0 0 0 -68.634224586861819 44.17677572402863 0 44.17677572402863 -1.2439723224088084 0 0 0 0 12.170037611699627 44.602787002870173 0 44.602787002870173 -37.666256921776949 0 0 0 0 6.0610671854601605 66.991324224734853 0 66.991324224734853 -25.44160019193896 0 0 0 0 52.875916394862543 53.008432748614723 0 53.008432748614723 -28.014310228129034 0 0 0 0 48.284896211173873 46.995019732045876 0 46.995019732045876 33.308152267083642 0 0 0 0 137.81461386436422 -34.725252861238914 0 -34.725252861238914 158.37618156773806 0 0 0 0 -19.681379599271565 18.227659867171443 0 18.227659867171443 0.28281564152293015 0 0 0 0 61.554463661658247 46.696146414584291 0 46.696146414584291 -20.746974241923454 0 0 0 0 309.63558704033903 168.76298089508055 0 168.76298089508055 -90.172157520035398 0 0 0 0 43.371221478906818 80.757771939315717 0 80.757771939315717 -108.34919906187861 0 0 0 0 276.20425800448129 677.0015902417781 0 677.0015902417781 16.110001210254268 0 0 0 0 -50.106535324115612 242.70293668885643 0 242.70293668885643 -609.33649455653358 0 0 0 0 383.03168153564229 454.15743141826078 0 454.15743141826078 -126.1566715430381 0 0 0 0 7.2631205790286302 19.141127282531905 0 19.141127282531905 -75.288914647036123 0 0 0 0 -219.97465822570302 38.318940741155529 0 38.318940741155529 -10.957248239064938 0 0 0 0 -159.59347214055492 567.44785556400939 0 567.44785556400939 -48.556297077113413 0 0 0 0 -5.669410315465786 3.7537182376178961 0 3.7537182376178961 3.3757954632083553 0 0 0 0 -626.07201295510458 82.191734782049025 0 82.191734782049025 5.3465707207215019 0 0 0 0 4.9193823275292612 2.281698435516148 0 2.281698435516148 -1.4629063416923174 0 0 0 0 -515.51118101204315 546.48130420292637 0 546.48130420292637 -46.9766474958451 0 0 0 0 46.36492945248574 176.10724119475708 0 176.10724119475708 -639.00677333265048 0 0 0 0 37.560950403997026 148.67687316238948 0 148.67687316238948 352.25088781448721 0 0 0 0 25.613702370376966 10.820180124541174 0 10.820180124541174 -0.055323536890284686 0 0 0 0 63.090012340945123 20.420819763443433 0 20.420819763443433 -6.146237717758595 0 0 0 0 -56.898066656927824 211.68982382398599 0 211.68982382398599 -462.95751530509006 0 0 0 0 -40.034609120116329 -7.5497546531187254 0 -7.5497546531187254 -396.25078968411617 0 0 0 0 -321.60763916025007 28.097566125819867 0 28.097566125819867 -127.80644704816223 0 0 0 0 136.299686146358 73.698062077204668 0 73.698062077204668 -228.03375750125997 0 0 0 0 166.04572293487672 -18.689855936787353 0 -18.689855936787353 -179.7978464262269 0 0 0 0 -31.438891301798321 -75.467911824658586 0 -75.467911824658586 -84.820159587008675 0 0 0 0 -116.23999318908318 -95.970190585738237 0 -95.970190585738237 -151.95318759633483 0 0 0 0 -46.794662554478236 41.162951304093895 0 41.162951304093895 -283.18684852853039 0 0 0 0 -124.61090120554672 -153.8265692082623 0 -153.8265692082623 -399.73481898275168 0 0 0 0 -25.629088822673111 -43.257799123470249 0 -43.257799123470249 -317.22546285838871 0 0 0 0 18.218393044590751 5.9809905744838616 0 5.9809905744838616 0.20736787723694761 0 0 0 0 91.146033304497621 -91.568831643255635 0 -91.568831643255635 2.2462579876992095 0 0 0 0 184.92406311547529 486.49294090125113 0 486.49294090125113 -710.724835203775 0 0 0 0 -141.02874143114013 112.4714914027536 0 112.4714914027536 -266.56385169280111 0 0 0 0 1489.1540546649553 260.65406162390173 0 260.65406162390173 -439.2003470790678 0 0 0 0 -415.15319390269053 -223.40733069104999 0 -223.40733069104999 -92.856159353563271 0 0 0 0 2.0346437449496806 -4.6567119264575574 0 -4.6567119264575574 1.5866752992794204 0 0 0 0 253.30064658204674 -214.29112985442407 0 -214.29112985442407 -36.111591790348484 0 0 0 0 183.6916926172587 679.68453099572616 0 679.68453099572616 -141.36882398539092 0 0 0 0 268.63392752099253 -264.56583428675822 0 -264.56583428675822 38.406810158827284 0 0 0 0 4.0203584489832096 -9.9939242560305956 0 -9.9939242560305956 12.835957707848806 0 0 0 0 1615.1522732763387 -25.891489234531036 0 -25.891489234531036 -613.94755528887254 0 0 0 0 -75.796632845255772 -63.617831998446491 0 -63.617831998446491 77.91382606649131 0 0 0 0 837.71523842240549 -209.15149224962806 0 -209.15149224962806 -70.422891795715259 0 0 0 0 4.0476224745558493 -26.501792819711998 0 -26.501792819711998 31.902285282095946 0 0 0 0 -345.24604635688115 -641.8942564989884 0 -641.8942564989884 121.90736131829181 0 0 0 0 246.42442314808886 -659.84987625815484 0 -659.84987625815484 -152.44110094512143 0 0 0 0 32.975504721118114 -40.464561423583291 0 -40.464561423583291 -59.599425792457623 0 0 0 0 -26.139433598357755 -36.743982697102183 0 -36.743982697102183 -3.2432961811864516 0 0 0 0 19.713334350291916 -168.9490432659386 0 -168.9490432659386 36.03832157405941 0 0 0 0 -0.1447257514488367 -27.649224104233234 0 -27.649224104233234 -40.892996985006988 0 0 0 0 -5.2798434635183185 -23.330269499030692 0 -23.330269499030692 24.946524635358742 0 0 0 0 -3.6562261221800902 -23.258564139442186 0 -23.258564139442186 -52.080592292354751 0 0 0 0 88.355839258028709 -230.23626645962167 0 -230.23626645962167 9.0435559990073671 0 0 0 0 23.880942766681983 -71.244879759389732 0 -71.244879759389732 -29.256207657570485 0 0 0 0 156.22604272390254 -65.139025768034116 0 -65.139025768034116 -84.202547638520628 0 0 0 0 -138.49626976109499 -121.11709484630887 0 -121.11709484630887 -7.0385178699689277 0 0 0 0 -257.4110714519411 -80.946440750336478 0 -80.946440750336478 0.39721539628453684 0 0 0 0 34.086489266847707 -79.809702715519506 0 -79.809702715519506 -212.33037636666268 0 0 0 0 25.229631858515575 -136.30924834414714 0 -136.30924834414714 -109.3143672330043 0 0 0 0 164.22494796824685 -106.24279046378069 0 -106.24279046378069 -72.909638769091998 0 0 0 0 1.9904550217105816 -12.061032856938809 0 -12.061032856938809 -22.355093902226798 0 0 0 0 2.8819951530717844 -13.498680503405922 0 -13.498680503405922 -49.920786432674504 0 0 0 0 4.607229707593441 -5.4455114427624949 0 -5.4455114427624949 -34.588091142892921 0 0 0 0 18.336221451027086 14.400530439481372 0 14.400530439481372 -34.48777343515394 0 0 0 0 39.177219551748102 9.0780304684769817 0 9.0780304684769817 -34.659832155797631 0 0 0 0 7.2243064177587843 5.6742629647937974 0 5.6742629647937974 -43.747918497645486 0 0 0 0 -8.5814507902668993 -71.366793844135827 0 -71.366793844135827 -44.39795734922518 0 0 0 0 -2.8028938780903072 -22.153087343409428 0 -22.153087343409428 -56.08057071650542 0 0 0 0 22.116622536660543 -30.551517140556825 0 -30.551517140556825 -7.6030628806838649 0 0 0 0 -0.6920161620176124 -2.3008905151901047 0 -2.3008905151901047 -9.2759998890021649 0 0 0 0 -25.075484005894396 -44.229885417816149 0 -44.229885417816149 -89.772202741878573 0 0 0 0 -31.847844821630133 -42.312873138860596 0 -42.312873138860596 -0.89864392943854909 0 0 0 0 25.351319225974066 -11.371885582269897 0 -11.371885582269897 -53.528475756611442 0 0 0 0 41.189046275199416 -46.909171469182184 0 -46.909171469182184 -54.793512011499843 0 0 0 0 -21.668752114058407 -37.586103940884641 0 -37.586103940884641 -64.149413657323748 0 0 0 0 -43.295068456289755 -15.093308467618044 0 -15.093308467618044 -61.909990997584828 0 0 0 0 -29.101021969153408 -28.655047988573642 0 -28.655047988573642 -54.581441998241644 0 0 0 0 164.49199991561454 69.337306351069856 0 69.337306351069856 3.1331630783242872 0 0 0 0 51.493745414438308 -253.1223750077188 0 -253.1223750077188 573.90541601774748 0 0 0 0 -81.79572368438312 -132.58302510922658 0 -132.58302510922658 623.02955948688032 0 0 0 0 -7.5296252359017428 2.9593692113781884 0 2.9593692113781884 17.612967976168548 0 0 0 0 -407.37341115849085 -388.63328731767979 0 -388.63328731767979 534.84878583908721 0 0 0 0 -11.190919630761538 -33.914852930967427 0 -33.914852930967427 -25.14107707169795 0 0 0 0 5.0930814059101976 -5.0887265579949599 0 -5.0887265579949599 -83.502610287308926 0 0 0 0 -16.234852058871184 -6.3616076459711621 0 -6.3616076459711621 -47.985443819503416 0 0 0 0 -58.48782695396163 -3.1135952048498439 0 -3.1135952048498439 -49.904194798669778 0 0 0 0 -0.047870871405897394 13.486205900553614 0 13.486205900553614 -11.797936947705239 0 0 0 0 -2.7380656392735196 -4.0228524019040535 0 -4.0228524019040535 -5.9950907483701599 0 0 0 0 5.0973401406274164 -32.393298511451576 0 -32.393298511451576 -31.533268142593442 0 0 0 0 -155.7523749931126 47.289335110004686 0 47.289335110004686 316.53619888392859 0 0 0 0 84.633710365275761 139.88935779772146 0 139.88935779772146 25.562384055680013 0 0 0 0 -3.1210546663738343 -2.4859891879627796 0 -2.4859891879627796 -6.7506124848085278 0 0 0 0 2.5626162403233943 -4.075025130728946 0 -4.075025130728946 -35.264396456265871 0 0 0 0 -41.394948033781702 -31.013942428704468 0 -31.013942428704468 -8.7232474023185205 0 0 0 0 -8.63904954991267 -10.963880946994323 0 -10.963880946994323 -23.414404809729604 0 0 0 0 4.7577090226350265 -13.625950317451498 0 -13.625950317451498 -23.989693126175553 0 0 0 0 -0.086444524711523307 -4.1015867385117275 0 -4.1015867385117275 -28.077264333100317 0 0 0 0 6.2929047657762567 -12.466197326313704 0 -12.466197326313704 -23.823011808293813 0 0 0 0 -16.542395701247251 -44.937436136810241 0 -44.937436136810241 -38.057032781866383 0 0 0 0 -5.1894412881724916 -13.440599649185444 0 -13.440599649185444 -18.697201433867122 0 0 0 0 7.1182455840298644 -11.753710297984071 0 -11.753710297984071 -23.333322480282732 0 0 0 0 5.9959615477661146 -12.660979320964543 0 -12.660979320964543 -23.276676243578549 0 0 0 0 -5.3731775851224128 -15.924174506128516 0 -15.924174506128516 -21.252144038212407 0 0 0 0 -10.091720295754257 -23.337736710090113 0 -23.337736710090113 -17.00850370372477 0 0 0 0 -1.1175240560460225 -7.0017491072649136 0 -7.0017491072649136 -8.2073281782795675 0 0 0 0 -7.7320242865612663 -11.301256213622153 0 -11.301256213622153 -16.064507601420402 0 0 0 0 0.23117893001565992 -5.681152931412413 0 -5.681152931412413 -19.574553463418368 0 0 0 0 -0.0032414848981254761 -2.2228043247523601 0 -2.2228043247523601 -10.547674853558419 0 0 0 0 -4.5077944653071427 -7.9403448955563363 0 -7.9403448955563363 -20.21643942186347 0 0 0 0 1.0087534317004876 -4.677064909039899 0 -4.677064909039899 -21.062583241200286 0 0 0 0 -1.7815885690044455 -8.1587338394794102 0 -8.1587338394794102 -13.91828398722248 0 0 0 0 3.1660859159434835 -5.7531060967376106 0 -5.7531060967376106 -18.894873251469107 0 0 0 0 4.2787641295253138 -4.9707847639510874 0 -4.9707847639510874 -18.52298304651049 0 0 0 0 0.10524089839612571 -3.4603386737214095 0 -3.4603386737214095 -18.158392794168762 0 0 0 0 -13.034128577422486 -8.4244273040094413 0 -8.4244273040094413 -14.554748784416006 0 0 0 0 13.164083037935654 -10.170371817876003 0 -10.170371817876003 -28.465124643931631 0 0 0 0 -0.88233785209078419 -1.7737814754211456 0 -1.7737814754211456 -2.126832975967119 0 0 0 0 -18.939370958873845 -34.324728053907165 0 -34.324728053907165 -21.405743162351428 0 0 0 0 0.986956387522824 0.40429173680561803 0 0.40429173680561803 -5.8740118002309174 0 0 0 0 -83.57501624736642 -53.087018294580048 0 -53.087018294580048 -49.124455109062183 0 0 0 0 6.3523233763548008 10.091603918328474 0 10.091603918328474 -46.61214824183844 0 0 0 0 -0.8114187133300117 -6.3773902997846221 0 -6.3773902997846221 -9.768280146036787 0 0 0 0 -2.3205412112006343 32.012935839960846 0 32.012935839960846 -19.136119769653305 0 0 0 0 -1.4015204741306206 -4.0946477575198514 0 -4.0946477575198514 -11.073110277407977 0 0 0 0 1.1227230630628635 3.8349724070723283 0 3.8349724070723283 -8.1974437899205697 0 0 0 0 -0.43932949422124068 25.362836082313152 0 25.362836082313152 -2.8867737927357666 0 0 0 0 -0.044543524722972849 -2.2519641229860667 0 -2.2519641229860667 -12.070600053366832 0 0 0 0 19.249600338054165 18.18127441105753 0 18.18127441105753 -17.181160237625591 0 0 0 0 2.5272154650510856 -8.6304940894951869 0 -8.6304940894951869 -36.74451488788327 0 0 0 0 -8.6244871587478613 -11.505013625645006 0 -11.505013625645006 -25.345075084507698 0 0 0 0 -6.7952120543650025 -8.8279366881046286 0 -8.8279366881046286 -26.421176059020894 0 0 0 0 -4.2782500263747352 -6.8520715288323117 0 -6.8520715288323117 -23.059630755509716 0 0 0 0 -1.0932723094001577 -6.3250580683472322 0 -6.3250580683472322 -32.28222861667917 0 0 0 0 22.98139462283968 22.299835204768897 0 22.299835204768897 -42.586525006889133 0 0 0 0 4.3615781402709217 5.4347098681391799 0 5.4347098681391799 -12.286990177042753 0 0 0 0 1.852624349526925 2.928861122033787 0 2.928861122033787 -21.873797476192294 0 0 0 0 2.0290250265568881 5.9323376731859305 0 5.9323376731859305 -9.5082936859632525 0 0 0 0 28.429835325760745 5.5913695039816957 0 5.5913695039816957 -40.324125500177615 0 0 0 0 32.586131690136185 8.0370631561454502 0 8.0370631561454502 -40.741873757932808 0 0 0 0 54.0232532518271 21.916566441381292 0 21.916566441381292 -13.615965458913706 0 0 0 0 3.5992984155050545 -0.94752952124882484 0 -0.94752952124882484 -24.044217812086089 0 0 0 0 7.9243896465887147 2.8019776848412192 0 2.8019776848412192 -35.920136835568655 0 0 0 0 39.175083507843965 9.6262578820460476 0 9.6262578820460476 -23.130611170345219 0 0 0 0 2.21841038786846 -12.116245807384018 0 -12.116245807384018 -27.002785245703336 0 0 0 0 31.626099694635055 16.334797874020296 0 16.334797874020296 -77.58448143908754 0 0 0 0 7.7790183170479903 37.601140035076241 0 37.601140035076241 -48.836246015955112 0 0 0 0 47.333102171145114 22.759103916452659 0 22.759103916452659 -55.321729590708856 0 0 0 0 0.06618292201491259 4.1725051074063231 0 4.1725051074063231 -46.157453802828968 0 0 0 0 -0.20569187297298483 31.999373501963419 0 31.999373501963419 -57.107098274735108 0 0 0 0 -5.4826374300537566 23.458788091287715 0 23.458788091287715 -32.508931590640714 0 0 0 0 15.327229705139587 62.910358996174182 0 62.910358996174182 -50.506898067978909 0 0 0 0 52.769969723414192 -19.739944465864937 0 -19.739944465864937 -46.812838138634106 0 0 0 0 0.61114046384370091 5.5200088963060949 0 5.5200088963060949 -9.0244895148943272 0 0 0 0 4.2551498217402468 -1.464807596643368 0 -1.464807596643368 -8.9846696111126221 0 0 0 0 43.108566287552435 25.935180693522852 0 25.935180693522852 -24.288937303674174 0 0 0 0 18.445659487593943 35.637231607510316 0 35.637231607510316 -80.137031117158216 0 0 0 0 6.5253212690208162 1.4487921857597712 0 1.4487921857597712 -58.902867296311967 0 0 0 0 18.016351311188146 1.2677928727134713 0 1.2677928727134713 -51.394114608028758 0 0 0 0 7.2562589241144826 0.68139868804976089 0 0.68139868804976089 -33.379851192657696 0 0 0 0 37.135465121025845 7.6232420855230885 0 7.6232420855230885 -82.116324873320991 0 0 0 0 0.67290374367660777 3.5175215192693301 0 3.5175215192693301 -7.0022887973976253 0 0 0 0 0.46097698400906617 5.9661564060892545 0 5.9661564060892545 -49.745828532794292 0 0 0 0 253.40801875320813 -18.224718001227302 0 -18.224718001227302 -107.66747199083147 0 0 0 0 184.47301445091762 -63.44092951978655 0 -63.44092951978655 -78.407618270641251 0 0 0 0 578.06034261340574 157.41839853341116 0 157.41839853341116 -129.19127557858246 0 0 0 0 6.8389298396958793 10.053117143273006 0 10.053117143273006 -40.294543917993252 0 0 0 0 63.415028804145038 52.524310721739312 0 52.524310721739312 5.2098097365451395 0 0 0 0 271.76994592423125 -216.02218039636045 0 -216.02218039636045 -156.55812907713698 0 0 0 0 2.3293740280714799 4.0868610059671653 0 4.0868610059671653 -45.232248537483301 0 0 0 0 -0.47480218439932287 20.274613907575258 0 20.274613907575258 2.6281056358639034 0 0 0 0 22.479780305912527 31.463890106017061 0 31.463890106017061 -204.49792774324305 0 0 0 0 -40.29136584459647 -61.061619534903002 0 -61.061619534903002 306.16982726100832 0 0 0 0 123.48870400542535 75.523286761563213 0 75.523286761563213 -548.66819831103203 0 0 0 0 84.373336137074546 49.042819381973459 0 49.042819381973459 -85.18685910248314 0 0 0 0 49.548259434147305 -10.228971813032331 0 -10.228971813032331 -100.75470827879326 0 0 0 0 -0.29500389190064419 0.60792621781253331 0 0.60792621781253331 -2.449618844956035 0 0 0 0 1.9387246901370916 6.5439037474665795 0 6.5439037474665795 -52.789301846332307 0 0 0 0 74.42515927099987 -209.82562026150117 0 -209.82562026150117 -568.37773375665711 0 0 0 0 -90.282531071439053 113.58033455714758 0 113.58033455714758 22.341741788433865 0 0 0 0 92.668295193344875 64.564340229160734 0 64.564340229160734 -94.69458776646934 0 0 0 0 19.331313155150497 -74.358208428780927 0 -74.358208428780927 101.31088763350272 0 0 0 0 22.740238802308454 -80.911854027279333 0 -80.911854027279333 -99.854099240925279 0 0 0 0 -23.262847283124728 -23.079934971656257 0 -23.079934971656257 -26.99763815618644 0 0 0 0 3.190671967016101 -68.670804580428012 0 -68.670804580428012 -152.83268173853867 0 0 0 0 -0.25738323895936754 1.0845378025758379 0 1.0845378025758379 -0.43992845366945232 0 0 0 0 0.15618648928002543 0.35577091434164743 0 0.35577091434164743 -0.77728865802851033 0 0 0 0 0.063496068057660351 37.420238345664984 0 37.420238345664984 43.32462398851203 0 0 0 0 36.926757764970581 19.389342144986585 0 19.389342144986585 -157.33788027618721 0 0 0 0 -37.668644953412439 -96.913623963413556 0 -96.913623963413556 -201.69541030911205 0 0 0 0 14.230445416561906 2.1761396321016946 0 2.1761396321016946 -91.185049790445191 0 0 0 0 -4.6697214179128821 -3.1078585669080567 0 -3.1078585669080567 -8.1763515821106694 0 0 0 0 -57.985879293807102 -50.020285906070058 0 -50.020285906070058 71.208810653857654 0 0 0 0 -0.038368612031275458 -11.405187286796718 0 -11.405187286796718 -61.549086326580436 0 0 0 0 -8.6198396310781327 -15.867396793790249 0 -15.867396793790249 -52.216891055373708 0 0 0 0 -0.076204662104449233 0.066500393169675931 0 0.066500393169675931 0.40124077015374837 0 0 0 0 -0.015561910777772157 -39.815659011979733 0 -39.815659011979733 75.132320641998376 0 0 0 0 -81.737836289507754 90.906964705238352 0 90.906964705238352 -54.922718041980261 0 0 0 0 1.8896441424923187 2.193250553867756 0 2.193250553867756 -3.3382262194946009 0 0 0 0 -84.878430627094531 84.713368643184367 0 84.713368643184367 416.12996954303526 0 0 0 0 -527.61182648973784 238.63913815552223 0 238.63913815552223 530.36156774100346 0 0 0 0 74.337520592825513 -7.4912998173331289 0 -7.4912998173331289 -95.364009593686205 0 0 0 0 78.892676108680035 -307.01371521303372 0 -307.01371521303372 335.02605281076285 0 0 0 0 55.780383416595214 -15.642344249747111 0 -15.642344249747111 -94.664979995737667 0 0 0 0 -4.9768078028453804 -27.451569247651264 0 -27.451569247651264 -81.127242655244572 0 0 0 0 -3.8314712272909333 -93.063617005962442 0 -93.063617005962442 58.880449772979773 0 0 0 0 -32.18108291672138 -37.573842920039169 0 -37.573842920039169 -26.93030090200773 0 0 0 0 -23.757140098299544 -47.224744001300579 0 -47.224744001300579 -22.980816644731846 0 0 0 0 -17.402898630258278 -40.289919713053678 0 -40.289919713053678 -149.28286708515952 0 0 0 0 -39.533954920527776 -80.775653063867139 0 -80.775653063867139 -134.64773097534635 0 0 0 0 -33.482669101886131 -74.795887404237874 0 -74.795887404237874 -158.14391488893307 0 0 0 0 -4.3329727252136685 -1.55044789180495 0 -1.55044789180495 -12.932117950938363 0 0 0 0 5.9585220866572932 -0.70797543679667285 0 -0.70797543679667285 -14.48348549981449 0 0 0 0 -39.611447693555874 -33.686057648203132 0 -33.686057648203132 -68.587364290680853 0 0 0 0 35.266312878360623 7.5680930856324267 0 7.5680930856324267 -156.10342289121763 0 0 0 0 -9.1420740664882363 -16.363226762346535 0 -16.363226762346535 8.4287030959684728 0 0 0 0 -57.851487560543319 -56.461351557605667 0 -56.461351557605667 -140.94338555809554 0 0 0 0 -13.096023892816902 -20.432899717487089 0 -20.432899717487089 -164.45125074667885 0 0 0 0 2.7465695330492963 -52.580213680002998 0 -52.580213680002998 -136.78586158095641 0 0 0 0 10.924816714219261 20.246257942422062 0 20.246257942422062 -21.440078207892604 0 0 0 0 74.901555772927622 6.6525803877157159 0 6.6525803877157159 -240.58545019686062 0 0 0 0 -23.501532924403364 -23.726035842068086 0 -23.726035842068086 -81.384982375671825 0 0 0 0 12.990824780820617 -5.9756558315857546 0 -5.9756558315857546 -49.26658640189271 0 0 0 0 15.634861774124499 0.48162991254261556 0 0.48162991254261556 -43.86058183114821 0 0 0 0 6.9889702694962708 -5.8854806037320628 0 -5.8854806037320628 -6.3029569100117158 0 0 0 0 81.878715333064065 78.295091878004314 0 78.295091878004314 -137.33126093987812 0 0 0 0 27.767225949833573 -18.823536528463592 0 -18.823536528463592 -69.25513532361947 0 0 0 0 22.209192259983624 -6.991837200485179 0 -6.991837200485179 -14.443914768319871 0 0 0 0 23.448656230940287 -14.337830338568892 0 -14.337830338568892 -54.643208581124782 0 0 0 0 9.6157131504820654 -11.488562123482552 0 -11.488562123482552 -58.01219308594591 0 0 0 0 35.047030306493298 9.8384349470870802 0 9.8384349470870802 -44.121393800589431 0 0 0 0 -32.240466087912296 -34.96090751743759 0 -34.96090751743759 -62.089160427989555 0 0 0 0 -1.9710806091840456 -5.4764593765659413 0 -5.4764593765659413 -14.444273597847115 0 0 0 0 3.8349797834495143 -30.533279415644543 0 -30.533279415644543 -72.903945601769593 0 0 0 0 9.8356289041552145 -18.977475955913178 0 -18.977475955913178 -54.573130689481332 0 0 0 0 -4.9829791347538048 -9.8162257560179569 0 -9.8162257560179569 -60.030771697005548 0 0 0 0 -4.7703983176034344 -23.166333197017408 0 -23.166333197017408 -6.5053944528598038 0 0 0 0 1.4290640324694586 -1.7760747639583201 0 -1.7760747639583201 -26.376173901526116 0 0 0 0 0.12678226539652335 30.857685713664601 0 30.857685713664601 -81.285799270524876 0 0 0 0 9.235873641943396 12.0769000038214 0 12.0769000038214 -38.755627413528316 0 0 0 0 -8.9974232751398304 23.243580737583542 0 23.243580737583542 -40.756049267232697 0 0 0 0 -3.5554198675421986 -4.3629655207769247 0 -4.3629655207769247 37.890138628365094 0 0 0 0 -3.6287522566674801 97.203282233990578 0 97.203282233990578 -118.36393888152088 0 0 0 0 0.22299599800918812 48.782940751181741 0 48.782940751181741 -158.50867492506222 0 0 0 0 6.062223078652675 -45.213230563826073 0 -45.213230563826073 -373.1585213777289 0 0 0 0 -39.464398063865531 -243.43443545640912 0 -243.43443545640912 -395.72405967647319 0 0 0 0 -67.025219179123596 16.172203728805471 0 16.172203728805471 -46.346262871447834 0 0 0 0 -8.1714239982979127 15.670772490412709 0 15.670772490412709 -28.976831675620161 0 0 0 0 246.27935968898419 192.89698365938239 0 192.89698365938239 -102.75391727336682 0 0 0 0 -120.52517797731457 -177.44871776158834 0 -177.44871776158834 -203.3447895583231 0 0 0 0 18.226985994770985 -34.217389562461904 0 -34.217389562461904 69.456190776851145 0 0 0 0 -59.60553826976377 -138.86382757325555 0 -138.86382757325555 -678.41843212574895 0 0 0 0 20.306217417254118 -243.0404332412927 0 -243.0404332412927 -669.82577640585077 0 0 0 0 -375.98150772853586 -849.29125763072807 0 -849.29125763072807 -1548.127097009017 0 0 0 0 -1.0301117398966855 34.12273137081138 0 34.12273137081138 -812.42903426171688 0 0 0 0 121.77620642427767 -305.95889917566456 0 -305.95889917566456 -1427.4348649770982 0 0 0 0 1.6067771862761615 59.005925116762789 0 59.005925116762789 -426.94468385263463 0 0 0 0 139.60608333610713 -430.13373223256713 0 -430.13373223256713 -1396.904779292151 0 0 0 0 0.33750074051349799 0.68197016154196888 0 0.68197016154196888 -3.5659408598678795 0 0 0 0 0.047068733341665191 -0.074156041817616369 0 -0.074156041817616369 -0.47243989193782454 0 0 0 0 114.22459041385036 15.436262373099453 0 15.436262373099453 -1561.5730933058076 0 0 0 0 94.1372724668513 -320.91954294283642 0 -320.91954294283642 -724.73800294433022 0 0 0 0 -243.53131290916409 350.83636732510058 0 350.83636732510058 -89.487224060416338 0 0 0 0 -76.304437910278722 44.952089950442314 0 44.952089950442314 -88.119991956336889 0 0 0 0 -46.698365302740548 -135.96330391307401 0 -135.96330391307401 168.31781732445234 0 0 0 0 0.020477666855397571 5.00661174136056 0 5.00661174136056 0.61107299174182117 0 0 0 0 10.764050366552922 2.1686501886724727 0 2.1686501886724727 -1.0885044637543615 0 0 0 0 -0.48480337117866246 0.27621468388589676 0 0.27621468388589676 -1.4376406469202152 0 0 0 0 218.54248889617929 159.02466751103202 0 159.02466751103202 -162.15646723675673 0 0 0 0 -416.39015683778649 -572.95023092663223 0 -572.95023092663223 -914.1651731578022 0 0 0 0 -537.30616672627866 437.27456038482342 0 437.27456038482342 -972.63929256054689 0 0 0 0 -230.16382398752847 -241.52805269429518 0 -241.52805269429518 -190.02898508697763 0 0 0 0 -397.01767047754424 -1161.1507458054039 0 -1161.1507458054039 -2165.5660854484413 0 0 0 0 40.371487148421963 -371.35873353250099 0 -371.35873353250099 -2458.1284670141613 0 0 0 0 492.68505793929626 -114.7352565631445 0 -114.7352565631445 -1875.9610206361685 0 0 0 0 127.55398209254895 529.09448483154665 0 529.09448483154665 -1503.3343477527524 0 0 0 0 66.314003939954659 599.84519562458809 0 599.84519562458809 -192.0367971434971 0 0 0 0 -3.846164109338206 5.6486120045973678 0 5.6486120045973678 -11.000000826679724 0 0 0 0 241.2239110730543 -271.22945853177953 0 -271.22945853177953 -178.73566949794508 0 0 0 0 -198.48687785818947 -215.95420408137215 0 -215.95420408137215 0.92150312633020803 0 0 0 0 -0.17156702060417617 5.5812798230636815 0 5.5812798230636815 2.5539568648858619 0 0 0 0 15.529121356557653 4.8579426086380408 0 4.8579426086380408 32.544177541392855 0 0 0 0 229.83903198716507 -163.64080227540398 0 -163.64080227540398 -627.39400542154908 0 0 0 0 -16.62248736858065 34.413680626050805 0 34.413680626050805 -18.13715308020344 0 0 0 0 34.524942105879745 -46.769320873660035 0 -46.769320873660035 -238.49480254437185 0 0 0 0 -61.397685625999657 -30.684543099569055 0 -30.684543099569055 -133.83440504017562 0 0 0 0 -358.83503591652152 -13.328521209929022 0 -13.328521209929022 778.67783381250774 0 0 0 0 -500.6477657269179 -1572.9828541309146 0 -1572.9828541309146 -769.3810856646669 0 0 0 0 631.72053689787572 -124.49271238008077 0 -124.49271238008077 -2689.7118343692782 0 0 0 0 220.07693642056347 24.014210377907148 0 24.014210377907148 -624.23080232045083 0 0 0 0 615.2234998608883 -232.56863111411803 0 -232.56863111411803 -1691.3522624161124 0 0 0 0 521.59136332719845 32.285579036179115 0 32.285579036179115 -1252.9554543359845 0 0 0 0 220.69847323181966 258.3181680912021 0 258.3181680912021 -804.16201724550774 0 0 0 0 465.93335729292812 312.80563114085089 0 312.80563114085089 -1655.5124117134837 0 0 0 0 -496.80626978195596 576.63885353798833 0 576.63885353798833 -810.9035216281336 0 0 0 0 257.94336230834142 336.47628183570123 0 336.47628183570123 -1179.9176162450894 0 0 0 0 150.8018085975873 834.32597432840703 0 834.32597432840703 -2256.7922536373699 0 0 0 0 233.3804621378913 296.07930107784341 0 296.07930107784341 -1169.8297095253347 0 0 0 0 -295.37829165730864 576.05816871927709 0 576.05816871927709 -272.53679265020764 0 0 0 0 38.790271020762702 222.89547631781898 0 222.89547631781898 -210.66841088517685 0 0 0 0 -113.98144743079683 -30.180661555885308 0 -30.180661555885308 113.51451612444362 0 0 0 0 560.62861335578054 -555.61066279271472 0 -555.61066279271472 372.30096348305233 0 0 0 0 22.443430436946976 -53.172298513356303 0 -53.172298513356303 -47.699534010381825 0 0 0 0 8.0018895941031012 -27.226925520345915 0 -27.226925520345915 -34.700449206327669 0 0 0 0 230.00757504735495 -375.30363297849289 0 -375.30363297849289 -603.85870050950325 0 0 0 0 -162.30578854944361 -230.21593768253661 0 -230.21593768253661 227.60572594908444 0 0 0 0 -15.106861023337842 -646.02048342094349 0 -646.02048342094349 -1068.5267140662436 0 0 0 0 -322.54267887914011 -1001.8279460808044 0 -1001.8279460808044 -176.8335357584001 0 0 0 0 -3.046737966980384 -2.0199523810761377 0 -2.0199523810761377 -0.053047988757668918 0 0 0 0 -94.287653484266229 -505.15725322968137 0 -505.15725322968137 392.99988379782008 0 0 0 0 -542.62533615780831 -811.91640079059107 0 -811.91640079059107 -1290.5224502212295 0 0 0 0 5.4380363907136609 -6.4646042665757122 0 -6.4646042665757122 -33.842614880514361 0 0 0 0 -970.80103911481865 -1296.3186675534025 0 -1296.3186675534025 -1560.8927766708075 0 0 0 0 45.32258799347801 -774.73193797693239 0 -774.73193797693239 -2816.6881881924201 0 0 0 0 37.306890733199907 -264.44443753734959 0 -264.44443753734959 -1064.7080897382184 0 0 0 0 80.871382650688247 -849.21784823673443 0 -849.21784823673443 -1627.3409943960251 0 0 0 0 47.524383817151183 -346.59337001969743 0 -346.59337001969743 -780.32730723042914 0 0 0 0 639.47776309992321 -177.0992540972311 0 -177.0992540972311 -1134.6375164459678 0 0 0 0 296.29237365766858 -556.4506922310502 0 -556.4506922310502 -814.84610541955044 0 0 0 0 -404.79665450309733 1625.0153862451521 0 1625.0153862451521 -1567.3857822926802 0 0 0 0 -780.15400607972151 1019.3556340278883 0 1019.3556340278883 814.78966153560759 0 0 0 0 -24.927721348282091 43.025885955785533 0 43.025885955785533 -23.319469191085517 0 0 0 0 -8.8819530238424704 68.957784477628593 0 68.957784477628593 -237.13798571341249 0 0 0 0 -18.95720299580239 -39.955522820660917 0 -39.955522820660917 -258.09883966048073 0 0 0 0 1.15160341696029 2.4671256112632989 0 2.4671256112632989 -1.9946777358908037 0 0 0 0 53.010803719880641 -11.12235557015083 0 -11.12235557015083 -410.10339152123197 0 0 0 0 22.716293368835068 168.7605637493798 0 168.7605637493798 80.03867609937879 0 0 0 0 74.944388654469321 107.79499501981991 0 107.79499501981991 -382.04044573680585 0 0 0 0 25.648279431247374 64.125857711908793 0 64.125857711908793 -100.83263198983332 0 0 0 0 61.61400266387318 168.20535550879868 0 168.20535550879868 -82.569054164909176 0 0 0 0 56.473513568602129 36.746529445284978 0 36.746529445284978 -138.0323396422682 0 0 0 0 61.804625976282011 116.26086015790133 0 116.26086015790133 -93.854609952984902 0 0 0 0 93.45335340525196 109.36153934540198 0 109.36153934540198 -3.4222804150922457 0 0 0 0 71.933585732958477 68.41548867695019 0 68.41548867695019 -30.169661145297141 0 0 0 0 68.559379100246289 18.107079154193571 0 18.107079154193571 -142.90238511987263 0 0 0 0 90.697834351966549 15.286712420253025 0 15.286712420253025 -168.8445766811783 0 0 0 0 0.64140849304254455 3.3382970977834674 0 3.3382970977834674 -2.8261726183890019 0 0 0 0 100.0869636004652 32.595476043563394 0 32.595476043563394 -160.18821049240432 0 0 0 0 -0.22551983430279599 3.9758929951831021 0 3.9758929951831021 -1.6437789876532847 0 0 0 0 -69.737701362968664 -15.31445469713799 0 -15.31445469713799 -75.044970353359531 0 0 0 0 15.865953181130863 -92.818589139962569 0 -92.818589139962569 -209.52969768878756 0 0 0 0 -58.842419818943654 -76.12432859774708 0 -76.12432859774708 -88.32743987806316 0 0 0 0 26.989044597606153 4.6165982986167364 0 4.6165982986167364 -90.028180964522903 0 0 0 0 12.036291847820848 -63.953877218264097 0 -63.953877218264097 -129.07268885972371 0 0 0 0 77.976880618580026 35.074061075159989 0 35.074061075159989 -124.55287051478081 0 0 0 0 73.921866923337575 -76.221635064786824 0 -76.221635064786824 14.962633523238765 0 0 0 0 222.8930364649587 48.778344245802145 0 48.778344245802145 -129.27489453396902 0 0 0 0 199.59608783441718 2.9327039064191922 0 2.9327039064191922 -190.81371018766367 0 0 0 0 120.34761648020867 102.19039808614252 0 102.19039808614252 -59.668392454434525 0 0 0 0 1.5782749542640673 3.0848760788665004 0 3.0848760788665004 1.1678397218258922 0 0 0 0 28.534887396182967 -4.6250984367325145 0 -4.6250984367325145 -78.17627976671065 0 0 0 0 33.894218761115539 36.448765326844523 0 36.448765326844523 -103.62612226677447 0 0 0 0 70.441180728203108 -31.891565466616157 0 -31.891565466616157 -51.754275985451386 0 0 0 0 54.272374472900992 9.1758606979656179 0 9.1758606979656179 -75.502640341263032 0 0 0 0 67.271682548654098 -12.003824672829069 0 -12.003824672829069 -132.8733299430678 0 0 0 0 120.14776907305976 -57.332450962072471 0 -57.332450962072471 -225.11405107089377 0 0 0 0 89.798295170511665 17.243281029812351 0 17.243281029812351 -98.090633248242739 0 0 0 0 59.673597738159287 -16.672968817150831 0 -16.672968817150831 -209.20031950689736 0 0 0 0 24.662676856391727 -93.211576663759843 0 -93.211576663759843 -242.4000781650102 0 0 0 0 36.579542015471361 63.311418968165526 0 63.311418968165526 -173.29437999152287 0 0 0 0 106.76047761715267 -83.003202470761607 0 -83.003202470761607 -116.78059624029993 0 0 0 0 -66.987461889478709 -39.670871363556216 0 -39.670871363556216 -308.87172537281731 0 0 0 0 -0.95226209828888386 27.113235696248012 0 27.113235696248012 -319.97462841496781 0 0 0 0 22.080947288554853 -52.891994663095829 0 -52.891994663095829 -346.23135131259187 0 0 0 0 -50.469075357296788 -129.51055345294662 0 -129.51055345294662 -362.6265709243462 0 0 0 0 -46.72819314669141 -99.803637023354895 0 -99.803637023354895 -432.55959880628143 0 0 0 0 -84.801913829909608 -184.55048378707579 0 -184.55048378707579 -560.25933527180314 0 0 0 0 -99.639467993087237 -67.147920858711586 0 -67.147920858711586 -423.67166471261589 0 0 0 0 -120.74687900797562 -61.204892805913914 0 -61.204892805913914 -658.8122612431107 0 0 0 0 -122.31211704866291 -128.96491347830306 0 -128.96491347830306 -524.15467392965365 0 0 0 0 -161.49987174382477 28.238402139591926 0 28.238402139591926 -364.51015378977536 0 0 0 0 -57.824025267897014 -43.178873195545748 0 -43.178873195545748 -530.20559328690138 0 0 0 0 -48.453442017560519 7.7655480967114272 0 7.7655480967114272 -452.29291604065656 0 0 0 0 -83.390127437844967 43.322826676869227 0 43.322826676869227 -201.66546524589648 0 0 0 0 -54.275393792191608 9.4092405785449955 0 9.4092405785449955 -362.10451497493887 0 0 0 0 -20.891935189325523 40.477467010184228 0 40.477467010184228 -222.72393571215798 0 0 0 0 -136.89997927962213 12.115751710409313 0 12.115751710409313 -219.70848451265192 0 0 0 0 -5.5735353762247541 77.615337814797385 0 77.615337814797385 -202.72037698535053 0 0 0 0 35.928898774656773 112.13644384411964 0 112.13644384411964 -158.46017512953838 0 0 0 0 -32.87407703642657 48.393920019614598 0 48.393920019614598 -157.71778947470011 0 0 0 0 -12.264803513903644 74.833288164296391 0 74.833288164296391 -291.2659515645646 0 0 0 0 23.73464933725154 100.7374369712561 0 100.7374369712561 -183.11421034681734 0 0 0 0 -8.3850677037953574 -9.728700224419299 0 -9.728700224419299 -223.28788382821222 0 0 0 0 38.929866194184797 159.96942019053677 0 159.96942019053677 -67.388181084206735 0 0 0 0 9.8084875466174708 140.73095731620924 0 140.73095731620924 -72.944475337491895 0 0 0 0 49.357532665052531 142.85697241753678 0 142.85697241753678 -93.323285378974106 0 0 0 0 0.3259891672332742 39.368064408627106 0 39.368064408627106 -116.64112773328088 0 0 0 0 64.392869800053631 102.36087524641698 0 102.36087524641698 -92.272250877722399 0 0 0 0 -23.104130355024608 105.44190098996478 0 105.44190098996478 -90.742268830668763 0 0 0 0 -9.9302964165935776 41.236894625469141 0 41.236894625469141 -24.443616675366123 0 0 0 0 252.28460336886624 128.67116976312536 0 128.67116976312536 -279.63134984792669 0 0 0 0 19.250129290187033 145.17939036888129 0 145.17939036888129 21.88471851277427 0 0 0 0 -50.511344602992722 -183.70504883762987 0 -183.70504883762987 -556.77582089637872 0 0 0 0 -38.598964485683155 -110.93764102542855 0 -110.93764102542855 -300.22995927282318 0 0 0 0 -34.276869822282606 -8.5255077622095996 0 -8.5255077622095996 -120.85376704857845 0 0 0 0 57.251354237872874 -384.46536586390357 0 -384.46536586390357 -243.18542626059934 0 0 0 0 -357.24684966831637 -560.4786332222684 0 -560.4786332222684 -197.46590593250585 0 0 0 0 -75.49880054850837 -109.98445119490498 0 -109.98445119490498 -72.811079794497346 0 0 0 0 15.792235982610691 -34.412593650547933 0 -34.412593650547933 -340.29042220496922 0 0 0 0 11.586476784638542 32.839837399284292 0 32.839837399284292 -21.759534277076426 0 0 0 0 35.685307381895655 -124.40786672486684 0 -124.40786672486684 -447.30541617634299 0 0 0 0 115.12952436202067 -174.11666763831272 0 -174.11666763831272 -415.72301900650928 0 0 0 0 33.059285760630729 24.833573906785418 0 24.833573906785418 -18.16952497100479 0 0 0 0 13.643399954372747 21.502449740490448 0 21.502449740490448 -48.03765787971497 0 0 0 0 13.044453883248934 149.35006004706338 0 149.35006004706338 115.6043367190714 0 0 0 0 0.051318136671397951 36.939082608354511 0 36.939082608354511 -34.865266409600736 0 0 0 0 -52.023978041177543 111.22890317688871 0 111.22890317688871 -72.09051965062099 0 0 0 0 -83.50220014136903 63.689202056615613 0 63.689202056615613 -56.182497032562424 0 0 0 0 -101.57103279959119 17.980624242663907 0 17.980624242663907 -86.381420498942362 0 0 0 0 -60.583268868052983 -91.006469490239397 0 -91.006469490239397 -227.48156211771493 0 0 0 0 1.0300866126417532 15.675331678936345 0 15.675331678936345 -120.45821179429186 0 0 0 0 78.28764658081127 86.792832354964048 0 86.792832354964048 78.48616001712071 0 0 0 0 -49.901267796516549 -28.185129445388156 0 -28.185129445388156 3.1731511817488354 0 0 0 0 175.72054262627353 -167.25888914111874 0 -167.25888914111874 22.281848976519541 0 0 0 0 -62.757446619903021 21.729168161005873 0 21.729168161005873 122.12196054487868 0 0 0 0 7.3767298889470112 36.73760880960981 0 36.73760880960981 -85.241970479680049 0 0 0 0 -16.120183983985044 89.610618735936441 0 89.610618735936441 169.5600302829771 0 0 0 0 -10.671816057577132 -10.488210859126298 0 -10.488210859126298 156.79101313772844 0 0 0 0 78.920577990425954 -29.394170080409822 0 -29.394170080409822 69.545588954239065 0 0 0 0 49.947789453357643 13.228140770529258 0 13.228140770529258 -17.619597709062774 0 0 0 0 38.976990210080658 -191.50542258186488 0 -191.50542258186488 -127.32657389581436 0 0 0 0 -50.867181707088129 -26.460193917599682 0 -26.460193917599682 -14.620560116497721 0 0 0 0 -72.558298216394178 36.467088427845738 0 36.467088427845738 -12.200608398645272 0 0 0 0 -16.378931045299396 -11.189538059439656 0 -11.189538059439656 -10.850676716051566 0 0 0 0 -10.986961218634647 -5.0579322308619368 0 -5.0579322308619368 -1.9580337585891883 0 0 0 0 -46.757285826181032 -40.294253740115892 0 -40.294253740115892 -27.361389844048972 0 0 0 0 -37.949416903211386 -18.492236304911785 0 -18.492236304911785 -36.823083842682536 0 0 0 0 -2.6190961672673438 -4.6460595099215425 0 -4.6460595099215425 0.39446966004470596 0 0 0 0 1.3189976980375917 -1.3285068097471253 0 -1.3285068097471253 -1.1708213715819653 0 0 0 0 -7.6405114878905778 -11.244404457576238 0 -11.244404457576238 -10.754481408958085 0 0 0 0 -40.093000572887831 -35.363099157621036 0 -35.363099157621036 -12.811821398310713 0 0 0 0 -18.422931438994858 -23.491253005514238 0 -23.491253005514238 -16.041573987016292 0 0 0 0 -1.0757207456038884 -2.5084514358724093 0 -2.5084514358724093 -4.0371571768870922 0 0 0 0 -0.25356759218266234 -20.233244510658551 0 -20.233244510658551 -20.80613256203651 0 0 0 0 24.371287363909495 -11.855779071498176 0 -11.855779071498176 -23.475579730624659 0 0 0 0 40.928771009246702 22.634949550643796 0 22.634949550643796 15.862336158490507 0 0 0 0 -62.19239304275834 139.07391537130752 0 139.07391537130752 110.64313941872388 0 0 0 0 2.8658987930342086 -0.23890516023675801 0 -0.23890516023675801 2.370843876388065 0 0 0 0 5.3603235126370237 -109.93866875135609 0 -109.93866875135609 -67.108948651621176 0 0 0 0 -5.2803040552535094 -97.400750699584023 0 -97.400750699584023 -78.857390669145389 0 0 0 0 -0.40692554412481741 0.65153556054475104 0 0.65153556054475104 0.41584907110626546 0 0 0 0 -82.644244124796387 72.278910244443978 0 72.278910244443978 144.83026997097159 0 0 0 0 -124.51912845895276 -64.075532659022429 0 -64.075532659022429 141.87201852562305 0 0 0 0 21.101794871181482 39.440411108957051 0 39.440411108957051 19.754576488817463 0 0 0 0 -96.455217415981679 -38.616714743500779 0 -38.616714743500779 20.196646008487733 0 0 0 0 -55.38292466913299 -21.561331074373811 0 -21.561331074373811 -45.334381229367864 0 0 0 0 -111.18710515214116 -120.15362554067178 0 -120.15362554067178 -32.396381594960076 0 0 0 0 -49.732923324025251 -103.64303754848152 0 -103.64303754848152 -150.55988214245008 0 0 0 0 -22.870924662427569 -113.48264514011498 0 -113.48264514011498 -331.87427333008236 0 0 0 0 -62.439054705675517 -108.76183322299767 0 -108.76183322299767 258.62907538962827 0 0 0 0 -68.813935518315702 -64.835770559988305 0 -64.835770559988305 59.049448459467385 0 0 0 0 -81.376545675582747 -166.06948026510508 0 -166.06948026510508 48.413285976599582 0 0 0 0 16.461935072307824 -49.807735855669307 0 -49.807735855669307 -63.262813204077247 0 0 0 0 -68.495895995120009 -150.09160422892819 0 -150.09160422892819 -108.9656910814665 0 0 0 0 -139.64037379757974 -241.72205035196021 0 -241.72205035196021 -182.59795995580498 0 0 0 0 -47.40853923337454 -114.91088828855573 0 -114.91088828855573 -238.34877701295773 0 0 0 0 -69.516988294753901 -234.20079394247841 0 -234.20079394247841 -298.79297446739656 0 0 0 0 -175.04183278591518 -337.44863271523718 0 -337.44863271523718 -353.67422336821619 0 0 0 0 -149.33004921284009 -371.17352006890724 0 -371.17352006890724 -425.38579457269952 0 0 0 0 -275.88516399366199 -333.25564893857518 0 -333.25564893857518 -319.94374612461343 0 0 0 0 -124.85441421860014 50.010245128112729 0 50.010245128112729 -100.41332955928829 0 0 0 0 -358.80285501580738 -459.11349430450809 0 -459.11349430450809 -439.92778900667327 0 0 0 0 -3.6232926054718391 0.27656422507268985 0 0.27656422507268985 -0.61902577485173182 0 0 0 0 -428.50216643533759 -270.20112697223885 0 -270.20112697223885 -366.71020157593739 0 0 0 0 -260.4444152720389 -183.3865867846398 0 -183.3865867846398 -525.98296836824011 0 0 0 0 -279.68383572606854 -197.68523237180852 0 -197.68523237180852 -359.30795319255412 0 0 0 0 -147.10305067048466 -264.16852160981944 0 -264.16852160981944 -372.6510027804834 0 0 0 0 -208.80196130317563 -182.81944153618679 0 -182.81944153618679 -239.15618825035085 0 0 0 0 -112.07512339885398 -151.45813538082075 0 -151.45813538082075 -361.41080741304177 0 0 0 0 -160.02490770573286 -46.154935771312012 0 -46.154935771312012 -246.97743822308257 0 0 0 0 -185.03584819255957 -151.63969356511734 0 -151.63969356511734 -352.90066178729467 0 0 0 0 -196.34421151216884 -6.5692458848898241 0 -6.5692458848898241 -244.12535828987893 0 0 0 0 -61.256086445553365 -13.936239911151006 0 -13.936239911151006 -250.23229346860171 0 0 0 0 -178.66859399924249 -95.277682767296938 0 -95.277682767296938 -410.40942600553535 0 0 0 0 -95.850494762296876 -4.0684027379475083 0 -4.0684027379475083 -396.89832885064243 0 0 0 0 -319.47247601918571 -200.20708811797886 0 -200.20708811797886 -433.13007022591773 0 0 0 0 -174.74052725327874 -116.46906566734833 0 -116.46906566734833 -443.73363155251718 0 0 0 0 -298.84219286947814 -219.75282162265273 0 -219.75282162265273 -481.35393894188746 0 0 0 0 -320.39631361380816 43.528400066745235 0 43.528400066745235 -544.88730785838561 0 0 0 0 -278.65165770480053 25.942163794223234 0 25.942163794223234 -935.27475242292712 0 0 0 0 -192.47899676322777 -140.15368684479472 0 -140.15368684479472 -626.02918199421038 0 0 0 0 -767.07074305818605 -98.359790514721681 0 -98.359790514721681 -510.63825342380005 0 0 0 0 -3.1665593412542137 2.1794489106563759 0 2.1794489106563759 -1.9465310065946184 0 0 0 0 -401.63366101929205 -389.56726219725533 0 -389.56726219725533 -496.67715092037361 0 0 0 0 -31.571925958831343 231.15313877339941 0 231.15313877339941 -983.37634617726326 0 0 0 0 -214.81881239274475 -26.733715122367926 0 -26.733715122367926 -165.76235028033261 0 0 0 0 -206.25202171204603 -384.54687292264174 0 -384.54687292264174 -559.86229117032053 0 0 0 0 -306.32770529936533 -330.18919148659916 0 -330.18919148659916 -581.14052586262369 0 0 0 0 -2.5050751417651114 -3.4259353960805328 0 -3.4259353960805328 -5.8477793264398343 0 0 0 0 -2.3108174488769464 -653.48934242173277 0 -653.48934242173277 85.419021534456988 0 0 0 0 -100.04865143981624 698.53085129071405 0 698.53085129071405 -1668.6973967398053 0 0 0 0 -66.423069929177927 352.53560662381926 0 352.53560662381926 -717.20464803525101 0 0 0 0 150.49651751572492 232.41276856806326 0 232.41276856806326 -1146.0527291661856 0 0 0 0 36.369433118934467 -186.53781651044164 0 -186.53781651044164 -1029.3024462624599 0 0 0 0 -654.62357029811028 -286.79005360925657 0 -286.79005360925657 -1361.5571413788202 0 0 0 0 -488.14169691544976 -5.217626830250083 0 -5.217626830250083 -1071.7517002224049 0 0 0 0 -155.39699286488576 -178.13958156731314 0 -178.13958156731314 -1226.1696861923774 0 0 0 0 -98.378456318942426 -336.46198368596652 0 -336.46198368596652 -683.03741424684267 0 0 0 0 -56.42866676167796 -303.44991902577385 0 -303.44991902577385 -1117.7203959822073 0 0 0 0 -317.39324224484881 -209.79510398428101 0 -209.79510398428101 -851.48191459881127 0 0 0 0 -7.2262773935599398 -723.84641456845202 0 -723.84641456845202 -788.721571267939 0 0 0 0 61.153349761803838 -129.06326418046228 0 -129.06326418046228 -488.42276742266404 0 0 0 0 -92.442182466559643 -221.18872726311747 0 -221.18872726311747 -265.10274829703849 0 0 0 0 -211.57960705958703 -448.08857886704027 0 -448.08857886704027 -645.10807654284145 0 0 0 0 -63.942251058262627 -165.05207744948348 0 -165.05207744948348 -450.54757378513023 0 0 0 0 7.6723400958380807 -68.773073569744156 0 -68.773073569744156 -621.98424854922996 0 0 0 0 -89.147525019523528 155.37839838873697 0 155.37839838873697 -104.8702631823835 0 0 0 0 13.862439232505494 12.051912886196078 0 12.051912886196078 -204.53387757443124 0 0 0 0 264.45597700673898 56.974675618603214 0 56.974675618603214 -265.5094948443184 0 0 0 0 362.1816243088615 78.787733836987172 0 78.787733836987172 43.368344849233608 0 0 0 0 60.749975187487053 -110.25712276411741 0 -110.25712276411741 -64.073719535153941 0 0 0 0 -48.529186771711466 -73.453459505792125 0 -73.453459505792125 -569.93626384544586 0 0 0 0 286.51376476142468 -229.95178007323648 0 -229.95178007323648 -51.071992972159933 0 0 0 0 -3.6158782295062579 -9.231871768540131 0 -9.231871768540131 -13.320719405339787 0 0 0 0 100.11730884692224 30.278430148620828 0 30.278430148620828 -52.356873014250596 0 0 0 0 227.77124801025775 -61.225081191424124 0 -61.225081191424124 4.7600113003863953 0 0 0 0 246.31635176447389 54.574968894786252 0 54.574968894786252 -120.66230227099732 0 0 0 0 114.49466232146733 6.1030005990251084 0 6.1030005990251084 -62.596874617782305 0 0 0 0 57.858464547973199 -64.062341801512957 0 -64.062341801512957 -331.72572290023891 0 0 0 0 203.26498656532749 241.27373603268279 0 241.27373603268279 151.63601236227987 0 0 0 0 2.7304256861647005 0.96617618302111907 0 0.96617618302111907 -2.1167914587967402 0 0 0 0 152.87146542582414 69.19620763295967 0 69.19620763295967 -59.028788665171305 0 0 0 0 79.179113604815939 69.010717146280513 0 69.010717146280513 -78.242010207097337 0 0 0 0 67.07052698154439 -27.249500599156818 0 -27.249500599156818 -136.62493901362177 0 0 0 0 150.91766776198165 43.727951286204188 0 43.727951286204188 -218.79324588175223 0 0 0 0 68.173739244379249 -14.608010388663388 0 -14.608010388663388 -234.5393178794493 0 0 0 0 103.82717552157919 61.029516384398448 0 61.029516384398448 -47.724947402952239 0 0 0 0 220.69999398284199 0.05912815960982698 0 0.05912815960982698 -254.20834096465114 0 0 0 0 145.91240388451843 108.39935151918326 0 108.39935151918326 -376.92210735775006 0 0 0 0 74.25453828848913 64.796634208905743 0 64.796634208905743 -396.69425504703759 0 0 0 0 -12.89863641840202 7.222850503945665 0 7.222850503945665 -383.84651606671105 0 0 0 0 75.618864936537648 38.029698119506065 0 38.029698119506065 -374.26525218248571 0 0 0 0 63.705321720834036 92.880892214838241 0 92.880892214838241 -488.67237790397394 0 0 0 0 139.08682651881372 8.7988057171824039 0 8.7988057171824039 -413.83615826664027 0 0 0 0 134.11974301658847 116.22314055255629 0 116.22314055255629 -451.88849184576247 0 0 0 0 82.076370908098397 129.07673098146915 0 129.07673098146915 -417.76049166403391 0 0 0 0 -0.14586500691797966 -0.04158693324735907 0 -0.04158693324735907 -0.0074844358336463301 0 0 0 0 -25.650806332863795 141.18648904404472 0 141.18648904404472 -409.55919965350404 0 0 0 0 230.66544422881634 -51.785646221013849 0 -51.785646221013849 -41.44169109777431 0 0 0 0 1.1203494441676867 52.530865240570165 0 52.530865240570165 -380.02458872587158 0 0 0 0 11.559132330704255 3.3838929664603654 0 3.3838929664603654 -12.256153240548528 0 0 0 0 -3.0272930218009861 -6.5482034761944163 0 -6.5482034761944163 -9.8028118602517509 0 0 0 0 160.22977931404421 68.715639571768406 0 68.715639571768406 -0.3579461286062724 0 0 0 0 154.70670536825128 -33.043359783554479 0 -33.043359783554479 -33.973282247257885 0 0 0 0 152.56794108380006 83.667923676605653 0 83.667923676605653 22.118069809526787 0 0 0 0 4.8039204391774319 0.039941651322465077 0 0.039941651322465077 -5.0653764368783669 0 0 0 0 59.947522730546382 -5.7535153500018623 0 -5.7535153500018623 -203.13927231991693 0 0 0 0 -31.069203119512167 55.772333452303428 0 55.772333452303428 -78.200399615256174 0 0 0 0 -5.9241824302214354 -22.414224275208653 0 -22.414224275208653 -56.124968533491483 0 0 0 0 80.49808145287534 -60.907164155833016 0 -60.907164155833016 -97.343125379862613 0 0 0 0 174.6134670003521 48.55002706542291 0 48.55002706542291 -113.33298787061904 0 0 0 0 167.61373982398254 -54.54841591056902 0 -54.54841591056902 -148.19517680482386 0 0 0 0 339.78230521345813 273.79281351047393 0 273.79281351047393 35.74308430648307 0 0 0 0 61.792478463449243 -21.908083933843955 0 -21.908083933843955 -70.042916420919937 0 0 0 0 9.2450639576744393 3.4111838322130694 0 3.4111838322130694 -9.1400654598213009 0 0 0 0 147.01487225487563 -371.28742377025264 0 -371.28742377025264 -856.16643571611348 0 0 0 0 15.007332851171668 -153.85200034303125 0 -153.85200034303125 -574.2151022812177 0 0 0 0 135.67241293632787 249.93098467004893 0 249.93098467004893 -596.70505765638518 0 0 0 0 -79.337569733011151 240.25487336469814 0 240.25487336469814 -375.3560051877439 0 0 0 0 3.9783056495059625 1.4045656233264623 0 1.4045656233264623 -4.4074647819416128 0 0 0 0 174.85270675303309 556.73416553623974 0 556.73416553623974 301.81974275012544 0 0 0 0 205.19278473723534 -37.195785885922305 0 -37.195785885922305 -252.68206084649864 0 0 0 0 15.630205114810451 -69.970114244926663 0 -69.970114244926663 -178.62924143427517 0 0 0 0 64.674729721601352 -175.22561756837695 0 -175.22561756837695 -674.32588888936152 0 0 0 0 -117.03072579454692 -285.92499356558619 0 -285.92499356558619 -506.55009429751226 0 0 0 0 201.34594156983258 -0.42448709556629183 0 -0.42448709556629183 -313.65211186117085 0 0 0 0 28.318192824623111 -288.44297471058235 0 -288.44297471058235 -576.00981538219639 0 0 0 0 -100.61148651696703 -337.23896992428126 0 -337.23896992428126 -389.85385046812735 0 0 0 0 -16.082736284671228 -415.2488699492078 0 -415.2488699492078 -688.84608526303055 0 0 0 0 -58.300219936643771 -391.04394741450415 0 -391.04394741450415 -700.77238296514406 0 0 0 0 -55.640764328569276 -398.47886058859513 0 -398.47886058859513 -698.89171354606151 0 0 0 0 -37.899224720558777 -430.61714717068389 0 -430.61714717068389 -624.02303319941529 0 0 0 0 82.767097982391533 -397.46621116465394 0 -397.46621116465394 -865.97664626914775 0 0 0 0 -3.5396530095868144 -3.1377842410264662 0 -3.1377842410264662 -2.3502754908110433 0 0 0 0 -205.62146365105764 -543.95455683965338 0 -543.95455683965338 -261.35053461862117 0 0 0 0 -67.743601106800043 148.5595693534824 0 148.5595693534824 -826.37525939440093 0 0 0 0 -389.12816943420057 -395.93089700728706 0 -395.93089700728706 -660.85000426925399 0 0 0 0 -169.61015715092799 -415.87442063666458 0 -415.87442063666458 -1029.121419662888 0 0 0 0 -180.00511922969417 -219.53903873747913 0 -219.53903873747913 -753.01625672430418 0 0 0 0 -160.18863350822176 -327.09886767426724 0 -327.09886767426724 -640.2447894654324 0 0 0 0 -207.77644485906876 -410.43503078439426 0 -410.43503078439426 -726.60106239809465 0 0 0 0 -116.5086348821369 -278.09728455544973 0 -278.09728455544973 -773.96042460487115 0 0 0 0 -78.350363201698201 -187.32062370079802 0 -187.32062370079802 -561.83262704387016 0 0 0 0 -161.22747805532799 -323.54161795655091 0 -323.54161795655091 -646.88650662008877 0 0 0 0 -73.084658071656122 -233.31134358131385 0 -233.31134358131385 -537.88340696135128 0 0 0 0 -30.28374559599979 -154.21711366620184 0 -154.21711366620184 -446.53119467636134 0 0 0 0 -55.255577754657679 -175.69705037992026 0 -175.69705037992026 -340.17698138501896 0 0 0 0 -93.480415812447518 -307.12168989383122 0 -307.12168989383122 -520.75854844461719 0 0 0 0 -54.281869828288109 -304.02752627595692 0 -304.02752627595692 -549.43367945410137 0 0 0 0 -120.01312210509013 -215.54425087660729 0 -215.54425087660729 -538.43274564129388 0 0 0 0 -54.475924256927101 -309.77772364335033 0 -309.77772364335033 -688.89436568181918 0 0 0 0 178.83021846155165 -146.7027755408817 0 -146.7027755408817 -393.01117783355949 0 0 0 0 -80.218965300734226 -192.49524434192017 0 -192.49524434192017 -328.08209563234414 0 0 0 0 31.227297548705337 -160.72799645282794 0 -160.72799645282794 -413.60986768190924 0 0 0 0 13.554338664925517 -103.9543566031939 0 -103.9543566031939 -299.71706832214113 0 0 0 0 101.76390137561404 -117.62965770873416 0 -117.62965770873416 -325.81065933392892 0 0 0 0 69.155424639416196 -115.06214080517384 0 -115.06214080517384 -249.73035586313927 0 0 0 0 78.495515465624578 -82.309363239150116 0 -82.309363239150116 -186.33965714244187 0 0 0 0 145.42905574228462 -54.428945948664477 0 -54.428945948664477 -117.08483905670801 0 0 0 0 8.232147739238826 -67.297061998820936 0 -67.297061998820936 -101.38862780804629 0 0 0 0 85.86391675536197 -3.494043088705439 0 -3.494043088705439 -90.05845534252876 0 0 0 0 -1.2630810446350882 -4.6361964396804467 0 -4.6361964396804467 -24.3002289256643 0 0 0 0 -539.33933852232622 -318.14323259858065 0 -318.14323259858065 -102.23167050232587 0 0 0 0 -167.58072743458251 -119.9828432786162 0 -119.9828432786162 -14.350269657054014 0 0 0 0 167.44672132876681 -256.19100249639814 0 -256.19100249639814 -368.01044905263552 0 0 0 0 33.437543777298288 -233.41174863980268 0 -233.41174863980268 -224.25890960922698 0 0 0 0 -56.25944092356508 -337.85831397603033 0 -337.85831397603033 -304.74391420185566 0 0 0 0 98.07401662115717 -349.45113733761536 0 -349.45113733761536 -306.03949416458272 0 0 0 0 540.95178613668202 -235.13013869004499 0 -235.13013869004499 -534.3898523345415 0 0 0 0 191.25052329609525 -535.03828165535015 0 -535.03828165535015 -604.26826749813335 0 0 0 0 98.944889925212209 -336.06536377402881 0 -336.06536377402881 -432.07539731277211 0 0 0 0 1587.6884448610899 -122.80793582085789 0 -122.80793582085789 -2725.9367535424972 0 0 0 0 -251.10733761034726 -613.4398675326629 0 -613.4398675326629 -396.4973389253646 0 0 0 0 -296.88785786070048 524.67680444258804 0 524.67680444258804 227.19406251976034 0 0 0 0 48.36975734244561 -149.67450725357776 0 -149.67450725357776 -223.47393562473735 0 0 0 0 -206.86329591057256 -97.887263115957467 0 -97.887263115957467 -122.65550456533674 0 0 0 0 -1275.3629616890535 1429.022830216587 0 1429.022830216587 513.85439416550071 0 0 0 0 -2.5454711119207336 -10.336110105608032 0 -10.336110105608032 -28.287813337345369 0 0 0 0 -3.0282007812588434 -3.6278448490017325 0 -3.6278448490017325 -8.3823607012437122 0 0 0 0 -335.88861045792669 -35.927731068848516 0 -35.927731068848516 -132.13280397430935 0 0 0 0 -171.89935279495839 -485.49218187911902 0 -485.49218187911902 -752.82331521390006 0 0 0 0 -232.66627516164067 -550.8436977488127 0 -550.8436977488127 -821.97482555505849 0 0 0 0 -2.8398133619081576 1.8378011955242641 0 1.8378011955242641 0.26376521008965881 0 0 0 0 -130.89721611281539 -160.28034460296476 0 -160.28034460296476 -228.34511613422364 0 0 0 0 208.78626577249383 80.719995849777661 0 80.719995849777661 -58.540534598163504 0 0 0 0 -200.35878366064662 -383.27889456471894 0 -383.27889456471894 -459.16929930590777 0 0 0 0 -240.5856402262275 -408.75798623178343 0 -408.75798623178343 -626.45996694610221 0 0 0 0 -286.86694396262192 -559.23963845238904 0 -559.23963845238904 -715.23110829933285 0 0 0 0 -280.57804518713192 -505.76816859687824 0 -505.76816859687824 -672.49793014137686 0 0 0 0 -281.36381737141801 -487.78179529764247 0 -487.78179529764247 -729.46987985069427 0 0 0 0 -132.38889497103935 -323.31887545873451 0 -323.31887545873451 -1432.6618340482091 0 0 0 0 -126.05555531609718 -383.99555981435515 0 -383.99555981435515 -853.15776342520985 0 0 0 0 -104.62698754433677 -364.95331890455782 0 -364.95331890455782 -836.29624076759137 0 0 0 0 -96.604166063458251 -73.339773460305878 0 -73.339773460305878 -342.99013241977082 0 0 0 0 -99.774487000207159 -107.19755965171862 0 -107.19755965171862 -696.10064062842866 0 0 0 0 -358.97649765773781 184.81717127667071 0 184.81717127667071 -745.72896657111414 0 0 0 0 -237.56989285760096 -96.729621062586375 0 -96.729621062586375 -925.23182410685695 0 0 0 0 -158.01365920691569 5.3381985146988882 0 5.3381985146988882 -890.79103788073508 0 0 0 0 -185.71040613654804 142.9193681370416 0 142.9193681370416 -772.01439423240663 0 0 0 0 -215.32323404314729 179.0202806243542 0 179.0202806243542 -560.66459256850067 0 0 0 0 -79.734362607325238 225.51994633021241 0 225.51994633021241 -624.27737634520054 0 0 0 0 -730.73354348557496 -51.690172979033377 0 -51.690172979033377 -717.87599952505116 0 0 0 0 -478.72159770411702 -73.408204717496119 0 -73.408204717496119 -721.62049116522576 0 0 0 0 -410.16529841708893 -2.8231607155466918 0 -2.8231607155466918 -806.42930949545371 0 0 0 0 -364.8981402088782 167.93424859256629 0 167.93424859256629 -738.67354460843126 0 0 0 0 -461.82831035102322 -116.58027796295937 0 -116.58027796295937 -1104.9294636882232 0 0 0 0 -538.78002665226154 176.80164129400509 0 176.80164129400509 -1051.0150718568038 0 0 0 0 -324.5078819957796 -286.27782571605712 0 -286.27782571605712 -1130.7272658002039 0 0 0 0 -1068.0269585118253 -530.62177895227546 0 -530.62177895227546 -1176.7022684527474 0 0 0 0 -248.99231988835223 -651.92471156689862 0 -651.92471156689862 -1970.7166618852334 0 0 0 0 -411.92720624337903 76.851773884533031 0 76.851773884533031 -1091.6378080718205 0 0 0 0 -1054.4390174643102 414.98538126332511 0 414.98538126332511 -1581.698213931566 0 0 0 0 -255.41739430049583 -653.3942201928985 0 -653.3942201928985 -888.43045108030492 0 0 0 0 -2.1428565886981596 -3.9821502930327028 0 -3.9821502930327028 -11.019055319890526 0 0 0 0 -143.74077496436257 -17.015417484395584 0 -17.015417484395584 -295.76843236348213 0 0 0 0 -252.1665375153612 832.04151519032348 0 832.04151519032348 -1539.5766272810724 0 0 0 0 -1105.7537281209611 -805.31068665999919 0 -805.31068665999919 -290.01423173520016 0 0 0 0 -100.03970362452395 381.49262849950901 0 381.49262849950901 -886.88148079514212 0 0 0 0 56.426720403610517 16.818761474794883 0 16.818761474794883 -361.32184550141392 0 0 0 0 -175.23719673260297 101.41588934801257 0 101.41588934801257 -327.94062620084151 0 0 0 0 -5.7113401504493808 141.34507020928868 0 141.34507020928868 -586.14774659734394 0 0 0 0 54.3127436620575 -34.881727754043823 0 -34.881727754043823 -511.84377569007484 0 0 0 0 110.41299893386783 108.91290060533601 0 108.91290060533601 -950.37399707613804 0 0 0 0 111.63582744978898 8.8216313104895505 0 8.8216313104895505 -1224.6114868021541 0 0 0 0 -35.98811127757341 -366.2805233872059 0 -366.2805233872059 -2115.2718561109796 0 0 0 0 42.635932908944284 12.420540947547124 0 12.420540947547124 -1194.0491866668526 0 0 0 0 -315.56306822212679 -245.01508520007155 0 -245.01508520007155 -955.23533435562422 0 0 0 0 42.619055102287007 -183.89561152489478 0 -183.89561152489478 -1314.3185793530974 0 0 0 0 71.021180733777385 -83.329911986178558 0 -83.329911986178558 -1013.1416061660857 0 0 0 0 -106.02740444614602 -182.76065940339322 0 -182.76065940339322 -842.12246555517049 0 0 0 0 -56.266712712098403 -120.5118916703359 0 -120.5118916703359 -899.50206632785557 0 0 0 0 35.082511054830533 -103.50281786951382 0 -103.50281786951382 -869.23770432577658 0 0 0 0 54.556516776317579 -110.92322001567663 0 -110.92322001567663 -1028.5881095176737 0 0 0 0 0.12833716855746174 -34.635134909647604 0 -34.635134909647604 -955.22853471915732 0 0 0 0 80.54722742593917 -1.2748637222939578 0 -1.2748637222939578 -945.90407408947794 0 0 0 0 81.280491685823492 -15.274354442881304 0 -15.274354442881304 -1091.0461089938326 0 0 0 0 51.964060172441165 -12.881334179615806 0 -12.881334179615806 -861.1244250212003 0 0 0 0 46.956499760431072 28.089576534246589 0 28.089576534246589 -946.5260930578952 0 0 0 0 0.017745013263764021 12.073997909355967 0 12.073997909355967 -938.42865054260255 0 0 0 0 0.26465476973331542 1.1661108002024747 0 1.1661108002024747 -1.1831285227398922 0 0 0 0 -0.14014502668707507 55.130433568530862 0 55.130433568530862 -104.09618843888165 0 0 0 0 -61.529880247838918 -1.2689812173266546 0 -1.2689812173266546 128.98167435381038 0 0 0 0 12.861855642151511 -86.315485252183862 0 -86.315485252183862 -331.63638404895028 0 0 0 0 -38.255872084120313 14.978788957532743 0 14.978788957532743 -138.39783652215556 0 0 0 0 16.327396687868372 -63.660587333608419 0 -63.660587333608419 -402.4810458366992 0 0 0 0 -43.105852495553847 64.958627317921128 0 64.958627317921128 72.998951380155631 0 0 0 0 43.230623206781729 -5.6825181254025665 0 -5.6825181254025665 -133.42482834118709 0 0 0 0 1.8799447002167704 3.1199930603067685 0 3.1199930603067685 -0.66622363048099231 0 0 0 0 0.1404224006256527 76.993222276432789 0 76.993222276432789 -28.7298402711167 0 0 0 0 -3.9525088866962506 -19.393235454241221 0 -19.393235454241221 -89.129551402736979 0 0 0 0 -170.95581112768696 88.578910634132626 0 88.578910634132626 -122.2501111333404 0 0 0 0 5.1983416861914158 -0.19770469365650456 0 -0.19770469365650456 -12.436968712405232 0 0 0 0 57.366249194304601 33.53970785815909 0 33.53970785815909 -11.410409707332292 0 0 0 0 139.88356011821998 16.982932786821038 0 16.982932786821038 -65.754556195788609 0 0 0 0 -0.36824786313671654 -11.948408407463575 0 -11.948408407463575 -42.602577010833244 0 0 0 0 106.84471874247402 62.841575878581352 0 62.841575878581352 -83.706307535219821 0 0 0 0 -105.24558916784235 14.994935705450189 0 14.994935705450189 40.828823138974258 0 0 0 0 -82.393747372766839 -182.28677053437423 0 -182.28677053437423 -362.04207933336147 0 0 0 0 -31.913504289026264 -15.117181189954863 0 -15.117181189954863 -89.219886260725616 0 0 0 0 47.240894796657415 -207.71722945026704 0 -207.71722945026704 -360.35351326773525 0 0 0 0 -45.959690219909817 -480.83135311999649 0 -480.83135311999649 -894.48980570380081 0 0 0 0 -260.32452542746876 -359.21186635951744 0 -359.21186635951744 -269.22985926410911 0 0 0 0 -642.56664535716823 828.98009994182212 0 828.98009994182212 440.86190651963989 0 0 0 0 -0.44869932768927501 -2.4230842906372629 0 -2.4230842906372629 -16.929627559790816 0 0 0 0 -3.1034862933153908 -14.812711577164004 0 -14.812711577164004 -62.54622145434621 0 0 0 0 706.00663883825803 -657.15633405433255 0 -657.15633405433255 -1881.8040706193424 0 0 0 0 -378.89991674565732 510.91650711148759 0 510.91650711148759 -141.20309020062996 0 0 0 0 259.82411746087939 119.05082392808981 0 119.05082392808981 -616.45371939099277 0 0 0 0 280.3679035206801 69.321835988578641 0 69.321835988578641 -1406.1677820084005 0 0 0 0 -58.778109566997273 -75.772794561395131 0 -75.772794561395131 -90.947264994752913 0 0 0 0 0.24861364194313007 1.6464681852637497 0 1.6464681852637497 -2.9899954205135941 0 0 0 0 84.151698733369315 84.328336051839869 0 84.328336051839869 -299.3512767443026 0 0 0 0 -104.82679486058653 -225.05773835887703 0 -225.05773835887703 -547.95112869513832 0 0 0 0 0.073817645415077737 -151.19176153690427 0 -151.19176153690427 -823.90702208050061 0 0 0 0 -137.54231618399558 24.894374418829102 0 24.894374418829102 -391.78490550877541 0 0 0 0 115.31628998312044 -63.125731053049094 0 -63.125731053049094 -740.71513097498973 0 0 0 0 84.795565455462707 -1.6575628899154253 0 -1.6575628899154253 -723.48630057890841 0 0 0 0 84.655062038991815 -22.186487586113799 0 -22.186487586113799 -672.71014961251058 0 0 0 0 46.064921103841925 -117.2070056521261 0 -117.2070056521261 -390.79597131057926 0 0 0 0 161.53517921172818 -114.00153856215184 0 -114.00153856215184 -774.85094773222954 0 0 0 0 64.279268958459227 -188.40556490774543 0 -188.40556490774543 -691.94152740651043 0 0 0 0 147.17932633862227 -112.51100770882476 0 -112.51100770882476 -664.2045567627647 0 0 0 0 -5.4623831135277214 -11.926528400757434 0 -11.926528400757434 -149.11080336472151 0 0 0 0 -1.3511183765203896 -13.370807741161116 0 -13.370807741161116 -166.67046462629241 0 0 0 0 -5.5145588109080563 -6.1473743976639525 0 -6.1473743976639525 -150.35303916558587 0 0 0 0 -1.2721973874140531 -22.456753847312939 0 -22.456753847312939 -145.35723911964692 0 0 0 0 -13.849473786018279 -16.464023057888426 0 -16.464023057888426 -151.55094001166344 0 0 0 0 -13.410559883816177 -12.579277702582687 0 -12.579277702582687 -158.61439829875417 0 0 0 0 -4.4341571864988509 0.79400655085282779 0 0.79400655085282779 42.802255068138038 0 0 0 0 -4.6972892355406657 -0.52194732063526317 0 -0.52194732063526317 76.187111669554724 0 0 0 0 -2.3237774061241439 -2.5752113666024705 0 -2.5752113666024705 1.7365762893614889 0 0 0 0 13.726866036580759 -24.101955849683691 0 -24.101955849683691 43.025248235256527 0 0 0 0 -0.58034339173012484 -1.6162098604270412 0 -1.6162098604270412 0.7700928445398052 0 0 0 0 -33.165551072594099 55.400454726184762 0 55.400454726184762 139.16135514721873 0 0 0 0 -4.5675128557314935 -3.4503160927788699 0 -3.4503160927788699 -14.968291982309005 0 0 0 0 -8.1359323902979668 -48.255889048770769 0 -48.255889048770769 -5.0474989826980163 0 0 0 0 23.73152527876664 2.5257010298491878 0 2.5257010298491878 -100.0764747436624 0 0 0 0 66.521683900558855 -120.29766254116294 0 -120.29766254116294 33.142840376409367 0 0 0 0 4.066013468478185 -0.33529894456566467 0 -0.33529894456566467 -92.113826121190698 0 0 0 0 -3.8574233690815163 -9.0736559073066019 0 -9.0736559073066019 -136.57217734039796 0 0 0 0 -0.69178531075285932 -4.4014398363233944 0 -4.4014398363233944 -62.398526414420729 0 0 0 0 -11.502229542435089 -7.4860238583123646 0 -7.4860238583123646 -121.94539924632409 0 0 0 0 -7.6578724209248321 -5.9089636269036419 0 -5.9089636269036419 -130.51679078264897 0 0 0 0 -7.5906671771954279 -17.098907264396075 0 -17.098907264396075 -125.88805261753259 0 0 0 0 -11.84462232730948 -16.557821865104415 0 -16.557821865104415 -111.43045158642781 0 0 0 0 -5.4382380972638202 -11.074721305823914 0 -11.074721305823914 -132.7651777864121 0 0 0 0 -6.6771118358919921 -19.22938148204048 0 -19.22938148204048 -121.54728400447493 0 0 0 0 -2.7212133159882796 -19.949694705532238 0 -19.949694705532238 -138.3659086964949 0 0 0 0 -6.6973910569104191 -26.85843465572907 0 -26.85843465572907 -115.92617159134079 0 0 0 0 -4.9302449258648267 -18.930580249901141 0 -18.930580249901141 -133.7847416311015 0 0 0 0 -5.7472103275613335 -25.651098456340605 0 -25.651098456340605 -127.10028621871015 0 0 0 0 1.0277228618469962 -29.826965786755864 0 -29.826965786755864 -134.30775542263837 0 0 0 0 -6.3358438517743707 -26.282410763918733 0 -26.282410763918733 -118.71622339536952 0 0 0 0 -3.5480072803029259 -32.251966166491648 0 -32.251966166491648 -92.868338527629163 0 0 0 0 -85.684065960498629 -198.73912874020789 0 -198.73912874020789 -98.381190760192112 0 0 0 0 8.3897255943302298 -68.99121078778262 0 -68.99121078778262 -138.22498438143521 0 0 0 0 52.152659065781336 -20.556568737367343 0 -20.556568737367343 -135.37572053705298 0 0 0 0 110.75712094161725 -28.364704368724688 0 -28.364704368724688 -282.22362757865631 0 0 0 0 7.643266163645265 5.8875523295912444 0 5.8875523295912444 -29.207416619524011 0 0 0 0 113.5864897019577 -110.86529668962737 0 -110.86529668962737 -64.953878325773985 0 0 0 0 5.1807779051814578 -39.542834073046834 0 -39.542834073046834 -110.25679297643364 0 0 0 0 5.7723896335277018 -13.561209617909384 0 -13.561209617909384 -56.152796468570322 0 0 0 0 5.8060059339331929 7.4002302522385435 0 7.4002302522385435 -56.985345902037807 0 0 0 0 6.3121872104958072 -24.390799114095472 0 -24.390799114095472 -62.678629212483095 0 0 0 0 -1.9645220825609613 -21.139959175416607 0 -21.139959175416607 -114.1937444670657 0 0 0 0 12.444646285894123 25.671229047772613 0 25.671229047772613 -17.03920404535188 0 0 0 0 0.28771401331215429 -1.1848373450173468 0 -1.1848373450173468 -6.4949795128483512 0 0 0 0 -10.210989624622925 -23.820930374266936 0 -23.820930374266936 -114.96569551817993 0 0 0 0 -7.4777276060103759 -34.603154415269728 0 -34.603154415269728 -137.82596821895618 0 0 0 0 7.3781997618389141 6.0518501106951135 0 6.0518501106951135 4.1191298891876613 0 0 0 0 -1.0551735411028815 -1.1535311943593252 0 -1.1535311943593252 1.8546652843837208 0 0 0 0 8.1204084099426836 62.649909449009101 0 62.649909449009101 49.993576131832469 0 0 0 0 27.800921409152579 47.61112357362299 0 47.61112357362299 -38.824289677207844 0 0 0 0 22.652697933344825 30.521940755472997 0 30.521940755472997 -76.114630163008769 0 0 0 0 2.2606411687838772 33.042732463324 0 33.042732463324 -93.492467564417893 0 0 0 0 27.119802331457322 5.5697272308862011 0 5.5697272308862011 -68.193971518693843 0 0 0 0 -7.5719518340886935 -27.736587814455536 0 -27.736587814455536 -178.91246095777024 0 0 0 0 -22.751814949502659 -9.6223078657294536 0 -9.6223078657294536 -159.46908446556699 0 0 0 0 9.3010020784213339 6.1231060121817791 0 6.1231060121817791 -59.306367182580573 0 0 0 0 3.8755467986375152 11.43381637947823 0 11.43381637947823 -57.502060471348159 0 0 0 0 6.8976748520933171 -8.1204960139720921 0 -8.1204960139720921 -43.881841246990803 0 0 0 0 27.349698565605649 20.945544880781199 0 20.945544880781199 -56.816562716171575 0 0 0 0 27.489062642809586 20.328740229608684 0 20.328740229608684 -59.068439335485891 0 0 0 0 23.048583094201604 9.7625047941128287 0 9.7625047941128287 -43.164575005726874 0 0 0 0 37.509155618629848 0.47460225834356606 0 0.47460225834356606 -57.936777523496858 0 0 0 0 7.6897110684889896 -7.36447590748352 0 -7.36447590748352 -42.671344590705679 0 0 0 0 -5.2737269998960983 22.24869425279212 0 22.24869425279212 -65.559742162390648 0 0 0 0 -31.386440408199633 27.547222157863189 0 27.547222157863189 -47.575632748485077 0 0 0 0 -18.614594677350397 13.114394758444632 0 13.114394758444632 -63.91444097545309 0 0 0 0 87.555211825941115 -41.865259683369914 0 -41.865259683369914 -71.575440052401063 0 0 0 0 8.4668883771222099 -6.482358492597303 0 -6.482358492597303 -40.213228539311331 0 0 0 0 -22.180214123102814 21.057323795859077 0 21.057323795859077 -33.855911000726394 0 0 0 0 -22.495458959499956 16.412084756329818 0 16.412084756329818 -56.336904320042549 0 0 0 0 -10.248751285218532 -47.849863751069279 0 -47.849863751069279 -211.96620233032536 0 0 0 0 -40.854855525347375 -50.934977271901516 0 -50.934977271901516 -107.84333633117035 0 0 0 0 -50.388091674616589 -85.884944568607352 0 -85.884944568607352 -8.00712768901667 0 0 0 0 41.662061106407236 25.615016750417908 0 25.615016750417908 -54.19938774061302 0 0 0 0 -0.78076028878412984 -1.9082355965201039 0 -1.9082355965201039 -0.26963343662452388 0 0 0 0 -0.94310673883046547 -18.920607698269123 0 -18.920607698269123 72.62238340513457 0 0 0 0 -0.52170992130721316 -3.2452973707815733 0 -3.2452973707815733 -3.6668945942501825 0 0 0 0 -8.0995382498003892 -22.140257808486695 0 -22.140257808486695 26.715792124457948 0 0 0 0 7.6209372007369609 -3.3854524400307504 0 -3.3854524400307504 -37.608465009271079 0 0 0 0 33.919790396375902 -43.733336720626539 0 -43.733336720626539 12.718341645283544 0 0 0 0 48.28635769774246 -64.424341220516453 0 -64.424341220516453 -82.825033082992377 0 0 0 0 -59.809135150333532 1.774866045764611 0 1.774866045764611 -25.668139541802702 0 0 0 0 -3.0141464202367487 0.33575060624689712 0 0.33575060624689712 -8.4092541629225792 0 0 0 0 -12.63930749719475 -20.187913454117734 0 -20.187913454117734 -48.868818118751733 0 0 0 0 -24.341840719051106 3.8164287160072945 0 3.8164287160072945 -34.8910084999427 0 0 0 0 -28.894306627229525 10.640545833240651 0 10.640545833240651 -41.252793751905301 0 0 0 0 -32.765569070945276 15.044647052552477 0 15.044647052552477 -44.560453425082756 0 0 0 0 -21.782948692971331 12.099033822153842 0 12.099033822153842 -48.407593186713939 0 0 0 0 -117.08046714690863 25.880513747933946 0 25.880513747933946 106.05750182804923 0 0 0 0 -17.852510323175729 14.676935165586453 0 14.676935165586453 -10.472321279148927 0 0 0 0 -12.880482657677717 13.690935118326768 0 13.690935118326768 -6.569996925234701 0 0 0 0 -33.938624372812228 -8.7925946000273711 0 -8.7925946000273711 -46.539318478870427 0 0 0 0 -200.52544281205701 133.63503340703392 0 133.63503340703392 83.313312362720808 0 0 0 0 -74.578019025468166 105.01019816674761 0 105.01019816674761 -379.24605553059428 0 0 0 0 4.7804728451501433 -131.32132593448 0 -131.32132593448 -130.8299586289595 0 0 0 0 -308.06864746491016 -182.86591300960964 0 -182.86591300960964 -513.81888138615977 0 0 0 0 0.23478116777890534 -0.83612400378716956 0 -0.83612400378716956 -2.9148213577123983 0 0 0 0 -292.00150819300688 -30.822555040695534 0 -30.822555040695534 25.473342350735038 0 0 0 0 97.794046987050024 -137.98873274804191 0 -137.98873274804191 -547.26991805370926 0 0 0 0 -76.47397894140704 -94.049544769094609 0 -94.049544769094609 -77.449661686707259 0 0 0 0 51.295460411180102 35.237676431598629 0 35.237676431598629 -521.72285514670693 0 0 0 0 -191.42920118736038 -66.312902432684496 0 -66.312902432684496 -515.49216102548417 0 0 0 0 -205.01791886488888 36.174134836741416 0 36.174134836741416 -304.74988141289214 0 0 0 0 42.995311731618131 -19.580286640207305 0 -19.580286640207305 -479.90676455663197 0 0 0 0 46.39625423256814 20.852128840206262 0 20.852128840206262 -176.2818786035823 0 0 0 0 128.40222822577562 5.198707021683731 0 5.198707021683731 -193.67752879302134 0 0 0 0 -56.676892998728363 -156.06677860047103 0 -156.06677860047103 -122.37664471094831 0 0 0 0 110.4317336985514 -42.114757875044234 0 -42.114757875044234 -243.13014518150612 0 0 0 0 -201.16569484720458 -260.60376689656096 0 -260.60376689656096 -254.98564589722173 0 0 0 0 -82.631216761945325 -115.62097082801392 0 -115.62097082801392 -79.25378055958754 0 0 0 0 -48.123350004141685 -112.6629616234386 0 -112.6629616234386 -79.06388235511622 0 0 0 0 -46.24136648217609 -93.476309486107311 0 -93.476309486107311 -104.26333939329379 0 0 0 0 -45.3656213591305 -100.19333594377019 0 -100.19333594377019 -97.877559535925684 0 0 0 0 42.770263786878786 -120.35493808538195 0 -120.35493808538195 -115.42889854245186 0 0 0 0 -36.686768101850248 -116.27767816478399 0 -116.27767816478399 -129.43383755722607 0 0 0 0 -55.191973861192309 -117.037097803699 0 -117.037097803699 -99.219114088105925 0 0 0 0 -1.1174883317589916 -2.9504729153424325 0 -2.9504729153424325 2.3544725913355418 0 0 0 0 -13.025014436083666 -87.212331288690962 0 -87.212331288690962 -169.25544105208974 0 0 0 0 76.312476576957124 19.464945654988696 0 19.464945654988696 -111.1934065638261 0 0 0 0 61.462858106100612 -94.114578728554989 0 -94.114578728554989 -276.27795942832745 0 0 0 0 13.651388533977297 -24.551769913964563 0 -24.551769913964563 -207.08505623761721 0 0 0 0 48.268071507263812 -71.116563622750618 0 -71.116563622750618 -153.06260934311831 0 0 0 0 173.83417055095924 -40.643942576177324 0 -40.643942576177324 -145.72119131998625 0 0 0 0 31.536713855741255 -87.121342283435297 0 -87.121342283435297 2.4197557294628496 0 0 0 0 69.489203851620914 17.269485623056426 0 17.269485623056426 -104.28671452236176 0 0 0 0 -25.902616920669971 -33.68355967763182 0 -33.68355967763182 -61.242808818773483 0 0 0 0 1.939963175835814 -8.3222274415731903 0 -8.3222274415731903 -79.733101319168512 0 0 0 0 89.544284293282544 44.715000167485414 0 44.715000167485414 -83.44091288153686 0 0 0 0 -0.46309966337867436 -13.597492936085594 0 -13.597492936085594 -3.1984294168966514 0 0 0 0 107.3217381782797 -20.096444224064726 0 -20.096444224064726 -31.255153030611837 0 0 0 0 8.2394092892554482 1.4934669088978438 0 1.4934669088978438 -17.566153331499645 0 0 0 0 197.50636058567034 -162.56621995789828 0 -162.56621995789828 -5.0227639317890862 0 0 0 0 148.47648880920315 -80.082929131162018 0 -80.082929131162018 -76.647760407691749 0 0 0 0 249.4959069788747 -65.690341959299985 0 -65.690341959299985 -123.90262369037737 0 0 0 0 160.9389830306136 -17.355851478947443 0 -17.355851478947443 -160.39310035852213 0 0 0 0 108.87611717670006 -21.12768324791432 0 -21.12768324791432 -109.97389797481537 0 0 0 0 151.81481335427998 53.242094448918124 0 53.242094448918124 -144.98335083354687 0 0 0 0 107.98605355066502 76.580306386346365 0 76.580306386346365 -22.554372331796912 0 0 0 0 11.436821285671613 0.45615758297026332 0 0.45615758297026332 -79.909139461819905 0 0 0 0 51.586632796250342 -7.1967429046817415 0 -7.1967429046817415 -81.002415441955236 0 0 0 0 26.70900753953174 -30.762453601364996 0 -30.762453601364996 -67.833191283581982 0 0 0 0 16.664670705097251 -26.133096508954054 0 -26.133096508954054 -66.764262607230194 0 0 0 0 -5.5379622690415999 -32.899416345193458 0 -32.899416345193458 -552.00906944954568 0 0 0 0 -5.1854213210827993 2.4699289036678849 0 2.4699289036678849 -15.361911649858417 0 0 0 0 14.788699469816493 -9.2055629795941059 0 -9.2055629795941059 -87.541683420102572 0 0 0 0 -11.053540670227221 -28.027585500244868 0 -28.027585500244868 -53.314489684966247 0 0 0 0 -7.1958835308979303 -29.787381953485394 0 -29.787381953485394 -41.536821428816019 0 0 0 0 -1.9574358466779813 -12.165444497153658 0 -12.165444497153658 -51.912081210193719 0 0 0 0 23.882609978543769 -30.8584904233212 0 -30.8584904233212 -77.855006577599852 0 0 0 0 28.093831179270637 -48.075562735379208 0 -48.075562735379208 -58.05676010488969 0 0 0 0 9.4886223170979065 -42.496286299101484 0 -42.496286299101484 -89.130806066538753 0 0 0 0 -4.9008317610288259 -60.586142903861742 0 -60.586142903861742 -60.927826741768513 0 0 0 0 48.310600728411373 -47.065013114101021 0 -47.065013114101021 -57.643332113770157 0 0 0 0 -2.63258430042697 -56.018768874295347 0 -56.018768874295347 14.692847297279513 0 0 0 0 9.1869898757286137 -55.150588649255951 0 -55.150588649255951 -19.894854288242641 0 0 0 0 82.555256421474041 -59.628838128275675 0 -59.628838128275675 -49.604369341534039 0 0 0 0 18.532619595298129 -10.63695237439461 0 -10.63695237439461 -12.321138800099355 0 0 0 0 -6.5596246235181752 28.616465289356711 0 28.616465289356711 -684.26135301536851 0 0 0 0 -19.670524213192202 -18.324835984090505 0 -18.324835984090505 -15.381069954871528 0 0 0 0 140.74834750485388 121.28523011641482 0 121.28523011641482 46.289291951463383 0 0 0 0 72.65324905847956 -13.290484204371751 0 -13.290484204371751 -177.96668159536785 0 0 0 0 237.11864277813947 -850.33054317018286 0 -850.33054317018286 -783.77524483062007 0 0 0 0 526.55262648735152 -192.16985014692 0 -192.16985014692 -235.83052960065561 0 0 0 0 -583.34547557004043 93.880056188405433 0 93.880056188405433 296.55844188028823 0 0 0 0 447.85698022216093 -363.74563609858888 0 -363.74563609858888 7.4433398602232046 0 0 0 0 8.3865618910987365 -0.56820459290666037 0 -0.56820459290666037 -0.70691161046064366 0 0 0 0 37.256016501960403 -204.8338817734948 0 -204.8338817734948 319.65123732617576 0 0 0 0 205.69196419288255 -207.29385337519034 0 -207.29385337519034 -86.03694741128129 0 0 0 0 197.18470246812558 -175.83494032463477 0 -175.83494032463477 -130.73788388296816 0 0 0 0 180.82373096493757 -158.21791218539147 0 -158.21791218539147 -125.44440400719941 0 0 0 0 507.04115118826871 57.029347197868447 0 57.029347197868447 -167.92037026707112 0 0 0 0 -113.02130144120383 22.334772738615357 0 22.334772738615357 -110.59624553181675 0 0 0 0 231.19849609012999 -83.573886667558327 0 -83.573886667558327 -187.23071534941118 0 0 0 0 46.333536284957518 24.508401968581893 0 24.508401968581893 -188.82892788312472 0 0 0 0 193.33906664762799 -165.50226731492148 0 -165.50226731492148 -136.9932778488801 0 0 0 0 193.64043953617147 -153.88346254006319 0 -153.88346254006319 -145.83793708490703 0 0 0 0 99.034049803016387 -139.54520294380563 0 -139.54520294380563 -103.6468133380622 0 0 0 0 287.6524473518075 -170.80687460795161 0 -170.80687460795161 -150.6062476605166 0 0 0 0 218.18028447902179 -160.42844016439631 0 -160.42844016439631 -148.30059122800594 0 0 0 0 193.61044562489815 -153.75264080932902 0 -153.75264080932902 -133.47269669469097 0 0 0 0 162.5889485839507 -96.245970512914937 0 -96.245970512914937 -135.81587403039885 0 0 0 0 243.65466028472292 -99.471049082247191 0 -99.471049082247191 -161.52745606361714 0 0 0 0 212.41694811873458 -76.11425214188057 0 -76.11425214188057 -177.81131350205396 0 0 0 0 222.89307207744969 -31.09985368476282 0 -31.09985368476282 -142.81135282103787 0 0 0 0 181.97877912473632 -16.900526564437314 0 -16.900526564437314 -147.55230175284669 0 0 0 0 48.376449317744118 -16.57991429483809 0 -16.57991429483809 -99.148637264333956 0 0 0 0 99.841893932702078 -21.95498451388994 0 -21.95498451388994 -108.77879779919749 0 0 0 0 161.09857658881515 -70.879810508786477 0 -70.879810508786477 -114.96802367467899 0 0 0 0 104.35303471845691 -41.159446031651896 0 -41.159446031651896 -124.34095642068132 0 0 0 0 69.65392524949857 -53.472151848720387 0 -53.472151848720387 -108.83454624201477 0 0 0 0 69.597366053789301 -49.936155766652519 0 -49.936155766652519 -83.558393470542796 0 0 0 0 17.139120042760624 -1.9737989218738221 0 -1.9737989218738221 -99.286188903117363 0 0 0 0 17.635900553370448 -27.313190145916451 0 -27.313190145916451 -67.054959792338195 0 0 0 0 50.700090232407092 -35.031033366984047 0 -35.031033366984047 -90.304192956711631 0 0 0 0 67.430111693542131 -57.839588568196632 0 -57.839588568196632 -77.775062811269891 0 0 0 0 73.120270841631282 -95.730486099011614 0 -95.730486099011614 -51.604657218165812 0 0 0 0 53.737989552046201 -77.67362395031887 0 -77.67362395031887 -68.325999805609172 0 0 0 0 67.059172918689001 -163.56631819956601 0 -163.56631819956601 68.980024275906544 0 0 0 0 159.85016012533015 -145.31377842239453 0 -145.31377842239453 -120.66235189401777 0 0 0 0 174.05504124237632 -166.16828298135624 0 -166.16828298135624 -92.065676151149091 0 0 0 0 160.67362343486093 -110.18655881610175 0 -110.18655881610175 -119.78223196793624 0 0 0 0 125.55925578571259 -105.0030637834825 0 -105.0030637834825 -71.027612283338385 0 0 0 0 -3.8251525566720375 -62.062655036737851 0 -62.062655036737851 8.6413472076455946 0 0 0 0 -35.295009560177277 -95.640841224285396 0 -95.640841224285396 0.80005306597740855 0 0 0 0 -60.628349477778102 -18.375880299205164 0 -18.375880299205164 -14.434716838481108 0 0 0 0 4.6614345066809619 -58.995817614180851 0 -58.995817614180851 6.3696799941899371 0 0 0 0 -28.186596379331604 -47.048435504053487 0 -47.048435504053487 -36.191813128607464 0 0 0 0 -3.5956059346691305 -1.982902162056277 0 -1.982902162056277 -3.504579695216691 0 0 0 0 -23.175261338474229 -42.640580634355501 0 -42.640580634355501 -57.140337786120654 0 0 0 0 -46.018875286448747 2.4812726631716941 0 2.4812726631716941 -132.73324903357206 0 0 0 0 -3.2421329166550734 -4.5691781196789876 0 -4.5691781196789876 -5.7365590969113072 0 0 0 0 15.514717864964041 -26.853397139842855 0 -26.853397139842855 -59.756087268920965 0 0 0 0 -8.7667793049510117 -1.5907439715525147 0 -1.5907439715525147 -7.7950128584465403 0 0 0 0 -4.8147010001266608 -42.461263482793584 0 -42.461263482793584 13.268763599145586 0 0 0 0 -14.162459336082975 -17.663416597155447 0 -17.663416597155447 12.527176664796571 0 0 0 0 -17.766203861829126 -12.14062455682506 0 -12.14062455682506 -16.734728937939508 0 0 0 0 -1.7737933768067515 -5.9356317579960152 0 -5.9356317579960152 -14.704573754364503 0 0 0 0 0.45887786657861795 -2.4369746803195032 0 -2.4369746803195032 -2.9738700460436291 0 0 0 0 -140.68178208161862 -251.03057451292898 0 -251.03057451292898 -230.35420883855113 0 0 0 0 68.620684434114082 0.2233213650797552 0 0.2233213650797552 -19.843176791750011 0 0 0 0 -1.1556392179482415 -2.0243560181355686 0 -2.0243560181355686 -13.268914143939128 0 0 0 0 78.608016063772084 -73.90130335943104 0 -73.90130335943104 -11.820938937155006 0 0 0 0 -407.7949383719606 -292.14502374783115 0 -292.14502374783115 -89.507436024279741 0 0 0 0 -386.74603271691012 -530.01402806951228 0 -530.01402806951228 -275.53037373265397 0 0 0 0 -407.55470012194928 -550.15066473272236 0 -550.15066473272236 -295.01280384193524 0 0 0 0 -158.20026604087616 -357.85927051902763 0 -357.85927051902763 -419.93485738983509 0 0 0 0 -212.85223733395105 -223.06280962272649 0 -223.06280962272649 -59.780930847351556 0 0 0 0 24.861576119319125 -52.043657669825507 0 -52.043657669825507 -439.78920186782489 0 0 0 0 34.654922157287729 130.28562127906116 0 130.28562127906116 -90.356729291968804 0 0 0 0 -77.432238199711719 -30.720145568681801 0 -30.720145568681801 -502.545468304932 0 0 0 0 -62.741674332501134 95.417463403831789 0 95.417463403831789 230.9492004412532 0 0 0 0 -87.792772729171702 -171.73008328718424 0 -171.73008328718424 -176.88848167254037 0 0 0 0 -587.13567447529203 -800.50296639573935 0 -800.50296639573935 -302.19304415637635 0 0 0 0 -13.153747072416046 -5.5393322232861451 0 -5.5393322232861451 -1.6628954925013488 0 0 0 0 -455.84017763434167 -120.51901062752222 0 -120.51901062752222 -2.7844591912098622 0 0 0 0 -160.37669039696812 -398.82995658641994 0 -398.82995658641994 -783.73520281325909 0 0 0 0 -440.51470712632727 -437.39191152509011 0 -437.39191152509011 -98.958981816489541 0 0 0 0 -784.08087951506241 -716.36461068397693 0 -716.36461068397693 -325.45317861272633 0 0 0 0 -228.81531583292235 -219.96180526088574 0 -219.96180526088574 -106.34506318537024 0 0 0 0 -114.39228864841971 -180.39960901634913 0 -180.39960901634913 -297.56349073296224 0 0 0 0 -197.82916615975773 -133.91820138607727 0 -133.91820138607727 -162.01980830532921 0 0 0 0 -161.42164567337022 -94.159486932559957 0 -94.159486932559957 -404.35908491248665 0 0 0 0 -193.39197280995722 -271.60227850862429 0 -271.60227850862429 -689.82389446820525 0 0 0 0 -354.21658963133086 -386.40076888604017 0 -386.40076888604017 -308.26669039258377 0 0 0 0 -344.50760058624837 -392.48817006667377 0 -392.48817006667377 -321.29597183279839 0 0 0 0 150.54929437619376 89.253985682405073 0 89.253985682405073 -181.42343504154269 0 0 0 0 0.036239728133907967 -1.5081128147206275 0 -1.5081128147206275 -5.1536564994687808 0 0 0 0 -1042.4485057243892 -584.96353407712741 0 -584.96353407712741 -224.54625163439414 0 0 0 0 -456.46756583709794 -611.75080694754706 0 -611.75080694754706 -652.51901515854843 0 0 0 0 -487.09397544348917 -167.91674977810862 0 -167.91674977810862 -294.80833744079428 0 0 0 0 -142.64005964711123 -360.17994352786445 0 -360.17994352786445 -384.27009797591745 0 0 0 0 -365.61675577613096 -575.09618207803942 0 -575.09618207803942 -564.88956053025504 0 0 0 0 -51.283813032476246 -68.48438510709093 0 -68.48438510709093 -134.86851542886143 0 0 0 0 70.122666004601342 -166.71645777705271 0 -166.71645777705271 -670.40267714711626 0 0 0 0 -16.861066189996563 -51.175807672887458 0 -51.175807672887458 -136.9508279841175 0 0 0 0 -11.288607065144788 -141.26276278961541 0 -141.26276278961541 -255.19478485683794 0 0 0 0 -117.68317264836151 -389.71395287655832 0 -389.71395287655832 -757.19602533310899 0 0 0 0 -183.1425664327453 -388.37403093018838 0 -388.37403093018838 -391.15911775601126 0 0 0 0 -127.15901067715822 -128.42783357308508 0 -128.42783357308508 -300.10629566437638 0 0 0 0 -285.62847893740764 -365.8591004330483 0 -365.8591004330483 -351.56418197039602 0 0 0 0 -206.63873842529574 -138.98862397023913 0 -138.98862397023913 -51.238389931819256 0 0 0 0 -71.695486863245605 42.479694102279609 0 42.479694102279609 -16.482554986069772 0 0 0 0 -8.7226647689315371 -0.14403631601270206 0 -0.14403631601270206 -0.11776156155383077 0 0 0 0 -115.8237317600524 47.491394985155694 0 47.491394985155694 -31.859367727971403 0 0 0 0 -48.431281771659997 -204.55325044108213 0 -204.55325044108213 -226.71579930659573 0 0 0 0 -45.325068329331771 -34.788505661133968 0 -34.788505661133968 -89.90146790437575 0 0 0 0 3.0670863626219216 -27.397135941762826 0 -27.397135941762826 -292.89075794180826 0 0 0 0 55.860733374187475 3.7609298052884697 0 3.7609298052884697 -112.09723255211429 0 0 0 0 -7.9951720425073347 -0.076862384725359334 0 -0.076862384725359334 -0.076025038211113838 0 0 0 0 -109.74950201107458 -11.999103745885805 0 -11.999103745885805 73.136963413919148 0 0 0 0 -99.156453967858397 -112.71926424508638 0 -112.71926424508638 -140.31423691287637 0 0 0 0 70.886196337354704 -104.55299987893295 0 -104.55299987893295 -367.97934488230385 0 0 0 0 53.313556243780113 -163.70994684376274 0 -163.70994684376274 -448.80898973174044 0 0 0 0 -18.73885026104108 -143.71477296338071 0 -143.71477296338071 -375.06265232656733 0 0 0 0 84.629629811235645 -143.83903608327455 0 -143.83903608327455 -474.99546752225433 0 0 0 0 -209.05941464263742 -216.32116525405945 0 -216.32116525405945 -363.41600930346976 0 0 0 0 18.607343521127405 129.40361205172121 0 129.40361205172121 -300.86014566521771 0 0 0 0 -278.40101898783178 -275.54364874407111 0 -275.54364874407111 -275.18863348880404 0 0 0 0 -2.4080945082642273 1.3724022965345455 0 1.3724022965345455 -1.043870330668792 0 0 0 0 88.065816445541714 -43.443350252990058 0 -43.443350252990058 -453.31618218545191 0 0 0 0 -8.573087149496132 -103.71091195273766 0 -103.71091195273766 -210.74318522963949 0 0 0 0 -323.40555479366049 -101.86469912353641 0 -101.86469912353641 -215.58342913041997 0 0 0 0 24.538607088767094 -141.1936187818028 0 -141.1936187818028 -523.14654391998556 0 0 0 0 -5.8762015151635225 2.9723273032929569 0 2.9723273032929569 -1.7876715887842565 0 0 0 0 -171.27082436415003 120.9244163471667 0 120.9244163471667 -352.15036572605459 0 0 0 0 -73.447378588942229 -44.129906743535685 0 -44.129906743535685 -297.49445118753101 0 0 0 0 30.239913490007439 32.495635693433087 0 32.495635693433087 -243.18818919988553 0 0 0 0 709.56929830733861 -122.79240488940559 0 -122.79240488940559 -132.20954554277341 0 0 0 0 326.92745644775641 10.553061882073962 0 10.553061882073962 -279.36056175654812 0 0 0 0 305.49912690961355 -37.541538430192304 0 -37.541538430192304 -135.40789815918106 0 0 0 0 347.93009662225813 -27.095607864568592 0 -27.095607864568592 -140.64335204200324 0 0 0 0 382.43490033078706 -156.30051065458974 0 -156.30051065458974 -50.047464675277297 0 0 0 0 290.07795635042567 -60.923042974704003 0 -60.923042974704003 -59.792787760326064 0 0 0 0 184.44867029025045 -132.62020131742611 0 -132.62020131742611 31.272580069417018 0 0 0 0 9.7264713892272994 -11.048631460393153 0 -11.048631460393153 -39.994382206052251 0 0 0 0 3.0690764762126435 -7.9721820278088487 0 -7.9721820278088487 -42.079969912353974 0 0 0 0 353.04097772409659 -374.4897882327532 0 -374.4897882327532 274.03256993259129 0 0 0 0 2.2016080707912948 2.5236248044352436 0 2.5236248044352436 -8.4951108311992947 0 0 0 0 83.276076610978635 124.99072640145459 0 124.99072640145459 116.00007703970186 0 0 0 0 3.2871912926808307 3.848498706983591 0 3.848498706983591 -7.0553780830418305 0 0 0 0 -25.681651739068911 119.80915082051797 0 119.80915082051797 -221.50269648212998 0 0 0 0 766.89934394044394 156.17515338031808 0 156.17515338031808 -258.888809678494 0 0 0 0 40.229992467851844 19.090222333863494 0 19.090222333863494 -148.09610433186845 0 0 0 0 8.3076898104581147 13.423583414201396 0 13.423583414201396 -44.062562229886083 0 0 0 0 61.458346072926361 20.299667356735881 0 20.299667356735881 -153.58847581849841 0 0 0 0 148.55404679812636 26.342942392882833 0 26.342942392882833 -117.2510786337516 0 0 0 0 54.07087059780315 14.855624091691425 0 14.855624091691425 -112.208701995929 0 0 0 0 156.36770166971928 196.0704060126327 0 196.0704060126327 -188.21388325328007 0 0 0 0 131.72205031745398 22.387866623124864 0 22.387866623124864 -163.76056546414475 0 0 0 0 373.33155888547481 -90.210353428090457 0 -90.210353428090457 -184.82737958085272 0 0 0 0 266.27644523148047 2.8738422203605296 0 2.8738422203605296 -205.99692735946155 0 0 0 0 288.44560865914536 -169.43792328431664 0 -169.43792328431664 -157.84083182277391 0 0 0 0 408.1350818158171 -169.52634587538705 0 -169.52634587538705 -157.94001016391849 0 0 0 0 377.42648687876135 -146.15896195932874 0 -146.15896195932874 -150.37669789143547 0 0 0 0 545.56671980238752 -35.6722933613637 0 -35.6722933613637 -200.70043806056856 0 0 0 0 284.20199625165333 -105.8889674191214 0 -105.8889674191214 286.47238814430602 0 0 0 0 842.78956877536257 -375.55108804198971 0 -375.55108804198971 -51.25865677434922 0 0 0 0 275.78332805918672 -55.049862386377754 0 -55.049862386377754 -14.953388374997303 0 0 0 0 302.37981490939273 -290.23736441410801 0 -290.23736441410801 -58.962962259742199 0 0 0 0 159.04775264778073 -211.86395301666926 0 -211.86395301666926 -81.110214076070406 0 0 0 0 -34.52060210648051 -32.409075791361829 0 -32.409075791361829 -84.804797786697236 0 0 0 0 -28.873500283516478 -185.2699928205293 0 -185.2699928205293 -35.340291275853815 0 0 0 0 157.36808496227241 -174.23374648709796 0 -174.23374648709796 -83.479613269126276 0 0 0 0 126.48436525629313 -71.914426784669558 0 -71.914426784669558 -75.767838368235971 0 0 0 0 -2.8769644575440054 0.46882618566418444 0 0.46882618566418444 -0.40472576735364285 0 0 0 0 -21.201632627093204 26.317000904999077 0 26.317000904999077 15.431194482946012 0 0 0 0 65.096804185704968 -163.81397512364128 0 -163.81397512364128 -516.71626482351303 0 0 0 0 120.662288556985 115.78077126808421 0 115.78077126808421 -235.2741679060282 0 0 0 0 192.94901536425823 -199.19250499464761 0 -199.19250499464761 -264.95322859864245 0 0 0 0 -112.93027623857961 -85.8676294813813 0 -85.8676294813813 -238.23813787902327 0 0 0 0 133.37230852390758 54.042948680753398 0 54.042948680753398 -246.38245565555553 0 0 0 0 158.06074331352647 4.9204623438308772 0 4.9204623438308772 -309.46004140568584 0 0 0 0 291.13287207060421 48.122895077794965 0 48.122895077794965 -333.06287860342582 0 0 0 0 105.59626340370596 -119.07057055241967 0 -119.07057055241967 -368.63509456504835 0 0 0 0 206.43991143780841 127.52581046167506 0 127.52581046167506 -150.07586730967887 0 0 0 0 241.71307565877214 59.61301172388994 0 59.61301172388994 -274.56049920992882 0 0 0 0 202.93015752208157 91.948329053644557 0 91.948329053644557 -239.26740834484372 0 0 0 0 211.02423621726302 56.471500497435045 0 56.471500497435045 -142.20813395617733 0 0 0 0 261.36320587170849 58.095296014616906 0 58.095296014616906 -242.17695888984053 0 0 0 0 241.71872063537739 39.76358743093806 0 39.76358743093806 -207.3488708249206 0 0 0 0 352.71585498701097 -6.5197366781321762 0 -6.5197366781321762 -227.34182586905808 0 0 0 0 162.86716733878029 103.79271077037765 0 103.79271077037765 -234.27293145006115 0 0 0 0 285.17792301630834 -2.2266515675873961 0 -2.2266515675873961 -163.4815551460124 0 0 0 0 -1.0012277898344664 -14.409436856134811 0 -14.409436856134811 -4.8059779670352611 0 0 0 0 310.14461908802696 -10.955602904692569 0 -10.955602904692569 -227.93582304976735 0 0 0 0 33.080980238242773 5.6304384418726841 0 5.6304384418726841 -124.63761090746266 0 0 0 0 131.33401888177468 -41.203357306556427 0 -41.203357306556427 -228.40606706562181 0 0 0 0 88.761516054823005 50.399124917366862 0 50.399124917366862 -48.845521735151124 0 0 0 0 33.108310223658918 -10.756404129835573 0 -10.756404129835573 -115.98713085228883 0 0 0 0 24.16726243885887 1.4778952407401107 0 1.4778952407401107 -1.4806097278326718 0 0 0 0 64.687604985569124 71.827127206397563 0 71.827127206397563 -531.41021590460878 0 0 0 0 30.719411171241518 27.291199935771147 0 27.291199935771147 -307.23558869567205 0 0 0 0 96.39727517578649 -214.20234259838253 0 -214.20234259838253 -745.5034325595625 0 0 0 0 137.86413299971537 47.268896298515756 0 47.268896298515756 -142.84721547678055 0 0 0 0 140.01955936478998 77.321041768452346 0 77.321041768452346 -75.846341405631392 0 0 0 0 314.85075674517429 188.87986155995168 0 188.87986155995168 -194.76056065386729 0 0 0 0 170.92151303373794 76.908789155615523 0 76.908789155615523 -140.73979774539475 0 0 0 0 287.06890621894672 610.62745123761488 0 610.62745123761488 730.71684149001521 0 0 0 0 4.3729233822839504 1.4387573959673432 0 1.4387573959673432 -2.1368254904486932 0 0 0 0 170.05280617081553 267.89143308426355 0 267.89143308426355 217.22350792667567 0 0 0 0 -51.796242561442341 -27.578102987715283 0 -27.578102987715283 -815.03025767733561 0 0 0 0 14.178305537018673 3.41506471981441 0 3.41506471981441 -4.8742844238372882 0 0 0 0 -427.45928085443302 -130.46214365802007 0 -130.46214365802007 -840.73552335064414 0 0 0 0 56.500383107199013 420.55311878587054 0 420.55311878587054 -602.42120133796561 0 0 0 0 -48.113444972541402 -112.25559048608193 0 -112.25559048608193 -1216.9831980953822 0 0 0 0 212.83334764378196 -90.609858865096612 0 -90.609858865096612 -1257.978899517133 0 0 0 0 417.10505800341343 -278.6989386182031 0 -278.6989386182031 -1933.6521676980919 0 0 0 0 137.4916552417335 -322.82025077752314 0 -322.82025077752314 -371.37478597166046 0 0 0 0 56.147075083204982 375.65725853615368 0 375.65725853615368 -63.16644900081883 0 0 0 0 -2.2888628695198463 3.3142655734597017 0 3.3142655734597017 -4.3278675223892122 0 0 0 0 -32.630887124229048 68.908426928021072 0 68.908426928021072 186.35990662775293 0 0 0 0 -17.96198228377034 286.64545919189186 0 286.64545919189186 -131.40480084369483 0 0 0 0 4.0135699439088057 107.85720655337718 0 107.85720655337718 -134.58252125504828 0 0 0 0 -46.529300419175343 86.587859731153003 0 86.587859731153003 -1.7519796311607934 0 0 0 0 64.083018708770396 243.29772981244605 0 243.29772981244605 -641.19325597574061 0 0 0 0 68.141551158314542 204.25235555201652 0 204.25235555201652 -439.20720093702403 0 0 0 0 -36.457320794499537 -17.211679835863833 0 -17.211679835863833 -11.588772776172846 0 0 0 0 -8.7202592777975951 79.369264389224554 0 79.369264389224554 -366.17132907393716 0 0 0 0 22.308760658637766 -78.933810906110011 0 -78.933810906110011 -560.17300748094203 0 0 0 0 3.7960461305172615 -1.9914799536181249 0 -1.9914799536181249 -0.73377040506198199 0 0 0 0 175.97291201068037 152.75586436501726 0 152.75586436501726 -791.37100738743902 0 0 0 0 113.53486749954618 69.103895521112463 0 69.103895521112463 -533.38990413142164 0 0 0 0 44.28491154826952 182.00835891468523 0 182.00835891468523 -668.27864898850748 0 0 0 0 148.08750949462274 130.30899639024392 0 130.30899639024392 -751.86045828398346 0 0 0 0 221.78704003111852 120.86577362347089 0 120.86577362347089 -821.84807836349501 0 0 0 0 166.98091723121252 -35.56465478491009 0 -35.56465478491009 -1232.4858445197788 0 0 0 0 170.46755841135746 421.75128863476493 0 421.75128863476493 -922.00328307339805 0 0 0 0 171.16633051349891 147.97857579564698 0 147.97857579564698 -755.81716322085413 0 0 0 0 131.58300710041635 337.6808951490766 0 337.6808951490766 -1224.5750144230988 0 0 0 0 -727.32718973995543 271.40990347265688 0 271.40990347265688 -688.92253815532968 0 0 0 0 -119.42955898012951 648.93751855034134 0 648.93751855034134 -1363.6929120128216 0 0 0 0 74.810518934358697 149.91172015490338 0 149.91172015490338 -393.0092007201747 0 0 0 0 -43.287225893285722 -15.692712448812017 0 -15.692712448812017 -385.89207165427069 0 0 0 0 -290.6902099298577 -392.51188804803769 0 -392.51188804803769 -928.77581387379905 0 0 0 0 -7.4189845098662772 -91.271002656099881 0 -91.271002656099881 -232.96435359803218 0 0 0 0 118.89769588265153 -208.35084129863026 0 -208.35084129863026 -356.78817370961769 0 0 0 0 666.2781769478861 414.43819562166027 0 414.43819562166027 -841.73478424188579 0 0 0 0 354.67783409864569 319.1025967119931 0 319.1025967119931 -1270.3091273759383 0 0 0 0 309.82892592747476 410.12976103579467 0 410.12976103579467 -589.54721084784251 0 0 0 0 7.2730656924504729 276.87785271393295 0 276.87785271393295 155.24997577138129 0 0 0 0 -218.76864327133171 93.410115659974508 0 93.410115659974508 -80.086331420301576 0 0 0 0 -286.32958726780271 253.30976347999604 0 253.30976347999604 -273.92871890021343 0 0 0 0 -15.300343309409072 65.457909000018844 0 65.457909000018844 -168.09310741220543 0 0 0 0 14.542209003064272 -302.5236293332382 0 -302.5236293332382 -926.66772535989094 0 0 0 0 -1.1447514361984279 3.3180210554678169 0 3.3180210554678169 -11.433194791908392 0 0 0 0 -1124.7772306255465 446.13177026983067 0 446.13177026983067 -213.17518429105257 0 0 0 0 -2.1314861222301884 3.2235787976423573 0 3.2235787976423573 -32.930606903487558 0 0 0 0 -11.00577640134361 10.122663315592945 0 10.122663315592945 -58.271111590336659 0 0 0 0 -311.76927805376727 30.62954693116626 0 30.62954693116626 -80.190354056980141 0 0 0 0 -5.5083401529514475 -6.4147335274854811 0 -6.4147335274854811 -23.923696580667809 0 0 0 0 93.113381206992472 4.2918486548269357 0 4.2918486548269357 -68.159780752226652 0 0 0 0 -79.546013823392059 78.799959067991949 0 78.799959067991949 -83.120475459982117 0 0 0 0 24.411080040357774 38.655437286477536 0 38.655437286477536 -187.20713982043526 0 0 0 0 9.9140193271523458 33.608670405439625 0 33.608670405439625 -67.153030173576553 0 0 0 0 54.225367486385949 -6.656311466707848 0 -6.656311466707848 -120.57618574074877 0 0 0 0 99.651332121855376 31.847644509041857 0 31.847644509041857 -79.84663010314398 0 0 0 0 33.527475188080643 -18.95736909896732 0 -18.95736909896732 -72.991808871229296 0 0 0 0 -12.734784221675 -23.671042871952523 0 -23.671042871952523 -54.984750975127099 0 0 0 0 7.8387272584842407 5.5244464002682747 0 5.5244464002682747 -18.780384363690771 0 0 0 0 -188.58173002827243 -21.219815345000825 0 -21.219815345000825 -76.034169688166003 0 0 0 0 -104.09547776051477 -124.14213572556037 0 -124.14213572556037 -113.02368824061705 0 0 0 0 -23.118122340732953 61.254520128881268 0 61.254520128881268 -207.19553659100347 0 0 0 0 21.984961640686379 221.58110368980851 0 221.58110368980851 -6.9947983781603398 0 0 0 0 -411.03841261385242 -50.13046806982311 0 -50.13046806982311 -79.76624257874937 0 0 0 0 135.72918774548998 226.33476426653579 0 226.33476426653579 94.602202652822598 0 0 0 0 -0.9010940685323483 7.7615403633821316 0 7.7615403633821316 -80.605656232352999 0 0 0 0 -65.715584692152333 287.98357119168941 0 287.98357119168941 179.44416201298009 0 0 0 0 -50.771267075779178 13.730622056904394 0 13.730622056904394 -79.764660552391433 0 0 0 0 -264.71687018712691 45.216530088258878 0 45.216530088258878 273.06708684000841 0 0 0 0 -224.64910631390558 234.73129950764678 0 234.73129950764678 879.08038931540796 0 0 0 0 -19.908964340531384 22.008819746815789 0 22.008819746815789 221.57663810844679 0 0 0 0 -143.96073738670202 141.3367463893328 0 141.3367463893328 176.53538835437212 0 0 0 0 -150.09491222408542 151.11183546985194 0 151.11183546985194 356.38442709323863 0 0 0 0 -95.365772616318282 132.8345953327771 0 132.8345953327771 75.435137389664305 0 0 0 0 -56.646976316726068 144.7933979585323 0 144.7933979585323 -12.967009054387745 0 0 0 0 -225.78602995062101 53.812624810886518 0 53.812624810886518 29.882809058872226 0 0 0 0 -58.115462065848988 76.285667706448294 0 76.285667706448294 187.83465261015226 0 0 0 0 278.89563072123201 71.471900383541652 0 71.471900383541652 43.120586951656151 0 0 0 0 -3.3036951518705422 5.9104729802231599 0 5.9104729802231599 -7.835622791186168 0 0 0 0 -66.047114193552261 50.157838028890183 0 50.157838028890183 32.301233036618214 0 0 0 0 59.540322511133127 207.91995968873016 0 207.91995968873016 12.270993382000597 0 0 0 0 289.59838167196722 356.77157640933183 0 356.77157640933183 43.189025995507109 0 0 0 0 67.612861407010314 9.9193809725009032 0 9.9193809725009032 94.992322592624987 0 0 0 0 119.64988238174055 -214.2652057269363 0 -214.2652057269363 -617.35020226266352 0 0 0 0 184.34916246240664 -21.829661063001367 0 -21.829661063001367 -997.30014635361294 0 0 0 0 195.56080999975393 -86.483025846773216 0 -86.483025846773216 -671.14473343751888 0 0 0 0 60.274007630760025 -112.32350253513869 0 -112.32350253513869 -655.73494575146879 0 0 0 0 58.775489388175629 156.57761993658642 0 156.57761993658642 -587.50110108626177 0 0 0 0 92.441760810848791 -19.78464874958263 0 -19.78464874958263 -714.057014069047 0 0 0 0 -63.255524410476937 320.78707910689991 0 320.78707910689991 -789.83204871695125 0 0 0 0 61.437012787428102 94.228457224668091 0 94.228457224668091 -522.33947223504947 0 0 0 0 -303.6539301140001 455.56877586142764 0 455.56877586142764 -420.45375507439167 0 0 0 0 -79.860868557394042 130.93610842227622 0 130.93610842227622 -1412.5376234024152 0 0 0 0 -2.7106395169873139 2.8845090967950782 0 2.8845090967950782 -2.3848419408076467 0 0 0 0 -1.0804254845679679 191.64250243953938 0 191.64250243953938 141.44013197411823 0 0 0 0 260.91340156084698 -160.16247085410942 0 -160.16247085410942 -1211.0220144277337 0 0 0 0 2.8955134467186099 99.3272313260901 0 99.3272313260901 -236.81742860107624 0 0 0 0 -1.8056638652319617 6.6872618668561898 0 6.6872618668561898 -99.641720920545708 0 0 0 0 315.40307133893293 366.07996992933477 0 366.07996992933477 -3081.971168053773 0 0 0 0 219.07205178379081 -722.49873910779206 0 -722.49873910779206 -367.76510235643218 0 0 0 0 295.42542198874798 54.785523852886627 0 54.785523852886627 -2039.1606988247077 0 0 0 0 -375.56638923749415 718.91633308650671 0 718.91633308650671 -1372.4537685111809 0 0 0 0 -3.1438720501037736 -4.2332788970784279 0 -4.2332788970784279 -9.1501774758789054 0 0 0 0 -438.6625489977414 758.76868422471307 0 758.76868422471307 1634.7496979212083 0 0 0 0 78.333757799206069 37.104644247061515 0 37.104644247061515 -373.18754724535574 0 0 0 0 56.140023729414679 -25.230855401452573 0 -25.230855401452573 -364.86849400650954 0 0 0 0 21.582534168124766 -18.669124121273853 0 -18.669124121273853 -250.01614047323528 0 0 0 0 34.550969144736882 -0.73131578473476111 0 -0.73131578473476111 -254.45839890881325 0 0 0 0 38.532860076276847 -29.707068738978705 0 -29.707068738978705 -199.49039522079329 0 0 0 0 59.579379594419152 21.788988784624962 0 21.788988784624962 -237.80165157919691 0 0 0 0 -103.16021916274622 -180.8428456785623 0 -180.8428456785623 -122.09728301496762 0 0 0 0 -102.74896891316556 -213.66043633513033 0 -213.66043633513033 -389.64914117113949 0 0 0 0 -23.41323217140598 -67.36123467424477 0 -67.36123467424477 -249.12247102796391 0 0 0 0 -48.835592401926988 -152.1598672851469 0 -152.1598672851469 -381.94060501435888 0 0 0 0 19.809205571800703 -48.053900631370198 0 -48.053900631370198 -463.16801391887202 0 0 0 0 32.446176494893734 -24.974764454018441 0 -24.974764454018441 -327.46467327438404 0 0 0 0 11.721211626554577 -48.941259680141229 0 -48.941259680141229 -333.77425270045205 0 0 0 0 12.723214923486012 -37.792236357080128 0 -37.792236357080128 -224.02026548670256 0 0 0 0 52.340588583538192 13.599612552061444 0 13.599612552061444 -329.75858918488302 0 0 0 0 61.378578037743864 21.750195788867131 0 21.750195788867131 -325.74409180139264 0 0 0 0 82.16808874966955 71.517600842751563 0 71.517600842751563 -298.71554675648804 0 0 0 0 50.07609755153635 8.2368386940274831 0 8.2368386940274831 -244.10177402979753 0 0 0 0 26.705833385367896 20.738796114102115 0 20.738796114102115 -106.31553550263197 0 0 0 0 33.867988489710115 36.3687953642293 0 36.3687953642293 -220.27181273609312 0 0 0 0 -1.3884900873126753 23.815681427178788 0 23.815681427178788 -123.67052776240598 0 0 0 0 -10.216676848122006 -10.530215014226997 0 -10.530215014226997 -100.05823507529021 0 0 0 0 -5.7933945032045813 13.226665845336356 0 13.226665845336356 26.715578061659471 0 0 0 0 92.240013697162794 -38.256104386524385 0 -38.256104386524385 -9.4027891004479898 0 0 0 0 47.206768478412414 26.630634007458866 0 26.630634007458866 -39.176329044283193 0 0 0 0 2.4750332435118665 -0.98030136590679717 0 -0.98030136590679717 -0.86031184200407296 0 0 0 0 -64.466989455144358 105.37038400522579 0 105.37038400522579 -9.7445523134301766 0 0 0 0 -52.221295289331465 14.702123984383434 0 14.702123984383434 -41.493148332247074 0 0 0 0 -1.7467406803827856 2.4326708111531516 0 2.4326708111531516 -1.2228881960178342 0 0 0 0 18.150692610252008 43.155642223093309 0 43.155642223093309 -4.1678292115248041 0 0 0 0 13.890165924676694 23.211189894765994 0 23.211189894765994 21.625653276554658 0 0 0 0 77.794225328943867 -59.590698320811498 0 -59.590698320811498 134.38308546600456 0 0 0 0 -23.700145810413233 39.445628678975481 0 39.445628678975481 55.085922545593348 0 0 0 0 8.1550142980195233 -16.553587784459523 0 -16.553587784459523 108.75269268597185 0 0 0 0 124.62662569998429 -37.361918180244174 0 -37.361918180244174 73.57611026585073 0 0 0 0 -3.7604457017641835 -1.1934094876869494 0 -1.1934094876869494 96.867606093917857 0 0 0 0 209.73693989325511 217.03911919178427 0 217.03911919178427 112.05473720561713 0 0 0 0 139.18061831744308 -55.591406735387864 0 -55.591406735387864 77.8191608142115 0 0 0 0 0.099133454934282383 -0.90636085525603249 0 -0.90636085525603249 0.49284641501671445 0 0 0 0 35.97341913987475 -122.80497743942396 0 -122.80497743942396 -654.1805146885963 0 0 0 0 -13.466965436318787 -92.612426440506169 0 -92.612426440506169 -622.86337353169802 0 0 0 0 -2.1091584774819552 0.4719273971070308 0 0.4719273971070308 -0.063139446882928496 0 0 0 0 71.895786908735317 -14.464043151729129 0 -14.464043151729129 84.106129137617245 0 0 0 0 -27.847421136972116 -202.25931711982412 0 -202.25931711982412 -593.83175843585923 0 0 0 0 1.4510725702915011 -1.0234890855939227 0 -1.0234890855939227 0.74162631527411804 0 0 0 0 -27.425447877845727 -48.27449866265124 0 -48.27449866265124 10.235585278438521 0 0 0 0 19.929286692742608 69.949121019017184 0 69.949121019017184 -52.48292910255077 0 0 0 0 -17.03231374807001 -154.13651259892504 0 -154.13651259892504 -523.99697952051065 0 0 0 0 15.587417524825469 -33.407353272448745 0 -33.407353272448745 -516.38688264283701 0 0 0 0 16.742231613774493 -78.266141294858244 0 -78.266141294858244 -568.32768917765861 0 0 0 0 22.388266560661577 -49.986977678570838 0 -49.986977678570838 -689.67503276618118 0 0 0 0 -34.381830481266661 29.979893194118631 0 29.979893194118631 -560.04930323713052 0 0 0 0 3.6890971421016729 -7.7574361663209856 0 -7.7574361663209856 -524.12215740166357 0 0 0 0 31.332044591783415 43.489026618786738 0 43.489026618786738 -515.00295892167196 0 0 0 0 42.785255199712992 -11.75196709636657 0 -11.75196709636657 -557.1494610687987 0 0 0 0 43.84265069833782 -74.390401413460495 0 -74.390401413460495 -622.19473366007742 0 0 0 0 -29.210614376930607 -69.717898155486182 0 -69.717898155486182 -593.743871825518 0 0 0 0 90.459526930113498 -1.0299879732501722 0 -1.0299879732501722 -556.75432397888471 0 0 0 0 20.096388713938723 8.5371531110013166 0 8.5371531110013166 -532.94433254206524 0 0 0 0 35.170609877652169 49.125063400093495 0 49.125063400093495 -498.93967953970787 0 0 0 0 29.092435924504116 49.991063923599086 0 49.991063923599086 -463.13572174095316 0 0 0 0 25.184357922031722 33.842657524578954 0 33.842657524578954 -443.01934094180615 0 0 0 0 53.017442331180064 29.936234128730575 0 29.936234128730575 -447.95332293974207 0 0 0 0 52.914575065675308 28.145717670926388 0 28.145717670926388 -443.51175666958443 0 0 0 0 108.03435245990113 -3.7748660864308476 0 -3.7748660864308476 -456.59905076774157 0 0 0 0 87.16484673823652 27.370877976965858 0 27.370877976965858 -475.41799392595567 0 0 0 0 88.260625931907271 20.366848091427528 0 20.366848091427528 -478.38730796281743 0 0 0 0 117.67289035452995 25.70325542847786 0 25.70325542847786 -495.54146060555649 0 0 0 0 106.46973621030884 33.878240892450776 0 33.878240892450776 -498.93328655547521 0 0 0 0 99.805548804526552 45.99150939095307 0 45.99150939095307 -493.93409855749633 0 0 0 0 38.987989386805566 28.805151542903332 0 28.805151542903332 -487.42899485622547 0 0 0 0 67.268991094417288 39.328927408132586 0 39.328927408132586 -494.40484273548645 0 0 0 0 68.471586893771018 34.718133877115179 0 34.718133877115179 -478.25615757810374 0 0 0 0 41.47175344471907 5.7129486431877012 0 5.7129486431877012 -480.47993633964506 0 0 0 0 78.016308548296365 41.777472901270812 0 41.777472901270812 -506.31502044038643 0 0 0 0 83.309670442737115 30.413406138210121 0 30.413406138210121 -488.08921117568934 0 0 0 0 112.91046803942299 40.536568839124811 0 40.536568839124811 -494.07737946558336 0 0 0 0 97.989766317103204 46.69115557121404 0 46.69115557121404 -472.71835048026696 0 0 0 0 94.410310215094796 36.114292432779621 0 36.114292432779621 -475.81785809100984 0 0 0 0 65.18014943592425 17.240513871656731 0 17.240513871656731 -419.59509194484417 0 0 0 0 59.110810452218175 6.385921411642812 0 6.385921411642812 -423.95082588108198 0 0 0 0 25.869161565016839 -55.662421998798891 0 -55.662421998798891 -454.18792580363515 0 0 0 0 65.186910654272253 17.080788669079766 0 17.080788669079766 -478.13558459369233 0 0 0 0 42.915796942088491 105.72364584699972 0 105.72364584699972 -231.66260874828004 0 0 0 0 114.70060649256106 64.086794953831941 0 64.086794953831941 -422.7229542266723 0 0 0 0 89.556176944186518 94.311685019627475 0 94.311685019627475 -412.20668772398494 0 0 0 0 85.760764357590233 49.187468364005326 0 49.187468364005326 -418.23765366133011 0 0 0 0 96.101517870738462 45.909078587937984 0 45.909078587937984 -419.12475926318166 0 0 0 0 114.76209365840623 62.835668533098215 0 62.835668533098215 -470.67158398944594 0 0 0 0 119.32182715023737 52.381897074996232 0 52.381897074996232 -477.08213385852287 0 0 0 0 157.95032445502147 102.48162016845527 0 102.48162016845527 -484.95481164469675 0 0 0 0 149.31640940699435 52.09634083297351 0 52.09634083297351 -553.27907999719901 0 0 0 0 157.98344854169045 25.164752608816343 0 25.164752608816343 -541.27898680706676 0 0 0 0 129.11221290883987 48.413030969357351 0 48.413030969357351 -494.69231644607908 0 0 0 0 131.17690602342191 39.162422262008477 0 39.162422262008477 -522.97591357619967 0 0 0 0 149.47971658913593 58.868652267716243 0 58.868652267716243 -501.99610308153933 0 0 0 0 139.64871690765722 24.015068529304699 0 24.015068529304699 -518.56856384281855 0 0 0 0 125.68468465854494 15.112691877717225 0 15.112691877717225 -498.60898353831726 0 0 0 0 145.31747493723378 18.871814594840544 0 18.871814594840544 -531.42169846856996 0 0 0 0 145.11450675359083 -16.041499763494357 0 -16.041499763494357 -536.71513436633268 0 0 0 0 111.87510417844169 1.039292504923651 0 1.039292504923651 -497.89854280793134 0 0 0 0 131.69396903584129 -23.804281184475258 0 -23.804281184475258 -466.98444576106704 0 0 0 0 176.84493336378364 -53.136541157840838 0 -53.136541157840838 -647.27748770905237 0 0 0 0 164.20481179594208 -51.67336889242506 0 -51.67336889242506 -479.90311954619392 0 0 0 0 151.84159059700505 30.322310519718485 0 30.322310519718485 -588.9631532065323 0 0 0 0 246.83267120633718 70.060260775724601 0 70.060260775724601 -1185.8041315634764 0 0 0 0 -167.46577258392972 -403.73226054589395 0 -403.73226054589395 -677.82258306668518 0 0 0 0 158.72299274609759 35.000822858594802 0 35.000822858594802 -594.8250127243009 0 0 0 0 -2.9373050239576184 4.7795664167523642 0 4.7795664167523642 -6.6781746219140814 0 0 0 0 -14.53108743923076 91.79773488405408 0 91.79773488405408 -60.585226075872924 0 0 0 0 -16.845388639937482 383.66814771284044 0 383.66814771284044 -403.99149178763037 0 0 0 0 0.36895144132358837 257.6573860253302 0 257.6573860253302 -410.87784641339749 0 0 0 0 73.927650532736152 62.164736437232932 0 62.164736437232932 -246.22442570688509 0 0 0 0 161.77581912748747 100.72281641509699 0 100.72281641509699 -639.15117998212372 0 0 0 0 79.918725108669605 -160.04443191152905 0 -160.04443191152905 -300.76114955081948 0 0 0 0 6.8262471306456902 -5.5400309418016285 0 -5.5400309418016285 -107.09429787657083 0 0 0 0 346.91837674260023 -125.74757364839843 0 -125.74757364839843 -567.15583245003654 0 0 0 0 312.74808208031027 21.15654618276676 0 21.15654618276676 -1041.4136820165795 0 0 0 0 -668.50891811542124 -603.53889712181672 0 -603.53889712181672 -331.82358915578516 0 0 0 0 151.69476538455092 -164.89087954557363 0 -164.89087954557363 -327.0338578057972 0 0 0 0 154.39576718598255 -81.176727741487412 0 -81.176727741487412 -432.51103394033271 0 0 0 0 138.80663216149333 14.237439214804908 0 14.237439214804908 -295.86225513243335 0 0 0 0 144.69473494770864 20.453561835694927 0 20.453561835694927 -463.15979724192221 0 0 0 0 156.86069713850884 79.823015515741645 0 79.823015515741645 -324.91838320537499 0 0 0 0 205.97556123928189 -43.678667102378995 0 -43.678667102378995 -406.66234719851491 0 0 0 0 113.197557915581 1.0693323288337524 0 1.0693323288337524 -94.964357065633521 0 0 0 0 124.16395709085918 -41.014832873801879 0 -41.014832873801879 -367.89184078088147 0 0 0 0 1.3263059336742717 -3.4541365866922078 0 -3.4541365866922078 -107.86239047966768 0 0 0 0 0.34411180617433601 -3.6325505664185442 0 -3.6325505664185442 -35.582099051117268 0 0 0 0 81.966471865215681 -391.44123150696123 0 -391.44123150696123 -312.09050813727299 0 0 0 0 6.1071542286435943 -26.715798218704549 0 -26.715798218704549 -289.96040561329755 0 0 0 0 1.1039908593307333 16.149891631303433 0 16.149891631303433 -66.623877588162657 0 0 0 0 -49.140050704976602 32.310899157018866 0 32.310899157018866 -81.308646618388593 0 0 0 0 -1.5687459386833353 16.178149787652789 0 16.178149787652789 -83.776286544373107 0 0 0 0 -128.78539708829157 80.109908413804078 0 80.109908413804078 -152.77243347219519 0 0 0 0 15.562290768960338 13.955303538603403 0 13.955303538603403 -45.75811812896427 0 0 0 0 -8.4721783401589779 25.207782003842112 0 25.207782003842112 -89.431319161528336 0 0 0 0 3.7796049970202148 163.28477342801489 0 163.28477342801489 -57.067453417476827 0 0 0 0 70.109430355543736 136.41892101280291 0 136.41892101280291 -891.41699420502255 0 0 0 0 -27.415627672913963 23.097267086046042 0 23.097267086046042 -25.797007501839065 0 0 0 0 226.62489319375709 -9.1683236208482413 0 -9.1683236208482413 -143.69226429148239 0 0 0 0 119.40913200910109 64.364441311405244 0 64.364441311405244 -248.88158931704675 0 0 0 0 94.913761103947763 108.11331347701707 0 108.11331347701707 -233.69596062454366 0 0 0 0 35.300452849578505 29.2418390243256 0 29.2418390243256 -130.74133013757091 0 0 0 0 126.47375859962449 -65.087401524593588 0 -65.087401524593588 -112.99917376689336 0 0 0 0 121.79317284085414 -67.059282103045007 0 -67.059282103045007 -75.923646108465618 0 0 0 0 108.62979724500292 -63.67521144492639 0 -63.67521144492639 -97.290239026286145 0 0 0 0 78.537158641302085 -73.05864913680125 0 -73.05864913680125 -39.788841809309815 0 0 0 0 2.389227866415105 -1.1597962492705136 0 -1.1597962492705136 -12.12648096379128 0 0 0 0 151.00622274234956 -97.626608826160009 0 -97.626608826160009 -74.177000630057591 0 0 0 0 17.585494298593403 71.114048871397245 0 71.114048871397245 65.653789505864552 0 0 0 0 5.4090244177241402 -13.690234922516538 0 -13.690234922516538 -87.313006034441059 0 0 0 0 -63.859039196744561 8.0820770631689811 0 8.0820770631689811 28.297287967485317 0 0 0 0 267.33030972082997 67.973487988267152 0 67.973487988267152 -104.37866108340677 0 0 0 0 75.543112210940308 15.062415598393272 0 15.062415598393272 -116.82496221484871 0 0 0 0 76.642066536765924 49.976095064270339 0 49.976095064270339 129.68891280706157 0 0 0 0 130.52929239952573 -93.74469179983862 0 -93.74469179983862 1.6314185622213699 0 0 0 0 -46.494187402076932 1.9643125471193343 0 1.9643125471193343 -16.114094667951576 0 0 0 0 -2.5291006342073814 2.1612371800930177 0 2.1612371800930177 -0.78987550664609785 0 0 0 0 73.437545364331527 -74.628494269243674 0 -74.628494269243674 -932.6200603990801 0 0 0 0 267.33615157024087 56.1338205953125 0 56.1338205953125 -17.715021456635441 0 0 0 0 262.95311071751712 347.72832688863127 0 347.72832688863127 63.385205712227616 0 0 0 0 52.888425510876914 272.96756069635376 0 272.96756069635376 -1172.5189789090437 0 0 0 0 0.23961141062985547 -1.2263405287899829 0 -1.2263405287899829 0.99019601335249519 0 0 0 0 -94.995008879828674 262.38447985724633 0 262.38447985724633 -826.78202679818241 0 0 0 0 -242.21109038598206 -14.517355999538267 0 -14.517355999538267 -780.49647975819244 0 0 0 0 -132.95806591198016 119.4595624400572 0 119.4595624400572 -484.70347294441308 0 0 0 0 11.334957862611191 175.93012936156447 0 175.93012936156447 -685.16405977263639 0 0 0 0 70.181504265423428 149.39198266509266 0 149.39198266509266 -750.79102904515821 0 0 0 0 -29.725555811932281 17.805190971128468 0 17.805190971128468 -539.86012552477223 0 0 0 0 -143.56426422504774 244.62622526302584 0 244.62622526302584 -398.16173325214913 0 0 0 0 15.490644682824495 118.44462126158032 0 118.44462126158032 -812.00388107486833 0 0 0 0 279.11120978620966 287.6541659785471 0 287.6541659785471 -848.53242204251364 0 0 0 0 166.42388439153729 39.341539434561128 0 39.341539434561128 -1307.5228221720754 0 0 0 0 -139.4138352953787 666.15181732323254 0 666.15181732323254 -1078.4197108630397 0 0 0 0 338.02838925624019 87.519594346784288 0 87.519594346784288 -1254.8930643603398 0 0 0 0 -59.799336376753672 -135.88654181464699 0 -135.88654181464699 -285.54205385630485 0 0 0 0 364.29901314879135 357.29555699798402 0 357.29555699798402 -411.80843669994647 0 0 0 0 73.994701492705644 -104.8172407138627 0 -104.8172407138627 -258.48073173120065 0 0 0 0 0.32438765382093315 6.554906079322965 0 6.554906079322965 -12.839731308870853 0 0 0 0 -429.86424247612558 647.68875090037182 0 647.68875090037182 -793.24183684452146 0 0 0 0 43.184227252531514 513.74027166721135 0 513.74027166721135 -795.18025280366419 0 0 0 0 -36.499446820786602 382.21150767546499 0 382.21150767546499 -473.0953855122716 0 0 0 0 -33.347666634741472 417.76531701822387 0 417.76531701822387 -1177.6020584963335 0 0 0 0 -3.9962790450366041 22.825693413951143 0 22.825693413951143 -97.705086422951737 0 0 0 0 -131.52527133922376 348.61983928360792 0 348.61983928360792 -1046.1773665963069 0 0 0 0 3.0936324668713429 11.762741723569365 0 11.762741723569365 -16.969205382184128 0 0 0 0 726.99150795230889 -542.78788906440127 0 -542.78788906440127 -221.22108728453259 0 0 0 0 73.007275817688424 -80.182547011104589 0 -80.182547011104589 -59.720342986240212 0 0 0 0 266.74736817324811 -73.688892723493154 0 -73.688892723493154 77.245020300015767 0 0 0 0 9.1197190539589919 -18.772236798882204 0 -18.772236798882204 -10.746384247109457 0 0 0 0 1135.3569062100778 25.115020511621879 0 25.115020511621879 -330.98563262257721 0 0 0 0 115.50339017304577 -188.0768633691514 0 -188.0768633691514 -438.23236923092736 0 0 0 0 14.727667410240899 -24.076404896454928 0 -24.076404896454928 -117.84689962479247 0 0 0 0 19.268278377176102 -251.96097626199298 0 -251.96097626199298 -149.83061881425601 0 0 0 0 -538.56873170908511 165.30911877822655 0 165.30911877822655 -558.95603947206837 0 0 0 0 -138.47102868570983 -76.86418484940441 0 -76.86418484940441 -871.64442556567883 0 0 0 0 -170.17004640382947 -24.526552580296993 0 -24.526552580296993 -275.23167580293011 0 0 0 0 80.047900425649232 174.34531279290559 0 174.34531279290559 -337.11108009144664 0 0 0 0 -47.049732993120415 96.855345321384561 0 96.855345321384561 65.447401695398696 0 0 0 0 282.096705543589 1038.3279529898377 0 1038.3279529898377 -710.8311566425873 0 0 0 0 -71.374926427224636 -223.9361782690853 0 -223.9361782690853 -176.11646802571295 0 0 0 0 38.644439262219748 -62.030682619360789 0 -62.030682619360789 -690.7692383687131 0 0 0 0 7.7677269497762609 -74.542221345719554 0 -74.542221345719554 82.083300682282243 0 0 0 0 26.766535815998395 20.019559436497389 0 20.019559436497389 -35.300242498911302 0 0 0 0 16.634096683270435 11.412523017541554 0 11.412523017541554 2.193314836855262 0 0 0 0 39.092642939694997 -15.554803979274539 0 -15.554803979274539 -75.072289844723855 0 0 0 0 -121.52714633884898 349.06849368638302 0 349.06849368638302 -441.2778126423085 0 0 0 0 4.4412810713999384 -4.5236904890783407 0 -4.5236904890783407 -10.737169337538852 0 0 0 0 18.909249615260251 4.125748100864655 0 4.125748100864655 -190.45029061397145 0 0 0 0 -18.168502748529136 82.583296505607905 0 82.583296505607905 -120.95210274653255 0 0 0 0 158.28421512086607 -33.270757544806486 0 -33.270757544806486 -316.42378825633932 0 0 0 0 12.516332302268154 10.181538278324851 0 10.181538278324851 -11.207916025655177 0 0 0 0 59.737995313975262 -197.74290477335308 0 -197.74290477335308 -28.500275511622021 0 0 0 0 74.580024092912026 -23.888540902900786 0 -23.888540902900786 -163.73708567013819 0 0 0 0 19.240187653652288 -23.543485319486756 0 -23.543485319486756 -114.18579772783369 0 0 0 0 2.033244920975342 14.710569642406874 0 14.710569642406874 -89.248655325736692 0 0 0 0 51.895257836484234 -31.23133091751879 0 -31.23133091751879 -143.61421516106202 0 0 0 0 -42.896875284503039 23.539112042803026 0 23.539112042803026 -32.990510201298093 0 0 0 0 36.029091560217587 -6.8768172413644564 0 -6.8768172413644564 -25.759914650216245 0 0 0 0 26.728303093063005 -45.310117631426692 0 -45.310117631426692 -223.63460202138958 0 0 0 0 26.923753256156488 73.922094031326196 0 73.922094031326196 -494.48002648274269 0 0 0 0 -129.81603793613886 44.076593536525252 0 44.076593536525252 -149.25124707790383 0 0 0 0 -26.783235539496673 47.827115112319007 0 47.827115112319007 -391.42608278498938 0 0 0 0 -119.14434690672715 43.500634990017716 0 43.500634990017716 37.847582107438939 0 0 0 0 -16.976154780872093 137.97411315685804 0 137.97411315685804 -175.02675798648488 0 0 0 0 7.3693521002987836 -43.364330188950134 0 -43.364330188950134 -118.41855080878486 0 0 0 0 -96.211324679632526 87.25253573477994 0 87.25253573477994 118.02676545215581 0 0 0 0 -9.9996926202109506 6.5030355724643698 0 6.5030355724643698 1.4525201634819114 0 0 0 0 -128.68434149864152 -0.81336629426596119 0 -0.81336629426596119 152.69138480023412 0 0 0 0 -151.20476202098143 4.5477151308768953 0 4.5477151308768953 -57.964592324243995 0 0 0 0 51.626821644742449 -23.342804324892313 0 -23.342804324892313 -72.987046681730135 0 0 0 0 -3.1758292605031784 11.08767389859554 0 11.08767389859554 -58.529214294064559 0 0 0 0 -5.2065784636565127 1.5952574296424729 0 1.5952574296424729 -5.7786539788317608 0 0 0 0 -5.5985264628980076 4.1197211518617678 0 4.1197211518617678 -24.516228260576099 0 0 0 0 -0.6347149738979212 13.323899043995741 0 13.323899043995741 -14.759634280943308 0 0 0 0 6.7053250353319527 17.571778374839369 0 17.571778374839369 -51.092050977783629 0 0 0 0 13.953495315696124 11.798480535965233 0 11.798480535965233 -2.6420830175490848 0 0 0 0 11.303721589001725 17.942618364454802 0 17.942618364454802 -57.635557436957242 0 0 0 0 8.5353456040975288 14.786612852626604 0 14.786612852626604 -31.364810970442591 0 0 0 0 30.428214990401102 21.708653572357662 0 21.708653572357662 -57.598590482012241 0 0 0 0 48.916721349938598 41.186337050766269 0 41.186337050766269 -97.563039474975881 0 0 0 0 16.152534311274099 10.831424351872368 0 10.831424351872368 1.5371054024326316 0 0 0 0 68.845670862876432 88.742789311256274 0 88.742789311256274 -49.637897206226626 0 0 0 0 -88.105325933403947 100.19711613620143 0 100.19711613620143 76.939420222914123 0 0 0 0 215.21805349139686 -151.8969251664148 0 -151.8969251664148 19.405422480152993 0 0 0 0 1.725789209259915 -0.81797510035956744 0 -0.81797510035956744 -3.2235790538513847 0 0 0 0 24.488891681509813 62.55123022282919 0 62.55123022282919 -25.799035750613257 0 0 0 0 118.94082046494441 14.289320803114606 0 14.289320803114606 -1.5658429574377806 0 0 0 0 109.06500901288382 128.9249109851562 0 128.9249109851562 2.135107181235071 0 0 0 0 -12.555987562882365 69.257690379414271 0 69.257690379414271 -20.998376866849867 0 0 0 0 -11.765370143470136 59.874033993299321 0 59.874033993299321 17.318790403989624 0 0 0 0 -111.21762435839992 179.19173453958911 0 179.19173453958911 -498.29686057929393 0 0 0 0 -594.48882565416716 -6.140830571150218 0 -6.140830571150218 -607.17984232825984 0 0 0 0 -297.35730413176498 375.44801604253189 0 375.44801604253189 -699.2041821615943 0 0 0 0 3.3549515209560923 1000.2571595418358 0 1000.2571595418358 -905.92803289344738 0 0 0 0 -260.36361204986315 316.98955265720542 0 316.98955265720542 -96.783431401454436 0 0 0 0 16.404704829481489 135.65991909560762 0 135.65991909560762 3.1290511913175578 0 0 0 0 368.9719505427347 917.28143795000415 0 917.28143795000415 -1247.7153245887785 0 0 0 0 475.57481925642787 -23.596820194481552 0 -23.596820194481552 -153.61103500748141 0 0 0 0 536.1195962425918 392.73220353650322 0 392.73220353650322 -444.04438504454083 0 0 0 0 -344.8707799788026 -92.450169206249484 0 -92.450169206249484 -765.55355476521436 0 0 0 0 -558.02358648345398 391.42288937569174 0 391.42288937569174 -1369.6613789549174 0 0 0 0 -22.645151521133812 167.96976620100304 0 167.96976620100304 -682.0144056312422 0 0 0 0 40.866184729602537 48.403025841606905 0 48.403025841606905 -4.949898471438928 0 0 0 0 -3.8234972078564127 2.1302403795098659 0 2.1302403795098659 -1.4408699215874803 0 0 0 0 -31.140360355417215 -31.733699721492485 0 -31.733699721492485 49.500037789775888 0 0 0 0 -10.624152519776544 -26.197583223382026 0 -26.197583223382026 -23.32348155732052 0 0 0 0 -51.380105235963129 14.916400147598324 0 14.916400147598324 91.39276606105841 0 0 0 0 0.98399371582490858 165.68368702210137 0 165.68368702210137 -690.9105432869037 0 0 0 0 75.72347858203284 58.954319877563648 0 58.954319877563648 -542.87044774417154 0 0 0 0 84.076646895115118 -96.769902859924514 0 -96.769902859924514 -254.44631869262503 0 0 0 0 -33.731354742005351 123.94059979030499 0 123.94059979030499 -433.82376298079362 0 0 0 0 -96.881540397684148 132.96873475925804 0 132.96873475925804 -527.65076335299 0 0 0 0 55.435180871121702 144.56018871455672 0 144.56018871455672 -531.03638550854521 0 0 0 0 -103.27151066239571 181.43559954354106 0 181.43559954354106 -430.27738833548574 0 0 0 0 -126.58817305570665 240.8870027733019 0 240.8870027733019 -469.00804608066119 0 0 0 0 -60.278564894433657 228.05421631902391 0 228.05421631902391 -562.65435546924959 0 0 0 0 -25.037864967947826 153.17352551265867 0 153.17352551265867 -581.41266705999988 0 0 0 0 37.180530869771246 -32.803148023578615 0 -32.803148023578615 -778.85405188488585 0 0 0 0 -53.471065765825188 -44.589483803183612 0 -44.589483803183612 180.49866032511727 0 0 0 0 -319.40187948442326 291.26013457836098 0 291.26013457836098 -389.36279894857762 0 0 0 0 -371.31947006288465 128.47187306085016 0 128.47187306085016 -182.08452392806885 0 0 0 0 -141.77127202977863 282.10592247731802 0 282.10592247731802 -558.40904495912946 0 0 0 0 -135.81033251154076 11.218727923807819 0 11.218727923807819 -232.26724698352882 0 0 0 0 -156.3132924786878 113.3743637180587 0 113.3743637180587 -492.72047611796734 0 0 0 0 75.00875360603095 -80.554545289269299 0 -80.554545289269299 -241.27370383265566 0 0 0 0 112.4416609611726 70.960329061444099 0 70.960329061444099 -330.65550356722633 0 0 0 0 251.39423835629714 17.982125933180214 0 17.982125933180214 -368.33813513247696 0 0 0 0 2.2968943472296814 -172.64185121156606 0 -172.64185121156606 -257.58738591489782 0 0 0 0 542.39308865334806 -105.2753259279184 0 -105.2753259279184 -744.19554674680876 0 0 0 0 4.7034470108292226 -104.48032688472199 0 -104.48032688472199 -698.12735632792828 0 0 0 0 -111.06766970920944 -258.08199561464971 0 -258.08199561464971 -631.77574929935395 0 0 0 0 -50.116818879587299 140.35965788112162 0 140.35965788112162 -846.02504301722524 0 0 0 0 -30.550896667733468 90.46823893022065 0 90.46823893022065 -861.89949352062467 0 0 0 0 68.742540584376911 -162.01037211593257 0 -162.01037211593257 -1109.6491550688363 0 0 0 0 -82.282261751513943 -17.346939722609932 0 -17.346939722609932 -760.18213143668845 0 0 0 0 -100.94842630426137 22.553356862564669 0 22.553356862564669 -430.06577175202983 0 0 0 0 -142.75776956965728 38.441252819906367 0 38.441252819906367 -747.80365457323842 0 0 0 0 -21.390550111599794 28.86227739986731 0 28.86227739986731 -747.7941619326466 0 0 0 0 31.841148952835283 -18.263329217792034 0 -18.263329217792034 -373.90667409910202 0 0 0 0 -41.932047546497415 166.79417471974375 0 166.79417471974375 -546.05551660056517 0 0 0 0 -43.185178247947988 187.87867889860945 0 187.87867889860945 -372.48067407802273 0 0 0 0 -115.65000433266641 -45.920490341071854 0 -45.920490341071854 -548.53076241477356 0 0 0 0 -4.077357762182146 -88.38159550619639 0 -88.38159550619639 -1267.799366202813 0 0 0 0 -98.801329470568817 202.48956446383772 0 202.48956446383772 -949.87367525668606 0 0 0 0 -17.654962885803599 11.753077237324378 0 11.753077237324378 -3.8261686823431171 0 0 0 0 -97.757276250504219 26.395533166778478 0 26.395533166778478 305.77229032076502 0 0 0 0 103.24274972776675 -431.61435686865661 0 -431.61435686865661 -871.06045737146087 0 0 0 0 -194.18876472602824 675.54250350591337 0 675.54250350591337 -1261.2055848338587 0 0 0 0 28.478352432088286 358.4873039360682 0 358.4873039360682 -325.95199622882245 0 0 0 0 40.705968841341019 377.76148788277487 0 377.76148788277487 -484.09870347550532 0 0 0 0 -24.720628524750268 18.324196569717106 0 18.324196569717106 -1.5837399197720252 0 0 0 0 -542.14822502410061 697.69957465268135 0 697.69957465268135 -455.27153953770357 0 0 0 0 -184.02340072110746 83.250648318507046 0 83.250648318507046 328.44941305386146 0 0 0 0 297.91028084323807 -227.30728330374313 0 -227.30728330374313 -1139.8907261634708 0 0 0 0 124.35576836215478 279.26641436415503 0 279.26641436415503 -661.31887282961725 0 0 0 0 219.10825745100101 -20.950389761497718 0 -20.950389761497718 -664.95112264790805 0 0 0 0 152.68554357136236 -163.58096977466448 0 -163.58096977466448 -519.10091852272399 0 0 0 0 276.78651313914088 -130.24435487863502 0 -130.24435487863502 -517.65638240218141 0 0 0 0 -204.47317175285389 -492.35414947810841 0 -492.35414947810841 -480.87695365500167 0 0 0 0 -81.426733560378125 -12.994351030916732 0 -12.994351030916732 21.445806765998896 0 0 0 0 167.31744842883381 -124.29330393976579 0 -124.29330393976579 -231.05819000974816 0 0 0 0 89.990397571407811 -272.91408179774544 0 -272.91408179774544 -262.95651087062743 0 0 0 0 49.518735544108495 -162.9232987019036 0 -162.9232987019036 -69.929686250183295 0 0 0 0 84.224627850956495 184.02452105789462 0 184.02452105789462 -669.04622928550089 0 0 0 0 -6.1438782735791264 -6.3452096354248955 0 -6.3452096354248955 -9.0287374534607423 0 0 0 0 -237.23055624386859 -145.33349672823149 0 -145.33349672823149 -9.8718163436078612 0 0 0 0 6.4963740248786053 29.824434010896766 0 29.824434010896766 -58.837735215535531 0 0 0 0 -11.31402788980806 -20.68579061053331 0 -20.68579061053331 -28.578758051839813 0 0 0 0 51.947521171333392 -19.497647662649115 0 -19.497647662649115 -49.521799054494295 0 0 0 0 -8.2167354987977888 -41.062108593169341 0 -41.062108593169341 -49.724272676707187 0 0 0 0 34.138047187307166 24.024020460568863 0 24.024020460568863 -16.530150157042499 0 0 0 0 31.329548907762764 0.17478529215321714 0 0.17478529215321714 -38.949700368807278 0 0 0 0 18.340139215933959 -27.742479835502763 0 -27.742479835502763 -76.807911593403333 0 0 0 0 30.843994469843764 4.0615711542243602 0 4.0615711542243602 -39.489918539751088 0 0 0 0 50.036401246703463 -47.680891975164286 0 -47.680891975164286 -77.175586611826859 0 0 0 0 37.555538734630773 8.7746167049913311 0 8.7746167049913311 -12.280504526144796 0 0 0 0 50.744676824029284 32.570072572276331 0 32.570072572276331 -40.038210056289245 0 0 0 0 84.172258790733395 38.707044236540469 0 38.707044236540469 -109.34605045239823 0 0 0 0 4.4155348806892079 2.0631614291072964 0 2.0631614291072964 -17.891908779040815 0 0 0 0 198.98349631305973 -69.987607598325212 0 -69.987607598325212 -163.43200777423044 0 0 0 0 83.276535087450611 -111.15708550893942 0 -111.15708550893942 29.055866808443568 0 0 0 0 95.062560426209529 38.527764334102812 0 38.527764334102812 -164.75981816506766 0 0 0 0 86.281682082813859 7.9069568267789236 0 7.9069568267789236 -84.890281256552953 0 0 0 0 95.419784216494918 44.190466564187886 0 44.190466564187886 -119.56126184366622 0 0 0 0 -35.455636149294151 -76.704336938739289 0 -76.704336938739289 -209.95616537229307 0 0 0 0 -26.455477248777242 177.76510554812648 0 177.76510554812648 -260.15298052448634 0 0 0 0 -26.905136321816826 108.08191265545406 0 108.08191265545406 -75.13345770115393 0 0 0 0 36.690815504842476 28.063221380087384 0 28.063221380087384 7.2661881238991555 0 0 0 0 30.4133660186586 8.2687822798721626 0 8.2687822798721626 -39.754063288331018 0 0 0 0 47.637404047527525 64.966330553061255 0 64.966330553061255 -74.759388562401909 0 0 0 0 72.745696436058097 -25.679971531569208 0 -25.679971531569208 -51.91248692623958 0 0 0 0 2.8073792735028711 -2.4072081211769643 0 -2.4072081211769643 -12.8033860747002 0 0 0 0 22.317877386657283 12.10728697317489 0 12.10728697317489 -6.0952077554693549 0 0 0 0 17.787040923931272 11.401839953718081 0 11.401839953718081 -35.362245443508073 0 0 0 0 12.87583022925309 9.9377788348661653 0 9.9377788348661653 -22.097536551153166 0 0 0 0 31.031103944218557 37.367778908021137 0 37.367778908021137 -27.441474658840889 0 0 0 0 28.619196405210914 19.703795081061799 0 19.703795081061799 -31.637618149186892 0 0 0 0 47.939719593727204 31.850469578163029 0 31.850469578163029 -39.899954821213214 0 0 0 0 74.196254850258811 46.169470718106822 0 46.169470718106822 -38.813254144977691 0 0 0 0 39.200427702966408 51.804929352201725 0 51.804929352201725 -13.412443778790475 0 0 0 0 21.40640167408219 27.468481244137365 0 27.468481244137365 -27.758917379080231 0 0 0 0 -6.5045070867909089 17.429634459560475 0 17.429634459560475 -24.002799723017233 0 0 0 0 14.888869286928639 32.069575280203935 0 32.069575280203935 -26.214147250564565 0 0 0 0 -19.163341556802152 18.698203191393986 0 18.698203191393986 -23.145584242727637 0 0 0 0 26.129719982741335 43.290951000697532 0 43.290951000697532 -57.580256519679097 0 0 0 0 11.195801661483529 30.874693527727686 0 30.874693527727686 -56.323947219723777 0 0 0 0 56.392343423920465 65.568497909736834 0 65.568497909736834 -230.46238524929504 0 0 0 0 -9.6048372140294305 66.356527032126905 0 66.356527032126905 -109.21955372605589 0 0 0 0 -6.7503519893443809 36.942845344283342 0 36.942845344283342 -103.06644102160499 0 0 0 0 101.35306782867701 -6.3812075813439151 0 -6.3812075813439151 -115.74902213554424 0 0 0 0 93.980721063700912 -9.0346371403084049 0 -9.0346371403084049 -57.801402838849754 0 0 0 0 79.600021282170928 54.660895399543733 0 54.660895399543733 -123.48420166760457 0 0 0 0 93.922107573614539 27.403496307566456 0 27.403496307566456 -76.217065773558716 0 0 0 0 119.93949788575992 36.98837538362659 0 36.98837538362659 -78.487218398780897 0 0 0 0 52.523705358878942 8.5670183369511506 0 8.5670183369511506 -13.901878941262481 0 0 0 0 56.645397387872436 49.013012234387134 0 49.013012234387134 -29.745909583935827 0 0 0 0 31.144436606698946 8.6426030637894655 0 8.6426030637894655 -35.804689647510259 0 0 0 0 27.507775471266086 -6.5142433059509131 0 -6.5142433059509131 -44.624769689318782 0 0 0 0 -6.9998729985558263 -9.5610203020094779 0 -9.5610203020094779 -14.020354846590799 0 0 0 0 18.160132268246798 -25.367253817541496 0 -25.367253817541496 -34.274473047840729 0 0 0 0 102.96499230295376 22.38510017149747 0 22.38510017149747 -87.962065745305154 0 0 0 0 79.766507566615473 -31.481208952299312 0 -31.481208952299312 -25.728107071659906 0 0 0 0 -5.4242797011945036 -6.2636631887805621 0 -6.2636631887805621 -6.289352556897871 0 0 0 0 140.75190550316165 -97.476707372263263 0 -97.476707372263263 0.1035320748283084 0 0 0 0 -8.1937231599229037 106.25445144356657 0 106.25445144356657 -354.81635359935899 0 0 0 0 -8.4450076979428559 125.70945347449197 0 125.70945347449197 -466.35639944968443 0 0 0 0 -35.048791529459777 134.66819637008575 0 134.66819637008575 -431.35769810895908 0 0 0 0 -29.835401564376298 97.032128868429027 0 97.032128868429027 -330.8689413937982 0 0 0 0 -23.967910479019338 51.155709998035491 0 51.155709998035491 -394.94865392901011 0 0 0 0 -31.202550668150252 314.71078613801092 0 314.71078613801092 -964.80255784825931 0 0 0 0 -1.8914258833182167 -2.0705823750497707 0 -2.0705823750497707 -2.5159136736424905 0 0 0 0 155.81304306315906 -225.24162780575989 0 -225.24162780575989 -530.82738108194462 0 0 0 0 168.96392456303329 -221.91298048547287 0 -221.91298048547287 -620.90018431121644 0 0 0 0 47.375498445102494 -168.99151226885033 0 -168.99151226885033 -152.82414696307023 0 0 0 0 76.499663899888219 -138.84822668658308 0 -138.84822668658308 -479.50263997265574 0 0 0 0 94.68807251988801 -298.37348023011691 0 -298.37348023011691 164.73425339635287 0 0 0 0 156.36759427220102 -15.276143706385596 0 -15.276143706385596 -84.392200192396558 0 0 0 0 106.62984414708808 -289.07719676482247 0 -289.07719676482247 -411.34288922241649 0 0 0 0 77.083191447667559 269.96418883054866 0 269.96418883054866 -1033.4641836839037 0 0 0 0 -122.30452666175006 419.72086232329002 0 419.72086232329002 -633.6996897325489 0 0 0 0 -140.27055129487781 336.94359858589769 0 336.94359858589769 -615.88278200155946 0 0 0 0 77.263090620650473 293.15734305583283 0 293.15734305583283 -708.22267668799577 0 0 0 0 5.0791115068095678 159.69760837637659 0 159.69760837637659 -799.08431498233494 0 0 0 0 42.624380718674729 45.033439795660342 0 45.033439795660342 -517.14792533845684 0 0 0 0 -49.449526848020469 76.965096477552834 0 76.965096477552834 -529.65882114914348 0 0 0 0 -29.990657325608481 44.239503160065397 0 44.239503160065397 -488.27305135643837 0 0 0 0 61.618747251690365 35.531980886111342 0 35.531980886111342 -537.91534625184022 0 0 0 0 -430.17957431770128 254.30433163989164 0 254.30433163989164 -525.59239928470561 0 0 0 0 -7.0040607670762256 193.88421242095592 0 193.88421242095592 -517.24037708442438 0 0 0 0 -85.011385040152163 -74.878739499950825 0 -74.878739499950825 -921.14654868296975 0 0 0 0 77.674800172160758 80.4148986206892 0 80.4148986206892 -635.79006839870181 0 0 0 0 77.348529276116096 85.163127861351313 0 85.163127861351313 -410.18975051395682 0 0 0 0 13.657588889661383 -39.439505296816606 0 -39.439505296816606 -386.31694736647296 0 0 0 0 20.545515606776462 -70.420265657280652 0 -70.420265657280652 -1191.3548249074511 0 0 0 0 -3.1555282483636518 2.4804432474210287 0 2.4804432474210287 -2.2269457031013609 0 0 0 0 -91.335120720113991 224.82637197142867 0 224.82637197142867 0.89177303299038613 0 0 0 0 17.961471992747647 -103.65471326319175 0 -103.65471326319175 -65.965185256265613 0 0 0 0 109.86215826518605 1.0551968159497847 0 1.0551968159497847 -26.690022682618292 0 0 0 0 -15.80562716370514 -4.8031126554915318 0 -4.8031126554915318 -209.71493451782862 0 0 0 0 -12.450056937090267 28.367131912445075 0 28.367131912445075 -298.28304432414825 0 0 0 0 -4.3381356436312224 5.9474635974810184 0 5.9474635974810184 -10.756274572720134 0 0 0 0 16.753571262530386 12.788478283473069 0 12.788478283473069 -18.467198996761908 0 0 0 0 12.393957624611224 2.1016169612838063 0 2.1016169612838063 -23.230568756731877 0 0 0 0 12.68563914664913 0.91887318441599053 0 0.91887318441599053 -10.357535587169565 0 0 0 0 12.487359021541124 -10.207695245449031 0 -10.207695245449031 -22.043498193445885 0 0 0 0 14.483163954477277 8.3673931825906038 0 8.3673931825906038 -17.467280110980937 0 0 0 0 4.8535870924024493 -18.644979899078862 0 -18.644979899078862 19.636016050000762 0 0 0 0 1.4176599424242244 0.050667328821724311 0 0.050667328821724311 0.55102160830868385 0 0 0 0 131.79575323128938 -10.686892012435464 0 -10.686892012435464 -16.918375658056902 0 0 0 0 -37.439192798298791 -44.006474973508375 0 -44.006474973508375 -225.22985420973782 0 0 0 0 -0.96484145872857852 1.0872454136303453 0 1.0872454136303453 0.68838459685429498 0 0 0 0 -91.71178179301387 -50.170896994994109 0 -50.170896994994109 12.293448405708659 0 0 0 0 19.188522870786073 222.20493018826028 0 222.20493018826028 -92.631553340785104 0 0 0 0 93.756655644618149 161.39478796501044 0 161.39478796501044 -713.57921257951966 0 0 0 0 -6.5520008888406664 -0.59348072195234636 0 -0.59348072195234636 -4.0612398160374141 0 0 0 0 -49.998300606329849 47.68142899811653 0 47.68142899811653 -12.720582045118135 0 0 0 0 22.990361615204165 -88.557155461690854 0 -88.557155461690854 -41.822404417732628 0 0 0 0 84.044114345138951 44.64582131212228 0 44.64582131212228 -10.252066314536933 0 0 0 0 38.228326447986547 -29.379584087004332 0 -29.379584087004332 71.814674653952352 0 0 0 0 92.878951473207053 -69.416744864076009 0 -69.416744864076009 13.393726807080611 0 0 0 0 -2.441672468951765 3.7885267532001308 0 3.7885267532001308 -1.9810580143084735 0 0 0 0 -0.17995521873854159 11.205866126477304 0 11.205866126477304 22.330513232484009 0 0 0 0 1.1850560168278079 0.83566002953537755 0 0.83566002953537755 -1.4224086251205286 0 0 0 0 -30.110889837160357 -2.6403778116305148 0 -2.6403778116305148 71.470213870888074 0 0 0 0 26.209744794323342 45.482114137274948 0 45.482114137274948 8.0308226273366472 0 0 0 0 17.683533115333375 27.01632873367771 0 27.01632873367771 -25.598900792187123 0 0 0 0 9.5666434521106964 4.191149713294906 0 4.191149713294906 -0.53934042524748715 0 0 0 0 -109.43936365435729 14.580679685834184 0 14.580679685834184 241.62846843186981 0 0 0 0 3.239352063582615 0.84780947623098957 0 0.84780947623098957 0.53750227098669257 0 0 0 0 74.226130872737485 -89.865138567055965 0 -89.865138567055965 22.104201247895162 0 0 0 0 113.71326135887193 -66.630919032765632 0 -66.630919032765632 -9.9512933454388985 0 0 0 0 14.729645118346525 12.507147365155106 0 12.507147365155106 -24.947561738642435 0 0 0 0 13.949057479327166 10.85500855913142 0 10.85500855913142 -19.53484909575036 0 0 0 0 10.194515798537395 11.608171961453991 0 11.608171961453991 -18.212390232802136 0 0 0 0 0.80166864661980064 7.2506711023636257 0 7.2506711023636257 -9.6354814987712274 0 0 0 0 28.642855797497759 52.704891214629242 0 52.704891214629242 -52.796444896777757 0 0 0 0 2.9438272610823457 0.7355259248130821 0 0.7355259248130821 0.51158631875305005 0 0 0 0 32.693060859217439 20.829790609834617 0 20.829790609834617 -57.111682065349669 0 0 0 0 10.148357312143823 11.289926167228074 0 11.289926167228074 4.9760609516450769 0 0 0 0 -29.296362870802113 -34.880753249076861 0 -34.880753249076861 64.674609684533607 0 0 0 0 -154.05810589783141 57.404934528030026 0 57.404934528030026 -64.065688827367012 0 0 0 0 1.8096836709446507 -29.88593518228663 0 -29.88593518228663 -282.35833677426126 0 0 0 0 -100.68986824082094 166.46658014067634 0 166.46658014067634 -272.39688187238755 0 0 0 0 34.054096833391668 1.6880978658473396 0 1.6880978658473396 -129.17327032476987 0 0 0 0 -5.7535563956898841 90.622662677102653 0 90.622662677102653 -198.51059384953487 0 0 0 0 -58.107716717738185 188.24992836061756 0 188.24992836061756 -50.607957308877303 0 0 0 0 23.483551728900238 65.18578431093465 0 65.18578431093465 -222.7948956117225 0 0 0 0 -11.63611924805376 52.59461870001212 0 52.59461870001212 -26.766216727469512 0 0 0 0 -1.9103100027689379 12.976887164167493 0 12.976887164167493 -9.6005795162595149 0 0 0 0 -1.7011692394118754 49.643805268535381 0 49.643805268535381 -14.241023015663163 0 0 0 0 79.690617697515336 -14.764478629473615 0 -14.764478629473615 -372.04308266000908 0 0 0 0 -16.5590125699091 -24.319538357070996 0 -24.319538357070996 -361.68750521143011 0 0 0 0 -0.4518820344391159 -0.59283954303141684 0 -0.59283954303141684 -17.110150966880596 0 0 0 0 44.877116106097674 217.53425088073345 0 217.53425088073345 15.270297882088016 0 0 0 0 -163.50698058712442 6.4895429470202544 0 6.4895429470202544 -112.49335373441863 0 0 0 0 63.437415648806564 -60.344406939512282 0 -60.344406939512282 -67.190385333849918 0 0 0 0 -27.170557351731986 164.09042397665326 0 164.09042397665326 -180.52012375804406 0 0 0 0 60.087989505151569 66.658669985313395 0 66.658669985313395 -110.58414871191781 0 0 0 0 -39.580040078204547 -22.913659417413328 0 -22.913659417413328 -146.75228520444966 0 0 0 0 -151.40403108991813 460.15629575119965 0 460.15629575119965 -575.89619954727459 0 0 0 0 -441.80404262116372 -328.94362221637493 0 -328.94362221637493 -90.844888831667049 0 0 0 0 41.469642879001185 -91.13868479895973 0 -91.13868479895973 -210.27373261864705 0 0 0 0 -278.75535000499804 -11.594146307477786 0 -11.594146307477786 85.179581972342021 0 0 0 0 164.09986689573998 -21.611801265546092 0 -21.611801265546092 -315.93397880227712 0 0 0 0 -2.0526810908268089 -4.5666889634449035 0 -4.5666889634449035 -156.29393035052271 0 0 0 0 122.84571788703397 67.660648520464747 0 67.660648520464747 -198.932287129619 0 0 0 0 37.935038054671452 -191.18509058093503 0 -191.18509058093503 -448.9736607403247 0 0 0 0 82.85982081014663 -35.821385482639016 0 -35.821385482639016 -303.75490556043587 0 0 0 0 130.89973192068283 -40.178441927004314 0 -40.178441927004314 -472.60929745826434 0 0 0 0 136.52061749585846 -94.205906280243653 0 -94.205906280243653 -417.30355410261109 0 0 0 0 103.28268218686571 -18.697182970150607 0 -18.697182970150607 -464.50196042026982 0 0 0 0 130.0580360879103 -57.749242721957899 0 -57.749242721957899 -418.08043093676679 0 0 0 0 81.103395353755332 -30.153331211957266 0 -30.153331211957266 -388.22379822095536 0 0 0 0 98.130355790141039 -47.217237474658759 0 -47.217237474658759 -377.09226114838384 0 0 0 0 46.750129639680381 -34.655366777275049 0 -34.655366777275049 -315.25970641059394 0 0 0 0 87.382508433354815 -43.236180489135222 0 -43.236180489135222 -327.85876642233052 0 0 0 0 81.763712113195652 -21.210812861507293 0 -21.210812861507293 -271.99825194881123 0 0 0 0 59.657645972605678 -41.532252911103569 0 -41.532252911103569 -260.83102809307456 0 0 0 0 49.208025391977571 -11.275484544668871 0 -11.275484544668871 -320.41445384502003 0 0 0 0 15.184774246401503 -4.9097724395760451 0 -4.9097724395760451 -288.36574513891537 0 0 0 0 104.04949975228374 4.8419747519583325 0 4.8419747519583325 -287.38512364075723 0 0 0 0 143.20978327675402 -75.542229131046042 0 -75.542229131046042 -311.49032350195193 0 0 0 0 235.23649788497278 -15.150404823307326 0 -15.150404823307326 -287.1807146784522 0 0 0 0 -99.914673107057752 145.34213081260532 0 145.34213081260532 -628.67358213209991 0 0 0 0 -149.14854846155868 24.540195962058078 0 24.540195962058078 -25.912121809384644 0 0 0 0 52.447272963581781 -135.44903632431487 0 -135.44903632431487 -426.85563299696423 0 0 0 0 140.37858489299833 -84.625730115931219 0 -84.625730115931219 -227.75688297031593 0 0 0 0 129.57440369000051 -117.15180487860448 0 -117.15180487860448 -325.20081166916225 0 0 0 0 61.14663275868952 -50.518403080917778 0 -50.518403080917778 -171.45071225323773 0 0 0 0 4.5404984158667503 29.222687851477531 0 29.222687851477531 -142.59096383104043 0 0 0 0 7.2713133276417068 45.998146963675673 0 45.998146963675673 -6.9688486548628967 0 0 0 0 156.32031041187292 -129.96459871082516 0 -129.96459871082516 -334.21560369887629 0 0 0 0 31.328869780190871 19.392401715493179 0 19.392401715493179 -227.40368203673279 0 0 0 0 32.268895074625107 16.225155485863979 0 16.225155485863979 -303.45580579331727 0 0 0 0 16.157192398692132 41.2692269871186 0 41.2692269871186 -265.36739928593306 0 0 0 0 251.78056459147774 3.0131302364870862 0 3.0131302364870862 -267.89841015918716 0 0 0 0 21.086816923525475 -21.67414104112504 0 -21.67414104112504 -267.46770547598499 0 0 0 0 -30.749432187107232 41.739640748349757 0 41.739640748349757 -31.006591535183397 0 0 0 0 2.8133695591265422 26.621137621053538 0 26.621137621053538 -11.394555514140844 0 0 0 0 2.6016832423338201 173.94085485348478 0 173.94085485348478 -273.71906428621151 0 0 0 0 23.137197231091704 218.42302539858429 0 218.42302539858429 -443.91666756873019 0 0 0 0 5.3212450844056356 16.749681661755563 0 16.749681661755563 -6.803577820388 0 0 0 0 20.10315181587066 38.693786431584158 0 38.693786431584158 -441.36250819629413 0 0 0 0 14.380001258963603 38.920768551584842 0 38.920768551584842 -393.07293893609312 0 0 0 0 24.672272389607315 27.715988240230217 0 27.715988240230217 -455.99341734896007 0 0 0 0 -23.087547654031368 2.1370360106229782 0 2.1370360106229782 -329.51525923318695 0 0 0 0 10.534404700667437 15.145939635091054 0 15.145939635091054 -339.57302764765336 0 0 0 0 10.617596017371397 -4.9103522175137186 0 -4.9103522175137186 -328.01993461361417 0 0 0 0 -19.169510234005429 38.180022531049417 0 38.180022531049417 -347.31065293724532 0 0 0 0 37.95121905853739 4.601244205601688 0 4.601244205601688 -371.89501161668159 0 0 0 0 14.326021595465136 21.373204311996233 0 21.373204311996233 -375.45005954749649 0 0 0 0 34.00931852816575 -8.6767538803178468 0 -8.6767538803178468 -365.77640955020979 0 0 0 0 38.810051988773921 -13.579094252096183 0 -13.579094252096183 -362.92373174858221 0 0 0 0 25.454878060972987 24.335465556210693 0 24.335465556210693 -402.64594724735798 0 0 0 0 76.781138709215156 -20.176982760985993 0 -20.176982760985993 -410.07797339305398 0 0 0 0 67.753868745405271 8.7135730298741692 0 8.7135730298741692 -425.16877207959624 0 0 0 0 67.180110603476351 5.2736145614144334 0 5.2736145614144334 -444.28125904683839 0 0 0 0 91.517763368972737 -23.82713550644803 0 -23.82713550644803 -409.48752206649806 0 0 0 0 29.807879690033587 31.471376519300065 0 31.471376519300065 -394.16456901255879 0 0 0 0 27.78223038854776 47.821086385392846 0 47.821086385392846 -446.79567141042844 0 0 0 0 16.006822437655501 58.545394864282571 0 58.545394864282571 -407.25341954993564 0 0 0 0 27.137685313897236 47.0644473461507 0 47.0644473461507 -418.77814502707406 0 0 0 0 -11.656103005290788 97.043185714886931 0 97.043185714886931 -271.6793404570999 0 0 0 0 11.493623781401766 36.055549636774231 0 36.055549636774231 -379.44955344542905 0 0 0 0 42.509411384078703 103.51714560754408 0 103.51714560754408 -464.92481870635129 0 0 0 0 -3.2184177872391544 26.189765958725616 0 26.189765958725616 1.6677544503317718 0 0 0 0 2.5466706415518274 55.868753394473742 0 55.868753394473742 -95.414155703479992 0 0 0 0 8.5595026436785702 52.98016148928582 0 52.98016148928582 -376.61738885145132 0 0 0 0 -6.6316361976573717 42.069586637125809 0 42.069586637125809 -57.962410678603646 0 0 0 0 -2.1271534594593504 66.079726944279585 0 66.079726944279585 -114.50848741589812 0 0 0 0 21.276973594913215 55.602442791070928 0 55.602442791070928 -141.37394896857609 0 0 0 0 25.327336336024018 66.05328185464532 0 66.05328185464532 -115.77129919149309 0 0 0 0 -25.004551309655653 83.927652918616133 0 83.927652918616133 -121.56679756385483 0 0 0 0 -7.4677364786821272 102.93313359227363 0 102.93313359227363 -157.02863634528421 0 0 0 0 -71.285081303640254 108.42420496483965 0 108.42420496483965 -134.12104078117954 0 0 0 0 -180.4358268434944 119.19421765237735 0 119.19421765237735 -90.115795497444196 0 0 0 0 -0.077548653829301983 -0.7883378696469876 0 -0.7883378696469876 -18.532886834791032 0 0 0 0 12.444383501873517 68.41510480918032 0 68.41510480918032 -93.556590245749248 0 0 0 0 -124.43127752340843 73.262231842398705 0 73.262231842398705 23.51917998774752 0 0 0 0 -87.203797843058055 -132.02730828051654 0 -132.02730828051654 328.71892651772578 0 0 0 0 128.17143616100475 -68.395190358963191 0 -68.395190358963191 -111.58511777661681 0 0 0 0 2.6530415024364267 2.9925461128563491 0 2.9925461128563491 -34.534583134581837 0 0 0 0 -59.341008374340163 37.894548980269292 0 37.894548980269292 -37.120509610216459 0 0 0 0 -44.125110883373054 88.603444840587827 0 88.603444840587827 -109.62075510522482 0 0 0 0 -14.837596757789925 37.045320293579948 0 37.045320293579948 -56.654436837802223 0 0 0 0 26.201753138912409 45.138115357005518 0 45.138115357005518 -10.498071615067602 0 0 0 0 54.603029121304971 44.581899735583718 0 44.581899735583718 -15.526157112654181 0 0 0 0 74.540703095361437 78.373624386847496 0 78.373624386847496 -113.98518025169324 0 0 0 0 15.190535764443949 13.097026574697491 0 13.097026574697491 2.1429252973622255 0 0 0 0 17.295268628132863 10.465397923076939 0 10.465397923076939 -99.078834414014722 0 0 0 0 220.90023243850555 25.606644564294584 0 25.606644564294584 -539.54010773380287 0 0 0 0 172.63696844795413 -37.212853237877425 0 -37.212853237877425 -582.76323962958122 0 0 0 0 -27.432121121608361 -65.146588209059701 0 -65.146588209059701 -458.70421422472282 0 0 0 0 632.46590318845074 -327.84668775640739 0 -327.84668775640739 -550.21039496857702 0 0 0 0 4.655869591906054 -7.8769792652670532 0 -7.8769792652670532 -36.043824754648 0 0 0 0 39.661523242230032 -69.592993090820528 0 -69.592993090820528 -158.33796229318614 0 0 0 0 93.809946801550723 7.4050505605482613 0 7.4050505605482613 -82.306228524844812 0 0 0 0 77.423637469624921 6.2755877184104918 0 6.2755877184104918 -36.340982980274198 0 0 0 0 77.712219310611545 -33.808859537115495 0 -33.808859537115495 -150.57518403487484 0 0 0 0 -1.8811252360574144 44.233406139747558 0 44.233406139747558 -131.73503062435196 0 0 0 0 41.126266217781627 16.624870619428819 0 16.624870619428819 -105.46048707892999 0 0 0 0 -7.983963293356922 30.607422057246257 0 30.607422057246257 -14.12027575280278 0 0 0 0 -12.779518121176807 -48.203562342063378 0 -48.203562342063378 -116.8675556698463 0 0 0 0 -115.72613426153839 228.56866923218286 0 228.56866923218286 -333.78707140871848 0 0 0 0 57.229325399384834 109.84432726473642 0 109.84432726473642 -419.02799314745516 0 0 0 0 -88.045798497150827 70.347291693889929 0 70.347291693889929 -71.238487071841519 0 0 0 0 27.237598162710583 58.959399105163811 0 58.959399105163811 -434.65525443977094 0 0 0 0 -3.7449934033611498 42.428418714907281 0 42.428418714907281 -122.37097716626636 0 0 0 0 34.798950810691167 38.774091635175751 0 38.774091635175751 -122.22249010491547 0 0 0 0 30.141429617680604 13.139091377679303 0 13.139091377679303 -111.26491079436704 0 0 0 0 71.351991224350769 23.268791773069097 0 23.268791773069097 -133.09830872889142 0 0 0 0 46.088580536138011 57.337141039439302 0 57.337141039439302 -141.12740389604005 0 0 0 0 116.24338119332685 -7.7747952249137597 0 -7.7747952249137597 -131.39215181891632 0 0 0 0 95.142067658866608 9.5443320639060403 0 9.5443320639060403 -109.08633029631164 0 0 0 0 85.135176169329384 35.84889668334381 0 35.84889668334381 -139.56986734705424 0 0 0 0 150.58284028080448 31.437870622206901 0 31.437870622206901 -180.85904059426116 0 0 0 0 128.38195393606088 80.22270968677185 0 80.22270968677185 -173.85072831561774 0 0 0 0 37.838747735110019 2.8580249508086126 0 2.8580249508086126 -120.11821699514985 0 0 0 0 52.243285534866573 -3.1351297299333964 0 -3.1351297299333964 -183.27925792549649 0 0 0 0 -233.91728657165504 211.93678673243448 0 211.93678673243448 -59.077023414669384 0 0 0 0 -56.070408498884262 105.53530075002891 0 105.53530075002891 -40.814769213608088 0 0 0 0 -9.9271081432980282 234.68635614223604 0 234.68635614223604 -220.78853666575014 0 0 0 0 70.551664510776618 -55.567790286018862 0 -55.567790286018862 -259.45840644304189 0 0 0 0 2.714269702904053 -0.79101617006818969 0 -0.79101617006818969 -0.077441486891473232 0 0 0 0 202.72830619575814 104.6273498571245 0 104.6273498571245 -180.51428939416292 0 0 0 0 151.81511369888042 -25.389667233083401 0 -25.389667233083401 -64.705692109961092 0 0 0 0 4.9262156763446683 23.163197110930923 0 23.163197110930923 -42.338739338656524 0 0 0 0 11.88033838280387 42.000066070856064 0 42.000066070856064 -69.105722217373113 0 0 0 0 11.137500067070278 149.96368068394077 0 149.96368068394077 -215.23349305477313 0 0 0 0 -29.432592192497481 43.966564480026136 0 43.966564480026136 -122.8793746569936 0 0 0 0 8.4988981890562627 52.616971479035783 0 52.616971479035783 -193.46226196738644 0 0 0 0 25.11244506881938 14.352221756395565 0 14.352221756395565 -121.091275766004 0 0 0 0 1.7980628807110259 7.0185576458618044 0 7.0185576458618044 -16.741929489011326 0 0 0 0 -35.024049331632796 93.256421194062568 0 93.256421194062568 -165.92808682876785 0 0 0 0 6.4909234825747344 22.084475766305623 0 22.084475766305623 -88.346642860074496 0 0 0 0 22.277268585548882 23.484116464067483 0 23.484116464067483 -66.951153486304975 0 0 0 0 16.247042357395294 36.07329478493368 0 36.07329478493368 -108.72224006545207 0 0 0 0 -24.614617183362498 -38.789391699900989 0 -38.789391699900989 -116.20545639061311 0 0 0 0 22.618145409809472 27.079936739948607 0 27.079936739948607 -66.25206108709699 0 0 0 0 -6.8106451472680192 -39.441844440277237 0 -39.441844440277237 -116.21093871837365 0 0 0 0 -6.7111857160338531 6.7506354463736642 0 6.7506354463736642 -19.026472191056421 0 0 0 0 -12.114529324675004 -34.578464734481713 0 -34.578464734481713 -45.388655668517458 0 0 0 0 11.799200972101289 -81.29864870266556 0 -81.29864870266556 -182.23362097265272 0 0 0 0 -40.635888321869402 -76.088911853947593 0 -76.088911853947593 -189.31564375564994 0 0 0 0 -69.966914724870549 -112.61669408470152 0 -112.61669408470152 -210.83763901211387 0 0 0 0 16.987577256399163 7.7496763455565087 0 7.7496763455565087 -39.357097785359656 0 0 0 0 -7.9134137576040553 5.308174930726544 0 5.308174930726544 -3.1007732562874253 0 0 0 0 7.1615770422198466 71.508782145370333 0 71.508782145370333 78.926850120151357 0 0 0 0 2.2393304241638816 46.097182045570662 0 46.097182045570662 3.2827708236200124 0 0 0 0 -2.5109492754844176 1.6870954837656313 0 1.6870954837656313 -1.6276476845338763 0 0 0 0 -103.64231592622809 -17.660889033551939 0 -17.660889033551939 20.570945542178379 0 0 0 0 -65.593769804406293 -138.87267857979714 0 -138.87267857979714 -465.03483907768532 0 0 0 0 -118.0991862684042 180.28017774243676 0 180.28017774243676 293.77451027662755 0 0 0 0 185.02974957025754 163.63983702941186 0 163.63983702941186 5.872259702628071 0 0 0 0 67.752949190300569 83.312149812683856 0 83.312149812683856 -38.417401990154758 0 0 0 0 -55.754419535243869 290.50267950252419 0 290.50267950252419 -312.49530280347335 0 0 0 0 -25.497737781313845 -18.721804069989048 0 -18.721804069989048 -140.39719122353199 0 0 0 0 0.45833326641978012 1.976309487926537 0 1.976309487926537 -7.003807433203022 0 0 0 0 -566.41020654262684 482.90269154595239 0 482.90269154595239 -305.33987525863722 0 0 0 0 -75.094190663434347 133.91723144797947 0 133.91723144797947 -152.35807841571841 0 0 0 0 -193.17643177188984 127.77506703516906 0 127.77506703516906 -150.73634551681198 0 0 0 0 1.5719393875970127 126.00953965981489 0 126.00953965981489 -227.01419123477854 0 0 0 0 155.12732885577134 83.638838438642779 0 83.638838438642779 -219.03515180643865 0 0 0 0 53.407023216026573 69.440676261255703 0 69.440676261255703 -166.31600668234648 0 0 0 0 67.450106704614882 -44.280397770691593 0 -44.280397770691593 -207.17323567495396 0 0 0 0 42.975328265654753 43.5377622907356 0 43.5377622907356 -135.63349169193998 0 0 0 0 9.2734043227269254 -3.9582862487288963 0 -3.9582862487288963 -24.387500561110649 0 0 0 0 115.34858196854475 77.424528062071658 0 77.424528062071658 -78.009878381135422 0 0 0 0 119.73681665688127 -19.031314330691202 0 -19.031314330691202 -88.988295246608686 0 0 0 0 16.320220284644165 6.8239394525462558 0 6.8239394525462558 -92.823078161591184 0 0 0 0 22.206453825139587 5.2355711859286558 0 5.2355711859286558 -71.726486444567144 0 0 0 0 121.86305407819918 76.133372548397233 0 76.133372548397233 -187.63358145695838 0 0 0 0 129.8211229839435 -25.925868079217253 0 -25.925868079217253 -189.35879316333671 0 0 0 0 283.93371028793626 -218.21223617729402 0 -218.21223617729402 45.128356525249728 0 0 0 0 -2.5879026188213174 176.82459934725193 0 176.82459934725193 -34.685653131900835 0 0 0 0 47.170899567605375 220.66122629656456 0 220.66122629656456 -73.574764150086594 0 0 0 0 4.5722964695307979 0.9757391090585239 0 0.9757391090585239 -1.2205614438353329 0 0 0 0 20.635999158845088 -5.3190792100306048 0 -5.3190792100306048 -114.53909373272563 0 0 0 0 66.624056338344076 -38.36675806616222 0 -38.36675806616222 -149.03824346705369 0 0 0 0 109.0632139091831 31.273388104248625 0 31.273388104248625 -192.42435185212435 0 0 0 0 6.523760023445675 15.601823060105016 0 15.601823060105016 -29.747973371299665 0 0 0 0 46.805877198441067 -58.192763928938803 0 -58.192763928938803 -200.77941681224002 0 0 0 0 518.73461589348335 44.395299687642364 0 44.395299687642364 -331.98924069214263 0 0 0 0 68.053875938589044 20.257397856114039 0 20.257397856114039 -36.923756059108058 0 0 0 0 -42.324501742390567 -342.18897255957017 0 -342.18897255957017 -521.94920195160012 0 0 0 0 18.796175469328773 -375.75929840621484 0 -375.75929840621484 -88.771533870265557 0 0 0 0 -140.9021794466189 -116.28491656435745 0 -116.28491656435745 -496.26287326918464 0 0 0 0 -33.811869413832028 236.58048079542777 0 236.58048079542777 -70.113765183466967 0 0 0 0 419.521045750962 39.426051332397947 0 39.426051332397947 -362.64660453306135 0 0 0 0 -372.33273387135523 -62.149612963559775 0 -62.149612963559775 -283.69034157548049 0 0 0 0 -388.72535029776736 199.06755682576022 0 199.06755682576022 -554.63121880620929 0 0 0 0 -96.825142363667965 34.105178035528979 0 34.105178035528979 -663.47450094898886 0 0 0 0 -19.497759800557105 -181.0867735405418 0 -181.0867735405418 -589.85014546981984 0 0 0 0 -163.76954375549576 -179.35143686346873 0 -179.35143686346873 -441.37303870239339 0 0 0 0 11.227019340803963 -138.86872044241045 0 -138.86872044241045 76.821179835092153 0 0 0 0 2.6340498756133446 -0.093927104128386674 0 -0.093927104128386674 -1.627107020736922 0 0 0 0 149.3955400924242 114.32609212563602 0 114.32609212563602 -297.66137608666759 0 0 0 0 66.180444458167131 -4.8568306581073557 0 -4.8568306581073557 -47.64499068684745 0 0 0 0 25.302202295914963 6.5280775681230985 0 6.5280775681230985 -2.0162205830759916 0 0 0 0 83.210073300914473 15.509627490851926 0 15.509627490851926 -38.317977624978084 0 0 0 0 5.5512372294331724 -21.660651256899001 0 -21.660651256899001 -24.603710602644789 0 0 0 0 127.44314189577926 -175.61994390234941 0 -175.61994390234941 -28.792304816413889 0 0 0 0 -34.949489147469649 -95.980887754262767 0 -95.980887754262767 38.303594416314809 0 0 0 0 276.29621861920714 -65.5836723426155 0 -65.5836723426155 -84.967997738502163 0 0 0 0 126.55162970566744 -156.70616115747771 0 -156.70616115747771 -863.3205477421161 0 0 0 0 -3.8835285568756603 -6.0817956638840212 0 -6.0817956638840212 -3.7774689701496165 0 0 0 0 26.965445262940193 177.7183417634551 0 177.7183417634551 -8.9701079174028564 0 0 0 0 -142.43195773479965 -302.4991269485954 0 -302.4991269485954 -582.21189445835944 0 0 0 0 652.78965402582435 -341.52443464060525 0 -341.52443464060525 -1110.6228778022523 0 0 0 0 -166.74336201212645 86.423216362700259 0 86.423216362700259 254.15641568554383 0 0 0 0 76.456945028734253 -94.358665191365617 0 -94.358665191365617 -193.47559584085684 0 0 0 0 16.0235775676726 -5.4556755019157102 0 -5.4556755019157102 -115.57507598392942 0 0 0 0 29.274509431675142 -81.64606246875519 0 -81.64606246875519 -173.29433817316749 0 0 0 0 68.868301315365102 -58.890168549191458 0 -58.890168549191458 -190.93213083254523 0 0 0 0 11.46549920350858 -15.472257361434846 0 -15.472257361434846 -1.5705999044589944 0 0 0 0 16.009499962488313 -1.353328976574165 0 -1.353328976574165 -111.58033101277036 0 0 0 0 98.2377202208786 -110.27981358139186 0 -110.27981358139186 -129.74194182588326 0 0 0 0 77.077461253378715 -295.89117141833003 0 -295.89117141833003 264.18057448564184 0 0 0 0 112.32171389819223 -9.4608691539287975 0 -9.4608691539287975 -84.162449463490702 0 0 0 0 301.86503235167402 -48.502123324924469 0 -48.502123324924469 -141.20685480068278 0 0 0 0 12.376398123660598 -11.591584198603982 0 -11.591584198603982 -50.079144273665378 0 0 0 0 -83.022493503178794 -53.948367773020436 0 -53.948367773020436 -104.81942537002396 0 0 0 0 41.292547652907274 -111.69183238130063 0 -111.69183238130063 -144.28352766431635 0 0 0 0 -21.873266725375743 61.277650762332996 0 61.277650762332996 -69.99797333515744 0 0 0 0 -117.99513515041986 -90.170595085451168 0 -90.170595085451168 -297.42820450958243 0 0 0 0 77.934359423161368 3.4832992075680522 0 3.4832992075680522 -164.69499221727619 0 0 0 0 16.844292194072295 -13.651757669435028 0 -13.651757669435028 1.0788202371404623 0 0 0 0 123.32690904743345 -98.784130664646909 0 -98.784130664646909 -27.62997646410804 0 0 0 0 148.08259590070156 -24.414316521761975 0 -24.414316521761975 -83.706192136291065 0 0 0 0 18.501991390169643 11.290367383306114 0 11.290367383306114 -60.944167246625753 0 0 0 0 97.717772133219114 -46.712914846399826 0 -46.712914846399826 -20.111250852605735 0 0 0 0 6.8754021633741385 -28.144475234551855 0 -28.144475234551855 -31.367211305748853 0 0 0 0 99.48926088260896 -38.927362162864938 0 -38.927362162864938 -35.305662780734565 0 0 0 0 135.32885233075058 -7.0213088468849492 0 -7.0213088468849492 -86.485543395030618 0 0 0 0 74.513378015408762 -12.077864339533789 0 -12.077864339533789 -82.842508016616193 0 0 0 0 79.6715343267972 -0.45978080735494586 0 -0.45978080735494586 -82.605574703826278 0 0 0 0 55.134786714726317 3.6575897139153994 0 3.6575897139153994 -45.666831903316051 0 0 0 0 54.592763723505243 -7.2644486111120159 0 -7.2644486111120159 7.274080748014967 0 0 0 0 85.204261014678195 17.576786077017459 0 17.576786077017459 -28.67534668099961 0 0 0 0 82.622076181573846 -61.565403404900962 0 -61.565403404900962 -24.073695488819794 0 0 0 0 14.315341605927177 9.6406167000514458 0 9.6406167000514458 -54.264169530083613 0 0 0 0 149.10277933434372 -53.934497830127839 0 -53.934497830127839 -78.680721037837429 0 0 0 0 -352.17799647159882 118.9592344366647 0 118.9592344366647 -233.7178394182265 0 0 0 0 -102.9565845825 131.42133735204516 0 131.42133735204516 -397.65262351014098 0 0 0 0 -10.169061018204502 76.279116882173184 0 76.279116882173184 -369.57803445444733 0 0 0 0 0.5020685248311616 1.6931661205181854 0 1.6931661205181854 -4.3679563894804119 0 0 0 0 394.66969797617276 -269.1746162671443 0 -269.1746162671443 -605.27642523992472 0 0 0 0 -68.141085639910671 20.56719643915676 0 20.56719643915676 -347.35308148206241 0 0 0 0 -68.097168999572375 18.16222701118312 0 18.16222701118312 -240.81703250110877 0 0 0 0 -31.007356726651324 35.846774340096999 0 35.846774340096999 -412.76017855577811 0 0 0 0 -88.197881475599388 93.351107014408626 0 93.351107014408626 -286.66784201960945 0 0 0 0 -87.787179328594448 85.144722353516045 0 85.144722353516045 -222.64544942555767 0 0 0 0 -76.701694839871607 73.013285236464981 0 73.013285236464981 -273.92584999312385 0 0 0 0 -75.719310624765512 44.719668857500437 0 44.719668857500437 -265.61792565994801 0 0 0 0 -40.546363367767754 -4.1506192801753059 0 -4.1506192801753059 -284.44457549152867 0 0 0 0 -5.0871829379589144 -45.492996088323707 0 -45.492996088323707 -181.26147548208064 0 0 0 0 -6.0112388242836232 -55.699750101576683 0 -55.699750101576683 -217.75554427125826 0 0 0 0 -82.403407975455792 12.896426286063161 0 12.896426286063161 -186.03174209684585 0 0 0 0 -126.6022875159897 36.863235022252411 0 36.863235022252411 -146.71481072935785 0 0 0 0 -56.393759545974717 15.548475982956006 0 15.548475982956006 -200.47584754549825 0 0 0 0 -318.68908445650231 167.49953125680258 0 167.49953125680258 -199.93636415843594 0 0 0 0 -146.47277304910597 119.19933027641991 0 119.19933027641991 -241.44363468015581 0 0 0 0 -14.080109673629977 31.799195980176592 0 31.799195980176592 -256.15371765485725 0 0 0 0 -54.076614050200533 98.569122456290643 0 98.569122456290643 -301.19197404672559 0 0 0 0 38.642580007418928 0.8914046829304425 0 0.8914046829304425 -240.4649324059601 0 0 0 0 -50.539563733759579 39.598005997902305 0 39.598005997902305 -213.24277914930644 0 0 0 0 28.672563568054954 -52.567455062815498 0 -52.567455062815498 -182.36900457972661 0 0 0 0 -48.768833622655507 -18.142066564096694 0 -18.142066564096694 -168.10003480597516 0 0 0 0 -137.30210694950529 93.7733350331564 0 93.7733350331564 -221.22181508572976 0 0 0 0 -27.905889064444182 34.762581121336552 0 34.762581121336552 -223.09493197549091 0 0 0 0 -52.493766058405981 18.905285644332253 0 18.905285644332253 -208.4720511079795 0 0 0 0 31.96043874952943 -99.339564631653047 0 -99.339564631653047 -92.299300357786706 0 0 0 0 122.52800829013813 -23.964851064316463 0 -23.964851064316463 -252.64074337740385 0 0 0 0 -23.035737553364015 29.537532318550802 0 29.537532318550802 -237.22498326139248 0 0 0 0 -80.74273514887318 -83.615496641346908 0 -83.615496641346908 -22.46740810344636 0 0 0 0 -194.05506491061374 -188.7962068563229 0 -188.7962068563229 -315.04147681803806 0 0 0 0 -89.671635857609999 -30.430467514748671 0 -30.430467514748671 -81.989090839069831 0 0 0 0 -54.456835433453421 130.40602109819338 0 130.40602109819338 -496.93112462540012 0 0 0 0 -1.7817192609822996 363.74495860076877 0 363.74495860076877 -48.539556965879456 0 0 0 0 -0.39637346158205666 1.373702504806781 0 1.373702504806781 -4.9434455977815475 0 0 0 0 35.650560026202356 -141.90526982057872 0 -141.90526982057872 128.30656141367217 0 0 0 0 -0.43982454153592698 -52.063765210681595 0 -52.063765210681595 -53.499018685895862 0 0 0 0 37.151620086499179 -210.28249053238324 0 -210.28249053238324 -149.79396763029217 0 0 0 0 17.228116312201564 -44.110160328586062 0 -44.110160328586062 -289.73993786789964 0 0 0 0 114.7026177707553 -184.76251103183131 0 -184.76251103183131 -285.86865272893192 0 0 0 0 -72.453137272683307 -393.55126617735914 0 -393.55126617735914 -3.1659498506213026 0 0 0 0 -296.60180888869354 372.71827451331137 0 372.71827451331137 -22.981620728336566 0 0 0 0 -0.037356344855803858 3.3164719058532697 0 3.3164719058532697 -11.072718094462047 0 0 0 0 -216.15482856374638 -67.331070418767922 0 -67.331070418767922 -20.641466535722429 0 0 0 0 -75.518907960646175 -105.23814010913702 0 -105.23814010913702 -70.935123027006284 0 0 0 0 452.36107807785368 228.74504746103821 0 228.74504746103821 -177.1429307157141 0 0 0 0 -42.676625870783255 9.7269663158544972 0 9.7269663158544972 -73.006874901562696 0 0 0 0 82.729547689036281 -107.994602541723 0 -107.994602541723 -92.11360948361289 0 0 0 0 11.854237905105037 -69.461667235440473 0 -69.461667235440473 -27.902327704898198 0 0 0 0 -103.14219447101914 81.435182345732755 0 81.435182345732755 -134.72235992609058 0 0 0 0 212.62914566413474 -88.26581930424436 0 -88.26581930424436 -273.38431527963985 0 0 0 0 58.450280289113834 -169.21212499360445 0 -169.21212499360445 38.736369299629587 0 0 0 0 50.473132762666864 -66.162750814424726 0 -66.162750814424726 -67.262432441770216 0 0 0 0 45.498598314305127 -52.716852204495808 0 -52.716852204495808 -11.584089053326522 0 0 0 0 52.988584818951267 -68.536659576518105 0 -68.536659576518105 -70.35844324500431 0 0 0 0 -0.032980991343288579 0.1145249352330211 0 0.1145249352330211 1.7795542129849764 0 0 0 0 -68.284068433498533 -85.838848564679211 0 -85.838848564679211 -92.127023743443715 0 0 0 0 157.14305151974395 45.591528720681708 0 45.591528720681708 -21.734723209920048 0 0 0 0 197.86245787001383 65.894107500885639 0 65.894107500885639 -276.89187931878951 0 0 0 0 421.14966247244206 -74.975062215936305 0 -74.975062215936305 -276.15299616208358 0 0 0 0 7.3018299744456616 -2.5710303040489837 0 -2.5710303040489837 -101.37269324619808 0 0 0 0 141.59043439895026 113.21477872567857 0 113.21477872567857 -294.31976214979295 0 0 0 0 -27.519733359921474 43.556607401162637 0 43.556607401162637 -207.33016342546398 0 0 0 0 123.22085710691954 13.466835264063775 0 13.466835264063775 -202.36994917369293 0 0 0 0 136.02612311472626 -8.1454924201289032 0 -8.1454924201289032 -182.46175438389037 0 0 0 0 70.713368112865282 19.619897977188884 0 19.619897977188884 -166.80097289041805 0 0 0 0 38.546690827145994 -29.093186933514517 0 -29.093186933514517 -144.65912846544597 0 0 0 0 95.463572114735143 8.114871537876752 0 8.114871537876752 -123.54651778502375 0 0 0 0 94.572702879331473 -0.1938424199624933 0 -0.1938424199624933 -68.651244516469887 0 0 0 0 120.15227444632183 -7.2889871094148475 0 -7.2889871094148475 -173.63566223270027 0 0 0 0 113.04817112025466 -16.613253492389049 0 -16.613253492389049 -135.85297586429442 0 0 0 0 -28.555027202439419 -109.35822887646646 0 -109.35822887646646 -106.27366249194165 0 0 0 0 209.25630551745087 24.493692369618657 0 24.493692369618657 -255.51843912414915 0 0 0 0 182.53525345808521 -133.90299365040846 0 -133.90299365040846 -103.98268113969425 0 0 0 0 13.903105457246395 13.25950713065156 0 13.25950713065156 -13.520698131479367 0 0 0 0 299.82350952346587 72.635402315147303 0 72.635402315147303 -224.08190968278723 0 0 0 0 -126.18935822868548 152.63962501366041 0 152.63962501366041 63.824915556862834 0 0 0 0 -0.53641225549052174 2.1993897167454861 0 2.1993897167454861 -30.396836383394657 0 0 0 0 5.1795303943561066 316.47606045820248 0 316.47606045820248 -386.0744907962353 0 0 0 0 -16.091155752807936 325.26648906906667 0 325.26648906906667 -313.51994104092228 0 0 0 0 -38.271106585796133 132.43832017449859 0 132.43832017449859 -173.4751321525473 0 0 0 0 -366.11191736372155 -675.07703745345827 0 -675.07703745345827 -311.90051257596133 0 0 0 0 -0.17573491978964645 -0.80967361774841651 0 -0.80967361774841651 -10.672155907327962 0 0 0 0 -34.057897977602806 168.16553958876102 0 168.16553958876102 -1130.0797179669062 0 0 0 0 -266.67635488102223 391.37238683582837 0 391.37238683582837 -260.00870241764642 0 0 0 0 -489.29962325484325 857.73016027067877 0 857.73016027067877 -422.75505648864055 0 0 0 0 -53.96918934139967 36.275947037858714 0 36.275947037858714 -113.9946155115158 0 0 0 0 -684.31042111764145 -354.3216039660922 0 -354.3216039660922 -347.44928126039304 0 0 0 0 3.7498537099750138 -31.472778200850371 0 -31.472778200850371 -466.41600942987316 0 0 0 0 -103.83087489114337 -221.17163811914543 0 -221.17163811914543 -77.542422565207744 0 0 0 0 -17.153520762517928 -63.887365466900519 0 -63.887365466900519 62.545627578503627 0 0 0 0 -49.256255425846575 -150.52789812277115 0 -150.52789812277115 -171.11913893654128 0 0 0 0 -198.12338710355664 29.211701912007811 0 29.211701912007811 97.555366987979141 0 0 0 0 106.92675153789662 -22.492968621509704 0 -22.492968621509704 -313.51881611566569 0 0 0 0 2.0134592289324136 -4.5167390406850547 0 -4.5167390406850547 -23.994942538278263 0 0 0 0 507.17736334993606 375.38901684101711 0 375.38901684101711 -383.11269927506874 0 0 0 0 0.57587676685040701 4.7968076718993959 0 4.7968076718993959 -99.965564432160733 0 0 0 0 36.795025062825516 -120.60855353528723 0 -120.60855353528723 -688.30236133820472 0 0 0 0 -12.009612552591534 -98.516667728985794 0 -98.516667728985794 -207.772328854629 0 0 0 0 -0.83866916941479985 0.5191240043226788 0 0.5191240043226788 -1.1469662724250327 0 0 0 0 32.265189129284408 161.20626428602918 0 161.20626428602918 -23.295678803987926 0 0 0 0 63.224265615904187 12.433502093725565 0 12.433502093725565 -94.242712835016846 0 0 0 0 -14.54976263019762 -11.54586776349106 0 -11.54586776349106 -33.366950462507958 0 0 0 0 2.8832459699506217 -23.424526333647236 0 -23.424526333647236 -215.94645717360845 0 0 0 0 6.6875540506016726 1.0116316524379343 0 1.0116316524379343 -0.33038239874512598 0 0 0 0 -13.638332269848433 -27.034137642966471 0 -27.034137642966471 -176.35839775092154 0 0 0 0 -11.868716030609903 -47.777625436458493 0 -47.777625436458493 -250.2451748146641 0 0 0 0 63.855310433027171 -60.761095288665729 0 -60.761095288665729 -251.31294179149882 0 0 0 0 44.131693845528844 -32.102441387542058 0 -32.102441387542058 -286.02467029246873 0 0 0 0 -113.59274831378025 -83.075666483869554 0 -83.075666483869554 -239.64235508349338 0 0 0 0 28.474859141062552 126.98452232221643 0 126.98452232221643 -274.66334439507136 0 0 0 0 55.111762535467278 -52.997786380173238 0 -52.997786380173238 -428.00901718804744 0 0 0 0 -6.1106566423623008 -37.6152494927519 0 -37.6152494927519 -195.97252886144452 0 0 0 0 38.903440912157293 -22.522169860592385 0 -22.522169860592385 -225.22091996958443 0 0 0 0 64.40993757160777 -63.921687080491211 0 -63.921687080491211 -223.17777880832955 0 0 0 0 54.182709979123956 -91.341594969554535 0 -91.341594969554535 -279.87107976393418 0 0 0 0 88.310402172459817 -73.545015282171789 0 -73.545015282171789 -267.15605181739556 0 0 0 0 98.051886369537442 -39.738341021787164 0 -39.738341021787164 -188.46711717468952 0 0 0 0 81.924574595914237 -64.724258821668627 0 -64.724258821668627 -223.17979992025766 0 0 0 0 62.108532231909521 -26.190781109205091 0 -26.190781109205091 -148.78125790559989 0 0 0 0 64.076292499014926 -27.955467213529118 0 -27.955467213529118 -195.7859087072861 0 0 0 0 74.510644324835994 6.6094535651936894 0 6.6094535651936894 -132.67765236805508 0 0 0 0 49.465666251066523 -17.679910492205181 0 -17.679910492205181 -152.85993144036547 0 0 0 0 113.01803471396806 -158.72265289002962 0 -158.72265289002962 -259.21465046277626 0 0 0 0 154.59659805774754 -75.296418803035522 0 -75.296418803035522 -246.01493228313802 0 0 0 0 65.147991821079813 -101.53173806298946 0 -101.53173806298946 -252.83178563690785 0 0 0 0 49.429354350297217 -116.54285218248879 0 -116.54285218248879 -230.75628329430219 0 0 0 0 68.001600689316547 -108.33388174106676 0 -108.33388174106676 -237.05439485727766 0 0 0 0 21.932848500508044 -110.56901158308074 0 -110.56901158308074 -230.61152721291182 0 0 0 0 61.463948202002939 -10.74907233810336 0 -10.74907233810336 -131.6552286127353 0 0 0 0 98.367008680705112 -72.995457745085332 0 -72.995457745085332 -250.42126505889996 0 0 0 0 52.874951316654915 -104.46426659998633 0 -104.46426659998633 -272.02685342933819 0 0 0 0 -42.652398271233324 56.560729147074653 0 56.560729147074653 44.980825179191243 0 0 0 0 2.6824285797974703 1.0503872236676521 0 1.0503872236676521 -1.2915510294939772 0 0 0 0 123.97717467503571 -102.43243662054783 0 -102.43243662054783 -186.35805361716348 0 0 0 0 -69.780703540793183 -44.074328156081719 0 -44.074328156081719 -70.926062098761577 0 0 0 0 -82.238774834437208 -88.584363093402317 0 -88.584363093402317 -107.99955105266963 0 0 0 0 19.40854043904983 29.733984660262649 0 29.733984660262649 -152.68012595691835 0 0 0 0 1.5470094377317416 1.8813123629933521 0 1.8813123629933521 -1.5180789017621379 0 0 0 0 134.36227887645146 -7.8109059392609197 0 -7.8109059392609197 -163.94542749200991 0 0 0 0 6.7093296439652477 28.92886807126888 0 28.92886807126888 13.550812927752759 0 0 0 0 32.555806615699112 -89.452300518387347 0 -89.452300518387347 -154.60186218132026 0 0 0 0 101.26102266098314 9.8791749154424906 0 9.8791749154424906 -173.39853205698364 0 0 0 0 -74.105202584111794 -95.679823136817504 0 -95.679823136817504 -108.63956511098695 0 0 0 0 -51.123621605327571 -116.1068524223756 0 -116.1068524223756 -120.8080613413581 0 0 0 0 -51.035055670655311 -95.063651436008058 0 -95.063651436008058 -169.3429898652721 0 0 0 0 -48.104000759722112 -75.481054690124438 0 -75.481054690124438 -111.23746812496734 0 0 0 0 -24.546933208557675 -77.246881073037912 0 -77.246881073037912 -183.03529884570344 0 0 0 0 7.5163478789747273 2.3724547903056674 0 2.3724547903056674 -18.731913014362704 0 0 0 0 9.5116924004378234 1.0149491017064065 0 1.0149491017064065 -48.39632156931475 0 0 0 0 10.040736815068158 -2.6797806702352318 0 -2.6797806702352318 -46.547577357367118 0 0 0 0 -15.921785481601546 52.264709466255226 0 52.264709466255226 -65.534762327344652 0 0 0 0 5.4041855457158796 6.9470883270999444 0 6.9470883270999444 -26.089213078459608 0 0 0 0 37.294343886103889 48.795592779884828 0 48.795592779884828 -73.858243675393169 0 0 0 0 -6.6404828516970156 -44.003499420974549 0 -44.003499420974549 -35.191466944267631 0 0 0 0 -101.50279953254358 -31.014490349345579 0 -31.014490349345579 -31.155968680724982 0 0 0 0 -5.565062409179518 -44.485509372763318 0 -44.485509372763318 -145.1424116421731 0 0 0 0 9.9366933018900454 -37.14193917614557 0 -37.14193917614557 -81.504929445937023 0 0 0 0 -109.42379275738131 4.5450477289414266 0 4.5450477289414266 -21.817269460754687 0 0 0 0 -2.2620300529981634 3.1449813144593719 0 3.1449813144593719 -11.199940563809701 0 0 0 0 9.6677774331092223 16.23668227440794 0 16.23668227440794 -31.595923867585952 0 0 0 0 4.5601385688978766 6.0564447345795216 0 6.0564447345795216 -27.860927603498535 0 0 0 0 -170.59912021341006 -91.444021007750962 0 -91.444021007750962 -52.223942060423724 0 0 0 0 -6.1887584313222703 5.4293209161599947 0 5.4293209161599947 -4.4084114377983568 0 0 0 0 -206.69784798673845 -140.02599276444016 0 -140.02599276444016 -135.42516541890654 0 0 0 0 144.64408529524371 101.76492486706775 0 101.76492486706775 17.97706612602633 0 0 0 0 -104.89053586781301 -48.221002931670228 0 -48.221002931670228 -116.40705259176866 0 0 0 0 -60.511690398388964 -68.850709257586459 0 -68.850709257586459 -282.32581875667165 0 0 0 0 -119.5843031673885 -119.31058286011455 0 -119.31058286011455 -157.85648531890547 0 0 0 0 -36.462811587489114 -122.49172768012386 0 -122.49172768012386 -355.22872832842768 0 0 0 0 -51.402308656392051 48.580026900304802 0 48.580026900304802 -488.36742526015223 0 0 0 0 -46.432078645975025 -68.66641916259664 0 -68.66641916259664 -608.555402455695 0 0 0 0 -140.78723303178776 -209.4536572616571 0 -209.4536572616571 -335.73228051394199 0 0 0 0 -5.5830055791266204 -80.757270828906712 0 -80.757270828906712 -182.40772668670252 0 0 0 0 -53.261375301426597 -83.252155843074434 0 -83.252155843074434 -215.3105597611559 0 0 0 0 -29.986017914610784 -107.87535191928328 0 -107.87535191928328 -212.52391652479491 0 0 0 0 -64.809717146315961 -113.02184240523275 0 -113.02184240523275 -216.55806152763034 0 0 0 0 -62.005338724820831 -82.389475873293122 0 -82.389475873293122 -173.35185291251719 0 0 0 0 -116.6380162134119 -20.58095599198532 0 -20.58095599198532 -284.49987285560144 0 0 0 0 -31.329949752562243 -93.99085045632728 0 -93.99085045632728 -290.87115577786244 0 0 0 0 1.8159461234035916 -128.74219224501212 0 -128.74219224501212 -239.8591909695042 0 0 0 0 -65.553012535840935 -73.01889876208952 0 -73.01889876208952 -236.85654018823618 0 0 0 0 -45.972750857708888 -66.864871113998106 0 -66.864871113998106 -287.96076617940344 0 0 0 0 -154.51567503748811 23.612128442709945 0 23.612128442709945 -226.63035646759909 0 0 0 0 -193.07366384784109 182.97328693641077 0 182.97328693641077 -459.94359473946861 0 0 0 0 -37.51614262183648 7.720976995885394 0 7.720976995885394 -372.00710550005351 0 0 0 0 -30.666066010133363 88.576768437840656 0 88.576768437840656 -548.19789927754391 0 0 0 0 -354.16009523798493 327.71192647810767 0 327.71192647810767 -484.36184977988887 0 0 0 0 40.396316802767615 143.06350886310065 0 143.06350886310065 -587.92419029051723 0 0 0 0 -49.635928127157968 38.014000101158672 0 38.014000101158672 -581.79863369953819 0 0 0 0 -24.238122706477952 30.888892080096412 0 30.888892080096412 -596.20537428466196 0 0 0 0 -15.914672907076238 165.74660040229264 0 165.74660040229264 -589.2531745310007 0 0 0 0 -11.553735969959462 133.73595388303136 0 133.73595388303136 -533.44160560414093 0 0 0 0 21.939961713753291 143.32239741834019 0 143.32239741834019 -530.72535002906352 0 0 0 0 16.621469346200684 125.01410476584351 0 125.01410476584351 -376.58729812579622 0 0 0 0 153.15945307767652 136.78397779795432 0 136.78397779795432 -597.57190012272986 0 0 0 0 -29.478410186360634 46.984487493051347 0 46.984487493051347 -615.2903005787266 0 0 0 0 174.09253065622033 154.43674935639956 0 154.43674935639956 -400.33003092834406 0 0 0 0 131.80363438806717 6.7654286362590028 0 6.7654286362590028 -289.67995400834479 0 0 0 0 -0.4545325446916948 0.5896619222227315 0 0.5896619222227315 2.8290225830097313 0 0 0 0 -34.325212412823021 116.43456774880178 0 116.43456774880178 -441.56375169761304 0 0 0 0 -11.236099768665166 8.0987235048740729 0 8.0987235048740729 -1.1892591020856145 0 0 0 0 -19.455600954886904 79.997687559178303 0 79.997687559178303 -452.52572253191101 0 0 0 0 -214.52998428443152 86.682465068045531 0 86.682465068045531 478.7408007512031 0 0 0 0 -97.97949807209028 -265.88776704828848 0 -265.88776704828848 -459.11869916680371 0 0 0 0 101.24714777922236 160.26756538213158 0 160.26756538213158 -47.455350488795375 0 0 0 0 -152.89461298607739 124.00278720733013 0 124.00278720733013 -58.88757621232071 0 0 0 0 72.111727443495511 -37.793954325044069 0 -37.793954325044069 43.518022055011897 0 0 0 0 -256.80661882254117 123.73009576675122 0 123.73009576675122 400.46217948769424 0 0 0 0 -14.970120459778627 182.70487579093515 0 182.70487579093515 -988.81566206196476 0 0 0 0 -4.8438249334023276 2.3308517292688258 0 2.3308517292688258 -0.65251643152164451 0 0 0 0 -13.055070139556165 -178.71295122678953 0 -178.71295122678953 -98.671391781414059 0 0 0 0 -4.0837569667637581 278.08625316364578 0 278.08625316364578 -238.74057842286493 0 0 0 0 -332.2744299190299 371.45981300390395 0 371.45981300390395 -265.2713999477819 0 0 0 0 172.87036524813448 330.22244202830188 0 330.22244202830188 -407.14869758238001 0 0 0 0 54.369466645991452 201.04660095170493 0 201.04660095170493 -257.88226452174604 0 0 0 0 378.37990939279371 -192.09580571416427 0 -192.09580571416427 89.477305157442061 0 0 0 0 -56.578525630174227 149.89076467454515 0 149.89076467454515 -280.68144727832259 0 0 0 0 48.306939233924822 295.8031783831284 0 295.8031783831284 -512.45445032006 0 0 0 0 176.75138753593183 -24.6890896360037 0 -24.6890896360037 -235.36895398810282 0 0 0 0 -176.22648600760022 88.57460143588105 0 88.57460143588105 -219.31833763585928 0 0 0 0 121.18364091785406 -12.537133624897251 0 -12.537133624897251 -280.48122971581324 0 0 0 0 -21.04073889772917 -34.883940240854827 0 -34.883940240854827 -281.57403466664618 0 0 0 0 12.00996090631986 5.1488682385623079 0 5.1488682385623079 2.5868304507195568 0 0 0 0 19.787276885314441 8.1501433327630366 0 8.1501433327630366 -18.02507765129667 0 0 0 0 4.6718002773977787 -107.09174617250164 0 -107.09174617250164 236.20169465917024 0 0 0 0 22.644477066928175 33.121086541249497 0 33.121086541249497 -67.189938429674839 0 0 0 0 19.714690851717023 10.900861370656457 0 10.900861370656457 -39.60091418626871 0 0 0 0 15.934036114468256 92.666558635219872 0 92.666558635219872 17.833296678099941 0 0 0 0 40.194778622900458 7.7142635312417269 0 7.7142635312417269 -48.924482074009575 0 0 0 0 42.968292099245446 -8.9450247681761539 0 -8.9450247681761539 -27.70798628745888 0 0 0 0 88.490398648473274 33.774941241745182 0 33.774941241745182 -86.904973243151289 0 0 0 0 107.43919124161619 -11.948637418121734 0 -11.948637418121734 -204.97886781784109 0 0 0 0 301.53006167661079 120.83586685500723 0 120.83586685500723 -114.86298555699705 0 0 0 0 289.51291179848704 -172.6260143445661 0 -172.6260143445661 -253.62176304651894 0 0 0 0 -12.260709907558066 -156.51545601421003 0 -156.51545601421003 -214.08016983264679 0 0 0 0 -254.30517535221497 -79.94375244030357 0 -79.94375244030357 81.73000824576593 0 0 0 0 3.961516113047086 1.5268732976348858 0 1.5268732976348858 0.75758396853841248 0 0 0 0 2.0716637258628197 0.76671767819789238 0 0.76671767819789238 26.843494706801721 0 0 0 0 2.6268184678903719 6.3468498755610199 0 6.3468498755610199 -13.092575977871093 0 0 0 0 -0.40055913611110611 1.3893985003701488 0 1.3893985003701488 -1.7007536469002105 0 0 0 0 -13.960148271656939 -9.6365821481958847 0 -9.6365821481958847 89.934428962282254 0 0 0 0 10.783113932721427 18.563841861585388 0 18.563841861585388 -4.4672798963140394 0 0 0 0 -0.64550075979206945 6.4132310888380744 0 6.4132310888380744 -4.5816489478570475 0 0 0 0 -4.4402400154418844 2.3466616394071025 0 2.3466616394071025 3.312346786227863 0 0 0 0 -0.25906893508840934 1.1536366720467583 0 1.1536366720467583 -2.4329731372093093 0 0 0 0 2.4040237816947232 5.6299417786503909 0 5.6299417786503909 -23.844528310830356 0 0 0 0 -0.021795712328762401 3.29854351823451 0 3.29854351823451 -11.129124379978748 0 0 0 0 -3.1025692134403986 -8.6310908200721315 0 -8.6310908200721315 3.4480818136071321 0 0 0 0 -4.1123721166443277 8.2750183379139344 0 8.2750183379139344 -7.2754836809835979 0 0 0 0 6.0509697154830295 -3.3363441879651532 0 -3.3363441879651532 -9.6745730210746785 0 0 0 0 -23.08721165118277 19.106090165732894 0 19.106090165732894 -38.958064444348565 0 0 0 0 -15.595310078350849 3.8348927586048376 0 3.8348927586048376 -11.461470201800694 0 0 0 0 14.797169316845384 28.441882938110211 0 28.441882938110211 -57.52515299791412 0 0 0 0 -9.9210193991821143 19.642428940867831 0 19.642428940867831 -27.421624622801573 0 0 0 0 8.4994016759344504 19.052699224601383 0 19.052699224601383 -12.521769637321995 0 0 0 0 6.7205546191654602 -4.5809893324241386 0 -4.5809893324241386 -7.758109789118123 0 0 0 0 0.49400386583009759 1.3193874406368451 0 1.3193874406368451 -1.257110122234586 0 0 0 0 -15.072442265722202 23.671267152400105 0 23.671267152400105 -26.526458662112418 0 0 0 0 -5.8715812462650057 9.56959914807085 0 9.56959914807085 -3.0231319261133152 0 0 0 0 3.1725669689020606 15.486819588906656 0 15.486819588906656 -51.086852723856282 0 0 0 0 11.577371327659421 13.860410285778926 0 13.860410285778926 -36.826864564209245 0 0 0 0 6.7238612500113684 10.101940137569386 0 10.101940137569386 -25.998838628732813 0 0 0 0 -20.149424136520054 59.475513672197849 0 59.475513672197849 13.326722833211534 0 0 0 0 -14.594696533599745 58.577700107183773 0 58.577700107183773 -6.1297220849810401 0 0 0 0 1.5170579877231489 11.121897174383776 0 11.121897174383776 -12.310768224851927 0 0 0 0 53.984291537495665 27.923733413263108 0 27.923733413263108 -9.4031968162307749 0 0 0 0 3.6926110896555731 2.657400170826989 0 2.657400170826989 -6.3233198134835931 0 0 0 0 -15.636683151294562 16.336604859199724 0 16.336604859199724 14.966814372808585 0 0 0 0 -6.5622759058168576 7.7650834783966474 0 7.7650834783966474 0.69669553613935165 0 0 0 0 -5.2281187938209541 25.539737406972563 0 25.539737406972563 -33.869442881914438 0 0 0 0 -5.4042176208596251 20.657701299964174 0 20.657701299964174 9.9467664349067491 0 0 0 0 -31.134772079186007 36.643672574718948 0 36.643672574718948 18.033967743831454 0 0 0 0 -30.057246306061188 33.334664204776345 0 33.334664204776345 20.674222133820876 0 0 0 0 -30.620500379740633 34.148033930039674 0 34.148033930039674 17.092063370095275 0 0 0 0 -19.498945408511872 42.791058624927246 0 42.791058624927246 21.349469893815694 0 0 0 0 -26.726164695085572 39.100413592765108 0 39.100413592765108 3.5531124737753998 0 0 0 0 -6.2977098579743824 81.035147162539943 0 81.035147162539943 13.06346804225177 0 0 0 0 -2.4308344878656003 3.9919076961029916 0 3.9919076961029916 -2.497419234465724 0 0 0 0 -21.171736056744066 16.442601355942315 0 16.442601355942315 4.4506116964912508 0 0 0 0 -30.420313309478956 50.156210365297738 0 50.156210365297738 46.053292970340408 0 0 0 0 24.295474841930513 68.058683247512818 0 68.058683247512818 14.254646304034395 0 0 0 0 22.221438795217864 58.99051794935076 0 58.99051794935076 13.655496211911668 0 0 0 0 -0.70276844933625204 -0.10365134907830509 0 -0.10365134907830509 0.093060045764133292 0 0 0 0 -24.091279171911083 29.755433052661829 0 29.755433052661829 30.581955327017567 0 0 0 0 9.4237921468120476 86.604107913837652 0 86.604107913837652 18.295350174375926 0 0 0 0 -48.731064523355144 48.760237332367979 0 48.760237332367979 12.425784208125151 0 0 0 0 -16.952615730234101 26.407046955260739 0 26.407046955260739 -65.620508187887026 0 0 0 0 -18.69431833281979 61.173929910815787 0 61.173929910815787 -70.645312039348028 0 0 0 0 -48.957706814620565 6.6200235868964228 0 6.6200235868964228 -6.255795020448204 0 0 0 0 -0.4316002972802977 39.447439548384864 0 39.447439548384864 -44.816906145773828 0 0 0 0 -24.272693757232176 40.200079811282194 0 40.200079811282194 1.6999657121778 0 0 0 0 -24.328115201546666 21.590859439711494 0 21.590859439711494 3.1674310499506646 0 0 0 0 -21.280923005380743 36.634434731935471 0 36.634434731935471 36.088633611885598 0 0 0 0 14.732423188169749 48.886010040681867 0 48.886010040681867 19.702839467587182 0 0 0 0 0.066376854532102458 18.743621486701159 0 18.743621486701159 86.830359421175672 0 0 0 0 -10.914851615428788 43.454190951932105 0 43.454190951932105 77.654620028562931 0 0 0 0 -8.7632718557391058 19.091314019195124 0 19.091314019195124 23.729560464911629 0 0 0 0 -2.6669277779867855 48.658771534894186 0 48.658771534894186 -4.9064222414854157 0 0 0 0 -0.11297639813775294 50.508505888668878 0 50.508505888668878 -50.586180008613155 0 0 0 0 1.9425205926223486 26.67420922402107 0 26.67420922402107 -9.9566097951465053 0 0 0 0 8.058023612146016 44.752442309345497 0 44.752442309345497 -83.408127980503195 0 0 0 0 -25.646851911133552 36.46717624196026 0 36.46717624196026 -44.733977118532493 0 0 0 0 67.343823224681927 65.485796254479283 0 65.485796254479283 -344.35448900869233 0 0 0 0 -50.29584764880795 -91.678068762841576 0 -91.678068762841576 -385.34649980773975 0 0 0 0 20.988101489143137 -60.445172651934627 0 -60.445172651934627 -464.46086979140819 0 0 0 0 -0.49667615989860575 -0.51566511164345741 0 -0.51566511164345741 -0.78212994363605048 0 0 0 0 -72.246482494802166 -56.128201629617251 0 -56.128201629617251 -120.8992148351681 0 0 0 0 -0.030184996693791238 -28.977487327967538 0 -28.977487327967538 -566.87813995569013 0 0 0 0 -44.474103548898881 -96.496252089069458 0 -96.496252089069458 -452.94746037871664 0 0 0 0 -18.883773007092099 -69.251495637670814 0 -69.251495637670814 -562.81702906012652 0 0 0 0 -12.347518630257468 -146.35459721538791 0 -146.35459721538791 -632.0432519649039 0 0 0 0 19.825680305412391 -105.98560749643366 0 -105.98560749643366 -562.91332453158975 0 0 0 0 9.8078361470340951 -138.81567254340553 0 -138.81567254340553 -694.07467013150745 0 0 0 0 -30.44398582222874 -95.748279915314924 0 -95.748279915314924 -564.84279305182099 0 0 0 0 -37.748349825494259 -121.65493590671031 0 -121.65493590671031 -694.89460575935664 0 0 0 0 41.150460685029103 -116.55406928266893 0 -116.55406928266893 -873.07494709211096 0 0 0 0 -0.037708830872352751 -71.514409543803069 0 -71.514409543803069 -715.77441561558226 0 0 0 0 -273.62153737767539 -191.53226038179127 0 -191.53226038179127 -709.28554870456355 0 0 0 0 -127.12371294173707 -36.354979673604703 0 -36.354979673604703 -549.23210339604702 0 0 0 0 -106.23727286827933 -192.97334218945616 0 -192.97334218945616 -673.97209846378973 0 0 0 0 4.4260921622480396 -114.42804682312271 0 -114.42804682312271 -814.11172832056036 0 0 0 0 -67.120313912846953 -84.805332529605948 0 -84.805332529605948 -530.56237607264484 0 0 0 0 9.3197382527359025 -97.228009375350666 0 -97.228009375350666 -528.54869017901183 0 0 0 0 -54.900701130641551 -84.722760017259134 0 -84.722760017259134 -533.85856415605667 0 0 0 0 -109.91667748447622 16.426255707410746 0 16.426255707410746 -56.258184540754883 0 0 0 0 -98.483463688731462 -57.007502308675612 0 -57.007502308675612 -277.83628969534766 0 0 0 0 -16.70939162914334 -34.234749199960788 0 -34.234749199960788 -279.89723087552602 0 0 0 0 -1.066186594193645 -0.73147572274112349 0 -0.73147572274112349 -0.65235329827760324 0 0 0 0 -94.145675005574134 20.755953175681498 0 20.755953175681498 -34.411106843435846 0 0 0 0 -14.22708130714571 -71.639907281765772 0 -71.639907281765772 -26.620249940009671 0 0 0 0 -16.288041082470727 24.010519152368943 0 24.010519152368943 -59.656630150493584 0 0 0 0 -57.332791655297797 47.749712390123022 0 47.749712390123022 27.4161788373749 0 0 0 0 -22.339940801902117 26.28890741286159 0 26.28890741286159 34.320358369848691 0 0 0 0 126.8427058628547 121.09979648374065 0 121.09979648374065 -10.555059388831069 0 0 0 0 -133.67339620772509 62.98906116584476 0 62.98906116584476 -47.637665494839894 0 0 0 0 -0.66703423166164333 2.4737499838151287 0 2.4737499838151287 -6.6571223593441005 0 0 0 0 203.94787083346432 -58.883800562980468 0 -58.883800562980468 -351.85892229987803 0 0 0 0 -0.51901700373650739 0.95061703709281176 0 0.95061703709281176 -2.8378856482968331 0 0 0 0 -644.96542224267148 238.74317808787055 0 238.74317808787055 -67.51003242751176 0 0 0 0 -63.797025013985831 -9.568364595012099 0 -9.568364595012099 7.7568224451115384 0 0 0 0 -5.7873309011058609 -18.005010164892155 0 -18.005010164892155 -257.64319145501941 0 0 0 0 -173.23719958077913 -29.366417055061902 0 -29.366417055061902 -255.13655667862986 0 0 0 0 7.547032280562803 159.09903016426688 0 159.09903016426688 -507.29200008940825 0 0 0 0 -368.84715742474782 73.793212020809733 0 73.793212020809733 -509.18106051260474 0 0 0 0 -305.38372281990053 158.53075040435033 0 158.53075040435033 -538.35780739250185 0 0 0 0 -352.48479652090009 92.064488654064917 0 92.064488654064917 -537.58063207811938 0 0 0 0 -218.41913450895061 93.276196310267096 0 93.276196310267096 -615.50297766078438 0 0 0 0 -51.019122760284063 228.65481378163531 0 228.65481378163531 -647.92968601988105 0 0 0 0 -201.8126366581273 19.016233506892604 0 19.016233506892604 -431.33529208382242 0 0 0 0 445.82891733908764 116.15729862319131 0 116.15729862319131 -584.02008708653739 0 0 0 0 -20.330641079254747 260.8294904695922 0 260.8294904695922 -621.41080904116097 0 0 0 0 81.929825062740292 280.48295440728543 0 280.48295440728543 -225.2113786488917 0 0 0 0 53.876368910228166 73.262703374780358 0 73.262703374780358 257.02701317601895 0 0 0 0 -82.30254596061377 111.82105744126602 0 111.82105744126602 -18.74517610539624 0 0 0 0 -122.85809979160831 264.98226366900781 0 264.98226366900781 -569.6402393971839 0 0 0 0 -120.74679259477671 82.276591335255944 0 82.276591335255944 -24.244862079380255 0 0 0 0 -173.63293414486179 247.87795740703405 0 247.87795740703405 -162.95749166145106 0 0 0 0 88.089778389171101 43.956177886680052 0 43.956177886680052 -590.33620088899625 0 0 0 0 48.050750598766172 132.30453985888744 0 132.30453985888744 -102.71420577428216 0 0 0 0 -80.99844020330147 -12.161134088994004 0 -12.161134088994004 109.23292984200816 0 0 0 0 -53.023074304800502 79.037085490530444 0 79.037085490530444 -63.860415019807988 0 0 0 0 18.633668596098687 12.312957605379779 0 12.312957605379779 -3.0588653027953114 0 0 0 0 11.089933504858095 108.82590562257701 0 108.82590562257701 70.645998691717978 0 0 0 0 -18.529787411207508 -2.8330577154738421 0 -2.8330577154738421 -36.316442808230931 0 0 0 0 -19.314331316145694 8.503800001630978 0 8.503800001630978 -3.7189914112886839 0 0 0 0 -64.136085804542745 98.135548754144111 0 98.135548754144111 -99.968028533818142 0 0 0 0 -25.871723003063039 4.529693798957851 0 4.529693798957851 -19.011601000107476 0 0 0 0 -1.4638112060348476 69.298578590671241 0 69.298578590671241 48.424855713958095 0 0 0 0 -36.741015492616498 -7.6858556142251473 0 -7.6858556142251473 1.7210633914219216 0 0 0 0 69.338412338619491 51.434102197556058 0 51.434102197556058 -2.5959475759445922 0 0 0 0 -5.4279335009495098 5.4943940126583435 0 5.4943940126583435 -6.7374561017148551 0 0 0 0 -16.157870133107281 27.020843950420385 0 27.020843950420385 -33.416136759580695 0 0 0 0 -3.0740352630691659 5.1345769115830251 0 5.1345769115830251 -5.6650155721160473 0 0 0 0 -63.077117876846842 -8.0722745079838205 0 -8.0722745079838205 29.304498527537362 0 0 0 0 -14.285591105766628 -2.9212064961138822 0 -2.9212064961138822 -37.369311188755091 0 0 0 0 3.2513957967621536 17.471953505562851 0 17.471953505562851 -6.7217562011210248 0 0 0 0 -0.54472170762892347 15.757227271678858 0 15.757227271678858 2.5807506613782607 0 0 0 0 -15.44839470641347 16.108824641728177 0 16.108824641728177 -9.1317022835264083 0 0 0 0 1.3225691473713681 17.119841859811658 0 17.119841859811658 -10.764850955224261 0 0 0 0 -18.620096286219955 26.769506271199418 0 26.769506271199418 -23.219059226429366 0 0 0 0 -11.833873949781264 55.930960278288694 0 55.930960278288694 -47.136086336788139 0 0 0 0 -27.661278415733118 15.410645984077973 0 15.410645984077973 -7.6732144980835102 0 0 0 0 -46.709125398469951 18.163012974768208 0 18.163012974768208 11.928876398000284 0 0 0 0 13.829707899860296 86.22383913183512 0 86.22383913183512 -44.756374074419 0 0 0 0 -4.2922182602369503 15.839812240476022 0 15.839812240476022 -18.602341954421718 0 0 0 0 14.275027322840529 5.5438577806232985 0 5.5438577806232985 -6.6433103026705851 0 0 0 0 5.4992937240531319 28.255231674600509 0 28.255231674600509 -34.910999310020998 0 0 0 0 2.8932753366862016 12.888131986735971 0 12.888131986735971 -37.108888939925237 0 0 0 0 -44.286222060363798 20.972121772167156 0 20.972121772167156 -8.135746159881819 0 0 0 0 -76.091028050193927 37.317421371990349 0 37.317421371990349 7.3957866445998661 0 0 0 0 -3.3597142008474457 4.9689569287684492 0 4.9689569287684492 -3.577283856339875 0 0 0 0 -4.2047561746430802 -2.4443466098728095 0 -2.4443466098728095 -39.800939827677212 0 0 0 0 -16.327467436020321 14.745898882646628 0 14.745898882646628 -12.213253498176101 0 0 0 0 120.78635913720791 -20.922760145243956 0 -20.922760145243956 -156.63676417071838 0 0 0 0 17.72754521866409 24.727516407961957 0 24.727516407961957 -34.888479889124937 0 0 0 0 154.27336327519151 231.47786281497974 0 231.47786281497974 -215.53214220574591 0 0 0 0 10.522951247334277 12.122107457616949 0 12.122107457616949 -16.361299066193169 0 0 0 0 -1.6155060853518917 4.8939347832779916 0 4.8939347832779916 -2.0803863798542181 0 0 0 0 -16.686375756240523 15.674693664324877 0 15.674693664324877 -38.61821549009619 0 0 0 0 -9.042260221810011 11.236129915392667 0 11.236129915392667 -13.977246822531015 0 0 0 0 0.49621465825907762 8.4342801434795547 0 8.4342801434795547 -44.022216448298423 0 0 0 0 9.025353135060854 9.3476157066628502 0 9.3476157066628502 -23.608882175228956 0 0 0 0 1.479325005137464 6.3860190860441932 0 6.3860190860441932 -15.951372977406436 0 0 0 0 -0.15533151193307049 19.630926534365173 0 19.630926534365173 -38.735008847516553 0 0 0 0 -1391.0448393438928 -157.49207616713829 0 -157.49207616713829 842.87391502788523 0 0 0 0 -21.546059932017105 18.789604334928228 0 18.789604334928228 -13.952824329264207 0 0 0 0 -8.2919909715092217 20.971504015353275 0 20.971504015353275 -36.437787396715066 0 0 0 0 -12.895286166310491 10.1237708376634 0 10.1237708376634 -0.585712835408426 0 0 0 0 -46.299609134090133 22.834517535098712 0 22.834517535098712 -42.392183104184369 0 0 0 0 -27.767967437952393 9.2911059843427211 0 9.2911059843427211 -31.754280650711735 0 0 0 0 -0.5057453297530472 1.7611672567959999 0 1.7611672567959999 -6.0915496737930184 0 0 0 0 1.0824726130013005 34.64384032147791 0 34.64384032147791 -57.346399085072335 0 0 0 0 -42.681799448149832 14.206469126496813 0 14.206469126496813 -29.526590680048685 0 0 0 0 -42.844420020574645 28.356128663233164 0 28.356128663233164 -29.589434099412756 0 0 0 0 14.630386527067458 16.861889744292057 0 16.861889744292057 -10.089926996450231 0 0 0 0 -17.076778470516729 18.075834852090338 0 18.075834852090338 -26.757279837172973 0 0 0 0 10.119519135211476 4.1249978039995767 0 4.1249978039995767 -38.65072196732217 0 0 0 0 55.124440822849465 15.260675443048967 0 15.260675443048967 -38.376700619985058 0 0 0 0 52.982903055652059 25.086979543400957 0 25.086979543400957 -62.671171127192792 0 0 0 0 10.702635765876039 70.543479367735927 0 70.543479367735927 -128.89563085762347 0 0 0 0 -29.078106376939559 25.876084758727302 0 25.876084758727302 -107.32809239970811 0 0 0 0 3.6119894067938141 -4.4681155765813827 0 -4.4681155765813827 -6.381236728875848 0 0 0 0 5.4939788569026859 -6.0807209113481804 0 -6.0807209113481804 -55.415154181682738 0 0 0 0 -0.50621005681925269 9.6844539260327736 0 9.6844539260327736 -1.7506991192149428 0 0 0 0 -14.526791960586706 28.128127791322186 0 28.128127791322186 -23.741614538579597 0 0 0 0 -1.585129770893916 -2.5356241558982049 0 -2.5356241558982049 0.10625617667801102 0 0 0 0 -52.136375923352261 67.564274342767021 0 67.564274342767021 215.54589455938549 0 0 0 0 105.00451473820817 53.349215940492286 0 53.349215940492286 -542.42759982243297 0 0 0 0 -58.563394693743703 24.775953820346331 0 24.775953820346331 -226.85006741830148 0 0 0 0 3.4080082933487574 58.655906938518456 0 58.655906938518456 -257.51469815311339 0 0 0 0 -5.0382644282268139 -1.0602424959355687 0 -1.0602424959355687 -1.3327823754913766 0 0 0 0 -48.48559958621729 94.23046187743148 0 94.23046187743148 -152.22386825783178 0 0 0 0 28.347184832107814 36.238104255957296 0 36.238104255957296 -9.3041985449881395 0 0 0 0 67.671219906021179 37.720594903410529 0 37.720594903410529 -86.024715234176256 0 0 0 0 -383.2396223014166 161.18547482691065 0 161.18547482691065 349.05957331262471 0 0 0 0 5.3711419403338638 0.4909136195383752 0 0.4909136195383752 -4.4967715833862485 0 0 0 0 584.17052500526916 -253.53826665875386 0 -253.53826665875386 -224.42004044039095 0 0 0 0 127.22233272535914 186.89537122556794 0 186.89537122556794 -269.87040218552738 0 0 0 0 13.950771876993713 74.554948414681348 0 74.554948414681348 250.20974243746605 0 0 0 0 23.558208092201994 69.405004248917976 0 69.405004248917976 193.82256349165982 0 0 0 0 -2.4243521663593128 1.1206228731462033 0 1.1206228731462033 318.37665897740226 0 0 0 0 0.579171420577552 -2.4749719749725045 0 -2.4749719749725045 213.45210277542355 0 0 0 0 22.05966906305116 67.02580657897488 0 67.02580657897488 27.142904996144352 0 0 0 0 0.23454567118346858 122.48785985698123 0 122.48785985698123 113.75013766232587 0 0 0 0 20.717943838630163 47.377521823116695 0 47.377521823116695 -69.323974715851364 0 0 0 0 14.440973395585615 158.4960286541027 0 158.4960286541027 -134.95824608161638 0 0 0 0 -10.333049913268457 38.826862325226912 0 38.826862325226912 -83.517306696614185 0 0 0 0 30.775241960614949 137.32083606573815 0 137.32083606573815 -193.13778613355316 0 0 0 0 1.8540586762016424 18.460425570176685 0 18.460425570176685 -23.897911592343874 0 0 0 0 -102.22713958747727 47.724795938875104 0 47.724795938875104 -195.73171814813395 0 0 0 0 -55.687244638659649 88.913196044049982 0 88.913196044049982 -202.82724807129125 0 0 0 0 15.302240061864524 27.264285650065787 0 27.264285650065787 -12.051520270413249 0 0 0 0 25.427236738453416 -43.08713186742898 0 -43.08713186742898 -81.259913885249262 0 0 0 0 68.731568568144553 190.69834293597887 0 190.69834293597887 -264.32890009000403 0 0 0 0 0.14782334620809934 20.618707711500946 0 20.618707711500946 -98.530780901495476 0 0 0 0 18.206335836457129 303.30244879431484 0 303.30244879431484 -233.32647094839922 0 0 0 0 367.2322099604944 205.7162748851697 0 205.7162748851697 -340.81731292181212 0 0 0 0 -0.22133371396193979 111.08343173850153 0 111.08343173850153 -146.11739033422418 0 0 0 0 -306.02440805232618 254.13028952547393 0 254.13028952547393 -101.17825191278826 0 0 0 0 -370.26334871987365 461.36002489947714 0 461.36002489947714 -274.97519310019561 0 0 0 0 14.464072592102919 8.5930770955014637 0 8.5930770955014637 -4.9985738805653455 0 0 0 0 544.76284748480589 -14.21442614850821 0 -14.21442614850821 -100.47226775674062 0 0 0 0 60.626461276215878 512.20133535201603 0 512.20133535201603 -203.07607458879647 0 0 0 0 -15.906608048186627 50.425596008564753 0 50.425596008564753 68.005514976051927 0 0 0 0 66.997697476583653 146.27007313981449 0 146.27007313981449 -37.179928251658566 0 0 0 0 20.61973544736793 127.24423449335154 0 127.24423449335154 -222.15960631408961 0 0 0 0 -46.115609438450974 129.27909469896622 0 129.27909469896622 -39.729160222239443 0 0 0 0 -38.49944013967297 153.73228835209011 0 153.73228835209011 15.352372511551948 0 0 0 0 -64.675877397150089 90.206125074415468 0 90.206125074415468 22.983025040361099 0 0 0 0 -35.05341283668713 103.53696785311331 0 103.53696785311331 -153.59717955655742 0 0 0 0 -80.883369695729925 224.63380518742633 0 224.63380518742633 119.06999231311784 0 0 0 0 -201.24130835604956 91.423418358914205 0 91.423418358914205 29.85677872013548 0 0 0 0 -278.46106785879783 23.335689029328933 0 23.335689029328933 139.61400723337283 0 0 0 0 -7.2056411738104433 2.5814045242829877 0 2.5814045242829877 -1.0759050780241779 0 0 0 0 -424.90315556577752 240.6168820816165 0 240.6168820816165 118.45754092302377 0 0 0 0 207.47381898993672 -732.77921699195213 0 -732.77921699195213 -48.668631434426061 0 0 0 0 136.53875490142264 368.21974840971234 0 368.21974840971234 -196.72212232482707 0 0 0 0 7.922682504988523 4.3665364254329688 0 4.3665364254329688 -8.6583539086286692 0 0 0 0 -635.15236019601252 301.4211910436461 0 301.4211910436461 -150.60569896514062 0 0 0 0 -697.48689814806858 539.08628791563115 0 539.08628791563115 -257.15484733736957 0 0 0 0 -406.46657145869176 294.44453298992448 0 294.44453298992448 -454.79805489604769 0 0 0 0 -734.74920139034475 826.8824335005047 0 826.8824335005047 -795.21370053837018 0 0 0 0 707.14563707025684 -422.39191258555365 0 -422.39191258555365 -23.406348941229226 0 0 0 0 1.6243790515627756 0.77414110741511877 0 0.77414110741511877 -3.2677383244566727 0 0 0 0 -261.67911927517707 553.52128081492265 0 553.52128081492265 -1009.7771492723114 0 0 0 0 -256.25796066844214 171.72702438642591 0 171.72702438642591 -643.67676964690781 0 0 0 0 -686.38602863191772 488.72618866003313 0 488.72618866003313 -571.95418401596544 0 0 0 0 -156.55692209188692 124.96441158570815 0 124.96441158570815 -873.20949521661532 0 0 0 0 -292.33599532255266 -652.45056306607512 0 -652.45056306607512 -1048.3267361229518 0 0 0 0 -57.704010341629555 192.38867905544384 0 192.38867905544384 -590.46487494252506 0 0 0 0 432.12701793085034 -404.03942553882735 0 -404.03942553882735 -546.99741428098787 0 0 0 0 663.02831274051096 43.627007460599998 0 43.627007460599998 -649.54277744437059 0 0 0 0 -3.427810704728472 -144.34386595901015 0 -144.34386595901015 -623.37300471835624 0 0 0 0 -169.63508519030711 -229.12272878822841 0 -229.12272878822841 -46.445047692250228 0 0 0 0 40.627012337540691 464.38242279474798 0 464.38242279474798 -234.48093745658298 0 0 0 0 178.56788587650226 310.76443684299738 0 310.76443684299738 -300.11680719139258 0 0 0 0 542.50147508228224 96.15019819668305 0 96.15019819668305 -334.04824388214911 0 0 0 0 -399.24447400776302 203.83444981985576 0 203.83444981985576 -160.76455775037175 0 0 0 0 -314.51783766260269 443.65181095874141 0 443.65181095874141 -255.19645893216148 0 0 0 0 -372.51612256125827 222.89227496094827 0 222.89227496094827 -244.21385267547157 0 0 0 0 -62.074782831091284 232.17101493710129 0 232.17101493710129 -183.08997570839711 0 0 0 0 -59.517973652978981 308.35019387678039 0 308.35019387678039 -350.06581950726104 0 0 0 0 449.44944064166702 177.24348323232698 0 177.24348323232698 -346.9338805093721 0 0 0 0 146.37974667596723 231.07447382362943 0 231.07447382362943 -155.33327182116045 0 0 0 0 149.52940345648494 262.7024591685331 0 262.7024591685331 -359.72989947584574 0 0 0 0 7.302324741805819 -4.6882927923671787 0 -4.6882927923671787 -23.318264612047912 0 0 0 0 361.99483313453379 121.216315406896 0 121.216315406896 -365.31098549209128 0 0 0 0 460.44514311825412 259.38651306157135 0 259.38651306157135 13.777437924058177 0 0 0 0 -10.85877866532428 32.178178914811724 0 32.178178914811724 -204.25338401596309 0 0 0 0 46.115076173533453 24.972752491066785 0 24.972752491066785 -211.66529543101569 0 0 0 0 11.932256831069648 17.941352952035395 0 17.941352952035395 -53.846824204100542 0 0 0 0 27.555356586315611 31.537660032437998 0 31.537660032437998 -22.991650228374056 0 0 0 0 461.07208691731057 -92.567547047218795 0 -92.567547047218795 -99.50433883259393 0 0 0 0 253.44949490997897 41.180485281594883 0 41.180485281594883 -177.77625843042915 0 0 0 0 -4.1274857030941199 18.71451130698069 0 18.71451130698069 -28.691893505151455 0 0 0 0 95.339808073820677 -83.344759247807815 0 -83.344759247807815 85.33551510253892 0 0 0 0 10.124708376021609 2.3249425904560326 0 2.3249425904560326 -4.6325422504636871 0 0 0 0 113.24948699989181 162.92667082716798 0 162.92667082716798 -87.389814273597949 0 0 0 0 15.407585099343123 27.787611963587551 0 27.787611963587551 -22.937321879048397 0 0 0 0 1.8457125110548134 15.098982903578879 0 15.098982903578879 -33.841240575363997 0 0 0 0 -3.5419616907438467 111.65143040929161 0 111.65143040929161 -443.61005691724858 0 0 0 0 1.3561872920433728 3.4522585976608688 0 3.4522585976608688 1.8034662590059156 0 0 0 0 16.395567455031596 -112.67138982042161 0 -112.67138982042161 -589.44939136544417 0 0 0 0 37.831243400850326 218.68345828481688 0 218.68345828481688 -337.6243706511741 0 0 0 0 -14.87037364725802 47.72100068679174 0 47.72100068679174 -479.41840629093349 0 0 0 0 357.98898498635208 313.16871586711932 0 313.16871586711932 -317.16667385405162 0 0 0 0 210.38716728938743 149.96564007407142 0 149.96564007407142 -481.40738320214132 0 0 0 0 58.85124609288323 -82.74989026824187 0 -82.74989026824187 -886.01833148365404 0 0 0 0 6.2981340145969398 10.685963362217848 0 10.685963362217848 11.85847099515145 0 0 0 0 -60.669484447094874 131.72391029360824 0 131.72391029360824 -554.34862517437432 0 0 0 0 91.120053898041988 107.72236006812273 0 107.72236006812273 -558.07239470840432 0 0 0 0 73.769332904115799 22.937228473350842 0 22.937228473350842 -483.03501057975154 0 0 0 0 35.563625662245613 -32.433258049699361 0 -32.433258049699361 -563.26912077665384 0 0 0 0 15.258278565146696 18.201139671451557 0 18.201139671451557 -9.244052633051993 0 0 0 0 16.613428022462358 28.69206716242843 0 28.69206716242843 -23.344518362824601 0 0 0 0 20.117323616303569 27.795871265082411 0 27.795871265082411 -26.156384186938709 0 0 0 0 -30.906928686872561 216.58834536613722 0 216.58834536613722 -213.99392712245026 0 0 0 0 42.444931024450852 9.5154525887683121 0 9.5154525887683121 -89.768043501127977 0 0 0 0 55.299470769979052 26.362710305678775 0 26.362710305678775 -129.0472519788309 0 0 0 0 46.562114018725879 71.851559263073796 0 71.851559263073796 -66.164514780855825 0 0 0 0 35.024762884998381 5.4357288817482186 0 5.4357288817482186 -116.11398295598156 0 0 0 0 21.902883896811545 71.688346844550324 0 71.688346844550324 -213.05891673559199 0 0 0 0 -30.558840500760198 -0.17240866614338302 0 -0.17240866614338302 -137.24795147287477 0 0 0 0 0.35321839921061604 1.7901391245476379 0 1.7901391245476379 -2.9707822785968148 0 0 0 0 234.51840405666235 -119.55281009860028 0 -119.55281009860028 -43.414005429527606 0 0 0 0 81.982867622675712 -31.737275341212808 0 -31.737275341212808 -153.77163123937498 0 0 0 0 129.99712495115045 24.691116056324972 0 24.691116056324972 -239.16778422302559 0 0 0 0 81.117303238505883 46.963604585296707 0 46.963604585296707 -248.88134455576801 0 0 0 0 6.4108822867219715 28.863042181745186 0 28.863042181745186 -202.2828591814141 0 0 0 0 74.817192275272987 17.205626673306597 0 17.205626673306597 -232.25500267682219 0 0 0 0 -55.316312909142198 -8.8354413018460036 0 -8.8354413018460036 -211.31904705664783 0 0 0 0 1.3225072840471856 23.155728789377619 0 23.155728789377619 -96.804249407718828 0 0 0 0 5.4090358863431902 21.407558433120357 0 21.407558433120357 -253.36313136467106 0 0 0 0 -66.205176755551292 94.083761681707983 0 94.083761681707983 -180.00535411618512 0 0 0 0 -17.63298184921041 62.282392187787991 0 62.282392187787991 -172.74816239558277 0 0 0 0 -56.506321574453068 96.437008189099288 0 96.437008189099288 -130.14092876611176 0 0 0 0 -19.863649533390799 74.198304214700329 0 74.198304214700329 -61.991193893125455 0 0 0 0 -98.541096592557551 70.198100783751215 0 70.198100783751215 -166.78417095955956 0 0 0 0 -56.792653197655454 101.28950108664867 0 101.28950108664867 -191.63807329019983 0 0 0 0 -40.023120759028643 122.59742760387599 0 122.59742760387599 -196.75482365378502 0 0 0 0 -64.680430017389426 98.454271668644651 0 98.454271668644651 -188.84359405702708 0 0 0 0 -30.355619518092681 149.80398340407191 0 149.80398340407191 -173.37252087015804 0 0 0 0 -40.116849788212676 117.23850996114379 0 117.23850996114379 -208.01522127182761 0 0 0 0 37.23151128543077 108.48607507774614 0 108.48607507774614 -114.99925050612364 0 0 0 0 -26.778931932862605 109.62016885103549 0 109.62016885103549 -90.426300933530001 0 0 0 0 -5.673682048261071 188.68162272503832 0 188.68162272503832 -191.32684206270642 0 0 0 0 -40.491230888180098 57.483004197873015 0 57.483004197873015 37.238349528073741 0 0 0 0 293.06782467949961 -8.8515098154657608 0 -8.8515098154657608 -90.928534019771178 0 0 0 0 82.253253066711295 120.74078723128332 0 120.74078723128332 -54.011381524072931 0 0 0 0 0.84939215750601504 2.6175930989589116 0 2.6175930989589116 -7.1993311963067299 0 0 0 0 54.77325567600019 63.150056979102374 0 63.150056979102374 -118.67854154783163 0 0 0 0 79.659617067422914 151.13595760103271 0 151.13595760103271 94.245653203430038 0 0 0 0 128.74912908966235 128.84335639904384 0 128.84335639904384 -560.6618372738194 0 0 0 0 3.3220149301393231 0.16844843918438102 0 0.16844843918438102 -0.56529479680284633 0 0 0 0 226.3506221518146 -8.0049685244157445 0 -8.0049685244157445 -279.89630470334305 0 0 0 0 -139.25813555164677 -174.10390636741795 0 -174.10390636741795 -301.30427358425368 0 0 0 0 188.70071640682454 355.50912925636294 0 355.50912925636294 -627.88005806523142 0 0 0 0 174.46964376747229 182.99191213288282 0 182.99191213288282 -502.53062732634862 0 0 0 0 -164.75657544575319 349.78626160145859 0 349.78626160145859 -298.35775408484915 0 0 0 0 -47.642550745451445 173.12410931111663 0 173.12410931111663 -32.447451713087503 0 0 0 0 -16.282296585648737 255.0898693159611 0 255.0898693159611 -272.99991674436023 0 0 0 0 63.349677956537107 89.299963518874847 0 89.299963518874847 -503.78560256844139 0 0 0 0 -27.426631211656513 64.884038649410286 0 64.884038649410286 -281.19194683785372 0 0 0 0 76.437549347370805 132.27593739801887 0 132.27593739801887 -401.3704955904177 0 0 0 0 -31.585254569067729 107.05367110285624 0 107.05367110285624 -201.34972337982526 0 0 0 0 1.4693135946308757 35.442867060512071 0 35.442867060512071 -148.71069469729991 0 0 0 0 -51.382521156995608 125.25388248722084 0 125.25388248722084 -183.12735115811302 0 0 0 0 8.544316012445961 29.337020639282855 0 29.337020639282855 -26.441395817033481 0 0 0 0 9.4588168858595179 0.76427472960065046 0 0.76427472960065046 1.122930037320244 0 0 0 0 -15.675928199785176 88.504818024073757 0 88.504818024073757 -272.64609168800234 0 0 0 0 46.657826375421109 23.626526509378891 0 23.626526509378891 -82.545817707932656 0 0 0 0 19.384107212898016 13.045931092599858 0 13.045931092599858 -70.216896015996099 0 0 0 0 24.387584713763317 33.304485782221036 0 33.304485782221036 -99.705616825252946 0 0 0 0 28.345934446337651 12.083068441381329 0 12.083068441381329 -110.91302247955173 0 0 0 0 12.638919860468661 -1.9818248712429067 0 -1.9818248712429067 -95.852434969991009 0 0 0 0 31.874753279423203 6.6587235401366343 0 6.6587235401366343 -110.49630238926693 0 0 0 0 35.399831283797084 -41.330255439826942 0 -41.330255439826942 -171.30175658285225 0 0 0 0 109.89761000001408 31.224091140547898 0 31.224091140547898 -151.87224990443065 0 0 0 0 28.141398339503667 11.074805451471548 0 11.074805451471548 -50.055679094493826 0 0 0 0 -80.595414038569288 -4.4262341552821454 0 -4.4262341552821454 -168.71211456215315 0 0 0 0 37.285667494265908 -43.521901080221141 0 -43.521901080221141 -185.72228106879993 0 0 0 0 42.070928956705302 -33.915569562617748 0 -33.915569562617748 -202.13084499753859 0 0 0 0 39.485251238992532 -31.143291559321369 0 -31.143291559321369 -156.81359312333643 0 0 0 0 36.577561739679822 -46.583468679449652 0 -46.583468679449652 -177.98390487770121 0 0 0 0 36.703924513548657 -47.788861911975573 0 -47.788861911975573 -166.63521283199225 0 0 0 0 31.973936530699177 -59.963272992237762 0 -59.963272992237762 -181.94610770002328 0 0 0 0 35.313521761033826 -41.664869262373031 0 -41.664869262373031 -157.03128746870789 0 0 0 0 26.579366060584107 -32.742977787278505 0 -32.742977787278505 -163.91121193274012 0 0 0 0 13.564463006529877 -62.800491898116888 0 -62.800491898116888 -164.37188216491268 0 0 0 0 21.83685925982104 -33.122100504401715 0 -33.122100504401715 -93.290712446607358 0 0 0 0 -32.378780444598078 -26.185816076270385 0 -26.185816076270385 -27.506377348207025 0 0 0 0 -7.2041871328224261 -44.113045943755424 0 -44.113045943755424 -78.953224006399978 0 0 0 0 22.552194762657109 -7.4789116981110055 0 -7.4789116981110055 -60.089257234318211 0 0 0 0 11.770408695156789 -45.927553329789589 0 -45.927553329789589 -1.7934296674247889 0 0 0 0 4.1353776828032096 -19.647438726506152 0 -19.647438726506152 -29.564475701983611 0 0 0 0 35.621538235807066 -31.658265114965616 0 -31.658265114965616 -26.542191784348688 0 0 0 0 8.1058356196041341 -13.281404275109949 0 -13.281404275109949 -27.43861912406561 0 0 0 0 10.702037842689606 -15.294054023390345 0 -15.294054023390345 -47.617913639507606 0 0 0 0 -2.9553211483383457 -20.435665398698774 0 -20.435665398698774 -25.074529588837834 0 0 0 0 -15.838851154785971 -39.964975975828565 0 -39.964975975828565 20.483678248816432 0 0 0 0 49.615022596773031 -22.977207477694947 0 -22.977207477694947 -27.707262498392083 0 0 0 0 -12.491806802725478 -34.199855957986074 0 -34.199855957986074 -25.457382490696546 0 0 0 0 1.3067407211442523 -7.3144801429180397 0 -7.3144801429180397 -2.8022143756558933 0 0 0 0 35.206194013539459 -66.390263611953742 0 -66.390263611953742 -116.6698946386241 0 0 0 0 45.374656341184618 -8.8634415655651537 0 -8.8634415655651537 -90.962842756902319 0 0 0 0 30.162733545987066 -42.31935128492114 0 -42.31935128492114 -72.00472907909716 0 0 0 0 -2.4053375456907355 -23.331876582375489 0 -23.331876582375489 -37.758865017786434 0 0 0 0 -92.862509429940019 -86.705457337993721 0 -86.705457337993721 37.17461605841163 0 0 0 0 35.87595342470172 -57.465937149730962 0 -57.465937149730962 -52.651291779526218 0 0 0 0 0.037803000909462092 -7.3480037954451163 0 -7.3480037954451163 0.83102435932960361 0 0 0 0 1.3531464327073799 -30.371155432859908 0 -30.371155432859908 -46.319192384812482 0 0 0 0 54.405685444294249 -70.888019701724943 0 -70.888019701724943 -58.11203459186072 0 0 0 0 60.964802572660574 -34.017644350993578 0 -34.017644350993578 -213.21637887824181 0 0 0 0 33.634256535495751 -6.9599672466802076 0 -6.9599672466802076 -149.21462415222049 0 0 0 0 -60.080847453876231 -39.97503935410532 0 -39.97503935410532 -134.09720187022322 0 0 0 0 -10.071398835013042 48.899047446953773 0 48.899047446953773 -139.8899017547883 0 0 0 0 30.005917879843309 11.713460094899347 0 11.713460094899347 -118.97096498820611 0 0 0 0 29.86367425759272 8.4740195459098686 0 8.4740195459098686 -97.539776135308784 0 0 0 0 22.439327795468671 -1.4327808147081669 0 -1.4327808147081669 -99.164357035158901 0 0 0 0 15.080632625128136 -17.573309487816438 0 -17.573309487816438 -43.444050321365602 0 0 0 0 18.54241600294894 -18.297449458139454 0 -18.297449458139454 -12.393308651788175 0 0 0 0 11.591825691664781 -33.386360999884346 0 -33.386360999884346 -0.91676976627059048 0 0 0 0 7.3015292154178972 -26.906665923963793 0 -26.906665923963793 -36.626491137627468 0 0 0 0 -0.5208022421041818 -70.431408550022752 0 -70.431408550022752 5.2225680167102837 0 0 0 0 -27.446468446396011 -43.758454906190309 0 -43.758454906190309 -5.5705866898697423 0 0 0 0 -6.7268810124933225 -18.64503287538173 0 -18.64503287538173 -38.931400597153697 0 0 0 0 -29.895283430319068 -36.090747803744307 0 -36.090747803744307 -16.551885501467041 0 0 0 0 -0.82710057554341576 -2.3094266474255694 0 -2.3094266474255694 -11.598358695262704 0 0 0 0 -157.32661828841947 -143.86875391320791 0 -143.86875391320791 -115.8020275679155 0 0 0 0 -0.80908129889543834 -1.9688451410653958 0 -1.9688451410653958 -3.6005688802586917 0 0 0 0 -149.2979408884579 163.513167036097 0 163.513167036097 -213.13412751747092 0 0 0 0 54.362716326611007 -5.6434782614760479 0 -5.6434782614760479 -357.08845718856901 0 0 0 0 -49.702271277705449 170.82243739189471 0 170.82243739189471 -252.89881294265797 0 0 0 0 -0.15803777795672147 -0.60415835816937857 0 -0.60415835816937857 -1.6582511311556516 0 0 0 0 95.502042774046458 -57.715885346508003 0 -57.715885346508003 -174.2976617997374 0 0 0 0 98.599618209701475 31.776715239102487 0 31.776715239102487 -255.31947841105875 0 0 0 0 -40.428712891866098 17.106040948030568 0 17.106040948030568 -16.24731746577163 0 0 0 0 43.818140513713843 38.092456595499243 0 38.092456595499243 -255.73488967564344 0 0 0 0 -26.088372345257369 7.0990354737386951 0 7.0990354737386951 -20.915193200198701 0 0 0 0 108.61682873562347 -86.854039349271261 0 -86.854039349271261 -22.628669078898383 0 0 0 0 4.5307125742078824 8.1577804281423596 0 8.1577804281423596 3.8684570172554231 0 0 0 0 14.443231054192438 -2.5391700662057701 0 -2.5391700662057701 -8.4346013075264636 0 0 0 0 -6.4716118635678868 -9.0072030087467283 0 -9.0072030087467283 -13.43910569613945 0 0 0 0 -13.559737393193018 8.2745086365175666 0 8.2745086365175666 -15.69930816679198 0 0 0 0 1.9485324646734794 -10.222462174251588 0 -10.222462174251588 -16.200180651672383 0 0 0 0 21.340843745665779 12.635992370760505 0 12.635992370760505 -46.759253949972845 0 0 0 0 17.941214666518135 -6.703954546706882 0 -6.703954546706882 -38.730684736183321 0 0 0 0 15.643266023085822 2.9084685386495153 0 2.9084685386495153 -17.185441588456428 0 0 0 0 -29.460978702328021 65.219455140872014 0 65.219455140872014 -72.271912818196142 0 0 0 0 52.916880067978582 -9.2701551243844733 0 -9.2701551243844733 -158.29263397632894 0 0 0 0 6.7712724209405168 4.1401568839820015 0 4.1401568839820015 -10.575736509615382 0 0 0 0 -26.328440018540277 1.728255465903203 0 1.728255465903203 -287.83367363884463 0 0 0 0 -39.585686709429865 51.092048335005529 0 51.092048335005529 -143.0811202308978 0 0 0 0 45.62809989255129 -0.63093061915787985 0 -0.63093061915787985 -23.922020428028191 0 0 0 0 38.595054595893089 -47.473123019430204 0 -47.473123019430204 -122.81497174055767 0 0 0 0 -26.482204747240758 -14.002970763045596 0 -14.002970763045596 -111.12376567156753 0 0 0 0 66.462095259130365 -75.320153325770661 0 -75.320153325770661 -26.994810442636663 0 0 0 0 32.23050891888488 17.009274237854697 0 17.009274237854697 -154.45287532401198 0 0 0 0 -0.03231290442551682 9.1256695842029192 0 9.1256695842029192 -46.694984259087533 0 0 0 0 62.257193904973747 -22.500147295257193 0 -22.500147295257193 -113.59083134977845 0 0 0 0 10.154143275520937 9.5295635796373972 0 9.5295635796373972 -38.138415024935966 0 0 0 0 1.8407011936551565 7.5870834828523819 0 7.5870834828523819 -37.666853221159442 0 0 0 0 9.4012065141994263 -5.3576347921604501 0 -5.3576347921604501 -69.280301033512075 0 0 0 0 -3.5883927799488902 -1.0343039974027306 0 -1.0343039974027306 -88.089806940832204 0 0 0 0 -0.28065807488951577 7.1746765807220072 0 7.1746765807220072 -103.44318204646697 0 0 0 0 22.718409414785128 36.76654766160209 0 36.76654766160209 -89.397627623358858 0 0 0 0 10.70536222756725 -16.356101024280846 0 -16.356101024280846 -13.654425932677441 0 0 0 0 53.295096184847353 33.950360614864621 0 33.950360614864621 -8.9268449734663591 0 0 0 0 13.088125889428284 8.5002503917603462 0 8.5002503917603462 -82.69513180280228 0 0 0 0 13.216649597912692 8.5724893604146928 0 8.5724893604146928 -95.765923963046589 0 0 0 0 18.251280649921682 18.971797623392376 0 18.971797623392376 -84.010386625730462 0 0 0 0 3.3979994113992689 9.0908095677441452 0 9.0908095677441452 -80.882510470044508 0 0 0 0 6.9939141257198116 15.675809130152629 0 15.675809130152629 -69.033595367243834 0 0 0 0 15.344091311826729 3.4846376984605882 0 3.4846376984605882 -11.934874931730798 0 0 0 0 0.13371843735149014 38.48478442987107 0 38.48478442987107 -109.92175519582236 0 0 0 0 -42.538717778190176 69.81196674880789 0 69.81196674880789 -70.826131338777486 0 0 0 0 57.862353635509862 29.233699161699406 0 29.233699161699406 -126.15210271049 0 0 0 0 -11.099991280766062 55.869964395755233 0 55.869964395755233 -110.7671897597611 0 0 0 0 -14.158994153068109 35.12527940745224 0 35.12527940745224 -71.083258875592861 0 0 0 0 26.043514414714537 5.2858442459109938 0 5.2858442459109938 -80.215189874732459 0 0 0 0 -151.15071794470805 154.01778104896948 0 154.01778104896948 -87.849865684424003 0 0 0 0 13.948748989278556 14.120553742417542 0 14.120553742417542 -55.65268305724021 0 0 0 0 0.8303147603319827 2.9616298728125123 0 2.9616298728125123 -7.6859653673508035 0 0 0 0 62.003015380298166 29.232729684021251 0 29.232729684021251 -14.139945846582123 0 0 0 0 80.923865563845538 21.739434762996098 0 21.739434762996098 -70.126726219677948 0 0 0 0 74.615293702684539 7.8491271235998283 0 7.8491271235998283 -55.925606183052878 0 0 0 0 64.960065768809727 49.631477036102297 0 49.631477036102297 27.653203043999383 0 0 0 0 2.1734358740247082 -1.7587550654785815 0 -1.7587550654785815 -5.3692202882030058 0 0 0 0 -4.9594488122083931 -35.951477737689856 0 -35.951477737689856 65.288811347774754 0 0 0 0 -49.236890782482533 22.187698152027224 0 22.187698152027224 -56.176179612259148 0 0 0 0 -5.9749991449972182 13.57370262054485 0 13.57370262054485 -34.707292041052312 0 0 0 0 -42.792628936822439 21.929126108545461 0 21.929126108545461 -2.1575908402301138 0 0 0 0 -42.977050689982207 110.0460314324846 0 110.0460314324846 -139.65015536320789 0 0 0 0 -70.11934508566992 44.534149934250308 0 44.534149934250308 108.98552054660468 0 0 0 0 106.96657489062363 41.477224449481582 0 41.477224449481582 -29.421144941516104 0 0 0 0 95.738420686363497 -26.796967417256383 0 -26.796967417256383 -51.975140433158231 0 0 0 0 7.3684536979749282 7.2011156056105392 0 7.2011156056105392 -36.02704478702799 0 0 0 0 9.0812310279043231 16.679364397033169 0 16.679364397033169 -42.257999205219676 0 0 0 0 -17.292271563403119 23.508508634644386 0 23.508508634644386 -32.255208010414208 0 0 0 0 -32.725574779578892 15.868585835509293 0 15.868585835509293 -30.069320679293014 0 0 0 0 -47.527611496948339 52.918119356356328 0 52.918119356356328 -43.806301998693016 0 0 0 0 -34.996158570549596 18.346948426536983 0 18.346948426536983 -27.629729351345304 0 0 0 0 3.9918646974985368 -0.064895527940606712 0 -0.064895527940606712 -15.494839637971879 0 0 0 0 -12.16364708039805 23.243137741548708 0 23.243137741548708 -31.115735019004205 0 0 0 0 14.195345750767359 -16.533263311161136 0 -16.533263311161136 -27.698424409310974 0 0 0 0 -24.568859930099279 27.292491759726545 0 27.292491759726545 -43.698348549442017 0 0 0 0 -16.726885688625771 22.984021670767106 0 22.984021670767106 -43.401209154626486 0 0 0 0 19.596797527697703 -1.3352398577213762 0 -1.3352398577213762 -35.198201620450789 0 0 0 0 39.208206581304296 -12.787745818966869 0 -12.787745818966869 -37.137867361088865 0 0 0 0 5.2646483609835251 2.5722506478067686 0 2.5722506478067686 -27.816361844533844 0 0 0 0 26.098268241739561 1.2509971642721212 0 1.2509971642721212 -40.839935686439276 0 0 0 0 20.779532387054942 1.773505093891302 0 1.773505093891302 -26.068478606947934 0 0 0 0 38.567959828767926 3.8897160193373566 0 3.8897160193373566 -42.93570235408697 0 0 0 0 0.18645741660135506 -0.98334434176372554 0 -0.98334434176372554 -10.978808196669974 0 0 0 0 -28.471670382045886 58.549857051111758 0 58.549857051111758 -94.588604684202437 0 0 0 0 56.316127585555023 -32.399165944858396 0 -32.399165944858396 -6.1658017006120645 0 0 0 0 -36.829283345314707 23.230338324689001 0 23.230338324689001 5.7600972639920656 0 0 0 0 -3.4555404206585081 2.9084502161640557 0 2.9084502161640557 -25.0840316323156 0 0 0 0 0.98839713096822379 1.6049101612370578 0 1.6049101612370578 6.3270455417514313 0 0 0 0 42.090596247185204 -35.7317619432215 0 -35.7317619432215 4.0546940172789618 0 0 0 0 5.5893547140736075 12.20788093876763 0 12.20788093876763 7.6022118126493297 0 0 0 0 13.770864298289268 2.2007671222017962 0 2.2007671222017962 -143.19756196563685 0 0 0 0 0.9618509603744414 67.965580271334147 0 67.965580271334147 -56.959666526527144 0 0 0 0 17.453537825792495 20.420104236613042 0 20.420104236613042 -56.523034421697957 0 0 0 0 28.248545746493704 -7.123949907203496 0 -7.123949907203496 -147.53062016003241 0 0 0 0 0.45998733683258841 -0.28847802128657207 0 -0.28847802128657207 -3.8254902832454434 0 0 0 0 4.7677589266001874 5.1360473960219473 0 5.1360473960219473 -40.851040508576261 0 0 0 0 24.551747200712725 14.040119134380802 0 14.040119134380802 -118.60666094261251 0 0 0 0 46.94721077824488 -45.43462870863732 0 -45.43462870863732 353.66370482509956 0 0 0 0 75.092555046955567 -17.135237502465316 0 -17.135237502465316 -54.572634733369341 0 0 0 0 2.9261744103337151 -0.13731234940496506 0 -0.13731234940496506 -35.172307925153291 0 0 0 0 9.1901699086820372 30.078303179587238 0 30.078303179587238 -65.116038718044138 0 0 0 0 388.3807083216584 -184.09269388571556 0 -184.09269388571556 -772.61219711239391 0 0 0 0 7.5535834936685839 4.2504182032048092 0 4.2504182032048092 -7.9964278060365075 0 0 0 0 16.958776338237499 0.383098414306005 0 0.383098414306005 -42.082296075328486 0 0 0 0 16.112996245025897 11.536098579912505 0 11.536098579912505 -40.266699350344425 0 0 0 0 12.53456297510014 8.7721871128238149 0 8.7721871128238149 -13.139067236092401 0 0 0 0 49.102227751727696 7.8819613219093299 0 7.8819613219093299 -64.735268707669547 0 0 0 0 22.04863223764869 -5.5812543105494115 0 -5.5812543105494115 -40.444486693653744 0 0 0 0 28.771571587327344 -0.47499126182810869 0 -0.47499126182810869 -40.352728223994745 0 0 0 0 37.801537104564886 -20.919138122742879 0 -20.919138122742879 -27.07343018524989 0 0 0 0 25.823861918069611 -2.2393368946977716 0 -2.2393368946977716 -46.081657724062097 0 0 0 0 8.5855447311296587 28.843617935208385 0 28.843617935208385 -40.2884042943042 0 0 0 0 20.592749232688924 -6.5801330145861243 0 -6.5801330145861243 -16.994120902308765 0 0 0 0 17.640654521159377 -3.4597465034457855 0 -3.4597465034457855 -28.973654820474621 0 0 0 0 13.947076012875186 -8.7969264204475621 0 -8.7969264204475621 -38.241331944729609 0 0 0 0 22.760787135086503 138.31451297657532 0 138.31451297657532 -226.50776982584648 0 0 0 0 17.930617637047227 -10.3021523559716 0 -10.3021523559716 -22.146059227562759 0 0 0 0 167.97461361453952 43.418173046469747 0 43.418173046469747 -245.30917288066848 0 0 0 0 13.418861056709149 12.949744565937564 0 12.949744565937564 -17.534957427997242 0 0 0 0 5.5113002360965311 6.7184373576710641 0 6.7184373576710641 -51.011635728456895 0 0 0 0 20.09319539729421 5.4875041305372179 0 5.4875041305372179 -33.790359423634072 0 0 0 0 23.667276979282633 9.9470826769793348 0 9.9470826769793348 -28.777799527295429 0 0 0 0 1.9056043441588564 -3.0452757438002038 0 -3.0452757438002038 -10.682902611057926 0 0 0 0 -0.92069652490036447 42.804904371196699 0 42.804904371196699 -43.874649745135684 0 0 0 0 26.610874521345067 -13.212360324127076 0 -13.212360324127076 -29.27636184226867 0 0 0 0 2.6325174870365231 9.4464803592391036 0 9.4464803592391036 -37.592387268494349 0 0 0 0 18.401540441614543 9.9041491355528706 0 9.9041491355528706 -64.441675258629402 0 0 0 0 15.939847706966475 16.946726785079591 0 16.946726785079591 -13.025763471392565 0 0 0 0 74.280113096664991 -15.864305321683787 0 -15.864305321683787 -15.766540400607482 0 0 0 0 -1.3933036501176499 -2.2937081326091615 0 -2.2937081326091615 -4.1065239497800121 0 0 0 0 -72.028762523953446 84.124652717771824 0 84.124652717771824 -61.637490921755671 0 0 0 0 45.871594904048379 11.483367456294218 0 11.483367456294218 -115.89746713987552 0 0 0 0 78.472752690769539 -8.5441539896564791 0 -8.5441539896564791 -45.292145482264459 0 0 0 0 6.5936412874607413 10.259800641404581 0 10.259800641404581 21.908726273271895 0 0 0 0 83.980028717973937 105.75858888741459 0 105.75858888741459 -117.28766661709233 0 0 0 0 16.467767850476321 -78.140901701885014 0 -78.140901701885014 29.634073916298803 0 0 0 0 -0.048686561105237836 0.35492298213208073 0 0.35492298213208073 -1.8495328190153657 0 0 0 0 -24.166607479425863 56.313723089144332 0 56.313723089144332 -139.40013551028824 0 0 0 0 -0.66161830103940189 1.344668365714746 0 1.344668365714746 -0.80861139764482459 0 0 0 0 -86.87477543165005 66.105623229283083 0 66.105623229283083 -86.734283800062258 0 0 0 0 -70.467312086325819 -105.028248830542 0 -105.028248830542 -107.07510741919396 0 0 0 0 55.572267258532975 -65.739628074297798 0 -65.739628074297798 -55.230614277519635 0 0 0 0 1.1481365468348395 -0.65622547230322326 0 -0.65622547230322326 -37.950822988373204 0 0 0 0 13.350641336117633 -5.9491458078737196 0 -5.9491458078737196 -49.002898174338043 0 0 0 0 9.2058959281083617 3.6964279760941281 0 3.6964279760941281 -43.615920477448526 0 0 0 0 -2.235482511930968 -8.1963421167602064 0 -8.1963421167602064 -25.799647674502921 0 0 0 0 -1.4144711737726539 -16.397844401893963 0 -16.397844401893963 -32.388722827192396 0 0 0 0 1.0864879706108441 -3.4221405221169476 0 -3.4221405221169476 -10.826545581737435 0 0 0 0 -57.909647384668915 -63.293537369914702 0 -63.293537369914702 -23.259181577683194 0 0 0 0 11.458313275147702 4.459189224318834 0 4.459189224318834 -8.5674225615512114 0 0 0 0 -1.4162106605080567 -16.308042301584919 0 -16.308042301584919 -37.024334948917385 0 0 0 0 0.71010195483768257 55.403024913473928 0 55.403024913473928 -24.444365396964713 0 0 0 0 -54.298313191679881 22.140932025336951 0 22.140932025336951 -27.779608614509925 0 0 0 0 -2.6994973722939903 -2.1609355993277859 0 -2.1609355993277859 -52.804803172737593 0 0 0 0 43.926808258748224 60.443846455076709 0 60.443846455076709 -43.393078510300256 0 0 0 0 2.7444570587679351 -0.3534048897784885 0 -0.3534048897784885 -5.8903459129029443 0 0 0 0 17.230121365282685 -1.3693099867232377 0 -1.3693099867232377 -32.490680290218734 0 0 0 0 1.4821889925959544 2.4759797811997863 0 2.4759797811997863 -16.172982086361287 0 0 0 0 0.9472041777994491 6.349438014178304 0 6.349438014178304 -21.051324356310943 0 0 0 0 2.5538671807238011 0.46085303635962305 0 0.46085303635962305 -30.755852421016442 0 0 0 0 50.919646648000708 50.415876932791434 0 50.415876932791434 -48.936371099829557 0 0 0 0 -4.0539782245214155 32.640212341211736 0 32.640212341211736 -41.378096328036918 0 0 0 0 31.662849525370348 38.851912052443367 0 38.851912052443367 -40.301556034704845 0 0 0 0 0.78652528266385557 5.9019781593655125 0 5.9019781593655125 -4.0349857534031912 0 0 0 0 1.9636698244912107 -1.6301198078313526 0 -1.6301198078313526 -31.998671350442351 0 0 0 0 -2.3380207131598354 -7.9087327051602188 0 -7.9087327051602188 -31.927830751854344 0 0 0 0 24.565543210033184 -0.43851815647212788 0 -0.43851815647212788 -29.102803706540726 0 0 0 0 8.9094602739711686 7.9868391321917329 0 7.9868391321917329 -33.979719894481633 0 0 0 0 5.1396610108570044 -5.0841270618852832 0 -5.0841270618852832 -36.970609354655608 0 0 0 0 17.487645278071795 9.1106320169637911 0 9.1106320169637911 -35.500873869186762 0 0 0 0 12.81458022238337 0.62462524614238646 0 0.62462524614238646 -16.429496271768585 0 0 0 0 -12.878828292126002 11.107630551356124 0 11.107630551356124 -7.8083840840336052 0 0 0 0 -0.94639796432295498 -0.81741906105798989 0 -0.81741906105798989 -12.443184176743671 0 0 0 0 -1.037420928403932 -3.3327529520549746 0 -3.3327529520549746 -13.37996912211365 0 0 0 0 0.10229588590049943 2.5469365689573351 0 2.5469365689573351 -15.400969458496547 0 0 0 0 -1.138577030150526 0.7084266930655172 0 0.7084266930655172 -10.550692026361816 0 0 0 0 -1.6561363748905356 4.2438943790152877 0 4.2438943790152877 -9.3067077578694892 0 0 0 0 1.967027999555097 5.0258129625370174 0 5.0258129625370174 -17.757003792831995 0 0 0 0 4.4801566799312624 3.1673116915436665 0 3.1673116915436665 -29.796476034865435 0 0 0 0 0.39611384750901379 7.0672719266367494 0 7.0672719266367494 -21.819488320004893 0 0 0 0 43.487880328077608 12.653745594667271 0 12.653745594667271 -52.562476425227942 0 0 0 0 9.95183261052739 6.4915900078121922 0 6.4915900078121922 -27.915653339470737 0 0 0 0 -27.557194924898141 17.436256820546987 0 17.436256820546987 29.162609199003782 0 0 0 0 -0.70429939693167398 7.5581445686984807 0 7.5581445686984807 -24.610221660055686 0 0 0 0 0.13956238288063627 8.3184957483590551 0 8.3184957483590551 -27.128880588333288 0 0 0 0 11.430836570682004 -0.2705114976411096 0 -0.2705114976411096 -22.124597282360966 0 0 0 0 -18.322111582520847 21.758814269625873 0 21.758814269625873 72.735383063023619 0 0 0 0 -19.224075961919525 -19.398843095243137 0 -19.398843095243137 -45.781949591240846 0 0 0 0 -0.76623426202626388 4.2867747106164416 0 4.2867747106164416 0.34500346963295669 0 0 0 0 -19.902024927143657 -9.2531686441943748 0 -9.2531686441943748 -11.532482495727891 0 0 0 0 -19.902024927145249 -9.2531686441943748 0 -9.2531686441943748 -11.532482495706063 0 0 0 0 -19.902024927137063 -9.2531686442380305 0 -9.2531686442380305 -11.532482495662407 0 0 0 0 -0.22152603281746114 17.623143824526437 0 17.623143824526437 -25.47662672688088 0 0 0 0 0.79049894384365871 -2.58402111200121 0 -2.58402111200121 -69.228142787513207 0 0 0 0 -0.6927589277547046 8.8953114268606441 0 8.8953114268606441 -35.901758462059661 0 0 0 0 -8.1211919523038318 9.4247557067283196 0 9.4247557067283196 -31.01785185126937 0 0 0 0 0.1533838296414558 6.7688989112066338 0 6.7688989112066338 -30.988118333683815 0 0 0 0 -14.410109677410773 7.0234170860130689 0 7.0234170860130689 -9.8644875154423062 0 0 0 0 0.8394292229854301 -4.5295267122492078 0 -4.5295267122492078 -13.781214759714203 0 0 0 0 -4.0970138049533631 -2.8269377196484129 0 -2.8269377196484129 -8.7290247321643619 0 0 0 0 -3.0219035843407056 -5.3396330738942197 0 -5.3396330738942197 -3.4925090202305 0 0 0 0 -1.0564519941188024 -0.85372852602449711 0 -0.85372852602449711 -15.95984126739495 0 0 0 0 -1.0786231406230959 -0.61371545798441218 0 -0.61371545798441218 -0.58876367636126758 0 0 0 0 -10.290363359977846 -5.3718867675925139 0 -5.3718867675925139 -8.8040573543116807 0 0 0 0 3.9101382418054413 3.8829881726705935 0 3.8829881726705935 -33.323804948231555 0 0 0 0 0.37183616989187129 -1.2702128425444243 0 -1.2702128425444243 -17.580568665202009 0 0 0 0 -0.17591477458015153 0.60961417028573806 0 0.60961417028573806 -1.5793267154244575 0 0 0 0 -1.7002338029886062 -9.3575246718564813 0 -9.3575246718564813 -36.012928309726703 0 0 0 0 -1.6010485401598658 -11.360787002275174 0 -11.360787002275174 -37.626158533053967 0 0 0 0 -4.5245889720472618 -19.427425962976486 0 -19.427425962976486 -58.928376211464638 0 0 0 0 2.3325973796461312 1.4615057693881681 0 1.4615057693881681 -46.320211499845755 0 0 0 0 2.4405899901578891 -6.3936933857476106 0 -6.3936933857476106 -49.28583185102616 0 0 0 0 2.7448846012507602 -4.355489861285605 0 -4.355489861285605 -35.654196355499153 0 0 0 0 0.15640123927932464 -3.9326889668445801 0 -3.9326889668445801 -120.24929675157182 0 0 0 0 0.24506154618806991 -0.4406860357991853 0 -0.4406860357991853 -0.50661672872575991 0 0 0 0 -4.726282996994712 23.18439788948308 0 23.18439788948308 -107.06593518047157 0 0 0 0 0.086652800051420217 -0.089177546825766285 0 -0.089177546825766285 -0.82343924281725833 0 0 0 0 11.408836352541996 5.9850199178108596 0 5.9850199178108596 -59.233966156274448 0 0 0 0 15.446407599906408 -1.2952990366175072 0 -1.2952990366175072 -102.99103005477173 0 0 0 0 -30.343482931443049 -62.940612672377029 0 -62.940612672377029 -92.197116451263355 0 0 0 0 -3.316834451448734 -22.110899125902506 0 -22.110899125902506 -53.004209089063806 0 0 0 0 0.22763634562996621 -1.1542338319257368 0 -1.1542338319257368 0.79158628828200506 0 0 0 0 6.7576913291307505 -4.6085728561520227 0 -4.6085728561520227 -6.8970316279555846 0 0 0 0 -0.09402513837487636 0.72475238283224641 0 0.72475238283224641 -3.1997288996854252 0 0 0 0 2.7467862871949662 4.4715702152207086 0 4.4715702152207086 0.33616351828095503 0 0 0 0 0.014245143239201768 2.142335560212814 0 2.142335560212814 -0.13058804062166018 0 0 0 0 5.3650060993035256 3.4963326403594692 0 3.4963326403594692 0.55594988389202626 0 0 0 0 -0.31650423718571119 2.918217156375249 0 2.918217156375249 -3.7084660066757351 0 0 0 0 -0.18198085324589955 0.69368095832481558 0 0.69368095832481558 -2.2749838573730869 0 0 0 0 13.092343878080257 7.3591443437799171 0 7.3591443437799171 -6.6209741939164815 0 0 0 0 17.59112216173574 5.5907969457584841 0 5.5907969457584841 -13.640276247700967 0 0 0 0 -0.021768247476040607 7.8044891950085002 0 7.8044891950085002 -1.1594529705835157 0 0 0 0 7.8758915446118252 9.9363240912789479 0 9.9363240912789479 -7.2057115762145258 0 0 0 0 -10.887087916942459 -16.527341070523107 0 -16.527341070523107 -10.574963672283047 0 0 0 0 7.2452993642508359 10.784774052892317 0 10.784774052892317 -69.768783195228025 0 0 0 0 0.022277807119186088 5.9318648721709906 0 5.9318648721709906 -72.238768486888148 0 0 0 0 2.1693711388735899 30.671420238406427 0 30.671420238406427 -128.5580312917009 0 0 0 0 5.1343638371789986 -26.599656183385378 0 -26.599656183385378 -75.619322332931915 0 0 0 0 -0.11116487543883447 0.2985001378190546 0 0.2985001378190546 -0.89783787320814668 0 0 0 0 -47.377419296983859 38.653294354215177 0 38.653294354215177 -9.1049873937299708 0 0 0 0 -14.453108004869847 52.236403596140008 0 52.236403596140008 -72.777318166554323 0 0 0 0 9.7750135841439203 30.366823377851688 0 30.366823377851688 -65.720694286935441 0 0 0 0 -5.3551809551900362 32.037363517883932 0 32.037363517883932 -32.112447119096032 0 0 0 0 7.8597482419833966 31.250204722760827 0 31.250204722760827 -65.700309128063964 0 0 0 0 5.0595941745467901 31.105243880808189 0 31.105243880808189 -59.456756826475612 0 0 0 0 14.915138097598572 -3.0085493049773504 0 -3.0085493049773504 -32.845068307244219 0 0 0 0 7.5374612524824158 38.896261597932607 0 38.896261597932607 -97.477814125697478 0 0 0 0 3.0701453418776907 -6.7531584823445883 0 -6.7531584823445883 -99.503815239543201 0 0 0 0 -23.152248556723539 -21.632937065296574 0 -21.632937065296574 -67.093671372618701 0 0 0 0 -19.243202635173006 -9.0100779339118162 0 -9.0100779339118162 -36.181227632798254 0 0 0 0 10.642561492658018 12.122608649773611 0 12.122608649773611 -67.85780430783052 0 0 0 0 14.64227667424182 -0.61909787569896935 0 -0.61909787569896935 -34.208019357211015 0 0 0 0 0.38522262742582747 -19.949414389164303 0 -19.949414389164303 -6.3416549014436896 0 0 0 0 -7.7102682680114425 10.709249865638412 0 10.709249865638412 -14.890570331728668 0 0 0 0 -8.9568288983384008 0.17295899531745818 0 0.17295899531745818 -34.452263499522815 0 0 0 0 -16.103502045226215 22.32853095846076 0 22.32853095846076 -30.772993552362095 0 0 0 0 0.0077041230149591071 11.765461546628302 0 11.765461546628302 -68.369403066491941 0 0 0 0 -50.958166137805421 26.289671283480857 0 26.289671283480857 -48.651752033751109 0 0 0 0 6.7376950958629154 6.1556903701530246 0 6.1556903701530246 -8.5061798343522241 0 0 0 0 5.8115776722605048 -6.2011664317797113 0 -6.2011664317797113 -16.881842920061899 0 0 0 0 0.267226533539067 -0.37441393578296811 0 -0.37441393578296811 -1.8588379785472853 0 0 0 0 -4.2577862650259508 12.715027839272807 0 12.715027839272807 13.933499631959421 0 0 0 0 5.0319467204649566 -4.1136839382888866 0 -4.1136839382888866 -16.095546496188035 0 0 0 0 -0.0042643119255925555 8.0203670485825569 0 8.0203670485825569 8.0688604018869228 0 0 0 0 -4.0994905868676792 -14.620528029576235 0 -14.620528029576235 -26.139744249412615 0 0 0 0 -0.061907210491586692 0.019398294670395444 0 0.019398294670395444 0.041168072126538391 0 0 0 0 2.2351296380382593 -1.8601737947828951 0 -1.8601737947828951 -12.621100072028639 0 0 0 0 -4.9017506179452539 -39.874772516370285 0 -39.874772516370285 -17.293041911849286 0 0 0 0 23.739768667662247 -16.036681829609734 0 -16.036681829609734 -281.10707858242677 0 0 0 0 -84.294851123482658 16.467985993280308 0 16.467985993280308 194.0927378587221 0 0 0 0 1.2761604169553777 -3.4693632818562037 0 -3.4693632818562037 -9.1533507868043671 0 0 0 0 3.5261298864925164 2.5474864929278205 0 2.5474864929278205 -19.948309067603589 0 0 0 0 12.28680407312163 8.140771293794387 0 8.140771293794387 -22.666270086192526 0 0 0 0 -0.14272383322785903 1.5440616503541191 0 1.5440616503541191 -0.72310887494037956 0 0 0 0 26.012554347326613 66.005758130340837 0 66.005758130340837 -141.45151256927784 0 0 0 0 11.915290042840979 23.936313630594668 0 23.936313630594668 15.736148657390004 0 0 0 0 9.6149539639260979 -47.283642913112999 0 -47.283642913112999 -32.588312817388214 0 0 0 0 31.357752741803893 -39.369760805777332 0 -39.369760805777332 -30.121638231750694 0 0 0 0 49.437859574583172 15.518024130898993 0 15.518024130898993 -30.465754322904104 0 0 0 0 34.231811008706302 -31.327610735878807 0 -31.327610735878807 -50.540346438749111 0 0 0 0 36.249565620895112 2.2929283534285787 0 2.2929283534285787 -61.783033319545211 0 0 0 0 8.961617467638689 -25.234509685258672 0 -25.234509685258672 -11.137538564391434 0 0 0 0 30.163395681317525 5.5542143700804445 0 5.5542143700804445 -6.8518669121986022 0 0 0 0 23.283297400473884 23.000672410329571 0 23.000672410329571 -33.85765472692583 0 0 0 0 -21.644865867154977 17.810861501275213 0 17.810861501275213 3.7393103418144165 0 0 0 0 -1.0280097416276663 4.5537548968005375 0 4.5537548968005375 -2.3503596070881088 0 0 0 0 4.1644471222119819 4.2163195641187485 0 4.2163195641187485 -8.7003198908059858 0 0 0 0 -0.075189377876292596 1.6318657783300718 0 1.6318657783300718 -11.878790971438406 0 0 0 0 8.7573510163131232 -2.1878195525641786 0 -2.1878195525641786 -75.971680562215624 0 0 0 0 1.1054201222000009 5.0865864513821499 0 5.0865864513821499 -16.775755774116874 0 0 0 0 0.86052345207364123 1.5808620941286904 0 1.5808620941286904 -13.439060699224939 0 0 0 0 -10.848779591912383 3.9281070495853783 0 3.9281070495853783 1.9191634135277127 0 0 0 0 -0.99858599247299096 2.8376631248073885 0 2.8376631248073885 -0.7794655222389224 0 0 0 0 -28.015725708630839 22.87590896448819 0 22.87590896448819 1.4313884347939165 0 0 0 0 -5.0271249744543347 8.1065984515085887 0 8.1065984515085887 -15.468318845125395 0 0 0 0 31.279368680444019 30.796964380510303 0 30.796964380510303 -53.30210754746804 0 0 0 0 -6.1389988518320138 9.0924103831493994 0 9.0924103831493994 -16.490568625435117 0 0 0 0 31.144884109167371 34.357538672134979 0 34.357538672134979 10.547346463623398 0 0 0 0 0.17164394463594723 -1.1314853114046031 0 -1.1314853114046031 -2.8577955943746076 0 0 0 0 -44.683623917540672 48.970520108661731 0 48.970520108661731 18.410127246752381 0 0 0 0 12.727220664481251 -3.8392109507913119 0 -3.8392109507913119 -32.178315641445806 0 0 0 0 -56.849189335554001 -12.000776400636823 0 -12.000776400636823 1.4315371245538699 0 0 0 0 -1.8411326720792309 -0.7474485582083048 0 -0.7474485582083048 -2.9311928361747022 0 0 0 0 3.1104883147610849 50.841540093718322 0 50.841540093718322 -7.4311045611975715 0 0 0 0 -158.50988251445892 43.648787273559719 0 43.648787273559719 7.7886344063736033 0 0 0 0 23.669740814497175 22.01782682572707 0 22.01782682572707 -58.075084373049322 0 0 0 0 -55.626271477662677 -13.164217102908879 0 -13.164217102908879 27.218225731841812 0 0 0 0 -0.71523147930273878 4.6555959265749438 0 4.6555959265749438 -16.436354957170892 0 0 0 0 -63.96225858898687 -20.533274971094215 0 -20.533274971094215 -10.789460945799874 0 0 0 0 0.34736045399018139 -0.14477724370429712 0 -0.14477724370429712 -2.3788831050157739 0 0 0 0 31.07052568696442 19.415076313234749 0 19.415076313234749 -88.10576280739042 0 0 0 0 25.909979607660375 15.062382839478232 0 15.062382839478232 -82.42050220805686 0 0 0 0 -3.3870841751420713 -16.521625389497785 0 -16.521625389497785 -11.916111645026831 0 0 0 0 32.559157571462123 12.609175550111104 0 12.609175550111104 -152.083081963312 0 0 0 0 -182.18033279711318 173.33432055771118 0 173.33432055771118 -59.719211935560452 0 0 0 0 -10.753423982860548 -20.544750034781828 0 -20.544750034781828 -40.358116291288752 0 0 0 0 13.085862948262701 21.214446252357448 0 21.214446252357448 -143.31799535965547 0 0 0 0 14.693682017615174 -24.654956116195535 0 -24.654956116195535 -115.06529044125637 0 0 0 0 -0.14448216454254856 0.83763551766430666 0 0.83763551766430666 -1.4582647280405752 0 0 0 0 14.909812803062621 -16.685560357771465 0 -16.685560357771465 -85.694112746601604 0 0 0 0 18.979948090349183 -0.41503784945962252 0 -0.41503784945962252 -47.933269241417293 0 0 0 0 -1.5299291902746885 -16.964034547794654 0 -16.964034547794654 -33.978275413915981 0 0 0 0 -6.0453601033068054 -5.5943236981256632 0 -5.5943236981256632 -2.0495364111920935 0 0 0 0 13.796072493720034 8.185723547159796 0 8.185723547159796 -59.939698226291512 0 0 0 0 0.013261066357399137 11.405191790145182 0 11.405191790145182 -30.782956855382508 0 0 0 0 7.585426772943439 -37.467462764609081 0 -37.467462764609081 -88.381515580020277 0 0 0 0 22.462221641338605 23.615479012751166 0 23.615479012751166 -50.816828910152253 0 0 0 0 -0.17992819929588699 -0.089650500842495262 0 -0.089650500842495262 0.084962186903076997 0 0 0 0 31.768835886534895 -21.946219801175175 0 -21.946219801175175 -152.84833368991895 0 0 0 0 -0.0070962177615500072 -9.3384428574353855 0 -9.3384428574353855 -144.29512084242015 0 0 0 0 18.127777922749814 -47.671544524833735 0 -47.671544524833735 -174.3246493851766 0 0 0 0 30.605103814445556 -16.260885531715758 0 -16.260885531715758 -177.59969352549524 0 0 0 0 0.078736456166852181 3.9730679780514038 0 3.9730679780514038 -172.2075083252239 0 0 0 0 0.0094202928089861318 17.212594747517869 0 17.212594747517869 -51.347845145635802 0 0 0 0 27.8044805747423 74.709657309838803 0 74.709657309838803 -105.87170808377414 0 0 0 0 43.403941960436228 58.59125420359851 0 58.59125420359851 -77.610645528606256 0 0 0 0 5.6439751066524551 32.53486019900447 0 32.53486019900447 -80.529437669596518 0 0 0 0 0.056511359735879355 -0.090297959515837078 0 -0.090297959515837078 -0.032229757327958519 0 0 0 0 -47.233217100551748 -5.8140627204302291 0 -5.8140627204302291 -37.342613296372292 0 0 0 0 -5.4797007969144715 71.23738544164371 0 71.23738544164371 57.839297449121659 0 0 0 0 4.4361802770818706 -1.4395400667793865 0 -1.4395400667793865 -8.8835354956615102 0 0 0 0 -34.351909919452737 -22.5357065727585 0 -22.5357065727585 105.17271983709998 0 0 0 0 14.570229388373264 -98.63855482092913 0 -98.63855482092913 95.836416935635498 0 0 0 0 5.7489806712576978 -0.011065326310927048 0 -0.011065326310927048 -47.525760898766748 0 0 0 0 1.2397918406305242 -0.5693659586874702 0 -0.5693659586874702 0.9439312072447581 0 0 0 0 -119.49997071190114 13.819560886280669 0 13.819560886280669 193.4080775849057 0 0 0 0 2.6927107813673672 1.9740047402920027 0 1.9740047402920027 -46.319296083413064 0 0 0 0 -342.79383544219741 40.556984831113368 0 40.556984831113368 22.507955495981605 0 0 0 0 0.8783687898648509 10.412636946817656 0 10.412636946817656 21.238076182489749 0 0 0 0 -80.236885063172565 -139.71553473313179 0 -139.71553473313179 81.900862716589472 0 0 0 0 61.567454496539085 -127.18876621835807 0 -127.18876621835807 -25.182084793894319 0 0 0 0 97.840844389813356 -57.392906301276525 0 -57.392906301276525 -34.892155053817987 0 0 0 0 -119.55175338326785 -215.9869119899995 0 -215.9869119899995 -150.57297222284251 0 0 0 0 63.553337350108222 27.183020910524647 0 27.183020910524647 -378.26859225084263 0 0 0 0 -41.657520820744487 163.07802762351639 0 163.07802762351639 -320.29878106490651 0 0 0 0 28.129650354058949 -77.429269996489893 0 -77.429269996489893 -342.00120528572734 0 0 0 0 -100.71426884105408 -120.68954351282446 0 -120.68954351282446 -147.80597532422689 0 0 0 0 -0.39158656314071355 0.82627616426688499 0 0.82627616426688499 -5.0662082991787258 0 0 0 0 -232.87457844154477 188.96555251374491 0 188.96555251374491 -164.19916836093762 0 0 0 0 -108.50721660185764 250.80516046747653 0 250.80516046747653 -201.50343497036374 0 0 0 0 291.00291810075191 28.749396847728349 0 28.749396847728349 -191.59413009623313 0 0 0 0 20.180245044945082 -62.952754673393429 0 -62.952754673393429 -132.31329918670235 0 0 0 0 1.5590903263495743 -3.683772961281953 0 -3.683772961281953 -40.123794884739397 0 0 0 0 110.22689135706719 -271.03638315320495 0 -271.03638315320495 -126.71580641985042 0 0 0 0 -72.492524087898119 78.769563389067116 0 78.769563389067116 -66.838963677873835 0 0 0 0 95.978349891185417 303.003492458869 0 303.003492458869 -153.92105200930132 0 0 0 0 44.05422460330351 -84.572628013360372 0 -84.572628013360372 74.754370072630991 0 0 0 0 316.75330181928575 -115.16580025870644 0 -115.16580025870644 -9.476379377883859 0 0 0 0 106.10718511508037 -34.202080004335585 0 -34.202080004335585 26.430579862993909 0 0 0 0 1.3468989401656102 -2.930966775756886 0 -2.930966775756886 -45.158483590483797 0 0 0 0 266.06698317256769 -204.55387219969998 0 -204.55387219969998 -117.61520420551824 0 0 0 0 216.26030361492076 -8.814916632078166 0 -8.814916632078166 -164.3967231890565 0 0 0 0 196.42621427691665 -150.61780235097103 0 -150.61780235097103 40.903037273310474 0 0 0 0 61.628644527714812 -103.82376731258212 0 -103.82376731258212 99.23036592893186 0 0 0 0 1.1912710440206924 -8.5629061892687499 0 -8.5629061892687499 -1.475564096064204 0 0 0 0 11.20396833929226 -34.708280956416274 0 -34.708280956416274 4.9899583804653957 0 0 0 0 -0.091938531846826654 0.13566763504683443 0 0.13566763504683443 -4.4945639345704365 0 0 0 0 -239.76524676379995 131.23232486389679 0 131.23232486389679 3.3485754385037581 0 0 0 0 -44.945707720164478 -46.262613691134902 0 -46.262613691134902 -58.051585483161034 0 0 0 0 -42.070541790593325 -14.820614901524095 0 -14.820614901524095 13.886374511372196 0 0 0 0 3.3992211110939934 -62.716435206893948 0 -62.716435206893948 -61.946916926128324 0 0 0 0 45.171327745399594 35.986749792195042 0 35.986749792195042 -91.755364880897105 0 0 0 0 18.478429788703579 9.1834422717311099 0 9.1834422717311099 -11.211645419389242 0 0 0 0 -35.427528193979924 23.234347915116814 0 23.234347915116814 -19.369135222150362 0 0 0 0 -0.029935369004262302 -2.2102592045000726 0 -2.2102592045000726 -13.210527531936179 0 0 0 0 2.3624795582084062 19.244369702821132 0 19.244369702821132 8.1612616310158046 0 0 0 0 9.6684871056613702 63.142527919684653 0 63.142527919684653 -20.836779203877086 0 0 0 0 6.2368711500490974 -1.7848009237523002 0 -1.7848009237523002 -48.914864786580438 0 0 0 0 0.13410956805680563 -1.4743652016029642 0 -1.4743652016029642 -12.249533873561933 0 0 0 0 2.716450168757504 8.2255250517904415 0 8.2255250517904415 -5.0890609518403096 0 0 0 0 89.235762083517329 111.03932810436527 0 111.03932810436527 -73.638537524704589 0 0 0 0 59.606881951768628 -91.851231740831281 0 -91.851231740831281 25.707132629235275 0 0 0 0 57.892488825963596 69.069596272469425 0 69.069596272469425 16.144638435391244 0 0 0 0 46.192496871445655 57.213289156687097 0 57.213289156687097 4.2144190995059034 0 0 0 0 2.9203570276004585 -0.048883934927268058 0 -0.048883934927268058 -44.150841218609401 0 0 0 0 90.466071002650551 -149.41026747798605 0 -149.41026747798605 -60.370065950554817 0 0 0 0 1.1746707855337633 -0.70757363408651486 0 -0.70757363408651486 -3.8391984485977275 0 0 0 0 -12.805605995080441 -24.556588555409689 0 -24.556588555409689 0.61152171615685802 0 0 0 0 68.506210998320682 17.042387729580696 0 17.042387729580696 58.399739347980358 0 0 0 0 -1.8466872314768157 -6.974974832040985 0 -6.974974832040985 -6.3112461464497898 0 0 0 0 -10.782430177390779 -13.405247684946517 0 -13.405247684946517 -14.830918360385112 0 0 0 0 -13.401643262342077 -11.072258405467437 0 -11.072258405467437 -8.6337305705310428 0 0 0 0 -17.6419375469427 2.1942178323879489 0 2.1942178323879489 -0.28284849532792578 0 0 0 0 -22.556455314243067 -7.7347605869872496 0 -7.7347605869872496 -9.640995894005755 0 0 0 0 -8.5365375000201311 -29.410733539942157 0 -29.410733539942157 -68.218754490866559 0 0 0 0 -22.785246663620455 -24.701302679350192 0 -24.701302679350192 -20.393365965406701 0 0 0 0 -21.70026416847827 -28.337678864510963 0 -28.337678864510963 -48.998380137374625 0 0 0 0 -30.171302365683232 -44.038392176444177 0 -44.038392176444177 -52.241043001515209 0 0 0 0 3.6059222599164968 -37.035369469202124 0 -37.035369469202124 -141.42922682772041 0 0 0 0 4.2025054794935386 -14.563716141645273 0 -14.563716141645273 -78.330344083820819 0 0 0 0 4.4093551309765644 -29.999829275191587 0 -29.999829275191587 -102.41981095196388 0 0 0 0 9.7519150508401253 -19.368469485612877 0 -19.368469485612877 -96.871093362773536 0 0 0 0 -8.9579475531140815 -0.74275620951812016 0 -0.74275620951812016 -16.399740494656726 0 0 0 0 6.3367397706301745 -8.9080937551625539 0 -8.9080937551625539 -65.375239025205246 0 0 0 0 5.302650989261565 2.1824115556810284 0 2.1824115556810284 -65.685372818406904 0 0 0 0 6.4911046096551672 -1.7479628699438763 0 -1.7479628699438763 -91.340716241888003 0 0 0 0 14.419647876125055 2.6921705233107787 0 2.6921705233107787 -92.789488998037996 0 0 0 0 23.372475303547617 2.9882966445802595 0 2.9882966445802595 -116.21411329087641 0 0 0 0 20.492036697198728 -4.7996972066830494 0 -4.7996972066830494 -111.59130073471169 0 0 0 0 21.350362949522605 -7.3997079214022961 0 -7.3997079214022961 -103.78691379357406 0 0 0 0 24.946129578901377 14.004734147541967 0 14.004734147541967 -142.96235294497455 0 0 0 0 23.939106873317201 8.3235869628697401 0 8.3235869628697401 -106.97334038685949 0 0 0 0 -32.94068832177777 -65.6410851149667 0 -65.6410851149667 -134.50541830260772 0 0 0 0 2.5851002987374159 -62.633637186751002 0 -62.633637186751002 -194.51291251988732 0 0 0 0 21.440326096621902 -22.835554689823766 0 -22.835554689823766 -139.80029455690237 0 0 0 0 14.516839318756865 20.471815893262828 0 20.471815893262828 -112.69581357776769 0 0 0 0 8.3828633849934704 50.948060585855274 0 50.948060585855274 -239.30274865263709 0 0 0 0 -66.08342572892343 43.615558686909935 0 43.615558686909935 -0.001795527758076787 0 0 0 0 1.4458486361759242 38.432775191948167 0 38.432775191948167 -119.6919588456476 0 0 0 0 20.251133640319267 4.6431230620946735 0 4.6431230620946735 -104.91680213100335 0 0 0 0 3.332806568366891 21.233059314507045 0 21.233059314507045 -53.096390264821821 0 0 0 0 4.8146712965180996 8.5186422276165104 0 8.5186422276165104 -51.374191532666373 0 0 0 0 5.9470160616388057 -40.558701317842861 0 -40.558701317842861 -110.5329169563629 0 0 0 0 11.069005537557125 -27.394130278422381 0 -27.394130278422381 -76.703924878063845 0 0 0 0 -10.895478443692809 -42.166420886438573 0 -42.166420886438573 -47.189869036381424 0 0 0 0 7.0215421812898189 -4.3339397895782383 0 -4.3339397895782383 -1.6499236928366798 0 0 0 0 26.571997417215698 -35.282393458248407 0 -35.282393458248407 7.4632358301387285 0 0 0 0 -35.840208169482139 -17.030581649085434 0 -17.030581649085434 34.982655201485613 0 0 0 0 15.556274872269569 148.25148162128971 0 148.25148162128971 -64.815793245310488 0 0 0 0 2.8823399668819429 -0.63479710231430886 0 -0.63479710231430886 -29.777335810293152 0 0 0 0 -50.557778869901085 176.58124392489844 0 176.58124392489844 -68.079497708657073 0 0 0 0 -40.293845172293004 116.81097056934959 0 116.81097056934959 -3.9317852900967409 0 0 0 0 -143.19281243347496 151.89992329613597 0 151.89992329613597 -15.026194983554888 0 0 0 0 -40.374667335865524 98.751515421412478 0 98.751515421412478 -34.100707582125324 0 0 0 0 -38.624730071968997 114.44172758642344 0 114.44172758642344 -41.742503387431498 0 0 0 0 -29.236920643540998 105.24829571050213 0 105.24829571050213 -46.690797645998828 0 0 0 0 -29.491724642723511 104.18006030399556 0 104.18006030399556 -50.841456419308088 0 0 0 0 47.04405594635773 51.551393632769759 0 51.551393632769759 -55.733869775038329 0 0 0 0 -37.089308778964778 133.15613462320471 0 133.15613462320471 -114.62412508908892 0 0 0 0 -53.256087814257626 88.61966235764703 0 88.61966235764703 -93.55188840100891 0 0 0 0 -225.12014077680215 106.63020164641785 0 106.63020164641785 -94.896670007001376 0 0 0 0 -224.06849646923365 104.37636012988514 0 104.37636012988514 -112.56484436508617 0 0 0 0 -201.42672060103541 70.40582670441654 0 70.40582670441654 16.036734227265697 0 0 0 0 1.7995871768910092 0.71988438930772247 0 0.71988438930772247 -5.153367579162591 0 0 0 0 -319.85836574120117 243.79307395085743 0 243.79307395085743 -189.18180227678386 0 0 0 0 1.1754991873649416 -3.0482479812597703 0 -3.0482479812597703 -6.8037877209133342 0 0 0 0 -286.08517387876054 140.22357085526164 0 140.22357085526164 -102.07963637576904 0 0 0 0 -228.75810879758956 189.35919414836098 0 189.35919414836098 -184.86843427547137 0 0 0 0 -69.081991435509281 114.1477767074648 0 114.1477767074648 -102.26595564821037 0 0 0 0 -65.436937535534526 117.23079089102976 0 117.23079089102976 -156.53297437494621 0 0 0 0 13.455346562778459 43.431291910936125 0 43.431291910936125 -189.45057718432508 0 0 0 0 -7.9081369868199545 144.40532846108545 0 144.40532846108545 -293.59417913101788 0 0 0 0 -157.87617191256777 236.34205853981985 0 236.34205853981985 -349.86063404208107 0 0 0 0 -214.94597016869375 -1062.5102527600247 0 -1062.5102527600247 -721.00600929910433 0 0 0 0 2.6468040481566959 59.657475368592713 0 59.657475368592713 -108.72624566007289 0 0 0 0 25.987122813882479 45.587687132167048 0 45.587687132167048 -103.41705703636399 0 0 0 0 63.860840162569502 -19.877431731452816 0 -19.877431731452816 -119.74448048457634 0 0 0 0 40.929527765244302 -44.045401247854898 0 -44.045401247854898 -30.703035935955995 0 0 0 0 -165.43707857482696 13.498711210628244 0 13.498711210628244 216.15266939804133 0 0 0 0 -12.377459189053921 19.49731691457491 0 19.49731691457491 -11.147675391067395 0 0 0 0 -253.99740287961072 -54.138012711264309 0 -54.138012711264309 204.59188820744021 0 0 0 0 175.70312648931031 -86.763098577204801 0 -86.763098577204801 -139.97509961548712 0 0 0 0 -17.231487009460068 22.962958365161739 0 22.962958365161739 -14.97787235783985 0 0 0 0 98.868356992682493 206.27934301178175 0 206.27934301178175 -15.00941315099044 0 0 0 0 -174.88938759814482 -122.04438217954157 0 -122.04438217954157 -84.882971389080922 0 0 0 0 568.08491571800005 201.0558330812346 0 201.0558330812346 -1600.8017468114849 0 0 0 0 210.87070622578722 -65.274718603592191 0 -65.274718603592191 -976.04411745061589 0 0 0 0 -244.73291228476546 337.02976342618967 0 337.02976342618967 -49.785482406499796 0 0 0 0 -11.356233784533114 21.072881606203723 0 21.072881606203723 -13.092896460034794 0 0 0 0 59.423740925341008 23.732857870410953 0 23.732857870410953 -1076.0358046519214 0 0 0 0 -76.198165895742932 517.66470958639547 0 517.66470958639547 -1147.0976850944744 0 0 0 0 166.79793887638698 130.61146651368472 0 130.61146651368472 -679.00332203705329 0 0 0 0 84.201133833896165 224.55822055556928 0 224.55822055556928 -702.49962610279545 0 0 0 0 120.12058057181002 71.909574607692775 0 71.909574607692775 -661.02422057061813 0 0 0 0 10.781415820541952 -21.67926809392884 0 -21.67926809392884 -327.20614573908824 0 0 0 0 173.3932104130422 86.978318925972417 0 86.978318925972417 -559.13081106745813 0 0 0 0 82.001028472836879 141.71277063727757 0 141.71277063727757 -301.56133011300699 0 0 0 0 61.637066153920387 36.725139830246917 0 36.725139830246917 -298.1455338359865 0 0 0 0 -63.170509509654948 4.3145795320451725 0 4.3145795320451725 -39.663836125342641 0 0 0 0 44.220788168093577 -250.30361112589094 0 -250.30361112589094 66.029049900665996 0 0 0 0 -40.919304008941708 -165.40749242372476 0 -165.40749242372476 199.81709593799314 0 0 0 0 4.8899872694501028 129.49338896855625 0 129.49338896855625 158.74027220169955 0 0 0 0 75.714548511418343 -116.41788610719232 0 -116.41788610719232 -152.43214084882493 0 0 0 0 -8.8456720616954954 102.05306955372362 0 102.05306955372362 -188.74656356558262 0 0 0 0 -286.55919537698719 -79.323255225746834 0 -79.323255225746834 167.37725963939374 0 0 0 0 -186.05224410636947 -320.58126026720311 0 -320.58126026720311 -322.16896045450267 0 0 0 0 -11.161079684852893 -24.671787055787718 0 -24.671787055787718 -70.582487510229839 0 0 0 0 24.48462810166626 69.536267721314914 0 69.536267721314914 212.44784228863864 0 0 0 0 -2.5437228414467921 13.264655421316718 0 13.264655421316718 -15.955491029252222 0 0 0 0 -3.3258253803531534 -4.8322374500786225 0 -4.8322374500786225 -12.442108500718604 0 0 0 0 -127.57602695500191 -45.230351938902459 0 -45.230351938902459 -34.218408897351765 0 0 0 0 -65.143685447716734 -5.9847603613961837 0 -5.9847603613961837 -20.649159598120605 0 0 0 0 -0.93274618380418639 -3.1525385265300514 0 -3.1525385265300514 -8.3223749024831051 0 0 0 0 -5.9044113991967606 -22.208963818628035 0 -22.208963818628035 -36.600104605677188 0 0 0 0 -12.74068884893461 -13.989024889182474 0 -13.989024889182474 -30.925607315366506 0 0 0 0 -5.8837632145658842 -14.41895548547312 0 -14.41895548547312 -35.315005847317451 0 0 0 0 -2.4969252192938711 -2.4894649848374684 0 -2.4894649848374684 -57.608351055008825 0 0 0 0 -7.6053165530101978 -22.756714279192238 0 -22.756714279192238 -39.259555819906382 0 0 0 0 -21.649720241618979 -5.1073579581970989 0 -5.1073579581970989 -34.653338810479909 0 0 0 0 -5.1229653231540624 -20.837807480540505 0 -20.837807480540505 -53.490107435154641 0 0 0 0 -28.411368181480952 5.6693105707763607 0 5.6693105707763607 -72.403771814490028 0 0 0 0 8.8886309812898503 -19.884084395947866 0 -19.884084395947866 -97.137797628020053 0 0 0 0 -3.604418143692584 17.033485374143311 0 17.033485374143311 -7.4514663172521978 0 0 0 0 -0.4737409765532381 0.15311742910976989 0 0.15311742910976989 1.0386243195876403 0 0 0 0 -9.5218120695695916 -12.672969466570066 0 -12.672969466570066 -63.410922492508689 0 0 0 0 7.3220722736139123 -22.994166340198717 0 -22.994166340198717 -53.927734206583409 0 0 0 0 16.274787203724031 -20.734254451403103 0 -20.734254451403103 -105.18656802197802 0 0 0 0 18.689515911561188 9.7716105213212359 0 9.7716105213212359 -92.319709166535176 0 0 0 0 -6.9657137758998395 2.3610769533844405 0 2.3610769533844405 -6.195251896195316 0 0 0 0 -20.479642115904966 16.418686211056411 0 16.418686211056411 -49.743709753296571 0 0 0 0 -77.907602688214979 -49.27385846809193 0 -49.27385846809193 -84.129244890107657 0 0 0 0 -25.352555279522335 7.6037079651869135 0 7.6037079651869135 -158.06556928253849 0 0 0 0 -11.049688107871134 24.300291852588998 0 24.300291852588998 -139.69950229223468 0 0 0 0 2.0803384534139866 2.6096252377692508 0 2.6096252377692508 -122.28086966698174 0 0 0 0 6.2013246405375639 18.291163309157128 0 18.291163309157128 -167.91760441912629 0 0 0 0 -1.1705414025556138 7.7118543021206278 0 7.7118543021206278 -182.03437638246396 0 0 0 0 13.031426478079993 -2.8185299733377178 0 -2.8185299733377178 -106.71782309828995 0 0 0 0 12.127738810631627 14.197465512661438 0 14.197465512661438 -109.43518568661693 0 0 0 0 0.078373018920956383 33.568125502621115 0 33.568125502621115 -145.20174156571011 0 0 0 0 13.736118095695701 12.683762243810634 0 12.683762243810634 -118.00591504527256 0 0 0 0 22.712777874212577 5.4209235110074587 0 5.4209235110074587 -117.3133366155671 0 0 0 0 12.224851793952439 10.377889253621106 0 10.377889253621106 -109.76282029140566 0 0 0 0 -14.425015088097553 24.799077160700108 0 24.799077160700108 -70.329429010118474 0 0 0 0 -4.7839596020191619 -4.2839311971543452 0 -4.2839311971543452 -2.3232429703186028 0 0 0 0 49.529114014183506 -0.17944927925418597 0 -0.17944927925418597 -32.471364411423565 0 0 0 0 -0.066789480212776198 -5.4336278153314197 0 -5.4336278153314197 -60.645316648668086 0 0 0 0 0.35051090764468196 -2.8105360898388057 0 -2.8105360898388057 -3.9263637947242671 0 0 0 0 -6.6174841353277998 1.8436653719181777 0 1.8436653719181777 -58.427215782910935 0 0 0 0 13.800039622844906 5.5677077786094742 0 5.5677077786094742 -105.54684575315332 0 0 0 0 -26.903968122688639 44.470181802586012 0 44.470181802586012 -99.364502705753694 0 0 0 0 -29.918954520095895 59.492671351632453 0 59.492671351632453 -120.93307586450828 0 0 0 0 -126.8275297173434 -242.02380049811836 0 -242.02380049811836 384.45073555150884 0 0 0 0 73.004533645769243 5.5059090361610288 0 5.5059090361610288 -53.846910816486343 0 0 0 0 -7.3018468427334255 63.712673847250699 0 63.712673847250699 -173.70950867865758 0 0 0 0 -2.6485701117780103 -1.947753083153259 0 -1.947753083153259 -0.43441637325351223 0 0 0 0 -3.1307251615754139 -2.4474107004838288 0 -2.4474107004838288 -2.1971383109434299 0 0 0 0 -72.919946012534979 -24.885701195504225 0 -24.885701195504225 33.629059939605213 0 0 0 0 30.679912757910529 50.650114723017396 0 50.650114723017396 180.73902279832691 0 0 0 0 56.861540672842352 114.07244546023321 0 114.07244546023321 -375.26157979968411 0 0 0 0 206.14043933205153 -150.89103641819202 0 -150.89103641819202 -11.293659663264407 0 0 0 0 -1.2599368426972433 -210.07521154945425 0 -210.07521154945425 241.47757301973616 0 0 0 0 -64.108797669635806 14.470754528647376 0 14.470754528647376 -37.762430767186743 0 0 0 0 17.167438891500751 -145.00945142917044 0 -145.00945142917044 28.516710618423531 0 0 0 0 -19.460531813087982 10.400213383523806 0 10.400213383523806 155.32806664684904 0 0 0 0 45.739430381149646 -24.360932852907354 0 -24.360932852907354 -214.61140206998971 0 0 0 0 -36.970125686587949 115.05294831541687 0 115.05294831541687 -40.930301792584942 0 0 0 0 -38.978354580634004 170.73418793253222 0 170.73418793253222 -281.87865254297685 0 0 0 0 -77.557705618119599 -223.93555057724006 0 -223.93555057724006 -175.81685223470777 0 0 0 0 -348.91108515048126 18.96038469333871 0 18.96038469333871 86.931680228095502 0 0 0 0 132.42324123622922 -82.66791620137883 0 -82.66791620137883 82.108292449600413 0 0 0 0 -54.261765632992137 111.63472073378216 0 111.63472073378216 194.44980827791733 0 0 0 0 6.1923209178553407 37.742037236497708 0 37.742037236497708 5.8515919626515824 0 0 0 0 -2.0506318427733063 -0.051556442049076168 0 -0.051556442049076168 0.37984625149701401 0 0 0 0 -82.010510638423057 -67.683182829558064 0 -67.683182829558064 317.6051810641402 0 0 0 0 255.41908696713517 -84.217993061560264 0 -84.217993061560264 -358.54746141639771 0 0 0 0 -162.85409284710283 -136.93733118035016 0 -136.93733118035016 -135.01466637088743 0 0 0 0 -106.36432021669168 -35.216844801459956 0 -35.216844801459956 48.057136178518704 0 0 0 0 -1.6079932324800725 -0.50701600812016068 0 -0.50701600812016068 -0.38201367388157337 0 0 0 0 -47.088753683195335 190.8139547763335 0 190.8139547763335 -366.66344653382112 0 0 0 0 196.7853679068632 -9.1945858477811271 0 -9.1945858477811271 -390.02317084504466 0 0 0 0 -7.083211028268896 -11.305795026836492 0 -11.305795026836492 -29.883345094436862 0 0 0 0 -439.1312727930308 27.928869547555223 0 27.928869547555223 -206.80393335211556 0 0 0 0 0.95923597851452769 -6.3489206070753426 0 -6.3489206070753426 -50.982898010297504 0 0 0 0 -1.5889988244946547 13.570368413636217 0 13.570368413636217 -16.055035271631439 0 0 0 0 2.0622119786827398 -2.2400434573828534 0 -2.2400434573828534 -48.381541160550114 0 0 0 0 -21.734910563362689 -23.336041236481833 0 -23.336041236481833 -67.865953755099326 0 0 0 0 -0.1752733838837699 -15.70643081181106 0 -15.70643081181106 -67.941679537398159 0 0 0 0 -28.82549805628139 -24.801156150424504 0 -24.801156150424504 -54.783118686311354 0 0 0 0 -44.549180165649545 -52.29113375714951 0 -52.29113375714951 -81.743194916271932 0 0 0 0 -3.9323123920527223 -25.093335587829642 0 -25.093335587829642 -79.458067596243382 0 0 0 0 -42.175530808758261 -60.221852769151155 0 -60.221852769151155 -93.968035366400727 0 0 0 0 -7.5217908721087809 30.456424415067886 0 30.456424415067886 -21.624752267714939 0 0 0 0 -9.6633758386023203 -39.248814162741837 0 -39.248814162741837 -105.61573587266321 0 0 0 0 9.0667910331026604 5.3434127417713171 0 5.3434127417713171 -17.045945812773425 0 0 0 0 23.625404407075109 13.784769945719745 0 13.784769945719745 -61.045497998769861 0 0 0 0 -265.86451846604541 7.1803319261234719 0 7.1803319261234719 -115.24537051035441 0 0 0 0 5.8150852742809018 12.262843952464237 0 12.262843952464237 -12.663641962427675 0 0 0 0 -5.69987384959677 -83.243733659874124 0 -83.243733659874124 -84.56202077828857 0 0 0 0 -28.503282090647872 -87.512087430211977 0 -87.512087430211977 71.33068099430966 0 0 0 0 -14.142011792747326 51.045006778771494 0 51.045006778771494 61.532781934998184 0 0 0 0 20.589909607226673 -5.7917865596537013 0 -5.7917865596537013 -39.589076372976706 0 0 0 0 12.419639722522614 5.9487644560245201 0 5.9487644560245201 -14.49960183907092 0 0 0 0 22.443509633103076 -15.989526184506758 0 -15.989526184506758 -44.491796802416502 0 0 0 0 30.944127161143115 -32.205248063815816 0 -32.205248063815816 -13.718558767883223 0 0 0 0 15.85789663981177 -0.13005561923637288 0 -0.13005561923637288 -22.187108296953738 0 0 0 0 22.811881335874659 -4.2092434384194348 0 -4.2092434384194348 -52.228733554526116 0 0 0 0 26.04790265130805 -14.918597123862128 0 -14.918597123862128 -44.18341761832562 0 0 0 0 2.1104604960951292 24.158308833433694 0 24.158308833433694 -65.082533602166222 0 0 0 0 28.707308596982585 -8.5648515158218288 0 -8.5648515158218288 -68.990265656531847 0 0 0 0 2.9303057366491885 -23.695200053914959 0 -23.695200053914959 -28.654690906507312 0 0 0 0 8.4714088302716846 -30.063111337720329 0 -30.063111337720329 -37.594524234636992 0 0 0 0 11.6237762540093 -11.902911026844901 0 -11.902911026844901 -22.861061129927705 0 0 0 0 -0.28521921153173579 -18.029431833736204 0 -18.029431833736204 -14.402069493665692 0 0 0 0 0.018717808622428334 -11.467890810377844 0 -11.467890810377844 -33.271789033467854 0 0 0 0 8.3965229383502447 -30.687027666201175 0 -30.687027666201175 -29.414431014190313 0 0 0 0 10.599682291553407 -14.43452572998558 0 -14.43452572998558 -28.07675959522021 0 0 0 0 25.0617850437161 -18.805845040995337 0 -18.805845040995337 -31.325472861193703 0 0 0 0 4.7388394058976893 1.3091197073160821 0 1.3091197073160821 -2.3020771516448804 0 0 0 0 26.453981467616643 2.6605803577695042 0 2.6605803577695042 -34.332708105808706 0 0 0 0 1.8482759465252627 -2.7598251317322138 0 -2.7598251317322138 -7.934177874973102 0 0 0 0 0.1012616885082977 -2.9012548445704098 0 -2.9012548445704098 -1.3963281540005141 0 0 0 0 4.211089754428734 -9.4316788566200387 0 -9.4316788566200387 -7.2733634437848451 0 0 0 0 3.2988131236501772 -68.749954461054585 0 -68.749954461054585 -47.68859325543599 0 0 0 0 6.7155654011900534 -17.173113839102641 0 -17.173113839102641 -0.21665038828244576 0 0 0 0 -37.455178919717127 -20.182837901134917 0 -20.182837901134917 3.0509526732785162 0 0 0 0 -46.032538668304937 -67.913998019645078 0 -67.913998019645078 -51.50757461466128 0 0 0 0 -24.488398903473524 -55.016585830606346 0 -55.016585830606346 -112.30332602039562 0 0 0 0 -2.5185524644388648 -0.12040785100190021 0 -0.12040785100190021 0.94189964495757295 0 0 0 0 -47.348520201981955 -37.43493090767879 0 -37.43493090767879 -111.69261289879796 0 0 0 0 -60.594667495813155 -128.2064356944029 0 -128.2064356944029 -162.7042650153453 0 0 0 0 -41.732018149665464 -80.464426977079711 0 -80.464426977079711 -160.55020228252397 0 0 0 0 -33.605207007647778 -92.060156544575875 0 -92.060156544575875 -144.65269961534068 0 0 0 0 -26.651063664847243 -77.642079532859498 0 -77.642079532859498 -133.68754769887892 0 0 0 0 -35.098818592115151 -71.910951010057033 0 -71.910951010057033 -102.23825705467607 0 0 0 0 -29.96807360144112 -85.185495273733977 0 -85.185495273733977 -124.39744143889402 0 0 0 0 -25.34038361200237 -92.270635312161176 0 -92.270635312161176 -154.9569487136032 0 0 0 0 -35.633896213991591 -49.2799754783955 0 -49.2799754783955 -56.971597070500138 0 0 0 0 -16.618484462799188 -85.639962266315706 0 -85.639962266315706 -93.739322586807248 0 0 0 0 -34.916604472357108 -84.56040684558684 0 -84.56040684558684 -93.538837519387016 0 0 0 0 -22.075526706217374 -90.316506580333225 0 -90.316506580333225 -116.33774428861216 0 0 0 0 -29.485356462706477 -77.378627718309872 0 -77.378627718309872 -112.28465148370015 0 0 0 0 -33.570173543429064 -91.702688885299722 0 -91.702688885299722 -117.30244292857242 0 0 0 0 -26.882414607273631 -89.243566954333801 0 -89.243566954333801 -123.77608628702001 0 0 0 0 -33.664004826674798 -89.63355692714731 0 -89.63355692714731 -122.25986882799771 0 0 0 0 -41.859925135736148 -100.66405463445699 0 -100.66405463445699 -130.11538158153417 0 0 0 0 -33.358732826325308 -87.478534584843146 0 -87.478534584843146 -133.3142262508627 0 0 0 0 -33.260345363461056 -100.50291931442916 0 -100.50291931442916 -140.22503579061595 0 0 0 0 -31.008519804689644 -82.806288838291493 0 -82.806288838291493 -120.73394857911626 0 0 0 0 -31.197676816158719 -93.529299405810889 0 -93.529299405810889 -122.63469504173554 0 0 0 0 -35.553813020455493 -85.145235217147274 0 -85.145235217147274 -138.68981742818141 0 0 0 0 -38.053026902004319 -82.485874803955085 0 -82.485874803955085 -138.43745492604648 0 0 0 0 -52.897092510152902 -92.04743252787739 0 -92.04743252787739 -132.48665085463472 0 0 0 0 -51.048964640189453 -112.11595156817657 0 -112.11595156817657 -143.21802202161052 0 0 0 0 -36.563670233369066 -113.00272651735577 0 -113.00272651735577 -154.38366499422409 0 0 0 0 -38.710679664322583 -105.77820532713667 0 -105.77820532713667 -150.96347727245302 0 0 0 0 -47.688672101797692 -120.30433042036748 0 -120.30433042036748 -165.43369024002459 0 0 0 0 -35.656478379768714 -108.90070695511531 0 -108.90070695511531 -147.83754631763441 0 0 0 0 -35.674370604682508 -100.10708585460088 0 -100.10708585460088 -136.37274198354862 0 0 0 0 -33.403082264814799 -97.617505135241117 0 -97.617505135241117 -138.78736830240814 0 0 0 0 -77.434442727814456 -94.28679009321786 0 -94.28679009321786 -68.327695956511889 0 0 0 0 -40.216317511510965 -80.03327035298571 0 -80.03327035298571 -89.64595469472988 0 0 0 0 -64.40468545948444 -89.042536896722595 0 -89.042536896722595 -83.085789229313377 0 0 0 0 -69.138362429764243 -73.304648537508911 0 -73.304648537508911 -26.834683880500961 0 0 0 0 -69.304670919818022 -59.046735280382563 0 -59.046735280382563 -14.475777415253106 0 0 0 0 -7.4480415046710107 -63.14784071961185 0 -63.14784071961185 -93.810288413893431 0 0 0 0 -36.69306933730843 -47.544829392631073 0 -47.544829392631073 -37.074580579530448 0 0 0 0 -30.719002964194601 -90.311070277515682 0 -90.311070277515682 -120.23435574423638 0 0 0 0 -29.429910656302127 -76.783180412603542 0 -76.783180412603542 -88.404577375411463 0 0 0 0 -26.205869980779596 -88.562619120813906 0 -88.562619120813906 -136.33006499346811 0 0 0 0 -33.609002127983416 -77.682138836331433 0 -77.682138836331433 -127.37668392551132 0 0 0 0 -35.415701793264418 -84.117173907987308 0 -84.117173907987308 -140.78957022898248 0 0 0 0 -32.602266975889563 -76.160944258852396 0 -76.160944258852396 -153.98921137492289 0 0 0 0 -39.569533685759822 -76.892916399490787 0 -76.892916399490787 -142.26121248980053 0 0 0 0 -48.804768161903212 -100.13473675988644 0 -100.13473675988644 -134.92019783053547 0 0 0 0 -81.938784062683141 -117.15209462314942 0 -117.15209462314942 -132.59692510716559 0 0 0 0 -43.71420759292694 -89.928205714193609 0 -89.928205714193609 -182.21958363980229 0 0 0 0 0.11306960943854269 0.23658495910611776 0 0.23658495910611776 -0.34893270392547038 0 0 0 0 -63.442107840164816 -60.487192062795657 0 -60.487192062795657 -113.32537600326259 0 0 0 0 -1.6005515806600588 -0.059840582363307249 0 -0.059840582363307249 0.90429300420571224 0 0 0 0 -47.09973781022024 -50.120478817443654 0 -50.120478817443654 -176.84325023393831 0 0 0 0 -61.748550890761599 -33.501918662343087 0 -33.501918662343087 -117.28687971491308 0 0 0 0 -56.851913717312698 -71.712140277893923 0 -71.712140277893923 -114.47889667144773 0 0 0 0 -44.64562143744979 -59.575583485271636 0 -59.575583485271636 -140.43388351268368 0 0 0 0 -58.462267595731362 -72.281871304334345 0 -72.281871304334345 -93.446966381405218 0 0 0 0 -5.8342160451807956 -4.9685016231214831 0 -4.9685016231214831 -6.7646331949108571 0 0 0 0 -7.4023151773156997 -5.1839202715636929 0 -5.1839202715636929 -4.7709356426930754 0 0 0 0 -75.680062018969693 -126.3898189851534 0 -126.3898189851534 -143.98989592762882 0 0 0 0 -73.278505115525149 -89.100087269180221 0 -89.100087269180221 -132.84399591047622 0 0 0 0 1.638833275337289 -0.50527993188732268 0 -0.50527993188732268 -4.7187555920522755 0 0 0 0 94.848163308683638 31.520514830401225 0 31.520514830401225 -94.313873093604343 0 0 0 0 -4.1256422924484184 -5.3966128163792746 0 -5.3966128163792746 -6.657751223006926 0 0 0 0 49.051590747370483 41.919036669140041 0 41.919036669140041 -90.036061686081666 0 0 0 0 -31.204770871099186 -128.07414353016338 0 -128.07414353016338 -127.5079840791077 0 0 0 0 -3.4878292827448831 -4.7919221516531252 0 -4.7919221516531252 -6.1519200705588446 0 0 0 0 -70.484763821238232 -73.13114746069914 0 -73.13114746069914 -74.36011436328306 0 0 0 0 -1.0741016964937284 -0.195170372673104 0 -0.195170372673104 0.76782484609711332 0 0 0 0 -45.067456440619651 -56.028144544543466 0 -56.028144544543466 -74.002138941752492 0 0 0 0 -29.632220040058314 -39.129537628410617 0 -39.129537628410617 -63.567982906100951 0 0 0 0 -61.401137936150178 -36.503881937322149 0 -36.503881937322149 -48.486850512825185 0 0 0 0 -88.386050981469452 -113.47772506960609 0 -113.47772506960609 -89.951726138808226 0 0 0 0 -44.537811845329315 61.365345863370749 0 61.365345863370749 78.705212917484459 0 0 0 0 -0.40439151162439457 -0.13157387494307926 0 -0.13157387494307926 0.33261414577992809 0 0 0 0 -32.829227229077659 -84.251469711254686 0 -84.251469711254686 -98.69197003316367 0 0 0 0 4.4317636075817859 -24.076944899336013 0 -24.076944899336013 13.982213365197822 0 0 0 0 0.72135661110792171 -11.505311556258675 0 -11.505311556258675 35.589547943840444 0 0 0 0 -90.154677330196648 -57.885771881232358 0 -57.885771881232358 80.457121806190116 0 0 0 0 10.647070788486587 -78.369529683488508 0 -78.369529683488508 47.893435135731124 0 0 0 0 -67.016669144324396 -20.892234844333871 0 -20.892234844333871 44.546207335457439 0 0 0 0 -61.523273932511074 -10.460200013236317 0 -10.460200013236317 56.731635299685877 0 0 0 0 -158.54818813634574 31.865869798028143 0 31.865869798028143 49.224453647528208 0 0 0 0 -83.884226711972133 -2.0882208437978989 0 -2.0882208437978989 46.426900862337789 0 0 0 0 -98.496436602447602 28.075964624120388 0 28.075964624120388 83.858578542312898 0 0 0 0 -76.029665116570186 52.784786912117852 0 52.784786912117852 31.455723591134301 0 0 0 0 -78.085252436490464 67.659168010934081 0 67.659168010934081 -25.765961003759003 0 0 0 0 -64.218684413737492 11.323305831363541 0 11.323305831363541 -3.9690095495607238 0 0 0 0 104.16323962131088 93.938776079709896 0 93.938776079709896 -528.0237379600876 0 0 0 0 -306.86736614821098 25.184488725561096 0 25.184488725561096 -18.589113381694915 0 0 0 0 -1.0968953946158218 -2.2577441460081005 0 -2.2577441460081005 -4.743044936636295 0 0 0 0 126.93838253920376 206.38761189565412 0 206.38761189565412 -289.07438704754168 0 0 0 0 58.680586484630112 7.8733463523676619 0 7.8733463523676619 -638.51819579968287 0 0 0 0 71.660743860937146 127.67573216529127 0 127.67573216529127 -561.9067111266022 0 0 0 0 115.3923813624956 113.93538487866317 0 113.93538487866317 -634.10174885443121 0 0 0 0 -234.16368583836947 -214.95190921044923 0 -214.95190921044923 -263.626472012671 0 0 0 0 327.53434442046023 118.37900708556845 0 118.37900708556845 -334.49880898008996 0 0 0 0 6.6645992492817072 56.436509329798355 0 56.436509329798355 35.84877464229794 0 0 0 0 0.33187069080286452 -0.28116401092258769 0 -0.28116401092258769 -1.9140293014648933 0 0 0 0 -356.66604496518335 -475.54349664663732 0 -475.54349664663732 -348.92763259164349 0 0 0 0 -100.97827978263786 -123.01675171093666 0 -123.01675171093666 -178.11170630920606 0 0 0 0 -18.682786778448417 -180.76800693910809 0 -180.76800693910809 -182.92021700117039 0 0 0 0 -18.404509624926533 -124.98668806135538 0 -124.98668806135538 -178.38041581417929 0 0 0 0 64.70994492805761 -34.178414741698361 0 -34.178414741698361 5.9577149298311269 0 0 0 0 1.5019873416607119 -0.66887632305459022 0 -0.66887632305459022 -4.6130274978140733 0 0 0 0 -2.0636145505556445 2.239475174629149 0 2.239475174629149 -2.4101006736520674 0 0 0 0 -276.97762280036625 -42.446104206625023 0 -42.446104206625023 160.15497289236373 0 0 0 0 -256.2628837416961 513.99818824215981 0 513.99818824215981 8.4584925888721045 0 0 0 0 -34.948267265146441 -99.045504592687649 0 -99.045504592687649 -237.39880620621989 0 0 0 0 247.20142282588262 142.49181745951319 0 142.49181745951319 -167.47032571812451 0 0 0 0 -1.8224134687538647 3.8285493124148005 0 3.8285493124148005 -6.0625791060903964 0 0 0 0 3.7053859608342918 -42.389552549233485 0 -42.389552549233485 -93.634672615852651 0 0 0 0 152.21930311256972 -259.00271709194931 0 -259.00271709194931 -272.13637402290624 0 0 0 0 55.938447187986867 -62.790937088600913 0 -62.790937088600913 -639.59887938440806 0 0 0 0 -384.12298915942114 103.90001498516722 0 103.90001498516722 -406.47505391332379 0 0 0 0 -379.69680398336766 153.72888040689577 0 153.72888040689577 -136.34433992746199 0 0 0 0 241.48638856513895 -165.80330877676806 0 -165.80330877676806 -807.92928601964377 0 0 0 0 -433.19927158417158 208.975987833408 0 208.975987833408 -547.47247868381965 0 0 0 0 61.901367115603989 161.09514471810689 0 161.09514471810689 -667.51530652094516 0 0 0 0 -41.637746285500725 101.48690970796451 0 101.48690970796451 -634.97173595331515 0 0 0 0 -6.805745306864992 -1.4312353809509659 0 -1.4312353809509659 -639.69131531930543 0 0 0 0 -372.53796509049312 0.21615194754122058 0 0.21615194754122058 -568.09704575819705 0 0 0 0 -42.067251213310556 161.7725570275652 0 161.7725570275652 -667.51458635370363 0 0 0 0 -107.09948653902893 158.19036566242357 0 158.19036566242357 -528.03163904815301 0 0 0 0 -154.40281602134655 204.83352603013191 0 204.83352603013191 -533.02143225349573 0 0 0 0 -403.44960003577944 313.74351633331503 0 313.74351633331503 -485.6852492101898 0 0 0 0 -41.358508398339836 267.28506504758116 0 267.28506504758116 -566.30196083638293 0 0 0 0 -80.015931591598019 294.45408725778543 0 294.45408725778543 -578.5665182945304 0 0 0 0 7.7254554929736514 140.90057166332917 0 140.90057166332917 -497.66775397030869 0 0 0 0 -268.58035969864 424.59654651804885 0 424.59654651804885 -600.39410493118703 0 0 0 0 -403.22881959853959 228.20244725413966 0 228.20244725413966 -305.63327251801093 0 0 0 0 -445.03816747472115 325.59188202158111 0 325.59188202158111 -653.51114486963343 0 0 0 0 0.85331910913283737 0.69060911720525553 0 0.69060911720525553 -3.9597352181906444 0 0 0 0 -624.61686159410806 406.44435228782822 0 406.44435228782822 -163.81793549084978 0 0 0 0 -17.043540958699282 -86.208077440209536 0 -86.208077440209536 -19.337036268574593 0 0 0 0 12.104951529031041 -57.780010430447874 0 -57.780010430447874 -97.415161445525882 0 0 0 0 -136.30172526830847 -15.970062581474849 0 -15.970062581474849 36.134072469503735 0 0 0 0 6.6102295810183023 36.624049656551506 0 36.624049656551506 -414.04576918043313 0 0 0 0 -20.504846930195448 37.693299873782621 0 37.693299873782621 7.6479145436096587 0 0 0 0 -0.16755462973468305 -2.4976879198922006 0 -2.4976879198922006 -6.335373646554018 0 0 0 0 46.98730229085993 -3.8153863224588349 0 -3.8153863224588349 27.618233334142133 0 0 0 0 9.4642930669624548 1.8949722861398186 0 1.8949722861398186 -0.92420299164950848 0 0 0 0 -0.14750041583579332 23.819772567814653 0 23.819772567814653 14.961392924582469 0 0 0 0 1.1822825869984552 0.21090325311445568 0 0.21090325311445568 -7.2915932542899782 0 0 0 0 -310.28366003103179 176.51395124966803 0 176.51395124966803 -68.157586243381957 0 0 0 0 -496.88240485106621 225.35960725424229 0 225.35960725424229 -33.093156336228276 0 0 0 0 -212.63716452018303 317.89192700611602 0 317.89192700611602 -397.06213209855923 0 0 0 0 -33.804909620717183 -17.363362462827354 0 -17.363362462827354 -782.32726643469505 0 0 0 0 -354.18270160238546 509.92580654294761 0 509.92580654294761 -556.39677447367285 0 0 0 0 -36.10257791887409 156.67978379999113 0 156.67978379999113 -389.72918656516777 0 0 0 0 -165.68025106064295 224.50355915979162 0 224.50355915979162 -206.50930063230771 0 0 0 0 -170.14749421414518 219.05183896728704 0 219.05183896728704 -202.50993540653144 0 0 0 0 -269.58646067887639 260.83303347880428 0 260.83303347880428 -130.26127613944846 0 0 0 0 -121.62957349274473 165.19776693871972 0 165.19776693871972 -140.13355211135058 0 0 0 0 241.3742429941388 442.32712351639384 0 442.32712351639384 -2497.6906742316551 0 0 0 0 -200.21563795707209 227.24504308467658 0 227.24504308467658 -111.98624347166333 0 0 0 0 -204.83471748497965 217.09438239889823 0 217.09438239889823 -105.50519645347958 0 0 0 0 -222.86187497383639 218.02625640572296 0 218.02625640572296 -98.247813490015687 0 0 0 0 -318.44614316872025 185.68401013734365 0 185.68401013734365 -73.200850313471165 0 0 0 0 -225.37461450226886 155.96987403714229 0 155.96987403714229 -63.714277578012116 0 0 0 0 -102.72765936566145 126.07040707421038 0 126.07040707421038 -140.43479573400327 0 0 0 0 -0.7177266522339778 1.3950833647868421 0 1.3950833647868421 -12.441040463774698 0 0 0 0 2.2574241599028317 0.76079858334463779 0 0.76079858334463779 -8.9003977392312095 0 0 0 0 -206.31547481201093 246.36162415769286 0 246.36162415769286 -62.64095641203312 0 0 0 0 0.71631440194584184 0.12168556341251247 0 0.12168556341251247 -1.5965639878920506 0 0 0 0 -124.79535224485299 193.59334197112821 0 193.59334197112821 -296.70940747703571 0 0 0 0 -199.35102998165422 251.5103515207411 0 251.5103515207411 -148.40906427987647 0 0 0 0 -134.70946331809964 530.66453025835835 0 530.66453025835835 -634.57953967138019 0 0 0 0 238.97575701913897 -638.02644269883444 0 -638.02644269883444 -1004.15509358079 0 0 0 0 127.61746360346018 96.278941454787855 0 96.278941454787855 63.936582901360453 0 0 0 0 0.48941005037603585 -1.5362899304217663 0 -1.5362899304217663 -7.5547240487841947 0 0 0 0 0.86560680702094672 2.778732581717982 0 2.778732581717982 0.13986098921785128 0 0 0 0 183.65788783162481 -11.43551123177167 0 -11.43551123177167 -79.550839589581301 0 0 0 0 27.024956308536488 506.42171162441491 0 506.42171162441491 -1755.2837863205059 0 0 0 0 9.3814558965200945 -5.2745411212472391 0 -5.2745411212472391 23.758232758947997 0 0 0 0 1.8141958125187823 4.8931268878698191 0 4.8931268878698191 -7.3423644732742268 0 0 0 0 248.59832164772851 108.20774041096593 0 108.20774041096593 -2327.5878599581993 0 0 0 0 46.331990281774495 150.7547553250115 0 150.7547553250115 -2308.0188911720288 0 0 0 0 -308.6044517924376 405.57471156420797 0 405.57471156420797 -2904.3748836889572 0 0 0 0 -752.98885262095985 728.96745686253416 0 728.96745686253416 -2723.9355809189146 0 0 0 0 149.08121380538515 -516.85201056313963 0 -516.85201056313963 -2063.4131127604232 0 0 0 0 -79.324217140514293 -691.08806382358307 0 -691.08806382358307 -393.35987209244922 0 0 0 0 8.1731806487051664 3.9511869231141361 0 3.9511869231141361 -8.7229988729150882 0 0 0 0 -519.61959196559792 203.77588005957296 0 203.77588005957296 256.01875055582786 0 0 0 0 22.571278434980741 -4.9428922080551274 0 -4.9428922080551274 -23.684885595543165 0 0 0 0 103.84945478839903 -126.24627240968039 0 -126.24627240968039 -999.10766229237197 0 0 0 0 -15.775167925425155 638.7413465161535 0 638.7413465161535 -742.59692641947186 0 0 0 0 -258.14714060332176 879.61400266899363 0 879.61400266899363 -2851.7760869429694 0 0 0 0 0.40042407669768859 0.98256418228701392 0 0.98256418228701392 -10.32283609886295 0 0 0 0 15.713929973230734 7.9843360011914228 0 7.9843360011914228 -18.472494882516912 0 0 0 0 10.097580038831001 6.5412887465879663 0 6.5412887465879663 -25.125807846670341 0 0 0 0 18.375020566223441 -3.9494982466530928 0 -3.9494982466530928 -21.817368815434747 0 0 0 0 24.428034189284972 -4.088975246213522 0 -4.088975246213522 -23.297771980509424 0 0 0 0 -0.28188785556208007 -2.2933386145185608 0 -2.2933386145185608 -9.7694802503306732 0 0 0 0 -0.13414599154087625 9.4334833313042736 0 9.4334833313042736 -21.107766990891832 0 0 0 0 24.590504222660456 -0.17949549845070578 0 -0.17949549845070578 -19.62359639362694 0 0 0 0 -14.768348207512418 15.866455672741722 0 15.866455672741722 10.680915893870406 0 0 0 0 -11.958281125830581 -10.710594900829165 0 -10.710594900829165 -8.2262512107336079 0 0 0 0 -0.7831001907897317 -3.2501407203239623 0 -3.2501407203239623 -6.9484392823873264 0 0 0 0 56.59847984941689 -39.523306815364776 0 -39.523306815364776 -18.209168603672879 0 0 0 0 15.715491444187364 7.7918897420477151 0 7.7918897420477151 -9.8479156521934783 0 0 0 0 31.825793960530063 -15.666590171225835 0 -15.666590171225835 -32.776454372215085 0 0 0 0 21.251914891990509 -15.274592288387794 0 -15.274592288387794 10.875575788857532 0 0 0 0 12.274346913513591 2.5542857268467998 0 2.5542857268467998 -28.94863921897732 0 0 0 0 362.09578476851061 -119.68009813925164 0 -119.68009813925164 -118.45755167602329 0 0 0 0 280.25308293824014 -186.29602525410155 0 -186.29602525410155 -172.65622466646892 0 0 0 0 11.423578252171865 -2.8621323058905546 0 -2.8621323058905546 -36.185555308824405 0 0 0 0 45.660133145474902 -32.739187428043806 0 -32.739187428043806 -61.951022723711503 0 0 0 0 2.3684470575250138 1.2343825979168841 0 1.2343825979168841 -5.3409320559580635 0 0 0 0 219.38502485044171 -48.909711419208179 0 -48.909711419208179 18.953858090331778 0 0 0 0 214.05610747637343 -19.309912509343121 0 -19.309912509343121 197.5497060646594 0 0 0 0 12.954686271681965 -120.1789630079802 0 -120.1789630079802 6.9285171950832591 0 0 0 0 147.85644613177044 26.469712700007221 0 26.469712700007221 -393.69516844287136 0 0 0 0 251.77603930537884 -144.48238644750381 0 -144.48238644750381 -94.658306818763776 0 0 0 0 135.25139291220751 -226.69093343982968 0 -226.69093343982968 157.31075923039316 0 0 0 0 42.616682959765399 123.32471924255515 0 123.32471924255515 -129.55935101856539 0 0 0 0 -187.13338970831904 747.93605240814327 0 747.93605240814327 -799.766787373017 0 0 0 0 -244.93197781186777 247.1755106192104 0 247.1755106192104 -77.840792616591443 0 0 0 0 -215.35359323532819 699.59765470104503 0 699.59765470104503 -2500.7985831830392 0 0 0 0 -89.348390623496229 820.02395429769058 0 820.02395429769058 -2594.4777272754691 0 0 0 0 21.901375900308167 46.88959137000802 0 46.88959137000802 2.3206644964193401 0 0 0 0 -208.61011545070889 751.53018528995744 0 751.53018528995744 -2632.2335365556573 0 0 0 0 -6.1146338414909289 4.298153927405977 0 4.298153927405977 -6.097717245005601 0 0 0 0 347.27300698362023 560.40501833774397 0 560.40501833774397 -1935.6465637508536 0 0 0 0 427.62539952870577 513.74360858438195 0 513.74360858438195 -1972.1098467531483 0 0 0 0 353.35051377678911 304.39043733298968 0 304.39043733298968 -2002.0777359088279 0 0 0 0 477.50980045107588 300.25376352760213 0 300.25376352760213 -1935.7202760190485 0 0 0 0 320.31097097425305 370.17983361962979 0 370.17983361962979 -870.24293991435115 0 0 0 0 66.977505417520092 227.05705771504836 0 227.05705771504836 -315.98573376213608 0 0 0 0 339.52442743447796 192.48436429327558 0 192.48436429327558 -897.3157277693399 0 0 0 0 339.09561673991874 154.93979088484411 0 154.93979088484411 -442.58960729379032 0 0 0 0 279.85932029966079 59.709351732835785 0 59.709351732835785 -592.71268420244451 0 0 0 0 456.26178811625118 -133.45048703291468 0 -133.45048703291468 -178.08841206306533 0 0 0 0 231.69544930236123 40.883462617191981 0 40.883462617191981 -131.26957754137402 0 0 0 0 325.53836261137189 14.853053870836447 0 14.853053870836447 -439.61016588778239 0 0 0 0 598.51316750564445 -209.11497191943317 0 -209.11497191943317 -124.84371514037775 0 0 0 0 288.8642363441445 -125.72044712724892 0 -125.72044712724892 27.289383026880387 0 0 0 0 253.68530756799612 -164.65266249837805 0 -164.65266249837805 298.83845159819612 0 0 0 0 542.43880561453716 -523.52300022001509 0 -523.52300022001509 228.94162507656711 0 0 0 0 8.014209270871568 -0.025818588022659128 0 -0.025818588022659128 -4.6764822160440787 0 0 0 0 400.61269594317287 -70.293377592199249 0 -70.293377592199249 -11.127004887133808 0 0 0 0 356.26486248006518 -12.064071443528519 0 -12.064071443528519 -324.08538255049029 0 0 0 0 159.65994592567779 -49.463167088848422 0 -49.463167088848422 14.238392510378617 0 0 0 0 82.223807575209321 56.1446050782979 0 56.1446050782979 -90.754871616270975 0 0 0 0 14.267867670507973 5.8391573348540931 0 5.8391573348540931 -8.42313927256005 0 0 0 0 251.31717101838854 -323.05197955195763 0 -323.05197955195763 179.9159438690258 0 0 0 0 378.45926012665655 -256.22031678873464 0 -256.22031678873464 28.902802463922853 0 0 0 0 137.91949092930554 -125.28095001808833 0 -125.28095001808833 84.768947676551761 0 0 0 0 40.122937416836066 -66.001473342872487 0 -66.001473342872487 19.793399155832049 0 0 0 0 0.53614700351046984 -9.2662498338992521 0 -9.2662498338992521 -22.439213356268567 0 0 0 0 45.035813409278717 -43.724972363341294 0 -43.724972363341294 29.542653343291022 0 0 0 0 49.704822563793641 -44.754657410390791 0 -44.754657410390791 28.515554818121018 0 0 0 0 43.923699844583098 -50.538758360231441 0 -50.538758360231441 23.251242926780833 0 0 0 0 16.331018118504289 3.2647546931693796 0 3.2647546931693796 -68.399170714139473 0 0 0 0 120.31759199169983 -170.32372224584833 0 -170.32372224584833 294.04657007982314 0 0 0 0 95.076024773459267 -36.161480202812527 0 -36.161480202812527 28.463498620843893 0 0 0 0 48.807066684995107 -40.33181953979738 0 -40.33181953979738 32.575366995937657 0 0 0 0 -70.121781416420163 225.32520118978573 0 225.32520118978573 -200.5116414087388 0 0 0 0 67.502223513452464 -134.60315676402388 0 -134.60315676402388 -20.333874803418439 0 0 0 0 25.504917645573414 -264.78042709663896 0 -264.78042709663896 -116.85109832287708 0 0 0 0 -1.1742732294090947 -5.715941762353971 0 -5.715941762353971 -19.501544135402128 0 0 0 0 -465.5290568909877 360.68958682671655 0 360.68958682671655 -54.718293483470006 0 0 0 0 -398.90149596691117 264.01683595131908 0 264.01683595131908 -459.29660192062875 0 0 0 0 -58.861236450929027 163.74906617769011 0 163.74906617769011 -462.35567757881654 0 0 0 0 -33.100017766631026 239.44649217381811 0 239.44649217381811 -436.77117447507044 0 0 0 0 0.58893864226492187 -0.73472679247714012 0 -0.73472679247714012 -3.5357091667243878 0 0 0 0 -216.06806504342603 195.90355052394443 0 195.90355052394443 -434.18463418648025 0 0 0 0 -57.692862547945879 216.74676043763611 0 216.74676043763611 -556.43888217005588 0 0 0 0 -50.258414973594881 240.0270152967496 0 240.0270152967496 -595.98773278305453 0 0 0 0 -21.310157271208482 177.84858305852686 0 177.84858305852686 -535.20333894222858 0 0 0 0 -4.8423736114636995 222.86914222835185 0 222.86914222835185 -620.40920353529509 0 0 0 0 -46.334699399478723 290.24657686609135 0 290.24657686609135 -697.64234898101131 0 0 0 0 -176.72990829166338 302.24425271986547 0 302.24425271986547 -599.45367066486506 0 0 0 0 -34.328267407086969 325.2364518829163 0 325.2364518829163 -599.77764778022538 0 0 0 0 36.065529038231261 216.96690029067213 0 216.96690029067213 -697.97236485956819 0 0 0 0 85.53695042210893 235.31350916878728 0 235.31350916878728 -741.4650418958845 0 0 0 0 27.446340189927469 186.84463600229356 0 186.84463600229356 -673.26040206050675 0 0 0 0 -414.86971939647356 728.49821838922799 0 728.49821838922799 -810.11131679317623 0 0 0 0 -334.96268005429647 528.3467500241677 0 528.3467500241677 -372.8670839232509 0 0 0 0 76.492964395707531 295.56208639870238 0 295.56208639870238 -826.01791517290985 0 0 0 0 -173.59105474376338 521.39777567906276 0 521.39777567906276 -858.15585759848182 0 0 0 0 -0.31356451605529312 -1.951575981690155 0 -1.951575981690155 -8.8442107714609506 0 0 0 0 174.36694809703386 -322.89353874539665 0 -322.89353874539665 -316.41791861897218 0 0 0 0 139.07173760953776 -159.53910628579888 0 -159.53910628579888 -939.07540551226339 0 0 0 0 -135.41886558198428 220.64451174168971 0 220.64451174168971 -690.70169133349191 0 0 0 0 2.0011750422269232 -0.62722764967267608 0 -0.62722764967267608 -2.2467152160705268 0 0 0 0 389.00611484832325 -670.10214579957028 0 -670.10214579957028 609.1013480208494 0 0 0 0 60.708353937750061 143.82309747609207 0 143.82309747609207 -20.681725859336439 0 0 0 0 -67.862854574592347 -29.306401755420666 0 -29.306401755420666 47.105607292618515 0 0 0 0 225.60264360912913 -324.00599663421963 0 -324.00599663421963 -331.18362500274088 0 0 0 0 -163.85810059720711 -372.43956042812715 0 -372.43956042812715 -194.0845215152367 0 0 0 0 460.69626297794684 -599.55228016474939 0 -599.55228016474939 -320.49809245365759 0 0 0 0 -87.020528349346819 -291.01652809643929 0 -291.01652809643929 -298.76565270512947 0 0 0 0 29.787175244999503 -52.204382660323063 0 -52.204382660323063 -71.239847484350321 0 0 0 0 -182.30906351175764 355.27458678718722 0 355.27458678718722 -1226.9378066234931 0 0 0 0 -1323.345872597014 -107.61052324165576 0 -107.61052324165576 -45.763338744493012 0 0 0 0 -239.73642928346197 -670.62485717666914 0 -670.62485717666914 -1262.1273353209835 0 0 0 0 -47.522718841192273 319.19013809464377 0 319.19013809464377 -1149.0604649745524 0 0 0 0 -964.98263690677754 -1819.248621016719 0 -1819.248621016719 -1234.7879762130469 0 0 0 0 -249.72635355852049 -1000.2352694635047 0 -1000.2352694635047 -2069.2770452142904 0 0 0 0 -0.68657755404304988 2.8034398669740028 0 2.8034398669740028 -17.661516679953024 0 0 0 0 -512.13163602278212 394.97245685223061 0 394.97245685223061 -143.26899958775175 0 0 0 0 -36.889869734626473 222.86619245930706 0 222.86619245930706 -333.29807060678286 0 0 0 0 191.82182904450451 -39.973510417006764 0 -39.973510417006764 -892.4545066161154 0 0 0 0 181.51678819505219 7.6709818226299831 0 7.6709818226299831 -35.04904668402196 0 0 0 0 384.05969479908481 -55.547712625355416 0 -55.547712625355416 -308.42969975133747 0 0 0 0 221.7213855522881 173.87616927396357 0 173.87616927396357 -338.34436594584986 0 0 0 0 12.209776511716882 60.255942577055976 0 60.255942577055976 -373.75934156483345 0 0 0 0 540.72977558021171 207.12430709780165 0 207.12430709780165 -2499.5094477257899 0 0 0 0 21.772695425290294 234.47229170291394 0 234.47229170291394 -341.29979975002516 0 0 0 0 -119.07986092292799 188.70725855177443 0 188.70725855177443 -276.56399073472858 0 0 0 0 138.19220469488454 -97.256342186232359 0 -97.256342186232359 -1381.2709004103745 0 0 0 0 4.5765764552923915 -3.5352863208215695 0 -3.5352863208215695 -1.3205354861103871 0 0 0 0 177.37771263266063 296.99379335749836 0 296.99379335749836 -1475.0118174941153 0 0 0 0 111.91129266334877 144.51244825272443 0 144.51244825272443 -1829.2775960171202 0 0 0 0 2.0973091943403537 -1.0054885698725826 0 -1.0054885698725826 -2.0064916836046649 0 0 0 0 281.79145317368699 -129.49251936219662 0 -129.49251936219662 -1978.260702055235 0 0 0 0 350.41472570046915 -322.80952656328009 0 -322.80952656328009 -2969.5965517027871 0 0 0 0 255.59172282571672 -117.33902424900225 0 -117.33902424900225 -1806.652830954059 0 0 0 0 -239.6104886877165 -283.75687722837574 0 -283.75687722837574 -689.44590987183619 0 0 0 0 211.54886611893716 -127.85712422850702 0 -127.85712422850702 -1806.7279145786106 0 0 0 0 -28.946215278829868 -2.7444060393463587 0 -2.7444060393463587 -174.4392156739641 0 0 0 0 -0.85340291206595897 12.151493279082374 0 12.151493279082374 -40.653249817799349 0 0 0 0 7.8279495314316634 -3.0127074533845359 0 -3.0127074533845359 -10.694740345677726 0 0 0 0 -8.4036479345463704 40.461769874076708 0 40.461769874076708 -101.23924423195422 0 0 0 0 374.95584533754709 863.9002495654313 0 863.9002495654313 -1950.738570779009 0 0 0 0 -1008.6890169269368 -964.70216929683374 0 -964.70216929683374 698.48276708554295 0 0 0 0 -631.38674927381498 4.1302808444597758 0 4.1302808444597758 -2499.3308242929688 0 0 0 0 0.89830565412014263 0.92557371271308853 0 0.92557371271308853 -14.173697169255242 0 0 0 0 -365.3150579774981 161.51711484728366 0 161.51711484728366 166.72239599483146 0 0 0 0 -0.91116514248890645 -2.1873030166199783 0 -2.1873030166199783 -1.1041760495760613 0 0 0 0 301.04355386107272 -604.31415422308055 0 -604.31415422308055 -1181.8628658976786 0 0 0 0 402.96266123666931 -450.15057248096673 0 -450.15057248096673 -1762.9856320332037 0 0 0 0 36.653048193166114 -224.10850703976757 0 -224.10850703976757 -470.86888589701266 0 0 0 0 -0.88185515831538819 8.7023163534646955 0 8.7023163534646955 -31.370088784414605 0 0 0 0 -49.252580427144835 -173.25974139065147 0 -173.25974139065147 -957.48982383612019 0 0 0 0 117.44621722644843 -35.629007901217847 0 -35.629007901217847 -36.951166159236891 0 0 0 0 -2.3404738885387708 3.5775931293259191 0 3.5775931293259191 -12.235873858540799 0 0 0 0 -856.0354580918472 -1561.7622934172068 0 -1561.7622934172068 -1654.7996266295195 0 0 0 0 -916.41206176953006 603.71155130269108 0 603.71155130269108 -12.016573522365434 0 0 0 0 -347.64035181043045 1112.8710370586105 0 1112.8710370586105 -1656.4733464843157 0 0 0 0 0.65701339115233015 -13.202749675445375 0 -13.202749675445375 -1726.0251229412752 0 0 0 0 216.54847991718134 212.40399444680952 0 212.40399444680952 -2790.0494467873687 0 0 0 0 -184.66720356756957 4.0602055225390359 0 4.0602055225390359 -755.88184550573715 0 0 0 0 -322.0202220580976 314.37838772512623 0 314.37838772512623 -1230.1620649756915 0 0 0 0 51.411300743221659 -82.132250568254676 0 -82.132250568254676 -991.06326263424126 0 0 0 0 -0.34104451705051519 -120.96252559418099 0 -120.96252559418099 -606.98027580905182 0 0 0 0 -69.513166744243961 -62.06978497961245 0 -62.06978497961245 -80.970669936585182 0 0 0 0 24.030585531515953 -103.10826843985706 0 -103.10826843985706 -135.81528760868241 0 0 0 0 1.8326307733057092 -58.298701737223382 0 -58.298701737223382 -685.90726810019987 0 0 0 0 -119.23008860674815 -34.809184356610785 0 -34.809184356610785 -70.243506802857155 0 0 0 0 -105.82084736659647 -86.318482511982438 0 -86.318482511982438 -678.69063979320345 0 0 0 0 47.930572302947667 135.97477002473897 0 135.97477002473897 -737.08492807599396 0 0 0 0 -98.199391820874368 -350.02780965833267 0 -350.02780965833267 -1157.6944641335285 0 0 0 0 -2.2853900040515462 -6.7693965430453389 0 -6.7693965430453389 -22.768573886315806 0 0 0 0 -462.85269378694238 -1048.6056768422859 0 -1048.6056768422859 -214.8433599790078 0 0 0 0 63.622629095903903 279.34982894821951 0 279.34982894821951 -1219.690744561165 0 0 0 0 -218.1542752861485 -1284.8805189914656 0 -1284.8805189914656 -740.49954930742388 0 0 0 0 -290.22337886332463 -747.47170218827114 0 -747.47170218827114 115.1765922010818 0 0 0 0 16.659875691034244 110.41327433611877 0 110.41327433611877 -178.02773024342605 0 0 0 0 69.543639555838951 -40.074880711266815 0 -40.074880711266815 -48.64823504438391 0 0 0 0 -107.65893086714823 -128.76783846825492 0 -128.76783846825492 82.492794289955782 0 0 0 0 60.895230590241681 -39.557731284003239 0 -39.557731284003239 -54.962802615671535 0 0 0 0 1.8405252471465197 -12.805191474622593 0 -12.805191474622593 -56.494762165042687 0 0 0 0 0.064810396009991944 -0.99008038439535895 0 -0.99008038439535895 0.82228353523592546 0 0 0 0 -207.50043056761885 639.58792524713817 0 639.58792524713817 -5.7653831591451308 0 0 0 0 794.68653454317337 174.53598331596913 0 174.53598331596913 -214.27409008237009 0 0 0 0 -210.74404604195047 290.86839446112208 0 290.86839446112208 240.93876147314586 0 0 0 0 6.6014937866962127 10.396083631927411 0 10.396083631927411 -17.586286905906462 0 0 0 0 2.6044683438993514 -1.3709412190741759 0 -1.3709412190741759 -16.16644934179817 0 0 0 0 13.700424397883516 -1.5468264924284085 0 -1.5468264924284085 -28.38647979014786 0 0 0 0 5.5687137474546002 -14.891006055840862 0 -14.891006055840862 -19.489721854430428 0 0 0 0 12.110692843098784 -1.7883915404408981 0 -1.7883915404408981 -16.511406351448386 0 0 0 0 1.575416707359119 -2.2452292154372913 0 -2.2452292154372913 -1.8045955289788083 0 0 0 0 3.2995626094582899 1.9644076554468484 0 1.9644076554468484 -6.5991821987045114 0 0 0 0 -0.03381304856827147 3.3876339246926985 0 3.3876339246926985 -4.6427606608776841 0 0 0 0 4.5170346948204472 -0.53795138494024286 0 -0.53795138494024286 -20.778835267063187 0 0 0 0 -29.164814539683846 67.324380810925504 0 67.324380810925504 52.427329999052745 0 0 0 0 0.49286221467249947 -0.41626846947644935 0 -0.41626846947644935 0.39066446909650665 0 0 0 0 -27.15337639563279 3.6337804836002761 0 3.6337804836002761 101.53804123907321 0 0 0 0 -76.712960118920023 -57.513723481151828 0 -57.513723481151828 28.412228436209261 0 0 0 0 8.2685759507421608 -10.430423553336368 0 -10.430423553336368 -74.079855820544708 0 0 0 0 10.38663286864994 -7.8063950564387596 0 -7.8063950564387596 -79.575892115507941 0 0 0 0 17.748811997170833 -13.481692050687911 0 -13.481692050687911 -87.140405858897111 0 0 0 0 12.343545683164621 -6.9696306891666495 0 -6.9696306891666495 -83.080696368974259 0 0 0 0 6.2596868301943687 -10.376867318227937 0 -10.376867318227937 -80.54181169286187 0 0 0 0 6.728126220446029 -6.989232695949795 0 -6.989232695949795 -79.745833635256986 0 0 0 0 -9.5798550762997365 -16.67001068879415 0 -16.67001068879415 -48.193426773894316 0 0 0 0 -6.5551874005427635 -5.7111215241280888 0 -5.7111215241280888 -59.347059436832524 0 0 0 0 9.8812066082471119 -9.5347310008526165 0 -9.5347310008526165 -72.711946643605643 0 0 0 0 10.624636034956037 4.7693644061100713 0 4.7693644061100713 -69.666524325871933 0 0 0 0 -4.9118352970258456 2.625161388952904 0 2.625161388952904 -80.211340523591389 0 0 0 0 3.9234800688637517 -6.2801347409124162 0 -6.2801347409124162 -16.287641583333379 0 0 0 0 -4.1049476198679713 -35.421822541755091 0 -35.421822541755091 -108.38103547940204 0 0 0 0 -5.8336871196990883 -27.16156087479181 0 -27.16156087479181 -37.568088456185677 0 0 0 0 -3.2755993493951294 -26.548478208401079 0 -26.548478208401079 -48.938876430960818 0 0 0 0 2.1410543677798159 2.1686446650567177 0 2.1686446650567177 -77.92456578640622 0 0 0 0 7.1125707114197212 -7.5699420127059511 0 -7.5699420127059511 -79.37253632636839 0 0 0 0 6.054589815943018 -12.861442014248496 0 -12.861442014248496 -100.61249604268437 0 0 0 0 -26.491980176255765 -24.694593009106597 0 -24.694593009106597 -71.480015591125039 0 0 0 0 -4.7777327411499755 -30.344118486440266 0 -30.344118486440266 -120.3792187253066 0 0 0 0 -0.14499960221019137 0.740009127639496 0 0.740009127639496 -61.392122843086781 0 0 0 0 -6.0450348259400926 -28.84213779628044 0 -28.84213779628044 -89.32544789781241 0 0 0 0 3.3769166410354643 -19.844327392492239 0 -19.844327392492239 -24.944672896495526 0 0 0 0 0.40393156219066562 -0.48900562026600269 0 -0.48900562026600269 -10.648271514468762 0 0 0 0 -5.6611245148613989 -8.4497538122807896 0 -8.4497538122807896 -49.536032582297139 0 0 0 0 5.7776820058275007 -8.8082218121926417 0 -8.8082218121926417 -92.241778658549265 0 0 0 0 6.8991657249224589 -0.21166216733264775 0 -0.21166216733264775 -13.608998137999722 0 0 0 0 8.9911308043042446 3.3956206718666664 0 3.3956206718666664 -37.03927590861889 0 0 0 0 -0.46945546564341534 -12.08579927374136 0 -12.08579927374136 -23.04191836894816 0 0 0 0 -2.7522177030878083 -13.663910881851734 0 -13.663910881851734 -34.044057444441023 0 0 0 0 3.8632700020014141 -26.743810339997253 0 -26.743810339997253 -79.263801453533233 0 0 0 0 -11.660049529505727 12.21244523101177 0 12.21244523101177 -44.576581058125157 0 0 0 0 -6.967005904594771 -11.360164670339145 0 -11.360164670339145 -87.441474000115704 0 0 0 0 -32.050846709149482 -54.88530138146416 0 -54.88530138146416 -90.477319541096222 0 0 0 0 -30.304737337173378 -5.8117257815229095 0 -5.8117257815229095 115.52525610523207 0 0 0 0 0.49186401384038991 -0.8434616099991139 0 -0.8434616099991139 -2.6488516006220379 0 0 0 0 -12.35266174459565 -74.777138741224917 0 -74.777138741224917 100.31409881623222 0 0 0 0 -10.003620699321363 21.591934123979897 0 21.591934123979897 -1.1683991564859753 0 0 0 0 4.9884589962639767 -17.796567669953085 0 -17.796567669953085 -26.838066650747816 0 0 0 0 324.13715617577725 -37.932395027680741 0 -37.932395027680741 -42.381140187246274 0 0 0 0 1.4052462612148702 -8.9614131933512908 0 -8.9614131933512908 -64.81497137773647 0 0 0 0 5.2810972616782745 8.111883891701833 0 8.111883891701833 -15.535445790843191 0 0 0 0 4.9892886666405953 -2.5819675488448217 0 -2.5819675488448217 -9.7066929057433384 0 0 0 0 8.7181463453747128 6.0725913421562421 0 6.0725913421562421 -5.029458945084901 0 0 0 0 5.5145947510453333 -2.5176406545123897 0 -2.5176406545123897 -3.2798532790180515 0 0 0 0 4.4180012609556343 -18.003270871275618 0 -18.003270871275618 -71.572523529699879 0 0 0 0 -9.0683991817495553 -31.416561273188563 0 -31.416561273188563 -186.82361403922278 0 0 0 0 0.18219847186969673 -14.577260003179703 0 -14.577260003179703 -40.485256966258021 0 0 0 0 1.7813651212604213 -6.1918501437618048 0 -6.1918501437618048 -50.468431880995922 0 0 0 0 -240.05794959947866 -232.73786253481012 0 -232.73786253481012 60.675558041351906 0 0 0 0 4.8095078516369085 -8.8402714550055634 0 -8.8402714550055634 -45.546201676036858 0 0 0 0 5.4788607964803759 -12.110493674767469 0 -12.110493674767469 -33.83922232406735 0 0 0 0 17.783931491003841 -0.43558390614890641 0 -0.43558390614890641 -40.650724298395005 0 0 0 0 4.5430955681024443 -14.984816696375788 0 -14.984816696375788 -42.284034737444941 0 0 0 0 13.996612972019193 -10.09653368872776 0 -10.09653368872776 -56.855475799402484 0 0 0 0 1.1058424655004728 -15.661874181478765 0 -15.661874181478765 -46.244698695916895 0 0 0 0 8.9454024955159639 -16.030030422547156 0 -16.030030422547156 -67.85756773931098 0 0 0 0 254.96742208167734 212.0315650482562 0 212.0315650482562 -90.955024082271905 0 0 0 0 3.3459319439475399 0.58662392968100718 0 0.58662392968100718 -4.2681131958133278 0 0 0 0 -93.029792488113344 -103.68101937596566 0 -103.68101937596566 -8.6248116032948019 0 0 0 0 91.623140102190973 1.5660881292424165 0 1.5660881292424165 -140.07368726160166 0 0 0 0 7.2886051580136897 -5.4473881798314086 0 -5.4473881798314086 -42.349964006588927 0 0 0 0 31.01389955914874 28.480335100774028 0 28.480335100774028 -109.62831289139194 0 0 0 0 1.4319673398270076 0.063768343407062389 0 0.063768343407062389 -2.5504588985766645 0 0 0 0 -98.820706357164639 -243.6638138112678 0 -243.6638138112678 -215.74862738182128 0 0 0 0 -119.86689664623646 -65.557917704325519 0 -65.557917704325519 -74.737927122201654 0 0 0 0 48.789898500184222 18.10871491040507 0 18.10871491040507 -257.75405997534835 0 0 0 0 15.937389672285008 45.410622703043373 0 45.410622703043373 58.776930319936582 0 0 0 0 103.20815018585745 -56.136241784037338 0 -56.136241784037338 -205.84080189049746 0 0 0 0 0.60872019160990476 -28.529346290702449 0 -28.529346290702449 -101.23153012819284 0 0 0 0 -16.905031554819288 -37.471709695324535 0 -37.471709695324535 -57.796953507473518 0 0 0 0 -2.6794783188677744 -7.8010435536652061 0 -7.8010435536652061 -12.868303785276908 0 0 0 0 25.74918900768764 -4.5036071156338888 0 -4.5036071156338888 -40.788930057803753 0 0 0 0 77.746931752913838 67.96118998820225 0 67.96118998820225 94.519352485371201 0 0 0 0 3.8862950225420718 -17.826817590291569 0 -17.826817590291569 -44.350992814117944 0 0 0 0 11.870803846471754 -5.2783624040533752 0 -5.2783624040533752 -34.646786762347134 0 0 0 0 104.2917409075776 56.49989406102577 0 56.49989406102577 -8.302629619617619 0 0 0 0 21.369277613825147 -16.083665297518564 0 -16.083665297518564 -52.833685097317357 0 0 0 0 15.87427368364737 -2.8783081909430024 0 -2.8783081909430024 -13.901470488746584 0 0 0 0 2.5791445266199844 -4.3810912586450286 0 -4.3810912586450286 -27.802244062788304 0 0 0 0 -3.2665109049557941 -22.225868689908566 0 -22.225868689908566 -155.74744875936176 0 0 0 0 1.7250711392970288 -59.682468499639924 0 -59.682468499639924 -142.81089756531128 0 0 0 0 3.8347826140320649 -25.454553581323665 0 -25.454553581323665 -83.495493787848488 0 0 0 0 13.082625347047571 4.9398525740069106 0 4.9398525740069106 -3.9702404672315281 0 0 0 0 7.5036097968497799 -1.0180260431732631 0 -1.0180260431732631 0.61733196481085595 0 0 0 0 15.063708347175528 -1.680857215045211 0 -1.680857215045211 -13.726617736755122 0 0 0 0 7.1495395895264426 -5.3193469876469379 0 -5.3193469876469379 -9.5920773767473388 0 0 0 0 5.5182117391777865 -47.845082349699624 0 -47.845082349699624 -97.51899115856645 0 0 0 0 -0.69500914879813536 -33.144484132911941 0 -33.144484132911941 -35.229071464429808 0 0 0 0 6.7268712618788413 -37.042302405381974 0 -37.042302405381974 -72.549702580681299 0 0 0 0 38.781554008225612 -22.957942293007591 0 -22.957942293007591 -85.969385904784417 0 0 0 0 21.656543655930363 -0.45439883908238698 0 -0.45439883908238698 -28.22654795324911 0 0 0 0 -7.1269495928008837 -29.989337425717395 0 -29.989337425717395 -33.137767038457241 0 0 0 0 19.568999149083766 -18.847821896350808 0 -18.847821896350808 -47.189574370273476 0 0 0 0 7.1193510339580826 -13.227137419601377 0 -13.227137419601377 -21.825444014063123 0 0 0 0 -4.8718737523486197 -26.795968791765972 0 -26.795968791765972 -49.62370845526948 0 0 0 0 46.484139433598102 -20.621115208401534 0 -20.621115208401534 -63.941093263505536 0 0 0 0 32.215815328930148 3.1243847689679569 0 3.1243847689679569 -46.055752664352894 0 0 0 0 45.262962465421879 12.798395894060377 0 12.798395894060377 -38.965710991848937 0 0 0 0 24.76885699295616 -6.5034515730646945 0 -6.5034515730646945 -28.728901220216358 0 0 0 0 4.5850276920209581 -4.7598634888709057 0 -4.7598634888709057 -27.159623320170795 0 0 0 0 12.485772422242675 -7.8879921820606427 0 -7.8879921820606427 -22.816153900660247 0 0 0 0 -13.121289116388652 -28.4129927145907 0 -28.4129927145907 -39.760638176439443 0 0 0 0 -10.30151702666808 -25.622778836928774 0 -25.622778836928774 -37.260082436299399 0 0 0 0 4.7537184758521542 -13.05729794225841 0 -13.05729794225841 -24.732992655337441 0 0 0 0 -30.771142513898667 -35.015670950535423 0 -35.015670950535423 -34.18365723241368 0 0 0 0 -4.8195727022394124 -20.526023865702772 0 -20.526023865702772 -62.936803202102965 0 0 0 0 -0.4546591152648034 -12.642337804587441 0 -12.642337804587441 -32.532191141789554 0 0 0 0 -6.3053044582120492 -37.163443368534899 0 -37.163443368534899 -75.636120224067099 0 0 0 0 0.06295874265882162 -3.0477272318324786 0 -3.0477272318324786 -12.07383302345848 0 0 0 0 -8.157973435414533 -20.184389849833224 0 -20.184389849833224 -55.03529945997434 0 0 0 0 -6.3486847576896253 -27.968559953371823 0 -27.968559953371823 -60.393613303270286 0 0 0 0 -2.8813899999004207 -24.181441516555424 0 -24.181441516555424 -73.454404532944636 0 0 0 0 5.001990274087694 -12.018804235522003 0 -12.018804235522003 -34.740405768058025 0 0 0 0 11.400736720802115 -14.012978635540776 0 -14.012978635540776 -31.41510397030288 0 0 0 0 21.047394185141457 19.476198728239979 0 19.476198728239979 -77.584647345287522 0 0 0 0 5.3232834619322684 -12.720882504650625 0 -12.720882504650625 -35.207540838892967 0 0 0 0 -2.3560702487447998 -22.892633310123529 0 -22.892633310123529 -63.277414086218414 0 0 0 0 8.295660608298931 -31.678578228146762 0 -31.678578228146762 -70.347092237010656 0 0 0 0 9.4519482972043036 -3.2423788298037337 0 -3.2423788298037337 -10.562342304050006 0 0 0 0 -15.979464118041506 -31.585674404879683 0 -31.585674404879683 -53.030259615168688 0 0 0 0 13.017272270047215 -5.7547697214513391 0 -5.7547697214513391 -22.002215943590272 0 0 0 0 1.7224022329556092 -12.619674596984872 0 -12.619674596984872 -35.415709860437374 0 0 0 0 9.5031943336369391 -4.7612483861733956 0 -4.7612483861733956 -37.592473100766149 0 0 0 0 -1.0241572204777185 -16.329119189712401 0 -16.329119189712401 -54.165277552587213 0 0 0 0 10.037629391656719 2.3507620351201055 0 2.3507620351201055 -22.436770715355255 0 0 0 0 3.9237046852304047 28.499370421981439 0 28.499370421981439 -44.054328583784809 0 0 0 0 0.74263281448202179 -10.98144305416281 0 -10.98144305416281 -55.984262761070568 0 0 0 0 -1.7879367187542812 -11.637549008406495 0 -11.637549008406495 -46.84436147048109 0 0 0 0 33.198742968865872 -13.426359489216338 0 -13.426359489216338 -42.770865605998551 0 0 0 0 -4.4530333836228237 -13.737489347906376 0 -13.737489347906376 -42.17931219690945 0 0 0 0 -4.5326998904674838 -16.011284336778772 0 -16.011284336778772 -45.384644163263147 0 0 0 0 1.3080210272350961 -13.866054878675325 0 -13.866054878675325 -22.643707799894827 0 0 0 0 -2.8387360032102151 -10.792727292628115 0 -10.792727292628115 -37.582997168639849 0 0 0 0 -0.92976900351459335 -9.4880417488629973 0 -9.4880417488629973 -41.004949281603331 0 0 0 0 0.529492188426957 -11.231428928404057 0 -11.231428928404057 -45.874814408343809 0 0 0 0 -0.83540724886552198 -13.514842288386717 0 -13.514842288386717 -48.308100686874241 0 0 0 0 -1.4608344431515263 -11.604490214523064 0 -11.604490214523064 -24.041694103096468 0 0 0 0 -0.43510790019627166 -6.4416936093639379 0 -6.4416936093639379 -36.194620806843886 0 0 0 0 -1.9126390085421008 -17.077015579518047 0 -17.077015579518047 -34.578800357634464 0 0 0 0 -2.5088005035049719 -10.435433736985033 0 -10.435433736985033 -41.406397233495227 0 0 0 0 0.83866444523664541 -34.137489079474108 0 -34.137489079474108 -94.391602045781838 0 0 0 0 1.0453015416151175 -1.108426092983791 0 -1.108426092983791 -33.080115305761865 0 0 0 0 1.2181149596298724 2.5418378026912549 0 2.5418378026912549 -26.486607990765162 0 0 0 0 -14.026821094603292 -7.2903023949775161 0 -7.2903023949775161 -42.193230001556458 0 0 0 0 -17.472678955906304 -25.005322250279278 0 -25.005322250279278 -98.566746085569321 0 0 0 0 1.8770918616748631 -1.367598342272121 0 -1.367598342272121 -6.0118934804142317 0 0 0 0 1.2327665096690907 -3.4204289253584648 0 -3.4204289253584648 -50.17299234586244 0 0 0 0 2.5112176635187282 -7.937496384376086 0 -7.937496384376086 -13.76325540618312 0 0 0 0 4.451071401971241 13.609928775543153 0 13.609928775543153 -31.440283096088404 0 0 0 0 0.069377585953589005 -2.6434019372727562 0 -2.6434019372727562 -33.72816515365048 0 0 0 0 2.3199513510862744 -0.76376140986030805 0 -0.76376140986030805 -38.765040535777644 0 0 0 0 4.3700843681472179 -5.1715915995246178 0 -5.1715915995246178 -50.909381946539725 0 0 0 0 8.0581589040004289 -7.4952796471968242 0 -7.4952796471968242 -17.483010139813885 0 0 0 0 1.4442850322357117 -8.4549154735686898 0 -8.4549154735686898 -54.516605609358521 0 0 0 0 38.764207368727511 -16.917882688857844 0 -16.917882688857844 -26.792498407829953 0 0 0 0 8.7206463357197208 10.431078214533954 0 10.431078214533954 -46.673868449151996 0 0 0 0 105.20218295948416 35.01353320723706 0 35.01353320723706 -41.601431509347094 0 0 0 0 -1.2012403686380821 -14.987274957510635 0 -14.987274957510635 -38.587157770711201 0 0 0 0 2.1873559661260202 -3.0903400879015308 0 -3.0903400879015308 -5.082184096136416 0 0 0 0 -2.6093003882597259 -19.003795573190473 0 -19.003795573190473 -38.401215575359231 0 0 0 0 71.88829079241259 -4.4278904577668072 0 -4.4278904577668072 -21.064831626945306 0 0 0 0 78.445064642212174 23.359030444031532 0 23.359030444031532 -37.109596520647756 0 0 0 0 1.6480865006070502 -0.47376267394562532 0 -0.47376267394562532 -9.5159810835053023 0 0 0 0 81.997427516558673 11.652095223058495 0 11.652095223058495 -78.046349736909178 0 0 0 0 0.35188277671841206 -11.447147103289353 0 -11.447147103289353 -86.764484615432593 0 0 0 0 108.37328003768926 -31.190669205570885 0 -31.190669205570885 -39.55982906434474 0 0 0 0 1.3840246263396736 1.5317408168596103 0 1.5317408168596103 -4.4931074235393069 0 0 0 0 72.874631096910889 -12.925063660768501 0 -12.925063660768501 -108.19889429684918 0 0 0 0 118.76174402998458 -41.018186650995631 0 -41.018186650995631 -102.29760036055814 0 0 0 0 -14.978092536150143 -27.894422457461587 0 -27.894422457461587 -9.166456107990598 0 0 0 0 -69.073195329174268 29.020985402273254 0 29.020985402273254 -60.442463588056853 0 0 0 0 -91.379742676749856 -57.694203521067493 0 -57.694203521067493 -28.466874765344983 0 0 0 0 39.122259646297607 20.453404423245047 0 20.453404423245047 -33.981012752994502 0 0 0 0 1.3981481052610434 -47.282233165924026 0 -47.282233165924026 -78.195144771727428 0 0 0 0 4.5234287209877593 0.35603190601758072 0 0.35603190601758072 -2.1574821958652954 0 0 0 0 -25.53840811927239 -99.672046101258729 0 -99.672046101258729 -147.7605731005724 0 0 0 0 47.214810565142216 -0.10505001130695746 0 -0.10505001130695746 -96.292998241061468 0 0 0 0 35.311903083782454 -9.2945163753543056 0 -9.2945163753543056 -108.79725951484943 0 0 0 0 -33.109960959518162 -92.224272350960916 0 -92.224272350960916 -148.55639303302632 0 0 0 0 -34.193380145225092 -61.35983100964404 0 -61.35983100964404 -196.64588551930319 0 0 0 0 4.1646682972179541 0.48091514204872254 0 0.48091514204872254 -1.8827300196766679 0 0 0 0 -6.7235360611887245 -35.652258593456736 0 -35.652258593456736 -74.256704746627292 0 0 0 0 -15.613950005685183 -14.643808672230534 0 -14.643808672230534 -99.772692213748769 0 0 0 0 33.422875255166844 -25.156482600068252 0 -25.156482600068252 -18.882959425200625 0 0 0 0 1.088547871127048 7.4220279368037154 0 7.4220279368037154 -48.697500358624893 0 0 0 0 -8.6893860664894191 -33.525385045210669 0 -33.525385045210669 -22.227268663054019 0 0 0 0 5.1853094970197162 -11.037888921621743 0 -11.037888921621743 -7.4124661021556904 0 0 0 0 -5.4400907216408996 -20.665390646755895 0 -20.665390646755895 37.951439889826815 0 0 0 0 0.69596030714408386 1.6246553675382276 0 1.6246553675382276 0.45256719847231947 0 0 0 0 -21.596145841612952 -41.346421008466677 0 -41.346421008466677 -53.81457441212342 0 0 0 0 1.4823135055830443 -2.4939442300357682 0 -2.4939442300357682 -5.3806321799457129 0 0 0 0 1.9290011443719006 0.69775040737743144 0 0.69775040737743144 -3.6214334082207236 0 0 0 0 5.051796579413022 -12.81014500865966 0 -12.81014500865966 -6.7102253299494805 0 0 0 0 9.6098924384700695 -12.081640670598063 0 -12.081640670598063 -10.940796549173214 0 0 0 0 1.2758213017090867 -0.43564342793759714 0 -0.43564342793759714 -1.6822340898554806 0 0 0 0 44.028757870929894 18.519947778001097 0 18.519947778001097 -24.520017084952315 0 0 0 0 -36.678481338927554 -101.28274241379813 0 -101.28274241379813 -140.4918717753244 0 0 0 0 -42.683829052979263 -36.395480478948002 0 -36.395480478948002 -54.458329561498886 0 0 0 0 -96.260215181827789 -86.737536317812555 0 -86.737536317812555 -86.100193510374993 0 0 0 0 35.971132861317017 48.548764111973469 0 48.548764111973469 -1.8006937249281236 0 0 0 0 9.5107305719920987 8.5593867473435239 0 8.5593867473435239 -17.116485966609616 0 0 0 0 2.3280026175463862 0.89000260096840655 0 0.89000260096840655 -1.6548753665419795 0 0 0 0 -88.59178930372309 -154.16609989281551 0 -154.16609989281551 -174.23927578432631 0 0 0 0 31.311272605254999 -28.468094452467994 0 -28.468094452467994 -96.303776296648721 0 0 0 0 -1.1466442980163265 -13.122399208196384 0 -13.122399208196384 -52.130416414900537 0 0 0 0 44.530341084184329 25.572138553346207 0 25.572138553346207 -57.184370545135607 0 0 0 0 21.168377247850685 27.071920481727375 0 27.071920481727375 -28.601924782445167 0 0 0 0 20.288305301170794 18.505665805018452 0 18.505665805018452 -35.859645351958534 0 0 0 0 9.8015093845110464 -1.5138622246033933 0 -1.5138622246033933 -9.0665048968215487 0 0 0 0 12.98839655239809 -17.575352325681422 0 -17.575352325681422 -48.410006147699278 0 0 0 0 31.947927425111857 -18.418300939679511 0 -18.418300939679511 -81.071360083751642 0 0 0 0 89.902605344450535 16.482459838550312 0 16.482459838550312 -64.128924989624352 0 0 0 0 40.928213233885458 -38.470345175871898 0 -38.470345175871898 -40.111664011819812 0 0 0 0 -26.495494799504058 -21.004472013224586 0 -21.004472013224586 -56.00620906094673 0 0 0 0 12.015106769151743 -6.8784007592755643 0 -6.8784007592755643 -32.085922694130204 0 0 0 0 2.3883223332512031 -8.8928207850718906 0 -8.8928207850718906 -41.249082217826725 0 0 0 0 24.892038656200498 -9.4405264350698417 0 -9.4405264350698417 -75.154521055722398 0 0 0 0 -2.0077266065871719 -8.0116102503625157 0 -8.0116102503625157 -36.540571682432969 0 0 0 0 21.988767458667553 -19.33182916365422 0 -19.33182916365422 -106.30621900938672 0 0 0 0 4.8392173913914602 -2.3935583964018043 0 -2.3935583964018043 -46.285032583021078 0 0 0 0 2.6959818829091091 3.0306191982035671 0 3.0306191982035671 -49.08123499489011 0 0 0 0 2.4484904075400777 3.1094786046814988 0 3.1094786046814988 -48.614654227141727 0 0 0 0 1.2671275667665229 7.3912296806529056 0 7.3912296806529056 -47.808499589798558 0 0 0 0 2.3613261175658522 3.1925539189746814 0 3.1925539189746814 -48.642892708263389 0 0 0 0 1.8107328065728439 1.780963197917572 0 1.780963197917572 -24.708273712401933 0 0 0 0 23.279097304443894 -7.6915551527927164 0 -7.6915551527927164 -43.598065979414969 0 0 0 0 -5.877438856194658 34.888958106079372 0 34.888958106079372 92.5155496805246 0 0 0 0 0.85834465892098155 11.106968056244721 0 11.106968056244721 -51.66292354411069 0 0 0 0 2.027667449762423 5.6293082444636546 0 5.6293082444636546 -5.0467398491087749 0 0 0 0 3.3545253326616598 6.3053321640467459 0 6.3053321640467459 -14.69908771971923 0 0 0 0 -0.41731123419718241 4.7249046580718819 0 4.7249046580718819 -33.010031222944569 0 0 0 0 2.9661472621365306 2.6482253144031347 0 2.6482253144031347 -48.55229228612734 0 0 0 0 17.555060224372028 11.266410733340308 0 11.266410733340308 -24.017467829169618 0 0 0 0 19.46354610539629 20.378441638466029 0 20.378441638466029 -27.981676102199344 0 0 0 0 18.050834530121847 -19.177318108675536 0 -19.177318108675536 -50.68356324180786 0 0 0 0 15.678970278160932 -0.61604456610666603 0 -0.61604456610666603 -73.436445587714843 0 0 0 0 -14.271223643806024 34.193744536445593 0 34.193744536445593 -28.664622232616239 0 0 0 0 -2.870627310871896 10.461527999434111 0 10.461527999434111 4.0195090105517011 0 0 0 0 16.061102841114916 7.062321669091034 0 7.062321669091034 -6.9135145284726605 0 0 0 0 8.8735725549191109 -1.590748469497381 0 -1.590748469497381 -9.6990139616326942 0 0 0 0 -5.9316627803239044 -22.10489358846371 0 -22.10489358846371 -35.590314366694656 0 0 0 0 19.049379154375856 4.8520000660355436 0 4.8520000660355436 -7.2174001908206264 0 0 0 0 16.511641407354432 26.342695543976788 0 26.342695543976788 17.127605972724268 0 0 0 0 -0.89572216410802064 -1.8774738254135528 0 -1.8774738254135528 -2.5098803653867314 0 0 0 0 -5.4848888478747533 -22.06133227459668 0 -22.06133227459668 -43.179188447669731 0 0 0 0 1.0650189335498603 -2.2624406887470094 0 -2.2624406887470094 -13.1424762846469 0 0 0 0 0.44494616229667372 -17.83503775815916 0 -17.83503775815916 -46.580710232547062 0 0 0 0 -1.3406558855242565 -14.280420724067881 0 -14.280420724067881 -53.651524663957389 0 0 0 0 -3.3313930574861388 -20.429035411832047 0 -20.429035411832047 -48.278915483708261 0 0 0 0 -2.3951739438048207 -24.907805921320687 0 -24.907805921320687 -45.063059458772841 0 0 0 0 9.3144319052594255 -23.786832727204455 0 -23.786832727204455 -58.453552280533586 0 0 0 0 3.3453140564856767 -32.110708537679784 0 -32.110708537679784 -41.969370267404884 0 0 0 0 -7.2057736928081795 -28.745489295390144 0 -28.745489295390144 -39.545992972150998 0 0 0 0 -5.6363747379028553 -27.517553190276885 0 -27.517553190276885 -43.71734035263944 0 0 0 0 5.0174998463739939 -33.992012707705726 0 -33.992012707705726 -47.022170261203428 0 0 0 0 5.0013646129781542 -30.215490413438637 0 -30.215490413438637 -18.961194088340562 0 0 0 0 -7.2010762218989157 -27.266567169257087 0 -27.266567169257087 -34.005981409209198 0 0 0 0 -6.330369761576776 -28.687741565081524 0 -28.687741565081524 -40.499917248194834 0 0 0 0 -3.9892144184133258 -26.896413025009679 0 -26.896413025009679 -39.15764989294621 0 0 0 0 -7.468453034776303 -25.415641046889505 0 -25.415641046889505 -42.135480882310731 0 0 0 0 -0.47943789168607509 -27.367322524485644 0 -27.367322524485644 -59.052259332405811 0 0 0 0 0.38657616527871141 -33.907267107503685 0 -33.907267107503685 -43.278257396261324 0 0 0 0 1.8026862000358141 -13.396778438397723 0 -13.396778438397723 -9.8777817350369901 0 0 0 0 1.1054842964504132 -33.412836089390112 0 -33.412836089390112 -57.841206406151741 0 0 0 0 9.3363912398205375 -24.416483228860983 0 -24.416483228860983 -43.808467547604131 0 0 0 0 -24.17307883047215 -72.75807795318542 0 -72.75807795318542 38.935435825675086 0 0 0 0 72.135832285508059 6.3957863302493934 0 6.3957863302493934 -93.054147152957739 0 0 0 0 49.573565305951547 10.054622887939331 0 10.054622887939331 -54.830179358192254 0 0 0 0 45.639708220638568 -32.804868490078661 0 -32.804868490078661 -139.43655228654825 0 0 0 0 -23.493593803173781 -20.11366856648965 0 -20.11366856648965 -46.189787308379891 0 0 0 0 14.663693946054536 -29.696986978717177 0 -29.696986978717177 -106.00104307490983 0 0 0 0 -22.184675487084633 -41.685528652884386 0 -41.685528652884386 -44.709176568285329 0 0 0 0 -43.260350671643096 19.641240390201801 0 19.641240390201801 -92.061401453160215 0 0 0 0 5.0357987784382576 -18.391859376132704 0 -18.391859376132704 -3.2410626709997388 0 0 0 0 59.210805246402742 -30.475066274269921 0 -30.475066274269921 -77.914508187604952 0 0 0 0 57.401921290355403 39.846726805364597 0 39.846726805364597 25.800348303018836 0 0 0 0 6.9931461335264657 -10.377482808668901 0 -10.377482808668901 -39.416301388755528 0 0 0 0 3.5112721404896092 -11.669269931890085 0 -11.669269931890085 -39.754283771779228 0 0 0 0 -2.6376480842928913 -10.341118542864024 0 -10.341118542864024 -35.498530294542434 0 0 0 0 2.0597197178504367 -4.1861576675287013 0 -4.1861576675287013 -39.544803029643901 0 0 0 0 1.6959985976605907 -6.4330202585615552 0 -6.4330202585615552 -33.257026218878309 0 0 0 0 10.903167489169675 -24.198078153830352 0 -24.198078153830352 -66.494430350190441 0 0 0 0 -2.1678717503304754 -13.839278621729081 0 -13.839278621729081 -31.265073905731157 0 0 0 0 -8.0105723668183941 -19.748161931222 0 -19.748161931222 -19.48581959101557 0 0 0 0 48.057736935208197 -2.2897391408732801 0 -2.2897391408732801 -57.758881620720331 0 0 0 0 21.902263270071444 -52.365359803794718 0 -52.365359803794718 -128.76577478575655 0 0 0 0 -9.5568332406202217 -2.4016475480136705 0 -2.4016475480136705 -14.547701729694836 0 0 0 0 -16.597002993185015 21.852882524387724 0 21.852882524387724 -43.213799564277451 0 0 0 0 19.596362245032335 -18.823031890680568 0 -18.823031890680568 -32.596304619361035 0 0 0 0 -0.30339152328358032 -13.337554800106179 0 -13.337554800106179 -37.580826886532662 0 0 0 0 0.2032237153766665 -7.5324811168301213 0 -7.5324811168301213 -40.595031166674076 0 0 0 0 22.39300955914814 -35.818294788628918 0 -35.818294788628918 -48.03616368517396 0 0 0 0 33.574693696890108 -92.167121432408749 0 -92.167121432408749 -48.785193745217839 0 0 0 0 8.4698959336812116 -26.23897644470027 0 -26.23897644470027 -41.207499444850527 0 0 0 0 11.431583692375398 -105.86337425737293 0 -105.86337425737293 -10.815427784953499 0 0 0 0 -3.4267101128705235 -17.961285906381818 0 -17.961285906381818 -52.137837957187912 0 0 0 0 -48.714925209622152 -55.140045411768369 0 -55.140045411768369 -65.049584216998483 0 0 0 0 -64.575804069214882 -80.257541127444711 0 -80.257541127444711 -82.158132852913695 0 0 0 0 -13.170321041252464 -65.643513048358727 0 -65.643513048358727 -101.72587579987885 0 0 0 0 45.130383508693967 -102.74801447473874 0 -102.74801447473874 -148.62602764146868 0 0 0 0 25.031113510606247 -94.504132689355174 0 -94.504132689355174 -88.392106728468207 0 0 0 0 14.500351226101884 -0.81005691106111044 0 -0.81005691106111044 -38.280772868662098 0 0 0 0 2.2046274100575829 -34.062823551965266 0 -34.062823551965266 -12.231914359290954 0 0 0 0 -40.132799994085417 -17.388565425908382 0 -17.388565425908382 -57.504448548039363 0 0 0 0 36.420726911469046 -164.00678363430779 0 -164.00678363430779 71.765738505018817 0 0 0 0 2.6856329653727791 -2.6456805876695242 0 -2.6456805876695242 -12.257448660146828 0 0 0 0 3.3417502702606425 -4.1731635314944153 0 -4.1731635314944153 -18.424800014380281 0 0 0 0 255.53213636785449 3.2277980784811007 0 3.2277980784811007 -66.491601015804918 0 0 0 0 -0.13681104702664015 -58.085009811340569 0 -58.085009811340569 69.526948862859172 0 0 0 0 54.319409501247264 -56.163590205323999 0 -56.163590205323999 -8.7400010472119902 0 0 0 0 124.43358053198062 -69.579164781491272 0 -69.579164781491272 -28.591042646236019 0 0 0 0 12.411585636900432 -15.285335940144108 0 -15.285335940144108 -15.186948699628914 0 0 0 0 80.653314108671566 -59.373450085011427 0 -59.373450085011427 -82.016850648273248 0 0 0 0 22.785192558897165 -84.66158400002314 0 -84.66158400002314 -29.484306872356683 0 0 0 0 68.822998258312055 -141.15066853257304 0 -141.15066853257304 -4.2281256330898032 0 0 0 0 74.720638261702334 -55.850781174434815 0 -55.850781174434815 -75.450170486612478 0 0 0 0 66.139996958631855 -61.145087870798307 0 -61.145087870798307 -76.457590906888072 0 0 0 0 76.023176678428172 -64.699254678816942 0 -64.699254678816942 -88.128555184302968 0 0 0 0 61.817674188147322 -52.244004741328808 0 -52.244004741328808 -57.608416363160359 0 0 0 0 61.777539247237655 -71.548587020291961 0 -71.548587020291961 -14.072920951844026 0 0 0 0 10.700040961772711 -31.654782135480694 0 -31.654782135480694 -39.824572240071355 0 0 0 0 43.910327240388597 -96.321808576260082 0 -96.321808576260082 -37.074300381202193 0 0 0 0 -40.433614045721697 -79.797876404616545 0 -79.797876404616545 11.419531822855788 0 0 0 0 235.95720385093477 -153.16082836820283 0 -153.16082836820283 -111.97362984468054 0 0 0 0 -296.59349179840228 -37.335508863634914 0 -37.335508863634914 85.928569244882965 0 0 0 0 -0.84506026870272555 -2.3063973515489096 0 -2.3063973515489096 -5.3692230791754412 0 0 0 0 -30.274232695339379 39.685588275451664 0 39.685588275451664 -100.12484351403509 0 0 0 0 -24.421486400186723 13.026627728741914 0 13.026627728741914 -0.97220922372798668 0 0 0 0 7.8876298329682868 -10.811254415386429 0 -10.811254415386429 16.004653943948142 0 0 0 0 -23.592112911279742 -45.933182357620353 0 -45.933182357620353 19.698091678856144 0 0 0 0 -29.898598696834995 -5.4941139602062776 0 -5.4941139602062776 -55.212757902248995 0 0 0 0 38.921041855100157 -48.211300575836503 0 -48.211300575836503 -46.293444958083455 0 0 0 0 3.6130765162858696 -2.208310967537777 0 -2.208310967537777 -15.662898966137178 0 0 0 0 20.407036017549672 -60.368326543557487 0 -60.368326543557487 -9.0124798295510118 0 0 0 0 19.266808251838729 -25.290442657931493 0 -25.290442657931493 -44.149356031160565 0 0 0 0 39.549620051356101 -76.967489916685736 0 -76.967489916685736 26.370742237533705 0 0 0 0 -1.2893827233600739 -29.731389673838812 0 -29.731389673838812 -12.806671010653631 0 0 0 0 48.057287459962026 -48.919242869062145 0 -48.919242869062145 -21.347770701533591 0 0 0 0 85.535849262997544 -84.882911137299743 0 -84.882911137299743 -38.098530835297424 0 0 0 0 -14.766895073550586 -37.428254634123732 0 -37.428254634123732 -30.412276979848684 0 0 0 0 4.0758457692686534 -58.085306577020674 0 -58.085306577020674 -16.708595073981996 0 0 0 0 24.866917537510517 -43.403108622740547 0 -43.403108622740547 -6.7063712876406498 0 0 0 0 25.117141023504018 -41.593663361938525 0 -41.593663361938525 -11.234842803482024 0 0 0 0 79.964906798702941 -26.17732742834778 0 -26.17732742834778 -23.904997090954566 0 0 0 0 52.511672706661102 -9.9600114232598571 0 -9.9600114232598571 -28.604728135451296 0 0 0 0 98.526024382285868 -20.693735049688257 0 -20.693735049688257 -106.7758294618834 0 0 0 0 85.169070172618376 -37.585080437413126 0 -37.585080437413126 -115.24427201104118 0 0 0 0 37.136185928232635 -7.4283281599055044 0 -7.4283281599055044 11.788395447962102 0 0 0 0 70.848024530079101 15.500004934336175 0 15.500004934336175 6.4949785086500924 0 0 0 0 47.791829889669998 -14.172183082017 0 -14.172183082017 -2.3139589767815778 0 0 0 0 -13.096103055919343 -20.193915930414732 0 -20.193915930414732 7.1257879504992161 0 0 0 0 41.018351714814798 -17.101759811470401 0 -17.101759811470401 -3.5795347974417382 0 0 0 0 29.944083778367258 0.81035755267294007 0 0.81035755267294007 -14.327172871155199 0 0 0 0 38.790160383232887 -10.076909905044886 0 -10.076909905044886 -1.0678676876596001 0 0 0 0 80.217324861519046 12.018882021584432 0 12.018882021584432 0.52035621037975943 0 0 0 0 1.4336632725522169 -0.65676804827459279 0 -0.65676804827459279 -3.3281947109921362 0 0 0 0 74.393128502537138 22.530336294868903 0 22.530336294868903 10.179963160990155 0 0 0 0 115.23107869801993 78.148898360712337 0 78.148898360712337 5.8366830698068952 0 0 0 0 59.572786476749855 37.750174965527549 0 37.750174965527549 8.4046445101412246 0 0 0 0 119.49328482998044 41.962279993167613 0 41.962279993167613 -0.78002987036597915 0 0 0 0 58.364501357342306 30.823808501962048 0 30.823808501962048 0.42756286776420893 0 0 0 0 58.993246100318402 86.94063070093398 0 86.94063070093398 43.57874541223282 0 0 0 0 -89.808154590778031 -116.05785530182766 0 -116.05785530182766 -167.7562834956916 0 0 0 0 -50.025702758265652 -113.37387707857124 0 -113.37387707857124 -184.4783327866171 0 0 0 0 -162.24965056314795 -130.95308046726859 0 -130.95308046726859 -159.82945009542163 0 0 0 0 123.44913841226276 35.737623289081967 0 35.737623289081967 6.117199169966625 0 0 0 0 134.54316771530466 18.548551355052041 0 18.548551355052041 2.753289591302746 0 0 0 0 134.13445534583207 46.237448959058383 0 46.237448959058383 23.738747868977953 0 0 0 0 86.663267799310688 0.51342419518914539 0 0.51342419518914539 5.4920723631512374 0 0 0 0 117.0582010991161 25.161385508603416 0 25.161385508603416 46.456439117289847 0 0 0 0 114.50829873355883 45.457873084531457 0 45.457873084531457 82.070339165860787 0 0 0 0 175.44083795448569 141.67002774580033 0 141.67002774580033 93.655261685911682 0 0 0 0 -106.84115490822205 -201.54209074456594 0 -201.54209074456594 -388.27080730907619 0 0 0 0 -0.21733466906028898 -0.1060314348796112 0 -0.1060314348796112 -0.14345259055738779 0 0 0 0 -0.74427533855010464 -0.51779359307586503 0 -0.51779359307586503 -0.17105789207312228 0 0 0 0 -72.579580889193494 -228.57890053800656 0 -228.57890053800656 -369.53951405614498 0 0 0 0 -159.80109934776624 -150.34330111737654 0 -150.34330111737654 -241.30779757414712 0 0 0 0 170.65308585754747 62.30854625365464 0 62.30854625365464 -63.623720626434078 0 0 0 0 92.56100066605859 -24.249421779430122 0 -24.249421779430122 -152.1429825455125 0 0 0 0 -63.138385628904871 -110.87117360610864 0 -110.87117360610864 -142.60591853637015 0 0 0 0 -74.637188144129141 -63.258875408559106 0 -63.258875408559106 -182.17935246130219 0 0 0 0 31.787137184201129 -136.82334256869217 0 -136.82334256869217 -327.33325771680393 0 0 0 0 -74.837499186164223 -42.567197977026808 0 -42.567197977026808 -145.45071549908607 0 0 0 0 -35.340258752258592 -55.949156918257358 0 -55.949156918257358 -154.28498725785175 0 0 0 0 -67.92212227463142 -91.321260527343838 0 -91.321260527343838 -199.69430457036651 0 0 0 0 -72.211954534604956 -49.763991483443533 0 -49.763991483443533 -147.5764146202564 0 0 0 0 -45.661931614638831 -95.978620599078567 0 -95.978620599078567 -202.59999777650228 0 0 0 0 -75.083839392742902 -109.36883219267474 0 -109.36883219267474 -175.88398732688802 0 0 0 0 -74.368636112073546 -131.02016394838574 0 -131.02016394838574 -256.78591738443356 0 0 0 0 -307.15230085423445 -280.25235168666404 0 -280.25235168666404 -303.74866559176007 0 0 0 0 -125.98409642045374 -64.342991844911012 0 -64.342991844911012 -200.19880112825194 0 0 0 0 -106.97884994822971 -91.371506319497712 0 -91.371506319497712 -313.39411073480733 0 0 0 0 -50.346033001871319 -7.1320344152190955 0 -7.1320344152190955 -49.466396154297399 0 0 0 0 54.755662960331222 -26.374772301202029 0 -26.374772301202029 40.105082001668052 0 0 0 0 59.414503527429588 -5.0842555420058488 0 -5.0842555420058488 -85.490389682076056 0 0 0 0 -6.4495811864210282 19.34149713874649 0 19.34149713874649 30.99465074687032 0 0 0 0 -9.2914054505959598 -94.777775932250734 0 -94.777775932250734 -163.6669775903938 0 0 0 0 11.192123915915317 -37.072933988551085 0 -37.072933988551085 -30.316719555938107 0 0 0 0 -46.234883300212687 -1.9187108950063703 0 -1.9187108950063703 -51.386925657450774 0 0 0 0 12.830895868886273 -8.5634584639592504 0 -8.5634584639592504 -305.45172257563172 0 0 0 0 -5.3709216197412388 -86.49329755988947 0 -86.49329755988947 -172.78177140783373 0 0 0 0 -71.221344178849449 -21.514376631806954 0 -21.514376631806954 -116.66793561339 0 0 0 0 -9.7057935960579016 -73.373901207181916 0 -73.373901207181916 -92.918812092044391 0 0 0 0 5.7779239671637015 -82.361882339909243 0 -82.361882339909243 -39.451436321862275 0 0 0 0 32.757710433120792 -22.266825510992931 0 -22.266825510992931 -96.276598116877722 0 0 0 0 35.930749098254012 -43.995209095626251 0 -43.995209095626251 -0.16471073584398255 0 0 0 0 107.05616059386648 -33.349102140928153 0 -33.349102140928153 -247.79330868105171 0 0 0 0 113.82798664137761 -0.043956678693120921 0 -0.043956678693120921 -236.34788992757967 0 0 0 0 146.50808681591388 -32.113824273685168 0 -32.113824273685168 -205.315600653601 0 0 0 0 38.43882323345224 -90.340573665518605 0 -90.340573665518605 -218.41914086104953 0 0 0 0 63.825527212081852 -20.028504929203336 0 -20.028504929203336 -48.68120321938477 0 0 0 0 5.6337186074597412 81.774915053589211 0 81.774915053589211 -78.747113159333821 0 0 0 0 78.969146616378566 71.89890418783034 0 71.89890418783034 -88.942354785951466 0 0 0 0 44.25744752951141 39.281016274420836 0 39.281016274420836 -37.146121663462509 0 0 0 0 49.487310883034297 35.112431985387957 0 35.112431985387957 -64.263395971327554 0 0 0 0 95.758060905332513 5.3569912492421281 0 5.3569912492421281 -79.008037323768804 0 0 0 0 129.17116859292378 57.043012442587496 0 57.043012442587496 -127.11997802102997 0 0 0 0 112.58854088341377 9.6140612812923791 0 9.6140612812923791 -221.0436275493812 0 0 0 0 -158.3530230196634 -293.14634365826714 0 -293.14634365826714 -349.03849908357233 0 0 0 0 137.12611534943156 118.62841798693489 0 118.62841798693489 26.390371237881482 0 0 0 0 -0.40215131084768085 0.66770645786765215 0 0.66770645786765215 -1.5194084630270481 0 0 0 0 83.991550391324836 -6.96312789167132 0 -6.96312789167132 -60.222128505887667 0 0 0 0 -0.55439484813216122 2.2964641469915676 0 2.2964641469915676 -4.7747891555286515 0 0 0 0 92.554485837936227 26.091353175659606 0 26.091353175659606 -40.370172511982673 0 0 0 0 2.4720765602008896 -148.43054369813763 0 -148.43054369813763 -226.52219933525885 0 0 0 0 -25.007776582551401 -97.315429852798843 0 -97.315429852798843 -219.31964249502198 0 0 0 0 14.008045084403875 -0.61071142480341223 0 -0.61071142480341223 -59.439028195697119 0 0 0 0 30.442741869403562 11.53219342740158 0 11.53219342740158 -71.330627694558643 0 0 0 0 -4.6727442388680629 -30.567224864567834 0 -30.567224864567834 -87.372307374416778 0 0 0 0 -28.604505946412246 32.33135316233529 0 32.33135316233529 -75.375941155577493 0 0 0 0 8.9118644393397624 -11.176063871416801 0 -11.176063871416801 -16.643620013853784 0 0 0 0 2.3677387426980658 15.92083859117156 0 15.92083859117156 -65.454817102054221 0 0 0 0 6.3516843560744043 -21.843292248987382 0 -21.843292248987382 -67.868722859071568 0 0 0 0 -5.9837625658535671 10.803474886156437 0 10.803474886156437 -69.09267759719387 0 0 0 0 4.5283798737358278 2.196905734407741 0 2.196905734407741 -38.286984133847682 0 0 0 0 -19.050092684477931 -31.88730539396056 0 -31.88730539396056 -17.429984887443425 0 0 0 0 -1.3800002864108962 -16.290000028415548 0 -16.290000028415548 -12.980596697819609 0 0 0 0 -4.7260457254579311 -3.7809429362934601 0 -3.7809429362934601 5.2571239613216889 0 0 0 0 -1.6816237136906971 0.93971352252569318 0 0.93971352252569318 -13.855539878328123 0 0 0 0 5.5471712372266211 5.6675971732584003 0 5.6675971732584003 -67.223137331585008 0 0 0 0 3.769754159327741 -5.5758101267242886 0 -5.5758101267242886 -24.496126669880802 0 0 0 0 11.228930530827924 -18.773193444911779 0 -18.773193444911779 -47.189338704863651 0 0 0 0 6.3709712565441805 -19.500025237448426 0 -19.500025237448426 -33.736627682308608 0 0 0 0 65.823197735508074 33.255056422232883 0 33.255056422232883 -28.062935871072114 0 0 0 0 -0.043693138743704729 -3.1754112145092961 0 -3.1754112145092961 -10.479820313964968 0 0 0 0 4.2426898681581546 -6.0237933685888336 0 -6.0237933685888336 -41.752443513658932 0 0 0 0 10.992529328131866 -0.32395354616745209 0 -0.32395354616745209 -34.883441020970707 0 0 0 0 -17.727623608931879 -17.550055422957485 0 -17.550055422957485 -47.050737583136652 0 0 0 0 193.64197880474376 -15.261249006201979 0 -15.261249006201979 -216.72575664611941 0 0 0 0 44.197642276789793 121.78187607107066 0 121.78187607107066 -267.73409234757128 0 0 0 0 64.127164696278214 68.209461779904814 0 68.209461779904814 -125.92427666538788 0 0 0 0 -95.187049487746663 135.3095987356246 0 135.3095987356246 578.92618546954327 0 0 0 0 -0.3542509578258124 0.41275802945470375 0 0.41275802945470375 -5.7676183085345656 0 0 0 0 59.790084006401685 -28.658577107813471 0 -28.658577107813471 -95.004481343956286 0 0 0 0 2.5325518874272417 -7.2690160469304672 0 -7.2690160469304672 -50.308553175667129 0 0 0 0 0.037417627035163159 -0.32638007348286457 0 -0.32638007348286457 -27.669299199328208 0 0 0 0 -100.64380254496382 -34.51536438171388 0 -34.51536438171388 83.010025441824837 0 0 0 0 220.08406513391947 -34.241488143297829 0 -34.241488143297829 -1090.0269985366031 0 0 0 0 2.0229861170964796 -167.8937885865671 0 -167.8937885865671 209.40719766388861 0 0 0 0 178.14824301332692 7.7129758250794112 0 7.7129758250794112 -455.63140513349208 0 0 0 0 111.38794895000683 -382.09076301120513 0 -382.09076301120513 -262.06658900866751 0 0 0 0 -7.9162663689367037 132.72156422691478 0 132.72156422691478 220.92387766799629 0 0 0 0 119.67338204240241 199.6528673533503 0 199.6528673533503 -125.59495143953245 0 0 0 0 0.086068722559011324 -0.8749807680987125 0 -0.8749807680987125 -10.11371120496969 0 0 0 0 169.6251083965667 -5.8329224199824239 0 -5.8329224199824239 -238.22456427517318 0 0 0 0 -362.78325270676896 -276.59016073936618 0 -276.59016073936618 225.6405494362989 0 0 0 0 1.8202642159804614 -2.786021367516657 0 -2.786021367516657 -52.86165792177809 0 0 0 0 -7.6233477718333233 -14.398703024486167 0 -14.398703024486167 -43.755437027695734 0 0 0 0 1.4573074819182921 -9.1916007904146682 0 -9.1916007904146682 -56.303340261987614 0 0 0 0 -0.18002201080684088 -2.336704547269953 0 -2.336704547269953 -16.16464108421 0 0 0 0 6.9445720533884572 3.523176464863667 0 3.523176464863667 -23.030877188231699 0 0 0 0 21.10388787599058 -20.185413551063448 0 -20.185413551063448 -60.465622816165705 0 0 0 0 1.4580702968369224 -23.184469682953932 0 -23.184469682953932 -84.194339674586445 0 0 0 0 1.6504573450222324 -6.7388674901922059 0 -6.7388674901922059 -39.479845834735897 0 0 0 0 -16.211810044028653 -10.446755029872293 0 -10.446755029872293 -75.549727685017388 0 0 0 0 -10.209065812666154 -25.304696646548109 0 -25.304696646548109 -56.105855773079384 0 0 0 0 -23.523198131389677 -16.703542682865191 0 -16.703542682865191 -53.832350157226756 0 0 0 0 6.2158971181591447 8.6122755385124776 0 8.6122755385124776 -20.001738830125738 0 0 0 0 -16.989339402009591 -27.890832875442356 0 -27.890832875442356 -45.377034021108557 0 0 0 0 4.2797413740049706 -25.817059898860862 0 -25.817059898860862 -79.601426575374717 0 0 0 0 -9.5496598008200309 -5.2682151277022804 0 -5.2682151277022804 -7.0572083193276107 0 0 0 0 6.6672222405006387 6.6458923812577382 0 6.6458923812577382 -27.879010121817934 0 0 0 0 -23.10011289931515 120.96684467559226 0 120.96684467559226 101.13531186339969 0 0 0 0 154.18685373115468 -215.23852840761754 0 -215.23852840761754 -91.87212724273013 0 0 0 0 -0.71109211780737791 1.3168790276226652 0 1.3168790276226652 -1.1233327262253354 0 0 0 0 287.93590675533324 248.1289850146959 0 248.1289850146959 -727.91137856410023 0 0 0 0 -200.28166971252111 312.34264239142794 0 312.34264239142794 -204.79163154702837 0 0 0 0 -701.22343035669724 308.44474597569206 0 308.44474597569206 -404.76744060091187 0 0 0 0 0.034918930470835274 -0.093056200478672579 0 -0.093056200478672579 -4.3267045162099294 0 0 0 0 -140.47777883490562 588.20826978415562 0 588.20826978415562 -152.47943981011849 0 0 0 0 -16.251432119624042 -58.751990904219383 0 -58.751990904219383 -168.69684052421508 0 0 0 0 -448.68018604626423 -482.39491141827602 0 -482.39491141827602 -304.79277413890304 0 0 0 0 36.563656430451374 -14.802150963090753 0 -14.802150963090753 -83.041705362762514 0 0 0 0 -0.70848805495604594 13.78814129152509 0 13.78814129152509 -38.779557338949189 0 0 0 0 -60.095000080564205 16.923499443893888 0 16.923499443893888 -14.075856006289541 0 0 0 0 -2.1191613533328564 -7.8149700816757104 0 -7.8149700816757104 -38.539596751576028 0 0 0 0 -11.986873494930478 -18.92643053586653 0 -18.92643053586653 -65.124493771509151 0 0 0 0 2.4712258981281781 -5.5763967040231925 0 -5.5763967040231925 -41.694761321603792 0 0 0 0 695.05938506225675 83.743048939712025 0 83.743048939712025 -785.80618492836948 0 0 0 0 -262.84964329795184 413.88679212456191 0 413.88679212456191 338.4462473935564 0 0 0 0 5.7823656667040204 1.170369128243145 0 1.170369128243145 -32.651421257776953 0 0 0 0 124.79761803923975 96.829089599536928 0 96.829089599536928 -208.64452636265196 0 0 0 0 108.47824439756278 -2.5775229049177142 0 -2.5775229049177142 -566.73823801739491 0 0 0 0 -310.70085700798018 -378.74362168575499 0 -378.74362168575499 -342.5723286040884 0 0 0 0 -57.020535431805911 -92.368340732755314 0 -92.368340732755314 -27.59897051032749 0 0 0 0 -529.48232135396938 -44.010666674879758 0 -44.010666674879758 177.76940188385197 0 0 0 0 104.98246144851964 -38.077914645626151 0 -38.077914645626151 -374.66376625852718 0 0 0 0 -65.889796004824348 -131.99655350214744 0 -131.99655350214744 -124.61934292706428 0 0 0 0 21.022275065448412 109.44931903167162 0 109.44931903167162 82.462429645958764 0 0 0 0 32.05932953061324 -12.00360360097693 0 -12.00360360097693 -17.676960540513392 0 0 0 0 -86.865895345399622 -13.281661547756812 0 -13.281661547756812 34.933909545768984 0 0 0 0 -22.916442882324191 70.858433954796055 0 70.858433954796055 128.8902012975559 0 0 0 0 -259.11769382071907 -92.584903597715311 0 -92.584903597715311 86.753007079809322 0 0 0 0 -166.08179630624909 192.67212397573712 0 192.67212397573712 292.48660918610403 0 0 0 0 -34.800706429891761 89.881818019101047 0 89.881818019101047 98.444544041703921 0 0 0 0 -22.667506417092227 81.332137654870166 0 81.332137654870166 92.492412514140597 0 0 0 0 89.153493898127635 103.59824474621564 0 103.59824474621564 93.92670789132535 0 0 0 0 49.154298591023689 70.041115053456451 0 70.041115053456451 52.56911477574431 0 0 0 0 367.73607571658067 -107.03624895128087 0 -107.03624895128087 -50.387625420172299 0 0 0 0 -39.997675144241839 -55.862207550300809 0 -55.862207550300809 -43.882796252429216 0 0 0 0 3.5970677582728485 19.02318433416044 0 19.02318433416044 -53.584445882448023 0 0 0 0 2.8121422243872001 -6.3275204702645809 0 -6.3275204702645809 -15.184670214253188 0 0 0 0 321.16712848283532 675.56730781144142 0 675.56730781144142 254.18720592759564 0 0 0 0 247.77925019283975 201.08283215014671 0 201.08283215014671 106.19393893881352 0 0 0 0 14.264805936812991 -117.06192634642548 0 -117.06192634642548 -153.15784648206318 0 0 0 0 1.2048581935652081 34.56879575431978 0 34.56879575431978 -65.952755952687028 0 0 0 0 206.85612832001789 259.3098537439655 0 259.3098537439655 -279.30091791198356 0 0 0 0 -51.436894858641608 -72.617968310012657 0 -72.617968310012657 -117.59255847526083 0 0 0 0 76.172498796430318 -108.80991718752773 0 -108.80991718752773 -151.71276167820179 0 0 0 0 77.573687707840691 120.74119916816562 0 120.74119916816562 57.170363483797701 0 0 0 0 8.594277735691854 26.746565430189243 0 26.746565430189243 -65.10812465410217 0 0 0 0 85.511483971368534 19.319565959431628 0 19.319565959431628 -111.27932464383775 0 0 0 0 -2.1411481555223872 -19.372202229469622 0 -19.372202229469622 -111.49380012988695 0 0 0 0 19.836435349757267 -6.2720762817334617 0 -6.2720762817334617 -104.67824299843414 0 0 0 0 -35.814646766612896 -18.793462005252877 0 -18.793462005252877 -86.783633793713307 0 0 0 0 -40.123969193544326 -104.75748550289063 0 -104.75748550289063 -126.8830239488716 0 0 0 0 -9.4678210752080219 2.7662953427040478 0 2.7662953427040478 -0.60618127631720853 0 0 0 0 1.6472848339001716 -2.6360375977913293 0 -2.6360375977913293 -22.520919617081617 0 0 0 0 56.67408508922972 -6.3353679359570378 0 -6.3353679359570378 -42.675214437671457 0 0 0 0 -20.585818755685523 -19.318841594173136 0 -19.318841594173136 -29.9749301282136 0 0 0 0 -19.927497142773859 -22.922153712181171 0 -22.922153712181171 -18.877064027488814 0 0 0 0 39.769645132934812 -16.894244007360612 0 -16.894244007360612 -97.960169946665701 0 0 0 0 -59.309095929515848 -60.314091956543962 0 -60.314091956543962 -31.843257456408537 0 0 0 0 24.229142894247502 -1.2682044411676543 0 -1.2682044411676543 -13.229210464243806 0 0 0 0 39.871900665213047 11.943245200538513 0 11.943245200538513 -59.625001862266799 0 0 0 0 27.405743065465344 24.250236087268604 0 24.250236087268604 -68.719922124320874 0 0 0 0 81.234680741264583 36.759190387077979 0 36.759190387077979 -61.404360445112616 0 0 0 0 -1.2119995244953421 -1.2438650378101723 0 -1.2438650378101723 -13.110526367336931 0 0 0 0 -193.90278299011266 -203.20446758259277 0 -203.20446758259277 -160.82152344200222 0 0 0 0 45.482051928894805 -70.020294564126743 0 -70.020294564126743 -126.59290568566939 0 0 0 0 -13.756391980035346 -2.2203874285914935 0 -2.2203874285914935 -101.85990663876782 0 0 0 0 29.416015116359858 -4.2500997738261503 0 -4.2500997738261503 -37.519952678158006 0 0 0 0 78.476417994749113 -40.03842966612865 0 -40.03842966612865 -108.14082411187701 0 0 0 0 106.39900462076116 -6.2253407628159039 0 -6.2253407628159039 -70.862601708115108 0 0 0 0 116.95820908734618 -31.610298895870073 0 -31.610298895870073 -115.05379435954637 0 0 0 0 114.83251243235031 -22.358628971602229 0 -22.358628971602229 -107.79418144703595 0 0 0 0 134.03101049680461 -31.33303093225129 0 -31.33303093225129 -105.3898361731699 0 0 0 0 106.6460549579723 -3.4477593967067151 0 -3.4477593967067151 -119.68830405642075 0 0 0 0 126.72877716679204 -21.755231815772277 0 -21.755231815772277 -113.555070355098 0 0 0 0 76.595079229471366 47.201315059439366 0 47.201315059439366 -163.11790127230051 0 0 0 0 113.28332005985976 6.3950725746981334 0 6.3950725746981334 -144.41483339871047 0 0 0 0 111.09989773987945 -21.737066712383239 0 -21.737066712383239 -172.45621553838282 0 0 0 0 21.43179037580785 -53.120735258188688 0 -53.120735258188688 -78.65824442441226 0 0 0 0 113.58380235571622 -3.9508463248894259 0 -3.9508463248894259 -105.86277931046789 0 0 0 0 130.77714356485649 15.658221936388145 0 15.658221936388145 -57.904915390099632 0 0 0 0 96.169069659161323 -25.099284210191399 0 -25.099284210191399 -104.12018350202652 0 0 0 0 101.52484305865346 18.953343802684685 0 18.953343802684685 -41.713435300887795 0 0 0 0 17.487972730045385 28.914963655957763 0 28.914963655957763 14.334587044242653 0 0 0 0 132.24075419070732 54.404515867543523 0 54.404515867543523 21.768350693324464 0 0 0 0 94.744032732390224 64.424301938517601 0 64.424301938517601 8.342528231383767 0 0 0 0 112.98283841043485 69.854289063798205 0 69.854289063798205 2.7775202722132235 0 0 0 0 136.20633763393857 27.210481166217505 0 27.210481166217505 -62.12523670331575 0 0 0 0 146.68616369936171 67.59215820562531 0 67.59215820562531 2.6001732325166813 0 0 0 0 75.228920037661737 121.58582074797596 0 121.58582074797596 76.96908529358916 0 0 0 0 220.53133233629524 99.929446249720058 0 99.929446249720058 14.75427048234269 0 0 0 0 2.3669166732544138 13.974498861235768 0 13.974498861235768 -1.5938125164261692 0 0 0 0 15.891277581379654 -73.014133123338979 0 -73.014133123338979 -96.753237860008085 0 0 0 0 3.7574028958258614 -5.734967404498196 0 -5.734967404498196 -75.000421074898981 0 0 0 0 0.91825871672609782 -5.187046712651842 0 -5.187046712651842 -8.1980525408885399 0 0 0 0 304.62394981651869 62.883095545108517 0 62.883095545108517 -125.21858986776351 0 0 0 0 245.97868791073461 190.34061199311327 0 190.34061199311327 56.003591864738155 0 0 0 0 142.29693054627501 43.995153186366224 0 43.995153186366224 -23.839887934689614 0 0 0 0 179.41914189887854 21.928817350236386 0 21.928817350236386 -102.74892572268436 0 0 0 0 159.47918513354489 70.372678770472703 0 70.372678770472703 -3.8453443343605613 0 0 0 0 43.713000678713115 50.507783156861478 0 50.507783156861478 -148.80304468142276 0 0 0 0 131.28575580519976 -34.602394786039895 0 -34.602394786039895 -80.126324451164692 0 0 0 0 71.92982217863505 120.9181116377913 0 120.9181116377913 -98.357604196619832 0 0 0 0 -114.07612573150902 178.5273215802481 0 178.5273215802481 -135.60162033568486 0 0 0 0 -28.589046046531848 137.28568545964299 0 137.28568545964299 -123.45537325838086 0 0 0 0 35.94244141752165 33.49728692014105 0 33.49728692014105 -185.12855999422572 0 0 0 0 -229.05934661310368 253.6086892972271 0 253.6086892972271 -55.285847771672707 0 0 0 0 -254.84025359669488 119.8676387504056 0 119.8676387504056 -37.250876213074662 0 0 0 0 -156.08343059591022 195.19632986425495 0 195.19632986425495 -105.20974404765002 0 0 0 0 -157.4993693843694 200.65816604076463 0 200.65816604076463 -78.055164756704471 0 0 0 0 -8.8793978995978478 59.860784402847457 0 59.860784402847457 -73.851805142781814 0 0 0 0 -108.77082558174266 116.69434773335433 0 116.69434773335433 -19.241099018057866 0 0 0 0 -70.952540803482862 150.25467872961963 0 150.25467872961963 -56.216514168652793 0 0 0 0 -9.4621535625037723 31.506458853938966 0 31.506458853938966 -89.068819051477476 0 0 0 0 129.0623839915761 14.719251023037941 0 14.719251023037941 -128.81518635840621 0 0 0 0 129.0179594586989 82.72949448188956 0 82.72949448188956 -201.4702384372722 0 0 0 0 134.02034890739742 50.018464043598215 0 50.018464043598215 -132.43989074190904 0 0 0 0 222.00643715536489 28.960820397256612 0 28.960820397256612 -139.22508142480729 0 0 0 0 178.27056952564362 -24.300131969841459 0 -24.300131969841459 -105.65689536728314 0 0 0 0 141.68738031506382 -29.848195456519534 0 -29.848195456519534 70.929213922732743 0 0 0 0 153.91249710093507 113.40645520896942 0 113.40645520896942 -98.847389534916147 0 0 0 0 115.48965002817476 -38.764367778781889 0 -38.764367778781889 -93.743938914187311 0 0 0 0 -5.462367091515608 -7.7861205305878176 0 -7.7861205305878176 -57.901087836336131 0 0 0 0 50.632347922591634 -16.153398755614035 0 -16.153398755614035 -65.594287964981049 0 0 0 0 91.751466957201046 -0.96877651774775586 0 -0.96877651774775586 -84.22572606432368 0 0 0 0 0.24339000526733834 -4.2550266383492925 0 -4.2550266383492925 -12.564907823109124 0 0 0 0 127.50633284818696 69.915617540766107 0 69.915617540766107 -52.19350657065479 0 0 0 0 55.458499280660931 62.388568278858429 0 62.388568278858429 148.60635341470334 0 0 0 0 -17.996183479507305 12.211647634688712 0 12.211647634688712 -55.751748033250863 0 0 0 0 -545.55270137354114 217.97494345556333 0 217.97494345556333 -73.15989979790902 0 0 0 0 154.79049797247353 216.39955883556104 0 216.39955883556104 -95.485137487296015 0 0 0 0 -11.118000351925152 12.748880146962719 0 12.748880146962719 -22.490475003313421 0 0 0 0 -19.296266481302258 4.1773212137475184 0 4.1773212137475184 -73.159899797923572 0 0 0 0 -4.3756435194059602 1.2717921863917159 0 1.2717921863917159 -22.287805811688628 0 0 0 0 374.10250669660678 286.84436537165493 0 286.84436537165493 -2496.9092884080092 0 0 0 0 -299.75908672371719 855.36794069810821 0 855.36794069810821 -1275.5427590250074 0 0 0 0 128.30889204680872 -350.54863187093179 0 -350.54863187093179 -1294.5264291808744 0 0 0 0 394.37326102455609 125.44820551008706 0 125.44820551008706 -217.4108736673079 0 0 0 0 -243.21952575854505 177.02409083804514 0 177.02409083804514 -112.5553168699189 0 0 0 0 -190.89988442579352 -29.202513834814454 0 -29.202513834814454 -81.99366936495062 0 0 0 0 188.28526339108276 -170.9215126705385 0 -170.9215126705385 -71.49024356740847 0 0 0 0 -5.7332843833189067 6.4001842542325207 0 6.4001842542325207 -8.0706418827146393 0 0 0 0 -503.89473332225703 350.23701495788373 0 350.23701495788373 165.72166289948018 0 0 0 0 117.0281102566706 -483.09371681799405 0 -483.09371681799405 -2497.1444774216507 0 0 0 0 -705.53839288696201 898.03585440439656 0 898.03585440439656 -694.45669606000592 0 0 0 0 91.225144392073204 945.55193260140368 0 945.55193260140368 -2109.6401043907572 0 0 0 0 -297.28885768647035 95.626959567813174 0 95.626959567813174 -212.30796297997949 0 0 0 0 -431.9305159635141 196.46536153891611 0 196.46536153891611 -71.200733829260571 0 0 0 0 13.820901439121201 -73.138500604844921 0 -73.138500604844921 32.132104893389624 0 0 0 0 -71.957705013513731 24.109616647172516 0 24.109616647172516 69.168315060759596 0 0 0 0 -11.434665918773973 40.004419190321642 0 40.004419190321642 -34.097337295523175 0 0 0 0 97.733339045413629 -8.0542902908441647 0 -8.0542902908441647 -48.744381382251959 0 0 0 0 -96.849228230503456 2.9987345872532387 0 2.9987345872532387 2.8897287412237347 0 0 0 0 1.7482283502497324 -15.424971400943036 0 -15.424971400943036 0.90776153259866987 0 0 0 0 -0.24219640246381458 -7.0735985337783944 0 -7.0735985337783944 -27.667503997379256 0 0 0 0 4.3851861494005675 -3.6893010613191564 0 -3.6893010613191564 -23.998148516868241 0 0 0 0 0.37697682552085277 -5.424185253337491 0 -5.424185253337491 3.1169364486953839 0 0 0 0 57.335828151922897 -7.6073312593689479 0 -7.6073312593689479 -36.98048294947148 0 0 0 0 2.4745352178330422 2.5305326327347757 0 2.5305326327347757 -2.0700680549509372 0 0 0 0 -19.105448419938156 -38.802469440805908 0 -38.802469440805908 -8.1651997894005035 0 0 0 0 0.6635491415602246 -29.586885161934333 0 -29.586885161934333 -9.7246408158443955 0 0 0 0 42.914980248713846 -26.862611825697968 0 -26.862611825697968 -40.246687233680859 0 0 0 0 -3.6684263173404474 -45.590239633595957 0 -45.590239633595957 -61.685198344577657 0 0 0 0 -22.195600719751752 -43.355127590153529 0 -43.355127590153529 -84.697215053827676 0 0 0 0 -14.956947590834531 5.3819372479090575 0 5.3819372479090575 -11.449466575073686 0 0 0 0 -92.222344518851514 22.289174256162369 0 22.289174256162369 -100.6357130233373 0 0 0 0 -15.671198498832382 -5.2815186305651878 0 -5.2815186305651878 -79.390802100933797 0 0 0 0 -113.20561744435132 39.433536446340668 0 39.433536446340668 -10.009543965985358 0 0 0 0 -110.93754173176259 60.692890161208197 0 60.692890161208197 -1.6539624788274523 0 0 0 0 5.2201992568363664 -1.9252488167241708 0 -1.9252488167241708 -13.437846966260246 0 0 0 0 -7.3639243365233433 -52.294007282098278 0 -52.294007282098278 -42.107461716721446 0 0 0 0 -52.632796807964525 -29.234285058783826 0 -29.234285058783826 -236.52629739879922 0 0 0 0 0.057582309007027543 -0.372600699087549 0 -0.372600699087549 1.8527587288162266 0 0 0 0 -13.616263505267057 62.34100963736455 0 62.34100963736455 -15.564726998796459 0 0 0 0 -33.232237320739955 16.450276981389834 0 16.450276981389834 -84.713946275249327 0 0 0 0 -1.8432508301609687 -40.619883099254366 0 -40.619883099254366 -6.4496712048494373 0 0 0 0 -43.908279351084047 19.913487093228468 0 19.913487093228468 -80.536125077136603 0 0 0 0 245.61992915335844 -171.93368672063752 0 -171.93368672063752 -1132.9628780618041 0 0 0 0 -269.45964058466325 -163.02415409083187 0 -163.02415409083187 -215.75723034597468 0 0 0 0 31.826462149071801 -23.445235330155356 0 -23.445235330155356 -110.66872698109364 0 0 0 0 -140.85375760818053 108.82885616290696 0 108.82885616290696 -196.99767650361173 0 0 0 0 -0.91678560606209947 -1.5243098120329011 0 -1.5243098120329011 -9.6014544670798898 0 0 0 0 -744.50838602272904 -938.63240108060688 0 -938.63240108060688 -793.27840527419175 0 0 0 0 393.51759934627654 -512.55690524995498 0 -512.55690524995498 -2496.7243103730907 0 0 0 0 371.52876734922779 81.224946920745424 0 81.224946920745424 -1163.4883244150187 0 0 0 0 -615.13524218645375 1055.0826685561933 0 1055.0826685561933 -1061.3362409903948 0 0 0 0 364.09062240408724 387.50263307016257 0 387.50263307016257 -2496.7919964812991 0 0 0 0 125.1479743093554 -46.190100236616672 0 -46.190100236616672 -299.32127914437297 0 0 0 0 -1.2568863514325144 -5.58108454586473 0 -5.58108454586473 -22.667626618597097 0 0 0 0 -131.07920653131143 150.95152171237351 0 150.95152171237351 -345.56623633287745 0 0 0 0 -88.930208408983731 -127.07189682912167 0 -127.07189682912167 -314.06480272516274 0 0 0 0 -101.03367222639196 138.05307078354781 0 138.05307078354781 -129.55472663869637 0 0 0 0 -548.05870552737565 -640.8761353132054 0 -640.8761353132054 -336.28779490718625 0 0 0 0 -1.2361099278123806 -1.5705957423115855 0 -1.5705957423115855 -10.269936755441705 0 0 0 0 117.00521071891386 -406.5874103837541 0 -406.5874103837541 -2496.734426556035 0 0 0 0 188.05886127952499 98.400656323000476 0 98.400656323000476 -469.81634250589377 0 0 0 0 316.27739976316479 723.22304549542423 0 723.22304549542423 -2493.0513249320738 0 0 0 0 0.053989305662371069 -1.3381582933376761 0 -1.3381582933376761 -9.13047833451418 0 0 0 0 -227.33030171266978 -260.02816496568812 0 -260.02816496568812 -266.19124912523557 0 0 0 0 306.76544839809509 -471.67308825154214 0 -471.67308825154214 -2496.153061111037 0 0 0 0 161.29929890133144 131.31866600809144 0 131.31866600809144 -2441.0666416299191 0 0 0 0 -724.44947514571368 -1215.3448734620142 0 -1215.3448734620142 -2808.9978970998473 0 0 0 0 -127.66730238739672 -930.40495976647128 0 -930.40495976647128 -801.76772759832966 0 0 0 0 227.98492966700385 -610.04429632150004 0 -610.04429632150004 -2350.5900066591785 0 0 0 0 -256.2721578427288 309.53890179199152 0 309.53890179199152 13.555022302092766 0 0 0 0 -237.34194214709257 -120.9645925611776 0 -120.9645925611776 -502.46351099696722 0 0 0 0 -192.13449204940173 5.8157458614841744 0 5.8157458614841744 -593.95599662124732 0 0 0 0 -96.998732293953495 25.536953510410967 0 25.536953510410967 102.88963745459841 0 0 0 0 -289.77150902736201 169.73996190086228 0 169.73996190086228 -0.61695804308874358 0 0 0 0 -125.84261842902069 117.01869369220367 0 117.01869369220367 57.653781629027435 0 0 0 0 437.08213997811129 154.29664768193152 0 154.29664768193152 -120.79405542475797 0 0 0 0 -24.653450716157938 111.66964932856263 0 111.66964932856263 48.004758440882142 0 0 0 0 -12.229136514019785 43.405383925783099 0 43.405383925783099 0.91947084933781298 0 0 0 0 -10.610351425578187 13.65577851379112 0 13.65577851379112 23.641910052960156 0 0 0 0 -90.85062947559237 -78.5841737536457 0 -78.5841737536457 -5.0694422952974492 0 0 0 0 134.19906763307017 -3.5028458959568525 0 -3.5028458959568525 -98.458145416497246 0 0 0 0 0.27970640102477362 -1.6889018881071403 0 -1.6889018881071403 -16.503437256926411 0 0 0 0 69.433817436033621 56.608957319068736 0 56.608957319068736 -18.888065251578155 0 0 0 0 0.079321004234350734 -0.8431368771430785 0 -0.8431368771430785 -11.486408133249192 0 0 0 0 68.458140805992855 -47.559021677799137 0 -47.559021677799137 -16.280684953529089 0 0 0 0 -65.78728997283271 -25.679283646407953 0 -25.679283646407953 -3.0629476529484236 0 0 0 0 29.573806707958909 -13.664845311433055 0 -13.664845311433055 -423.97633811550259 0 0 0 0 -0.18580990083219467 -0.29032680756130436 0 -0.29032680756130436 -4.1339999989921594 0 0 0 0 -88.360596162659988 -142.94973694668897 0 -142.94973694668897 -95.920025719447949 0 0 0 0 -194.24826216233339 180.91946386903476 0 180.91946386903476 -160.02892278071522 0 0 0 0 -32.955338313754481 77.604709573558466 0 77.604709573558466 -38.116216358639576 0 0 0 0 -29.00312422312647 141.28201741310932 0 141.28201741310932 -154.96669827084042 0 0 0 0 -85.728582228610691 55.346160643925032 0 55.346160643925032 -16.781044574772977 0 0 0 0 13.060521357563346 58.604940687051567 0 58.604940687051567 -65.993271541628928 0 0 0 0 19.815340458519358 39.855678987416468 0 39.855678987416468 -51.639067095120481 0 0 0 0 14.97468338849535 66.322667127196837 0 66.322667127196837 -36.863339170135987 0 0 0 0 81.42690002321217 32.647710925628417 0 32.647710925628417 -107.83930045675879 0 0 0 0 92.173941527244551 -18.777318146781909 0 -18.777318146781909 -80.996922250393254 0 0 0 0 48.966694352723763 34.053281181623788 0 34.053281181623788 -141.36454131376195 0 0 0 0 0.60938942063749835 106.81882236284218 0 106.81882236284218 -393.96069890953368 0 0 0 0 29.987812692748335 14.03257724758987 0 14.03257724758987 -153.07112043944409 0 0 0 0 40.908862907025295 -68.994564710955046 0 -68.994564710955046 -189.48071583003548 0 0 0 0 24.465641328463505 -118.97605514917996 0 -118.97605514917996 -340.99437869499002 0 0 0 0 21.654162102307851 4.6296885061583453 0 4.6296885061583453 -156.96383067533316 0 0 0 0 124.91060670954391 -91.325722944273366 0 -91.325722944273366 -192.73708731404577 0 0 0 0 138.28630513472882 -157.8544821680631 0 -157.8544821680631 -3.9083153206429415 0 0 0 0 -29.548004292016969 -128.78093178158542 0 -128.78093178158542 109.05834504172162 0 0 0 0 5.4617135280915505 -17.374071682710166 0 -17.374071682710166 -24.701294180025783 0 0 0 0 -11.94097311482642 30.34556839618017 0 30.34556839618017 63.786572020413587 0 0 0 0 8.6049988274701157 -99.317822130324203 0 -99.317822130324203 -41.417927329217491 0 0 0 0 -73.243635176888645 -54.771963737808619 0 -54.771963737808619 -33.999707211109126 0 0 0 0 -0.72909912844487357 0.16435693316603306 0 0.16435693316603306 -0.10400382093634164 0 0 0 0 -43.532580859007311 -66.426851831624845 0 -66.426851831624845 -37.34291530299015 0 0 0 0 -51.197316674608793 -92.661615694934881 0 -92.661615694934881 -36.721389605991135 0 0 0 0 38.00162755770566 -49.383282946946565 0 -49.383282946946565 -107.8276852652798 0 0 0 0 -1.8734141071146271 0.94078064437715625 0 0.94078064437715625 -0.52283851680536664 0 0 0 0 -134.63131791733278 44.364613635940259 0 44.364613635940259 26.56590158956169 0 0 0 0 17.540301482748418 -45.517559381314641 0 -45.517559381314641 -44.94279199498942 0 0 0 0 -14.697912094673441 -35.924254048784917 0 -35.924254048784917 -11.759361322878249 0 0 0 0 281.14421559504899 -93.337563849422622 0 -93.337563849422622 -168.24206752443206 0 0 0 0 9.6377205504614665 148.0653808753932 0 148.0653808753932 -377.40969527455491 0 0 0 0 -263.16467720013208 -99.650984269798755 0 -99.650984269798755 -92.953999873434441 0 0 0 0 30.00624964315648 -10.729573263521161 0 -10.729573263521161 -110.63570180135684 0 0 0 0 39.717823776635669 -41.453463441987878 0 -41.453463441987878 -41.63988619063457 0 0 0 0 -53.50366369117728 -62.072793024763087 0 -62.072793024763087 -69.678243158702571 0 0 0 0 -195.21668635265689 -223.72063320730945 0 -223.72063320730945 -24.819334684625574 0 0 0 0 -206.72948528442066 -191.18410428527022 0 -191.18410428527022 -95.288013492555365 0 0 0 0 -11.060133792590022 -155.8376460463478 0 -155.8376460463478 -145.29573626813362 0 0 0 0 52.616822617709659 -82.654939250209281 0 -82.654939250209281 -108.7418826216599 0 0 0 0 47.835388760849128 -126.00790579364548 0 -126.00790579364548 -67.503061280997485 0 0 0 0 3.9202713940231888 -107.00601973755852 0 -107.00601973755852 -66.18834995241923 0 0 0 0 0.56723678403037603 -6.1508425788995513 0 -6.1508425788995513 -11.165168092096447 0 0 0 0 31.363573616895565 -39.745246207550736 0 -39.745246207550736 -88.438628908550527 0 0 0 0 128.9608710246323 31.711159739986158 0 31.711159739986158 -73.682995991624921 0 0 0 0 116.00560446172585 -112.07060139651821 0 -112.07060139651821 -102.32544953985234 0 0 0 0 27.162279412141743 -5.6187102655935064 0 -5.6187102655935064 -41.324164292609794 0 0 0 0 6.3165594402831244 -7.8491813996633493 0 -7.8491813996633493 -36.473462084156111 0 0 0 0 20.999277632230132 -7.0828502214707214 0 -7.0828502214707214 -24.115363379475411 0 0 0 0 19.473176348717061 -11.510198845110381 0 -11.510198845110381 -34.562818146028789 0 0 0 0 11.344470421965415 -15.49217675127734 0 -15.49217675127734 -28.934410897611375 0 0 0 0 61.81169934994216 -132.69710221424202 0 -132.69710221424202 -50.540743323181232 0 0 0 0 168.20460671874423 -74.367668938546558 0 -74.367668938546558 -308.03784324329536 0 0 0 0 79.357324811328454 108.32940768741719 0 108.32940768741719 -344.73041619367268 0 0 0 0 6.5481299978067682 31.788158151728567 0 31.788158151728567 -25.579678309359224 0 0 0 0 5.1159038129437704 57.31845980457183 0 57.31845980457183 -135.17534928903115 0 0 0 0 -88.970777655478742 218.27361845254927 0 218.27361845254927 -244.92790676479854 0 0 0 0 -1.2406442822341976 -0.54973162125946651 0 -0.54973162125946651 -0.16038164115002829 0 0 0 0 36.835953024354239 -44.268500165679143 0 -44.268500165679143 -43.536627111381677 0 0 0 0 14.398410379076029 -16.454479993739703 0 -16.454479993739703 -42.708666533555757 0 0 0 0 21.923068785738906 -15.655430707578489 0 -15.655430707578489 -29.796059052358942 0 0 0 0 15.320766430052926 -13.663560780697239 0 -13.663560780697239 -70.590581653502539 0 0 0 0 7.8188187827563036 -31.001845239526666 0 -31.001845239526666 -38.070742946858928 0 0 0 0 4.279828135841024 -7.9252570496177048 0 -7.9252570496177048 -15.431748411426071 0 0 0 0 74.176167145652016 111.0123917601577 0 111.0123917601577 -98.329048002491618 0 0 0 0 -23.398356969870747 -49.836001902437602 0 -49.836001902437602 -1.8788355913711712 0 0 0 0 17.1295857493933 -17.048901576153185 0 -17.048901576153185 -102.83948184675683 0 0 0 0 8.7067616021228016 0.88192725275690975 0 0.88192725275690975 -22.06826369804314 0 0 0 0 3.2834617112850011 -2.6218363447509709 0 -2.6218363447509709 -69.474531016061079 0 0 0 0 29.791627203349435 9.302017283086343 0 9.302017283086343 -91.629321291082306 0 0 0 0 33.686747226295438 13.330798643585695 0 13.330798643585695 -169.75074235110878 0 0 0 0 3.1835785786188353 15.058650321878758 0 15.058650321878758 -71.34713280640608 0 0 0 0 83.01421617403571 -12.207671113865217 0 -12.207671113865217 -53.703109220773513 0 0 0 0 68.304819800713858 -2.1550449424630642 0 -2.1550449424630642 -11.678969074746306 0 0 0 0 99.465120121022338 2.5497178420655473 0 2.5497178420655473 -55.671173130682291 0 0 0 0 11.292696911696112 -10.32876946487886 0 -10.32876946487886 -101.7712080750498 0 0 0 0 3.8308689317299263 3.3792363407280348 0 3.3792363407280348 -16.918395471664866 0 0 0 0 96.267251018994102 -16.060237028019401 0 -16.060237028019401 -55.884259783844755 0 0 0 0 64.856815517940504 2.3600046616338659 0 2.3600046616338659 -52.750238874883507 0 0 0 0 49.567325240310652 -2.2761688062719259 0 -2.2761688062719259 -56.289818995046971 0 0 0 0 -10.031787154388914 -7.001060312332319 0 -7.001060312332319 -18.986143580886655 0 0 0 0 9.9185717692766957 49.249451194198571 0 49.249451194198571 -3.7281403326556983 0 0 0 0 -1.5590136971789343 2.1036093608734774 0 2.1036093608734774 -45.756499877680469 0 0 0 0 -64.109123705887669 -69.553388091760553 0 -69.553388091760553 -59.751055759010342 0 0 0 0 -80.662778782254264 24.515519435161792 0 24.515519435161792 -95.895332418531325 0 0 0 0 -70.205051917567744 -98.165315609507616 0 -98.165315609507616 -91.415076087921989 0 0 0 0 -302.01926739945065 6.2041862206156111 0 6.2041862206156111 -25.752660801752427 0 0 0 0 -13.793363888941258 6.6924616373885328 0 6.6924616373885328 -71.445928730789092 0 0 0 0 -506.30054752873468 -324.09229528932428 0 -324.09229528932428 -53.902242180941357 0 0 0 0 -691.17472768665323 -820.94302724526005 0 -820.94302724526005 -1157.3294427786991 0 0 0 0 -955.48481376064353 -72.562410922230811 0 -72.562410922230811 41.70498827128165 0 0 0 0 50.338119600998994 -180.20971829464185 0 -180.20971829464185 -1167.0520933509915 0 0 0 0 -7.0485567802212952 -4.56775004246468 0 -4.56775004246468 -1.6031188693707143 0 0 0 0 -682.57927691566772 -962.79779068407174 0 -962.79779068407174 -999.22561653574257 0 0 0 0 -755.73111485598565 -693.05568345698725 0 -693.05568345698725 -1564.8828895442236 0 0 0 0 -355.43791682248934 -115.68069531008439 0 -115.68069531008439 -1185.1184736597479 0 0 0 0 -8.6909161189447772 -2.2748886943139723 0 -2.2748886943139723 -23.302087255735387 0 0 0 0 43.527137345487745 3.0466586876609654 0 3.0466586876609654 -23.155288288480733 0 0 0 0 -262.76704873396432 76.034524574751799 0 76.034524574751799 11.2940594747202 0 0 0 0 -319.49206386459196 -284.72161608086873 0 -284.72161608086873 -573.98564969024847 0 0 0 0 0.61258907789419936 -302.09566202689854 0 -302.09566202689854 -676.18098713357506 0 0 0 0 0.9586301093170172 2.3525231870142025 0 2.3525231870142025 -37.087047663851486 0 0 0 0 175.23106789005033 -73.674183962879397 0 -73.674183962879397 -15.286427139739317 0 0 0 0 -250.23210741697312 -162.69417066495998 0 -162.69417066495998 255.1795170958394 0 0 0 0 65.724024066804191 430.5402434523362 0 430.5402434523362 -725.71890318136866 0 0 0 0 -1268.700005927541 -1746.7286238331303 0 -1746.7286238331303 -1896.4441160987171 0 0 0 0 -0.26231992142045479 -0.36833097115442026 0 -0.36833097115442026 -16.338975297882868 0 0 0 0 -1118.294377294761 -1333.1446614034592 0 -1333.1446614034592 -1010.3552084275557 0 0 0 0 -349.10610370508255 -756.49775025894598 0 -756.49775025894598 -1901.7444079529082 0 0 0 0 -457.80216503610643 -1097.3222840528865 0 -1097.3222840528865 -2879.6951174816841 0 0 0 0 -1618.4076600969634 -715.03856533058388 0 -715.03856533058388 -2501.5450806619106 0 0 0 0 -59.04153400855494 -544.65247128860358 0 -544.65247128860358 -1563.7453665452654 0 0 0 0 -140.75507978977859 -968.49381646294182 0 -968.49381646294182 -2498.8468429007853 0 0 0 0 -108.9211803482695 -379.05036920980695 0 -379.05036920980695 -1920.3676508733968 0 0 0 0 359.28467535569808 -193.09333325735906 0 -193.09333325735906 -2499.7939573758254 0 0 0 0 147.5301312025997 -21.178909112295514 0 -21.178909112295514 -1560.9456162813303 0 0 0 0 395.58389653850486 282.00856285947981 0 282.00856285947981 -1271.8615598874799 0 0 0 0 198.68778963278692 -81.960583756238066 0 -81.960583756238066 -1805.6899662265473 0 0 0 0 535.68607364038326 141.93081316948553 0 141.93081316948553 -1868.9807847342415 0 0 0 0 576.84556414243809 407.35869480430677 0 407.35869480430677 -1866.8662828565639 0 0 0 0 731.82860564064947 193.42960550521639 0 193.42960550521639 -2499.4462620748272 0 0 0 0 570.32039388228168 337.62864272008392 0 337.62864272008392 -1911.3966470454834 0 0 0 0 -119.41639590691929 296.05425334673555 0 296.05425334673555 -1203.836507934654 0 0 0 0 645.88639281026747 386.36735820976457 0 386.36735820976457 -1910.1562487405508 0 0 0 0 639.14606304518475 456.47188959580853 0 456.47188959580853 -1857.5413673025673 0 0 0 0 419.41489914026778 10.698018213031304 0 10.698018213031304 -1015.2653269483308 0 0 0 0 703.8624875148198 -32.082566633354872 0 -32.082566633354872 -1117.191423587446 0 0 0 0 513.57260059207056 -167.78091209796548 0 -167.78091209796548 16.529148081433959 0 0 0 0 8.3352088715842854 3.7084221724337691 0 3.7084221724337691 -6.7342189011433966 0 0 0 0 -0.28225959469419282 -3.79681292069729 0 -3.79681292069729 -11.539614123849729 0 0 0 0 182.82447881153712 39.148170551817657 0 39.148170551817657 -309.35101356265034 0 0 0 0 51.621336587889346 129.50319351041753 0 129.50319351041753 -324.30748777197857 0 0 0 0 197.19354862433735 79.703590446819476 0 79.703590446819476 -203.45672440280214 0 0 0 0 -21.337804494541899 -209.01377889232936 0 -209.01377889232936 -1219.0456792080577 0 0 0 0 -521.66782226519945 -411.2525593138198 0 -411.2525593138198 -265.20144167725812 0 0 0 0 -196.95302820390765 -314.45747701094729 0 -314.45747701094729 -1242.572080368363 0 0 0 0 -15.89780624348208 -314.83870795052144 0 -314.83870795052144 -869.73839227307599 0 0 0 0 -1126.4634859768737 -2042.9669604387514 0 -2042.9669604387514 -2493.2116620692614 0 0 0 0 -13.412048797115638 -9.3641481179540911 0 -9.3641481179540911 -12.212270480636739 0 0 0 0 -2127.3059366884345 -954.99172599838221 0 -954.99172599838221 -128.29799939542136 0 0 0 0 -1539.451081705884 23.021528557304464 0 23.021528557304464 88.214429046947771 0 0 0 0 -749.77022243829879 -339.81604494859857 0 -339.81604494859857 -69.552000213761175 0 0 0 0 -69.844547076585513 274.83040631631957 0 274.83040631631957 -164.64208839662206 0 0 0 0 240.52043847676759 -175.67266544715676 0 -175.67266544715676 -123.21951128025103 0 0 0 0 295.52191648010239 -85.250139618308822 0 -85.250139618308822 -280.6007111619474 0 0 0 0 -654.6874131957286 1380.2866474000493 0 1380.2866474000493 -2498.2245851103044 0 0 0 0 -368.4941242418015 815.2947266539486 0 815.2947266539486 -1503.7743058777942 0 0 0 0 312.41298669047711 740.04635765928197 0 740.04635765928197 -2499.79000080059 0 0 0 0 -117.60426489069027 474.58825454605312 0 474.58825454605312 -1447.0726186381371 0 0 0 0 -22.674180969922915 -30.779164231166725 0 -30.779164231166725 -38.104254655264796 0 0 0 0 33.181741662456716 -3.9114327554318606 0 -3.9114327554318606 -165.56166973989093 0 0 0 0 16.752566334376752 22.568820475261418 0 22.568820475261418 -207.83600365899019 0 0 0 0 68.915018538295953 -28.121797318231984 0 -28.121797318231984 -238.48543162007809 0 0 0 0 36.955890557870589 -30.134701436411433 0 -30.134701436411433 -187.9251636237359 0 0 0 0 64.790952056552669 -52.111706138256523 0 -52.111706138256523 -171.4738166424986 0 0 0 0 33.833345859307428 -28.987258226726453 0 -28.987258226726453 -153.47154476280775 0 0 0 0 48.649966076599611 26.204910100333603 0 26.204910100333603 -29.018028900165103 0 0 0 0 124.47684119709083 -31.550161490478786 0 -31.550161490478786 -67.112362839669004 0 0 0 0 0.81540920765201008 110.9989869867677 0 110.9989869867677 -210.0708738486137 0 0 0 0 -827.15421299036916 -43.915528517929488 0 -43.915528517929488 17.526623707293766 0 0 0 0 -91.71253060217316 -181.35385700787401 0 -181.35385700787401 -240.02407630928792 0 0 0 0 2.3936616608289114 84.830012880400318 0 84.830012880400318 -50.144420832386459 0 0 0 0 39.642183119528525 27.011220083448521 0 27.011220083448521 -34.758448364265959 0 0 0 0 26.653930386612956 -24.150279295350401 0 -24.150279295350401 -151.15948984475199 0 0 0 0 5.8757645255392106 4.1729018591759761 0 4.1729018591759761 2.8138405397802586 0 0 0 0 25.86286471139465 -12.090002394945259 0 -12.090002394945259 -144.35411034375011 0 0 0 0 32.101263238544561 -0.33106970568223915 0 -0.33106970568223915 -123.9663718603806 0 0 0 0 -4.4852830379652904 -4.1605610297394122 0 -4.1605610297394122 -12.999418384181638 0 0 0 0 28.555787755028376 9.7296886666289311 0 9.7296886666289311 -64.760467218220782 0 0 0 0 -79.655624730770796 -2.5857732345320983 0 -2.5857732345320983 -92.174237434854149 0 0 0 0 -25.761241539752518 -26.86210279239458 0 -26.86210279239458 -93.928555734222755 0 0 0 0 29.972999693422025 4.7533893877689479 0 4.7533893877689479 -104.04250613486329 0 0 0 0 -651.70211449200815 -992.49179675622509 0 -992.49179675622509 -1159.6582077133426 0 0 0 0 -679.75203581053336 -855.85179830120251 0 -855.85179830120251 -960.0555795436012 0 0 0 0 -1096.535891113959 -707.37540926007932 0 -707.37540926007932 -368.77445012626777 0 0 0 0 -818.66852800311653 -1067.1013261810331 0 -1067.1013261810331 -372.94407383822181 0 0 0 0 -1064.382879326495 -927.87079478907845 0 -927.87079478907845 -261.02071645348042 0 0 0 0 -658.62187548917655 -606.63051363389604 0 -606.63051363389604 -382.87700796212448 0 0 0 0 2.1553227114668516 -25.543762929822208 0 -25.543762929822208 -77.998242650577595 0 0 0 0 2.6028222906879819 -41.090715908978382 0 -41.090715908978382 -131.42763958633805 0 0 0 0 3.904326025245382 -39.117331691734307 0 -39.117331691734307 -125.15039091098879 0 0 0 0 5.560621301199717 -24.986399135970714 0 -24.986399135970714 -106.51366496943683 0 0 0 0 0.91936004922717984 -44.371365780168162 0 -44.371365780168162 -117.05147156849853 0 0 0 0 28.208571673584629 -9.5878820804987299 0 -9.5878820804987299 -106.66407087481275 0 0 0 0 21.978988161586585 -28.442397941803392 0 -28.442397941803392 -116.44627081693397 0 0 0 0 25.462276002089311 -21.019472064210959 0 -21.019472064210959 -96.919575330835869 0 0 0 0 26.432171510716216 -20.530481074639738 0 -20.530481074639738 -119.7564521698805 0 0 0 0 17.583829737241103 -18.749461938558852 0 -18.749461938558852 -122.01369450228594 0 0 0 0 16.744652549066814 -20.385560966784396 0 -20.385560966784396 -115.10118555161625 0 0 0 0 13.191579391064806 -29.129286763547498 0 -29.129286763547498 -123.29335741729665 0 0 0 0 15.563125162472716 -19.123740649899446 0 -19.123740649899446 -112.34127981104211 0 0 0 0 4.4891172560910491 -26.847367416620727 0 -26.847367416620727 -117.60518813336239 0 0 0 0 2.6005822356478348 -37.245699984169619 0 -37.245699984169619 -131.48358372645089 0 0 0 0 10.750245546942097 -30.922092908022023 0 -30.922092908022023 -127.01042766626597 0 0 0 0 11.49692193586452 -28.022872487503264 0 -28.022872487503264 -134.85875006362949 0 0 0 0 10.03650326629662 -45.739720528478074 0 -45.739720528478074 -132.70756918654479 0 0 0 0 -4.4374289168281393 -37.721986174257836 0 -37.721986174257836 -124.30661125884399 0 0 0 0 -13.15967779935545 -54.521972573172206 0 -54.521972573172206 -132.42872119937965 0 0 0 0 -6.9624699544456234 -51.061125140858167 0 -51.061125140858167 -136.47348955725647 0 0 0 0 -9.1618271252791601 -39.734256477428062 0 -39.734256477428062 -115.34339601775719 0 0 0 0 -36.798479998669791 -44.040351049067795 0 -44.040351049067795 -129.33030216498992 0 0 0 0 -13.099357175929526 -99.247288611089061 0 -99.247288611089061 -214.89793549097885 0 0 0 0 -55.199154507203275 -91.283898188120475 0 -91.283898188120475 -148.78905204543389 0 0 0 0 -15.305538355140925 -91.996923562574921 0 -91.996923562574921 -147.34388133061657 0 0 0 0 -7.6824126211795374 -57.488238383126372 0 -57.488238383126372 -163.52070739480587 0 0 0 0 -8.2576474840652736 -89.31980032787078 0 -89.31980032787078 -140.84148948476832 0 0 0 0 19.626456935862734 -87.073324046164089 0 -87.073324046164089 -152.47280503330148 0 0 0 0 -0.26730264440266183 -62.032091668065732 0 -62.032091668065732 -134.61580234683333 0 0 0 0 23.55565882832343 -47.454815320599664 0 -47.454815320599664 -151.61845353601086 0 0 0 0 28.050045528442979 -57.455696519450726 0 -57.455696519450726 -169.57834910251586 0 0 0 0 66.05318674389855 -81.33983611896565 0 -81.33983611896565 -155.08876277738 0 0 0 0 65.63610506778852 -77.120745651364956 0 -77.120745651364956 -185.80767249739802 0 0 0 0 134.69846750143324 -75.058849956406902 0 -75.058849956406902 -205.2784903181755 0 0 0 0 145.20052749238494 -95.93059449512748 0 -95.93059449512748 -182.39201671922456 0 0 0 0 -55.721973575740776 -119.01374163215951 0 -119.01374163215951 -125.08168684882912 0 0 0 0 31.864760443566865 -144.09798585795022 0 -144.09798585795022 -118.06905149003796 0 0 0 0 163.62172703333044 -57.404261664597016 0 -57.404261664597016 -56.184089373859024 0 0 0 0 -17.803956914031208 -8.7199001107590366 0 -8.7199001107590366 -10.129736726299393 0 0 0 0 -2.4153081615872836 -9.2728016040401293 0 -9.2728016040401293 -10.779492955980459 0 0 0 0 -341.99847521212905 -472.87175590632341 0 -472.87175590632341 25.141530090950255 0 0 0 0 -290.67101486727631 -581.08125688568816 0 -581.08125688568816 -368.82920336819552 0 0 0 0 -4.471379402351058 14.3166910736266 0 14.3166910736266 -53.9185615149634 0 0 0 0 -260.27522959160717 682.64156768713303 0 682.64156768713303 -293.64193376014737 0 0 0 0 102.91712322846297 -35.274017160718358 0 -35.274017160718358 -96.062796239672025 0 0 0 0 -82.072743756070849 -8.0220795801942586 0 -8.0220795801942586 -83.606651243519082 0 0 0 0 -27.813515855566948 -18.001797584038286 0 -18.001797584038286 -40.414668597804848 0 0 0 0 -48.388714452121576 -51.739458959038757 0 -51.739458959038757 -80.951334722696629 0 0 0 0 -14.81788409882245 -32.285595588144652 0 -32.285595588144652 -15.578125252120941 0 0 0 0 -0.24962293178501582 -1.3488295409663316 0 -1.3488295409663316 -6.526341090042056 0 0 0 0 -2.5680581107253602 -36.348510200982219 0 -36.348510200982219 -110.26270741525514 0 0 0 0 -2.2972891993501889 -30.434523778890593 0 -30.434523778890593 -261.42751434103775 0 0 0 0 -3.3458356953006039 2.4797651821219695 0 2.4797651821219695 12.08617991096828 0 0 0 0 -8.6540927562823917 -31.396465849814575 0 -31.396465849814575 8.7513357461561618 0 0 0 0 91.373939969831554 -83.906702381244031 0 -83.906702381244031 -161.43866663918016 0 0 0 0 -59.383377768714126 -99.450849534232475 0 -99.450849534232475 -93.682471929445455 0 0 0 0 -8.9698707506504434 -61.380693627103938 0 -61.380693627103938 -152.83996497751468 0 0 0 0 85.079177325570072 -134.73152064779606 0 -134.73152064779606 -13.39475226941795 0 0 0 0 -2.2536500804844763 -17.122560706578952 0 -17.122560706578952 -111.60021611295451 0 0 0 0 -43.764916042166988 -84.99773364896464 0 -84.99773364896464 155.76228755505144 0 0 0 0 -64.372801409625026 -85.440605318352027 0 -85.440605318352027 13.959222683868575 0 0 0 0 -23.24882260745926 -98.143364830054452 0 -98.143364830054452 -61.369769328342954 0 0 0 0 -31.313975311697504 -82.190033056631364 0 -82.190033056631364 7.7876347637356957 0 0 0 0 0.60585082788747968 -62.796758757524003 0 -62.796758757524003 -134.80326051682732 0 0 0 0 -9.6195967592353782 -37.90281862922744 0 -37.90281862922744 7.2250174093046411 0 0 0 0 -9.7018342843693972 -62.954086594470027 0 -62.954086594470027 -118.08179938930789 0 0 0 0 -115.31307222120984 -338.09251573448091 0 -338.09251573448091 -139.48965528085819 0 0 0 0 -259.09899999602993 -354.42641558737978 0 -354.42641558737978 -256.74176753797883 0 0 0 0 -280.3598341357017 -343.58427823611396 0 -343.58427823611396 -132.46538925406821 0 0 0 0 426.58594355936498 -120.20892816618812 0 -120.20892816618812 -296.55539597967345 0 0 0 0 159.26001512539074 -448.74654410074936 0 -448.74654410074936 -459.07991132152665 0 0 0 0 179.74189063985091 -145.66091367319268 0 -145.66091367319268 -113.04800947233889 0 0 0 0 187.61685641273516 -165.05641796648206 0 -165.05641796648206 -304.91392873219138 0 0 0 0 -43.691504891990519 -216.3311353759409 0 -216.3311353759409 -34.22117049618555 0 0 0 0 145.86880964409536 -81.510246453941591 0 -81.510246453941591 11.770381236195135 0 0 0 0 97.958181353375039 -202.8543264140626 0 -202.8543264140626 46.169512304602449 0 0 0 0 237.45361304021725 -87.987728954545673 0 -87.987728954545673 -859.47456156725093 0 0 0 0 79.242149450866464 -84.727737768344014 0 -84.727737768344014 -290.7453980348173 0 0 0 0 -290.38609093268627 -314.75675871574913 0 -314.75675871574913 389.32863510190236 0 0 0 0 222.45870931977493 -175.67092959351612 0 -175.67092959351612 -1296.8943971051394 0 0 0 0 -7.4667520055894734 -4.0078357407177876 0 -4.0078357407177876 -1.160961208390658 0 0 0 0 -367.22276522146387 -536.82738604416863 0 -536.82738604416863 -106.66020852764404 0 0 0 0 -322.92750697576986 -335.8602304625856 0 -335.8602304625856 -16.939435029863489 0 0 0 0 59.147354881588406 -248.53534667635984 0 -248.53534667635984 -536.75073711945697 0 0 0 0 73.624548509526164 -93.242846219062358 0 -93.242846219062358 -5.5528356610939227 0 0 0 0 -159.43713574373919 170.37915272214468 0 170.37915272214468 -303.63935305044197 0 0 0 0 -496.73318620554573 -178.59619854268158 0 -178.59619854268158 -101.67538764684832 0 0 0 0 -262.39307343384189 -458.14611425688508 0 -458.14611425688508 -700.10469532087882 0 0 0 0 -225.78925733724441 -110.35688922662575 0 -110.35688922662575 -43.204499861538352 0 0 0 0 -70.479233548711477 98.831895832781811 0 98.831895832781811 -126.12112821936944 0 0 0 0 125.65996135589353 339.87104971168083 0 339.87104971168083 62.008407184521275 0 0 0 0 -18.77299562894973 23.834609366148698 0 23.834609366148698 -17.341564701458992 0 0 0 0 -7.5423857840505661 -2.3192346613977861 0 -2.3192346613977861 -28.845680780949806 0 0 0 0 -51.107271208124189 -57.231551470722934 0 -57.231551470722934 132.8658831714456 0 0 0 0 -4.6006759629159495 -13.235971593555746 0 -13.235971593555746 -18.784757772277004 0 0 0 0 6.5366770348064165 -12.563200286436768 0 -12.563200286436768 -9.2473041001649108 0 0 0 0 -10.422141592820282 -19.396442162553015 0 -19.396442162553015 -17.411130476350479 0 0 0 0 -1.3914450001136318 -17.689616205244466 0 -17.689616205244466 -45.101906209572689 0 0 0 0 8.31560330404068 3.9957499409974524 0 3.9957499409974524 -10.100922800275983 0 0 0 0 -70.921847971062277 41.215053215322314 0 41.215053215322314 88.769164517059835 0 0 0 0 8.6372073098768851 -14.218388430463165 0 -14.218388430463165 -54.770189927053707 0 0 0 0 113.26761898309633 21.298835679328477 0 21.298835679328477 -127.60851420012841 0 0 0 0 104.35586908178539 -39.997504432696587 0 -39.997504432696587 -60.096304877948569 0 0 0 0 54.172350147804536 -76.786461017145484 0 -76.786461017145484 -79.400789874049224 0 0 0 0 19.754941083445374 -36.312526309437089 0 -36.312526309437089 -13.299186067576557 0 0 0 0 34.096301323113778 -12.828706908443564 0 -12.828706908443564 -14.649336751890587 0 0 0 0 163.01056123195303 -130.96469318650088 0 -130.96469318650088 27.154283405468959 0 0 0 0 -23.975832481990221 -22.954963556050256 0 -22.954963556050256 -20.207755348271192 0 0 0 0 5.254156305271195 1.2603088758303187 0 1.2603088758303187 -4.6555024162329843 0 0 0 0 -79.823457388636598 -74.909097635645594 0 -74.909097635645594 -51.807817169552436 0 0 0 0 -8.6927410487760426 -236.53446835086197 0 -236.53446835086197 -38.605922954015114 0 0 0 0 77.482363466802781 -155.50495218296783 0 -155.50495218296783 134.6641986660361 0 0 0 0 131.19097721608432 -10.551873756796795 0 -10.551873756796795 -38.155299909500172 0 0 0 0 -2.8240923373987705 1.7944503116785242 0 1.7944503116785242 4.0467759459819206 0 0 0 0 362.5590464985753 -319.36145819861849 0 -319.36145819861849 95.746898515160865 0 0 0 0 433.79643642444807 335.8585721583986 0 335.8585721583986 -70.894352178707777 0 0 0 0 5.5486640138915391 -221.68887388896837 0 -221.68887388896837 -1.2561043264668115 0 0 0 0 -111.35607854928128 -95.415491873568499 0 -95.415491873568499 -15.180783800402423 0 0 0 0 -60.800189036771542 -61.165074592175188 0 -61.165074592175188 -281.17073646580866 0 0 0 0 131.98702563853078 79.295061890266879 0 79.295061890266879 -733.20680593834186 0 0 0 0 157.1869963092837 145.48635929906163 0 145.48635929906163 -1232.3726044878204 0 0 0 0 -1.4042582885733736 -418.54046048870623 0 -418.54046048870623 -1194.2471933750694 0 0 0 0 -9.265039873311089 -8.3355331727985664 0 -8.3355331727985664 -8.4525874427016845 0 0 0 0 -651.49141652699836 -584.2392730716183 0 -584.2392730716183 -44.209431559327641 0 0 0 0 -614.46001865014568 -900.69732591021784 0 -900.69732591021784 -363.90248050462469 0 0 0 0 -57.977504385152571 -940.65951361527368 0 -940.65951361527368 -842.91744331895552 0 0 0 0 144.11685900126099 -679.72436027428557 0 -679.72436027428557 -606.57941923827457 0 0 0 0 -245.8784211049468 -589.375465184738 0 -589.375465184738 -116.32110174650734 0 0 0 0 -248.2216067565293 -639.5783857642698 0 -639.5783857642698 -440.96463837886404 0 0 0 0 -184.83615163464719 -552.15550214616815 0 -552.15550214616815 -343.09931169924675 0 0 0 0 -315.76018331038313 -465.40029750864596 0 -465.40029750864596 -255.69085547926079 0 0 0 0 -387.95516101775138 -311.44166453670914 0 -311.44166453670914 -16.216183371776424 0 0 0 0 -232.45694412991088 -241.14719452321515 0 -241.14719452321515 125.90584560255593 0 0 0 0 130.98305274151244 49.508392978517804 0 49.508392978517804 202.33006304338051 0 0 0 0 -113.95918925650221 -253.99705325276409 0 -253.99705325276409 -93.103303163392411 0 0 0 0 -323.41956872996161 -231.45214458584815 0 -231.45214458584815 308.07225731727885 0 0 0 0 -244.75907897835111 -367.69943468135898 0 -367.69943468135898 -61.061415664269589 0 0 0 0 -40.80539008373853 -1.7236317667957337 0 -1.7236317667957337 88.123450010287343 0 0 0 0 -41.347520763141574 -36.39842942000223 0 -36.39842942000223 83.383725443876756 0 0 0 0 -32.183605544189959 -16.906125435572903 0 -16.906125435572903 60.51276162828799 0 0 0 0 -1.0174901147575488 16.066746183306968 0 16.066746183306968 -44.514222627504125 0 0 0 0 -35.82440591399245 6.1742257749028795 0 6.1742257749028795 150.44886580291632 0 0 0 0 735.45085558743631 348.93684014083192 0 348.93684014083192 -784.58335518067179 0 0 0 0 105.3294478737705 -389.49408021806244 0 -389.49408021806244 -526.1311844057891 0 0 0 0 -286.4071517296511 -326.53630463178342 0 -326.53630463178342 -505.3055769129096 0 0 0 0 -270.74225501763613 248.2049262277651 0 248.2049262277651 382.90764276777918 0 0 0 0 278.08883952974975 -1081.3712895909534 0 -1081.3712895909534 -1021.8202475107173 0 0 0 0 -4.2720265959843253 0.96086865081886685 0 0.96086865081886685 -1.0696294499325916 0 0 0 0 -1073.0562445069365 -1268.2055963746927 0 -1268.2055963746927 -904.08663579875429 0 0 0 0 361.81996381941462 774.64857552154353 0 774.64857552154353 -257.42552591502317 0 0 0 0 -1.589298482023846 5.9571215275824727 0 5.9571215275824727 -18.467919071020404 0 0 0 0 -325.85388897033226 -243.69026259449674 0 -243.69026259449674 -709.38674298987917 0 0 0 0 -928.67050734910515 -404.31708462669553 0 -404.31708462669553 -447.89450043687248 0 0 0 0 -203.53565409334897 -498.62805342056163 0 -498.62805342056163 -787.39529448401299 0 0 0 0 -271.43988810890295 -342.86576790990603 0 -342.86576790990603 -475.84361017381889 0 0 0 0 -112.5975590129851 12.982449716248084 0 12.982449716248084 79.65658865084697 0 0 0 0 -128.24004639056579 -343.75481387753189 0 -343.75481387753189 -697.25159676064504 0 0 0 0 42.002610430047298 246.72754680355865 0 246.72754680355865 -644.73201587145013 0 0 0 0 -181.55123483647549 285.13658255496193 0 285.13658255496193 216.2841876345301 0 0 0 0 -162.72440110475833 -1025.9411466657039 0 -1025.9411466657039 -1581.0906892167295 0 0 0 0 451.07278406544719 285.65024487554365 0 285.65024487554365 -1631.8169801079457 0 0 0 0 -56.066124363188237 -111.07030179128196 0 -111.07030179128196 -110.4508586595839 0 0 0 0 146.03373544238445 8.5750630251732218 0 8.5750630251732218 -72.833776685685734 0 0 0 0 -58.660692819223641 -69.751210649457789 0 -69.751210649457789 -375.09386750687554 0 0 0 0 -187.36529273628702 -300.78587454990338 0 -300.78587454990338 -119.59686390796924 0 0 0 0 -158.84044828550668 -349.97351317522043 0 -349.97351317522043 -560.45328484510901 0 0 0 0 72.551598870570871 -96.679959301422969 0 -96.679959301422969 -649.11546029987949 0 0 0 0 -68.766754222080863 -35.821942593478525 0 -35.821942593478525 -301.60147739313106 0 0 0 0 264.97749080569611 81.310029773499991 0 81.310029773499991 -387.30714752508538 0 0 0 0 1.8099742469107836 -0.85045649257469691 0 -0.85045649257469691 -2.792969848396595 0 0 0 0 -170.30135950334119 107.56984469085364 0 107.56984469085364 -75.629511258663115 0 0 0 0 88.511655169210826 45.934705012678023 0 45.934705012678023 -251.87703332319506 0 0 0 0 11.395041682790193 16.466969325054833 0 16.466969325054833 -39.611901017120545 0 0 0 0 1.202860380704216 12.853069719441493 0 12.853069719441493 -12.337989905847451 0 0 0 0 -26.018337790432639 -23.595266166678812 0 -23.595266166678812 -19.344870151900977 0 0 0 0 -20.089536422447622 18.240889848442748 0 18.240889848442748 -31.308124579920332 0 0 0 0 -6.6932491514715409 -6.7567958966906936 0 -6.7567958966906936 -6.9146038288842533 0 0 0 0 11.883336917016948 -12.866856268292395 0 -12.866856268292395 -27.711782136651891 0 0 0 0 -8.1854113679178369 -6.7267646208769918 0 -6.7267646208769918 -17.658611113081491 0 0 0 0 6.2811180484812583 -7.8302840296171397 0 -7.8302840296171397 -13.399208665926146 0 0 0 0 10.067794966884321 23.813832827059741 0 23.813832827059741 -73.392332911092126 0 0 0 0 11.842728697401895 -12.232767938427287 0 -12.232767938427287 -33.901516576697759 0 0 0 0 12.094449780396216 -14.328924187580576 0 -14.328924187580576 -15.519392389646299 0 0 0 0 9.0473367866215995 -41.981601895160566 0 -41.981601895160566 -16.929293446446536 0 0 0 0 -43.322165640194726 -103.42029847708181 0 -103.42029847708181 -8.4730456552497344 0 0 0 0 -205.52084293701819 -36.228355282688426 0 -36.228355282688426 459.00056319740179 0 0 0 0 -50.831222379987494 -27.604093174829444 0 -27.604093174829444 -13.676808779075031 0 0 0 0 99.281295705060074 147.33553663262137 0 147.33553663262137 81.725565946601421 0 0 0 0 -25.003055752275031 -17.136035821356927 0 -17.136035821356927 -46.066848338334239 0 0 0 0 10.602325111984188 -10.896256783286447 0 -10.896256783286447 -25.845649508098887 0 0 0 0 -3.7920972636093211 -9.8588948621509189 0 -9.8588948621509189 -28.885167182565056 0 0 0 0 11.132610265557176 -0.33676149504271535 0 -0.33676149504271535 -15.914522311604742 0 0 0 0 15.666542442331377 -2.1472745957008499 0 -2.1472745957008499 -10.239421591929322 0 0 0 0 10.734247861772019 -10.521647018918884 0 -10.521647018918884 -33.34446534230301 0 0 0 0 -8.9461768619785289 -122.69408661831767 0 -122.69408661831767 -128.01128896328009 0 0 0 0 -76.414048217961863 -100.6762263503897 0 -100.6762263503897 -42.401144149778702 0 0 0 0 5.435835527219524 -1.7097731212434155 0 -1.7097731212434155 -19.504716732437373 0 0 0 0 8.7387571925499472 -4.4266122218523165 0 -4.4266122218523165 -22.054416524124917 0 0 0 0 18.131968357958613 2.5185139239110867 0 2.5185139239110867 -20.503994829196017 0 0 0 0 12.107679353648066 -14.26702216450758 0 -14.26702216450758 -31.679674373986927 0 0 0 0 4.1770537079630117 -13.906248218812834 0 -13.906248218812834 -31.295001295839029 0 0 0 0 -1.9477677908887472 -20.952894404224935 0 -20.952894404224935 -37.737154171118164 0 0 0 0 11.554176884005642 -9.9838707419767161 0 -9.9838707419767161 -36.945148455673916 0 0 0 0 8.2421369177671977 -14.649982660401292 0 -14.649982660401292 -39.867824434692011 0 0 0 0 3.8704369055505161 -15.847866756626004 0 -15.847866756626004 -23.092128240839976 0 0 0 0 -8.7186321790604779 -38.720505864457664 0 -38.720505864457664 -161.75834311573635 0 0 0 0 -1.0310830767825596 -2.3953868447349862 0 -2.3953868447349862 -2.293666111761425 0 0 0 0 15.704516740859276 -13.284954408002704 0 -13.284954408002704 -33.838523205349702 0 0 0 0 11.759753017718822 -12.127457518836309 0 -12.127457518836309 -26.361949147209089 0 0 0 0 13.759230564382051 -14.943443543097601 0 -14.943443543097601 -27.129016272308945 0 0 0 0 11.762427411696734 -15.074968089122677 0 -15.074968089122677 -12.828908986775261 0 0 0 0 13.95063140438333 -7.1178614265227225 0 -7.1178614265227225 -43.855224968177936 0 0 0 0 11.202163645622932 -7.3626635903583519 0 -7.3626635903583519 -32.371782090158376 0 0 0 0 12.237690193426715 -6.9808259260771592 0 -6.9808259260771592 -29.846358013455756 0 0 0 0 6.5191156319001493 -10.72735285584713 0 -10.72735285584713 -31.98235341453983 0 0 0 0 14.306139581478549 -1.4129110926077573 0 -1.4129110926077573 -1.7487480439959455 0 0 0 0 20.93897586912135 -22.468645306753388 0 -22.468645306753388 -47.922829465856012 0 0 0 0 12.634994446617601 0.37593459959446562 0 0.37593459959446562 -10.519643127366173 0 0 0 0 6.8029944124667754 -6.760103293612481 0 -6.760103293612481 -29.937634534740269 0 0 0 0 19.422369073899972 -8.7241458533462719 0 -8.7241458533462719 -40.983700568627683 0 0 0 0 26.80086186726021 -15.611455830179693 0 -15.611455830179693 -41.747934408078436 0 0 0 0 15.369288118790791 -9.4793970477949188 0 -9.4793970477949188 -29.925396056365571 0 0 0 0 -3.6851629140983277 -40.105762492456051 0 -40.105762492456051 -51.894007099737792 0 0 0 0 7.8013587676650786 27.768506063137465 0 27.768506063137465 -50.260314728766389 0 0 0 0 3.8312345302167055 1.8398745128663476 0 1.8398745128663476 -1.0367403781072682 0 0 0 0 -1.7125551436984097 -8.0436410905313096 0 -8.0436410905313096 -54.540142040073988 0 0 0 0 23.133715294803032 -7.9996238998565641 0 -7.9996238998565641 -34.197917298522214 0 0 0 0 25.732874361860013 3.4663460484152893 0 3.4663460484152893 3.6115065635131032 0 0 0 0 13.86804616077962 -6.5143476274757148 0 -6.5143476274757148 -30.505197525877115 0 0 0 0 14.621902721696188 -3.8431801014066878 0 -3.8431801014066878 -25.161400558659807 0 0 0 0 13.306563746229884 -10.542857011607438 0 -10.542857011607438 -23.652518603075649 0 0 0 0 12.182148933368719 -16.664357408069378 0 -16.664357408069378 -14.662689939277985 0 0 0 0 8.0130344396438886 -31.4057563592105 0 -31.4057563592105 -60.552927672328224 0 0 0 0 9.2706970305671348 -5.9353892055542019 0 -5.9353892055542019 -50.053717342416348 0 0 0 0 29.478293805577323 -11.973789823192419 0 -11.973789823192419 -63.068500937099316 0 0 0 0 23.170111716000065 -29.657252273796985 0 -29.657252273796985 -106.19587855534337 0 0 0 0 35.89445183065618 -57.710291646606493 0 -57.710291646606493 -77.408723356271338 0 0 0 0 -9.1265087852634679 21.895887833823508 0 21.895887833823508 -39.91028388002087 0 0 0 0 4.3950969671650455 -11.398150853830884 0 -11.398150853830884 -23.277893267812033 0 0 0 0 13.513528652146828 -9.278104975389585 0 -9.278104975389585 -22.280116119033217 0 0 0 0 10.473234949340622 -9.4200594266094413 0 -9.4200594266094413 -30.268575010726636 0 0 0 0 4.1794428444414473 -12.914078332068126 0 -12.914078332068126 -21.739015148363762 0 0 0 0 17.442304054153865 1.9033895501816005 0 1.9033895501816005 -12.963280719559407 0 0 0 0 30.661130767334043 -28.142464769575781 0 -28.142464769575781 -12.665938993995951 0 0 0 0 38.353143453808556 -3.0330497925239968 0 -3.0330497925239968 -12.330463757234313 0 0 0 0 33.353577408463323 -13.659505340929172 0 -13.659505340929172 -51.805012221237121 0 0 0 0 12.551894549563826 19.378503731586079 0 19.378503731586079 -112.69338884182071 0 0 0 0 20.194220381068508 6.6856893370339066 0 6.6856893370339066 -5.3222440694371684 0 0 0 0 18.479374519274046 16.298069351501908 0 16.298069351501908 -28.557594811225499 0 0 0 0 29.033354799699396 11.03969604744816 0 11.03969604744816 -85.463097233050576 0 0 0 0 -4.1418075061974875 -13.657840793203377 0 -13.657840793203377 -51.670829705766664 0 0 0 0 8.8241651652366642 1.6203041835433396 0 1.6203041835433396 -53.008250567581854 0 0 0 0 -399.13477755197874 -73.587333189248966 0 -73.587333189248966 -433.11420720520982 0 0 0 0 -630.51401408516176 -88.312083975950372 0 -88.312083975950372 -394.27964622541185 0 0 0 0 -393.36732888903043 -203.91337262985326 0 -203.91337262985326 -247.22938762311242 0 0 0 0 -264.4577784402627 -176.55498588321643 0 -176.55498588321643 -427.58714735216927 0 0 0 0 -362.90033930914888 -317.32544741650781 0 -317.32544741650781 -337.28953229965555 0 0 0 0 -338.11282100354538 -110.15447674284587 0 -110.15447674284587 -411.5026709423837 0 0 0 0 -461.9519666150909 193.97222283019073 0 193.97222283019073 -794.80954992440911 0 0 0 0 -833.53432187332487 216.81281124679754 0 216.81281124679754 -262.39426525664749 0 0 0 0 -605.16329951905573 -54.020097336346225 0 -54.020097336346225 -261.88742998095461 0 0 0 0 -592.3006113516883 -8.8215383059668966 0 -8.8215383059668966 -385.57404501504789 0 0 0 0 -436.08443328511999 -319.25870683819085 0 -319.25870683819085 -392.45280795055265 0 0 0 0 -651.51109403331407 -95.643655356150703 0 -95.643655356150703 -42.486847446132742 0 0 0 0 -320.57819621907674 -704.05872258641102 0 -704.05872258641102 -449.19652438548474 0 0 0 0 -506.71779603867566 -381.20654258477589 0 -381.20654258477589 -353.58710690352746 0 0 0 0 -489.20546688105946 -123.80037319198891 0 -123.80037319198891 -984.44141285862861 0 0 0 0 -637.87708711347159 -696.15882652279834 0 -696.15882652279834 -666.17068716876929 0 0 0 0 -98.319744295085911 305.76525720176869 0 305.76525720176869 -555.11034381340141 0 0 0 0 -669.20652663497231 -49.969886455637607 0 -49.969886455637607 -422.88661940182647 0 0 0 0 -211.59273996343563 -77.802047132820007 0 -77.802047132820007 -431.94825826762099 0 0 0 0 -517.07487740115153 -329.37502714967468 0 -329.37502714967468 -625.6976617500768 0 0 0 0 -62.603408043244599 16.311059170768203 0 16.311059170768203 -593.92500105248473 0 0 0 0 48.802234114229577 -147.06656625710457 0 -147.06656625710457 -1017.1798492415692 0 0 0 0 -15.710340582423669 -13.839260876557091 0 -13.839260876557091 -574.61212384311511 0 0 0 0 -10.357410221484315 21.01393482009189 0 21.01393482009189 -612.69567371500307 0 0 0 0 8.8197002901088126 6.0104040961741703 0 6.0104040961741703 -619.23740275655291 0 0 0 0 -66.4238625422513 -61.480489901416149 0 -61.480489901416149 -426.28180082813196 0 0 0 0 -47.263402352151388 -87.796055984934355 0 -87.796055984934355 -630.59737960262282 0 0 0 0 -10.735342141555613 8.175620321959606 0 8.175620321959606 -6.333558127287418 0 0 0 0 193.58425007782171 -240.76528261597196 0 -240.76528261597196 -1659.4807677173067 0 0 0 0 20.549853290545798 9.5899976702858112 0 9.5899976702858112 -771.82274159668304 0 0 0 0 -35.922206745288349 158.70742935546514 0 158.70742935546514 -687.95792047546274 0 0 0 0 11.592393363360316 155.81929857440264 0 155.81929857440264 -826.76171179526136 0 0 0 0 -130.24961297338814 186.77172971488835 0 186.77172971488835 -268.05827978069283 0 0 0 0 -77.240693655390714 12.002579219340987 0 12.002579219340987 -367.67991738891578 0 0 0 0 -93.329664014696391 -56.116965934990731 0 -56.116965934990731 -641.9665481114157 0 0 0 0 -2.1804949599400061 23.21303919624188 0 23.21303919624188 -645.84602863120381 0 0 0 0 310.01356869072424 391.90179004628226 0 391.90179004628226 -506.51874334955755 0 0 0 0 299.49482854902908 397.81728598492919 0 397.81728598492919 -136.32630872477966 0 0 0 0 352.72379104401261 757.22610645074747 0 757.22610645074747 -1173.1717820544072 0 0 0 0 -224.26373039732334 -165.83595086493096 0 -165.83595086493096 1141.2561383811699 0 0 0 0 -30.115422724114978 440.28934142497747 0 440.28934142497747 319.69208362474455 0 0 0 0 28.69865607333486 51.448823218262987 0 51.448823218262987 -88.941540643732878 0 0 0 0 59.305147381404822 -235.19034794855543 0 -235.19034794855543 86.63038042889093 0 0 0 0 354.30721498191997 -503.75643818997196 0 -503.75643818997196 271.60264761717553 0 0 0 0 -79.169524102486321 -35.057106415690214 0 -35.057106415690214 457.04210275091464 0 0 0 0 123.46125105824103 -509.49199923005654 0 -509.49199923005654 1567.8722992078401 0 0 0 0 591.86529849174622 -287.83642241847701 0 -287.83642241847701 -190.63265539085842 0 0 0 0 1326.9768388089797 -738.82115416284068 0 -738.82115416284068 -133.57082192987036 0 0 0 0 558.25491005188087 -295.91176024683227 0 -295.91176024683227 -118.0380355103589 0 0 0 0 641.27440500532248 272.15580509060237 0 272.15580509060237 -476.64417233108543 0 0 0 0 1138.2163538911182 -47.003577315383154 0 -47.003577315383154 -715.67413705273066 0 0 0 0 2.4993010620036564 -0.75907041483519322 0 -0.75907041483519322 -3.1836793350576826 0 0 0 0 -98.551966991710287 837.72166260594895 0 837.72166260594895 94.376297699200222 0 0 0 0 125.20266566310238 821.15165477471601 0 821.15165477471601 -922.11527620615379 0 0 0 0 102.60472132608902 -447.47231695593291 0 -447.47231695593291 224.16828626073766 0 0 0 0 11.95353372721911 -7.011416059691328 0 -7.011416059691328 -24.446437241058447 0 0 0 0 8.3725166490344236 -10.990151507147857 0 -10.990151507147857 -25.435716073050571 0 0 0 0 6.2946854567430464 -8.1602720646301208 0 -8.1602720646301208 -14.211790746809015 0 0 0 0 10.456705237126037 6.1031825168370943 0 6.1031825168370943 -5.9907107555391121 0 0 0 0 94.61124154353638 -715.62246352000147 0 -715.62246352000147 -830.71514736530116 0 0 0 0 92.54528946812934 -143.51986867906817 0 -143.51986867906817 -293.03455849578677 0 0 0 0 25.387606354703166 -24.869950128122582 0 -24.869950128122582 -176.15703454630057 0 0 0 0 170.18841900198458 -114.31794833957247 0 -114.31794833957247 -154.17341506804223 0 0 0 0 -15.389736236782483 -110.01223590125301 0 -110.01223590125301 -100.96910525209387 0 0 0 0 129.53483069046342 -73.50015317658108 0 -73.50015317658108 -117.16167853027946 0 0 0 0 55.602402627602714 -108.79970890868208 0 -108.79970890868208 19.976835653651506 0 0 0 0 238.35122446306013 -149.86306362691175 0 -149.86306362691175 -117.02428174643137 0 0 0 0 176.30242859858663 -95.822777783647325 0 -95.822777783647325 -153.08405649056658 0 0 0 0 415.05853126256625 -64.436112231785955 0 -64.436112231785955 -193.88412582858291 0 0 0 0 48.625958064493716 84.116518032878957 0 84.116518032878957 -163.89362558934954 0 0 0 0 305.18749380446752 -185.06547533144476 0 -185.06547533144476 -153.4279291234634 0 0 0 0 341.0595885304283 -241.12716762704804 0 -241.12716762704804 -122.41860842704773 0 0 0 0 84.66278039705503 -220.89622351180151 0 -220.89622351180151 -18.99115515347512 0 0 0 0 174.4089377970422 -153.39828235028835 0 -153.39828235028835 -166.19330687331967 0 0 0 0 194.56803407669577 -200.39389129597112 0 -200.39389129597112 -133.04121825372931 0 0 0 0 154.12424360153955 -220.32637977777267 0 -220.32637977777267 -98.920616640200024 0 0 0 0 93.888822454562614 -92.202436111903808 0 -92.202436111903808 151.36969750118078 0 0 0 0 142.25490604667084 -216.57393184056491 0 -216.57393184056491 22.93068489995494 0 0 0 0 153.69040154438699 -114.90120279261464 0 -114.90120279261464 -69.695597362482658 0 0 0 0 89.611759207926298 -123.44994484352355 0 -123.44994484352355 10.687150234731234 0 0 0 0 -48.436829996052211 -27.181109156582195 0 -27.181109156582195 -12.586769653422813 0 0 0 0 -12.518095924830959 -130.73751085732147 0 -130.73751085732147 158.82528020613245 0 0 0 0 -167.50312035906791 -25.477923749464026 0 -25.477923749464026 -199.68174253859615 0 0 0 0 -50.617902020110705 -171.31721529953938 0 -171.31721529953938 -178.71193028645212 0 0 0 0 -87.465118913913102 36.848157160446135 0 36.848157160446135 -346.55205707832283 0 0 0 0 10.094917174848888 -73.269678087788634 0 -73.269678087788634 -303.60602688365816 0 0 0 0 -54.878636231606833 -94.893842514477001 0 -94.893842514477001 -29.055151243199361 0 0 0 0 206.30886032157468 -291.84992627024258 0 -291.84992627024258 46.894167078195096 0 0 0 0 23.250496914845826 -78.792081113251697 0 -78.792081113251697 -62.968003598216455 0 0 0 0 -373.83114377995571 -279.38284852049037 0 -279.38284852049037 -2.5076559398821701 0 0 0 0 -73.626319891462117 -39.121312866632252 0 -39.121312866632252 188.10153901626472 0 0 0 0 -666.32720415481617 -591.07472819790564 0 -591.07472819790564 567.51124225474268 0 0 0 0 81.194900990188899 -231.90642509780628 0 -231.90642509780628 -875.97732623163029 0 0 0 0 272.12093916852564 158.64801171543513 0 158.64801171543513 -2185.3447463529246 0 0 0 0 4.1473333563763273 -0.83061036835949409 0 -0.83061036835949409 -0.15882412656446832 0 0 0 0 -1589.3506918338171 -481.96046609231416 0 -481.96046609231416 -186.09547484756331 0 0 0 0 -10.747406011541239 -7.2692758579501628 0 -7.2692758579501628 -4.8572648921898107 0 0 0 0 403.36216818548382 236.50976351103054 0 236.50976351103054 -937.17070091121604 0 0 0 0 -1048.6321355970003 -901.15133093873737 0 -901.15133093873737 394.12697757218848 0 0 0 0 393.82876256116174 -151.92684906460636 0 -151.92684906460636 -936.10704475072089 0 0 0 0 -31.194465782271251 -21.074999068886783 0 -21.074999068886783 -11.609880513408818 0 0 0 0 53.941983838569286 -343.48449527061712 0 -343.48449527061712 384.40025925865484 0 0 0 0 39.840746499465013 -217.29221635602516 0 -217.29221635602516 -816.50500105733954 0 0 0 0 -0.0548515767900426 -270.15495432403623 0 -270.15495432403623 -847.0824685909065 0 0 0 0 13.509509524300256 -19.843743130979419 0 -19.843743130979419 -667.29963628842233 0 0 0 0 349.66793264828357 368.34536626488625 0 368.34536626488625 -726.16569177046404 0 0 0 0 -207.04426171709656 51.45298669100157 0 51.45298669100157 -357.12837669299188 0 0 0 0 -310.35964986178556 -231.19919505950293 0 -231.19919505950293 -595.75535958875844 0 0 0 0 -60.349461208323419 -253.22724798967465 0 -253.22724798967465 -1103.3936579179863 0 0 0 0 -19.555241428174114 -4.6865653513546874 0 -4.6865653513546874 2.8960144034123942 0 0 0 0 60.5129159716912 -271.11053021038242 0 -271.11053021038242 -917.89475308521651 0 0 0 0 15.83482977215612 -7.1322670349600941 0 -7.1322670349600941 -2.1361899582785426 0 0 0 0 -31.456731595099882 -63.25085628506713 0 -63.25085628506713 -53.116035816399744 0 0 0 0 5.1935969423957431 -43.22878029018284 0 -43.22878029018284 -15.036834736871242 0 0 0 0 0.32310882714045874 -57.624033762678664 0 -57.624033762678664 -56.972344694775529 0 0 0 0 -35.283576392898794 -56.481084146264038 0 -56.481084146264038 2.2262515534312115 0 0 0 0 -57.144694557477123 -28.658931298145035 0 -28.658931298145035 29.00319333736843 0 0 0 0 8.4702854312855091 -24.477813187736118 0 -24.477813187736118 -3.5754276336652566 0 0 0 0 -35.471291566631749 -61.572585757914112 0 -61.572585757914112 -0.35975357508141315 0 0 0 0 -19.203652071100805 -7.5945555048783717 0 -7.5945555048783717 23.01558243242107 0 0 0 0 -177.79323783672226 -298.52946783075095 0 -298.52946783075095 -315.55742493407888 0 0 0 0 -78.618190536439215 -88.815654777376039 0 -88.815654777376039 -136.77380185800212 0 0 0 0 -58.43929803043784 -38.10421916163159 0 -38.10421916163159 -56.598509824667417 0 0 0 0 -159.34034636236993 -93.414857060754002 0 -93.414857060754002 50.615665528392128 0 0 0 0 -38.458503020528951 -71.544352167758916 0 -71.544352167758916 -68.381545437125169 0 0 0 0 -161.96557241951996 -152.41166659317969 0 -152.41166659317969 -85.774480239349941 0 0 0 0 -164.83150925546852 -116.58552883345692 0 -116.58552883345692 -38.713668006967055 0 0 0 0 -250.05469787980974 -173.03210792109894 0 -173.03210792109894 -174.5421309753574 0 0 0 0 -357.44016900947008 -293.81649733625818 0 -293.81649733625818 -132.75627127734151 0 0 0 0 -15.578862810653648 14.953654904709417 0 14.953654904709417 -14.75638573189616 0 0 0 0 -163.13622870539294 104.72916921095124 0 104.72916921095124 114.67464722284785 0 0 0 0 -253.33167965213806 -253.90858233624749 0 -253.90858233624749 -256.85447253456732 0 0 0 0 -239.12204064510524 -246.06799626566499 0 -246.06799626566499 -260.26306729745556 0 0 0 0 -251.85263551639673 -246.97640590780065 0 -246.97640590780065 -253.08871565310255 0 0 0 0 -233.62212320720869 -183.03172564688612 0 -183.03172564688612 -213.51700846567473 0 0 0 0 -244.10661007595399 -250.54392884921981 0 -250.54392884921981 -261.06801886242465 0 0 0 0 -567.3363923477682 -151.42959075450199 0 -151.42959075450199 202.28367061254903 0 0 0 0 207.39867573595893 62.527953284177784 0 62.527953284177784 -293.98278770403704 0 0 0 0 107.75206583007684 -175.51415385895598 0 -175.51415385895598 -862.09812657877774 0 0 0 0 360.48472697182478 -217.0796382572953 0 -217.0796382572953 -1628.9351037910528 0 0 0 0 62.754166323975454 66.564622412693325 0 66.564622412693325 -108.32869401056087 0 0 0 0 -10.942780311299467 11.692662076476374 0 11.692662076476374 -13.494111073758106 0 0 0 0 -219.6040880543128 -278.89489561225855 0 -278.89489561225855 -580.21569617479872 0 0 0 0 -123.61510368628797 -394.35791593663453 0 -394.35791593663453 -458.09616496205126 0 0 0 0 -190.28015862751909 -522.57977845160713 0 -522.57977845160713 -267.19577145198855 0 0 0 0 -495.61791037750572 -1082.4664494343015 0 -1082.4664494343015 -1286.0078721685713 0 0 0 0 -232.85747178705097 -453.39073519282795 0 -453.39073519282795 -205.72524444339797 0 0 0 0 -638.6397920619346 242.28439226387718 0 242.28439226387718 -350.59147449168086 0 0 0 0 -761.20322372583428 -143.80386378524054 0 -143.80386378524054 -157.63079794936129 0 0 0 0 -106.29442659320807 -140.25016694659644 0 -140.25016694659644 -754.61159640701044 0 0 0 0 -3.6268352465977673 4.120841578390916 0 4.120841578390916 -6.5774706189202448 0 0 0 0 -291.53583708352699 -201.36759560071732 0 -201.36759560071732 -213.09823636200963 0 0 0 0 -348.094124560144 -164.18585477217403 0 -164.18585477217403 -234.51216827959433 0 0 0 0 -233.69807861949334 -185.35526690405277 0 -185.35526690405277 -269.64554530238092 0 0 0 0 -279.01934793954661 -151.70976576619796 0 -151.70976576619796 -288.82524738885695 0 0 0 0 -215.18511609258837 -263.92098118472131 0 -263.92098118472131 -357.81065985003079 0 0 0 0 -171.39123852008333 -190.79595029964185 0 -190.79595029964185 -291.03193655780615 0 0 0 0 -122.19750535488083 -178.41644303892463 0 -178.41644303892463 -353.21804793658521 0 0 0 0 -139.73223236763704 -137.83841192428918 0 -137.83841192428918 -264.8967479069106 0 0 0 0 -66.785197863172243 -115.11019808002311 0 -115.11019808002311 -430.62141349576996 0 0 0 0 -87.310210664178612 -136.61622117857769 0 -136.61622117857769 -327.32374907858866 0 0 0 0 7.5378468641574727 -6.3591872522119957 0 -6.3591872522119957 -271.51608488192869 0 0 0 0 70.288446459500108 -17.718846773939276 0 -17.718846773939276 -468.81096322242229 0 0 0 0 83.869046001300831 -12.023406836804497 0 -12.023406836804497 -466.79623682842066 0 0 0 0 68.648079588966539 -95.690244972025539 0 -95.690244972025539 -666.20239250800296 0 0 0 0 44.25517795416863 -72.286959187938919 0 -72.286959187938919 -541.86473916800605 0 0 0 0 -142.56769169906283 -287.30493259855939 0 -287.30493259855939 -499.85710232265046 0 0 0 0 -112.73503163004045 -202.66852645703693 0 -202.66852645703693 -396.13758836639317 0 0 0 0 -250.85683475252154 -299.51131821090894 0 -299.51131821090894 -355.5733181497344 0 0 0 0 -359.80878795342505 -403.0512851342537 0 -403.0512851342537 -341.06777958048269 0 0 0 0 -388.32058508175356 -213.1608397356581 0 -213.1608397356581 -395.2582821287142 0 0 0 0 -206.76261762311879 -337.0804845237617 0 -337.0804845237617 -675.30920724964744 0 0 0 0 -202.54757400173048 -588.09002836309992 0 -588.09002836309992 -1561.361447626281 0 0 0 0 -144.21068230612332 -314.95290681516417 0 -314.95290681516417 -667.97501846846353 0 0 0 0 -92.936057812180024 229.88750364842053 0 229.88750364842053 -692.79539415481122 0 0 0 0 11.717232342182001 -175.50634964239907 0 -175.50634964239907 -1063.4508736284188 0 0 0 0 -56.530585665254307 240.78760368908024 0 240.78760368908024 -1751.4403035279793 0 0 0 0 -2.7959317071009817 -5.6576877344314198 0 -5.6576877344314198 -5.4719606571737955 0 0 0 0 -98.744212444975346 136.21003056511836 0 136.21003056511836 345.20022238201454 0 0 0 0 -390.35646685165921 -1004.692565971287 0 -1004.692565971287 1051.4267709280903 0 0 0 0 -0.2246548814543754 -10.955205907204046 0 -10.955205907204046 -12.99998665821429 0 0 0 0 -2.2806726305561824 84.247091416033072 0 84.247091416033072 -415.25980840251395 0 0 0 0 -70.793727740411214 61.715873458342685 0 61.715873458342685 -417.55446564103477 0 0 0 0 8.1196832338278 113.74731583878747 0 113.74731583878747 -520.01265445677564 0 0 0 0 70.192467341558313 35.282203994829615 0 35.282203994829615 -434.96628912180313 0 0 0 0 140.07636968597399 45.490070373874914 0 45.490070373874914 -491.4529358417567 0 0 0 0 90.88227924036687 92.943120166626613 0 92.943120166626613 -359.84767328780435 0 0 0 0 41.84025228548353 156.311946923699 0 156.311946923699 -106.23064499789325 0 0 0 0 47.857830553634813 156.64430981586338 0 156.64430981586338 -319.22884236453683 0 0 0 0 118.32419176624899 54.793554798270634 0 54.793554798270634 -339.34583352076879 0 0 0 0 101.6102382684021 -37.25359594287147 0 -37.25359594287147 -172.41660036040412 0 0 0 0 143.08819897637454 27.269986264851468 0 27.269986264851468 -356.99416132790793 0 0 0 0 104.42015212659226 86.890136536669161 0 86.890136536669161 -211.5085364026927 0 0 0 0 131.35074082525762 -11.371798511318048 0 -11.371798511318048 -307.65455780123011 0 0 0 0 145.50317022092077 -36.279865971264371 0 -36.279865971264371 -280.05451856218497 0 0 0 0 127.69543029656325 47.115843647108704 0 47.115843647108704 -321.03380346970152 0 0 0 0 139.11790057003486 65.71433728770171 0 65.71433728770171 -419.3817024842283 0 0 0 0 154.57396531819313 29.860415625455062 0 29.860415625455062 -405.28764598222915 0 0 0 0 157.82745758925739 47.124436261903611 0 47.124436261903611 -472.74905251192104 0 0 0 0 131.33609239582711 74.195139768227818 0 74.195139768227818 -384.56246120030119 0 0 0 0 118.51936384530381 40.025112619237916 0 40.025112619237916 -470.57647704054943 0 0 0 0 144.75837789947309 46.998111199878622 0 46.998111199878622 -496.66795858278056 0 0 0 0 92.783403228489533 1.0463605071090569 0 1.0463605071090569 -504.75468771578744 0 0 0 0 133.15541282554227 27.97942865935147 0 27.97942865935147 -538.95992299878708 0 0 0 0 43.69117997167848 -51.920178362957813 0 -51.920178362957813 -600.84826242001873 0 0 0 0 82.452486121520906 -7.9209050241988734 0 -7.9209050241988734 -652.61692233802751 0 0 0 0 86.494864970619346 33.430944830794033 0 33.430944830794033 -483.46038827253506 0 0 0 0 51.687350711339604 -42.52756416403281 0 -42.52756416403281 -130.61452422398725 0 0 0 0 -13.189392307265734 -66.107989481351069 0 -66.107989481351069 -109.09937715848355 0 0 0 0 11.964070839583581 -28.407678742164439 0 -28.407678742164439 -83.766325120410869 0 0 0 0 -35.830298797629439 -56.615065934678569 0 -56.615065934678569 -4.9823154833429726 0 0 0 0 5.8966102698513172 -32.114915005867012 0 -32.114915005867012 -11.819093958158106 0 0 0 0 -17.929189738397326 -64.156708469257865 0 -64.156708469257865 -7.5293663073025527 0 0 0 0 -4.1014098891833228 -11.289218384131217 0 -11.289218384131217 -12.550363529915707 0 0 0 0 -36.599146429271059 -50.248058932365893 0 -50.248058932365893 -15.946858608096591 0 0 0 0 4.0140429094390129 -31.823291195876664 0 -31.823291195876664 -0.89444073752338227 0 0 0 0 -112.92271416447693 -181.76675565797996 0 -181.76675565797996 -148.76754164209706 0 0 0 0 33.001157693642654 -79.897062019937948 0 -79.897062019937948 -221.03692042086186 0 0 0 0 -61.420214974390547 -38.030344587525178 0 -38.030344587525178 -46.237045344441867 0 0 0 0 -13.097283083871911 12.707986595118953 0 12.707986595118953 -11.099277395470153 0 0 0 0 -183.1262334224451 -217.99192456048058 0 -217.99192456048058 -493.93522983534058 0 0 0 0 -201.99457831505629 -472.92005705675911 0 -472.92005705675911 -519.42223619887591 0 0 0 0 -235.88245407904287 -134.25645674253974 0 -134.25645674253974 -165.1659429050851 0 0 0 0 -84.628185373449924 -5.6838180388949695 0 -5.6838180388949695 134.23157944088598 0 0 0 0 0.76254994082313843 1.7961808030930655 0 1.7961808030930655 -0.40229983660250568 0 0 0 0 -276.8919736842372 -23.959478446187859 0 -23.959478446187859 -239.42281863590324 0 0 0 0 -234.9556022572724 -172.80156181457278 0 -172.80156181457278 -26.147406322183087 0 0 0 0 -216.98533472205509 -344.13521280008717 0 -344.13521280008717 -296.92300523200902 0 0 0 0 -15.804387724415751 14.519789091273005 0 14.519789091273005 -14.54969373772316 0 0 0 0 -817.79853897365956 -642.02386964416291 0 -642.02386964416291 -519.258676019821 0 0 0 0 -313.20018553201544 -383.29766509876208 0 -383.29766509876208 -670.12315948263858 0 0 0 0 -640.96068687121169 -259.88488910072192 0 -259.88488910072192 -83.948997107028845 0 0 0 0 -499.26525803458753 -168.90424656784307 0 -168.90424656784307 -830.2597079508123 0 0 0 0 -218.29299056285049 -659.01067940902431 0 -659.01067940902431 -947.96375411970803 0 0 0 0 -401.53290687285244 -694.28254964086955 0 -694.28254964086955 -200.26892066808068 0 0 0 0 -374.31549916502718 -93.602883404440945 0 -93.602883404440945 -360.25401814068209 0 0 0 0 -146.48482078651273 -869.59385029135774 0 -869.59385029135774 -533.91568598132289 0 0 0 0 -406.95220144516838 -639.47020106115087 0 -639.47020106115087 -758.8585921294216 0 0 0 0 -439.61435435897727 -561.25566065452676 0 -561.25566065452676 -599.68195074186224 0 0 0 0 -452.76030168458084 -530.83228137765946 0 -530.83228137765946 -383.65914014452574 0 0 0 0 -261.89348092422051 -614.4957663781679 0 -614.4957663781679 -591.52848107819227 0 0 0 0 -113.19768102182037 4.8437544207231014 0 4.8437544207231014 -85.513757281121798 0 0 0 0 -423.01008164821627 -639.71741892433965 0 -639.71741892433965 -598.23859730959157 0 0 0 0 -424.904838929265 -497.72663675164949 0 -497.72663675164949 -769.08105512486873 0 0 0 0 42.302020905101926 -16.685754570870813 0 -16.685754570870813 -116.23141301757187 0 0 0 0 -504.73212249681882 -362.16732008972258 0 -362.16732008972258 -542.50877608315204 0 0 0 0 -848.79452401912567 -753.53485994649236 0 -753.53485994649236 -418.90268484377157 0 0 0 0 -13.284857454073626 2.6325513590777447 0 2.6325513590777447 -13.888865760616326 0 0 0 0 15.027001452828504 -17.149156332113307 0 -17.149156332113307 -82.898556965223875 0 0 0 0 -1.411250291944937 7.6879946248356505 0 7.6879946248356505 2.8921694527593758 0 0 0 0 709.5147582383629 161.13232058766152 0 161.13232058766152 37.986636586865643 0 0 0 0 -232.30150044237325 -541.63073636505578 0 -541.63073636505578 -346.34693120012525 0 0 0 0 -32.839491767576874 -94.940219276417338 0 -94.940219276417338 -110.97893573676265 0 0 0 0 -751.53963947978343 -1101.1655651166348 0 -1101.1655651166348 -924.31551802282047 0 0 0 0 -764.67637246843401 -1039.0635981324535 0 -1039.0635981324535 -1071.7797904483232 0 0 0 0 -770.63211845789556 -882.25293934542788 0 -882.25293934542788 -992.70039973016355 0 0 0 0 -827.84678690217606 -926.162854456692 0 -926.162854456692 -235.8672707007172 0 0 0 0 -719.17710791448371 -536.54791511199437 0 -536.54791511199437 -144.33696947165299 0 0 0 0 -744.49743980024323 -870.03419389135433 0 -870.03419389135433 -1238.2342514923439 0 0 0 0 -641.11407392307615 -853.28599616187057 0 -853.28599616187057 -1237.1415201665295 0 0 0 0 -651.68141417997344 -478.43900176449097 0 -478.43900176449097 -643.13120815004913 0 0 0 0 -294.19741196799441 -393.1209443773987 0 -393.1209443773987 -1347.0428537832813 0 0 0 0 -595.96945776294945 -782.09808495340462 0 -782.09808495340462 -1043.3830319343906 0 0 0 0 2.2012327683364479 -3.8801711154332921 0 -3.8801711154332921 0.35409409896965016 0 0 0 0 -347.2171853181423 -402.29539095948167 0 -402.29539095948167 947.34500751453561 0 0 0 0 -275.66731787296908 -986.00155881096907 0 -986.00155881096907 -2287.1753617630093 0 0 0 0 -318.5637912402276 -463.94252856906905 0 -463.94252856906905 -1122.6367207368821 0 0 0 0 -248.11253594072605 -346.46727071295027 0 -346.46727071295027 -1052.0301976986339 0 0 0 0 -48.91900644627367 -323.48618953644109 0 -323.48618953644109 -1500.3658806092717 0 0 0 0 -284.04671648471003 -310.69324353867705 0 -310.69324353867705 -676.40174907332403 0 0 0 0 -147.51490194342387 -210.22106237998378 0 -210.22106237998378 -1206.2230845367012 0 0 0 0 -109.83680623237342 -52.583046559677314 0 -52.583046559677314 -746.68074956425698 0 0 0 0 -275.02848787221683 -176.48943138568575 0 -176.48943138568575 -800.54098938345851 0 0 0 0 -46.128817875032837 -445.81823291792534 0 -445.81823291792534 -1634.1477945022052 0 0 0 0 -153.8152552247102 15.54919628809148 0 15.54919628809148 -1263.6221590337082 0 0 0 0 -303.43974826934391 16.343356482109812 0 16.343356482109812 -1050.9999504904554 0 0 0 0 1.1310164812255099 -2.1871796235797571 0 -2.1871796235797571 0.98598232674238773 0 0 0 0 -33.977462362484403 -147.86546428076144 0 -147.86546428076144 111.48480853462297 0 0 0 0 138.11863281288123 -51.693508661716805 0 -51.693508661716805 -614.65158621516093 0 0 0 0 8.2436548281865853 -13.544565638230146 0 -13.544565638230146 -1.223604775736117 0 0 0 0 260.03312408105245 142.6935242597533 0 142.6935242597533 -607.02455558352813 0 0 0 0 503.97212600535789 77.494338732264623 0 77.494338732264623 -2499.80996748908 0 0 0 0 459.10346276523933 -391.32348196115981 0 -391.32348196115981 -867.7581218491232 0 0 0 0 297.49825062623637 -303.58499686274172 0 -303.58499686274172 -884.91965060218172 0 0 0 0 412.49276553214702 -930.77202455001952 0 -930.77202455001952 -2501.0343976405311 0 0 0 0 -226.20788003144713 -807.95650583860697 0 -807.95650583860697 -805.6513282844644 0 0 0 0 -274.46589435558957 -1136.7486525045624 0 -1136.7486525045624 -825.2851533250232 0 0 0 0 323.63178137051182 -360.39418819107232 0 -360.39418819107232 -191.30513481337402 0 0 0 0 230.38431876044251 -476.29525354573343 0 -476.29525354573343 96.953530437524023 0 0 0 0 611.93627796174553 -258.88233587761715 0 -258.88233587761715 -168.50032020458821 0 0 0 0 277.59962399585652 -82.221688198616903 0 -82.221688198616903 -240.37817388771145 0 0 0 0 224.48299471176733 -87.875742795506085 0 -87.875742795506085 84.095137330310536 0 0 0 0 255.59985129361667 -374.35367764615512 0 -374.35367764615512 -394.23115346085979 0 0 0 0 447.80625461449995 46.08171335942825 0 46.08171335942825 -355.99203540907183 0 0 0 0 186.41927466009508 -121.00667540361519 0 -121.00667540361519 456.2018385139454 0 0 0 0 155.06294048249833 -382.59665446089275 0 -382.59665446089275 537.53878536516277 0 0 0 0 259.00874931618 -470.60282489262318 0 -470.60282489262318 51.932847709222187 0 0 0 0 114.7117265940451 -296.82863855700998 0 -296.82863855700998 -23.955613412363164 0 0 0 0 -549.57264003024375 1441.3728206512606 0 1441.3728206512606 -3119.0523374937184 0 0 0 0 278.98512004696465 -728.61087907420733 0 -728.61087907420733 318.79979769000056 0 0 0 0 -467.38061722063139 972.77741554851673 0 972.77741554851673 -3622.5898205884296 0 0 0 0 1.4820437381155571 -4.0956852987963188 0 -4.0956852987963188 -8.4173589778449127 0 0 0 0 0.94370991493094802 -3.8243760146707615 0 -3.8243760146707615 -9.7353169822794712 0 0 0 0 17.607933774499088 -142.05244867010697 0 -142.05244867010697 79.861546973348595 0 0 0 0 192.02736585776802 -226.15713360031077 0 -226.15713360031077 -225.10660025971447 0 0 0 0 118.3543114254544 -104.17269788204976 0 -104.17269788204976 -223.31286430312321 0 0 0 0 150.52092832457765 -152.74270858725504 0 -152.74270858725504 -254.59856152944849 0 0 0 0 162.9394701355186 -187.82687030444868 0 -187.82687030444868 -159.02690896579588 0 0 0 0 95.096524770665383 -17.69672052902024 0 -17.69672052902024 -199.20955357940693 0 0 0 0 126.17547946823515 -134.01025454382579 0 -134.01025454382579 -128.20609770310693 0 0 0 0 -10.032291851832724 37.852018729743577 0 37.852018729743577 96.024590546599939 0 0 0 0 530.84487097585134 -209.84177483328676 0 -209.84177483328676 196.5271176305032 0 0 0 0 -526.42617575175609 1529.7234297825198 0 1529.7234297825198 -2592.8957342550493 0 0 0 0 534.1266004672184 -912.1896853486669 0 -912.1896853486669 -1014.1021523956006 0 0 0 0 371.32911815050375 -728.36205139492449 0 -728.36205139492449 -154.65085858979728 0 0 0 0 1070.4945678777958 -311.58532681434735 0 -311.58532681434735 -344.35778927982028 0 0 0 0 359.76088183817228 -781.92511496918632 0 -781.92511496918632 -740.05796976868078 0 0 0 0 7.6877402529584318 0.21508981608292288 0 0.21508981608292288 -0.58401929310386791 0 0 0 0 689.87345083604055 424.38015771409482 0 424.38015771409482 264.69642091269634 0 0 0 0 295.40150887237269 -351.13532101976307 0 -351.13532101976307 -1496.9019040834155 0 0 0 0 18.811769448344805 0.17072227847453547 0 0.17072227847453547 -8.4107494254242141 0 0 0 0 534.23069570559915 174.12108663209665 0 174.12108663209665 -979.89882062367542 0 0 0 0 -101.74073134670098 -258.23937146959304 0 -258.23937146959304 -826.69004524519551 0 0 0 0 -325.41103058948784 -175.86746884279364 0 -175.86746884279364 -820.15505887694599 0 0 0 0 -49.205457716306228 76.604773920345906 0 76.604773920345906 -1875.0369224177994 0 0 0 0 0.58722508941587304 -12.346793626014428 0 -12.346793626014428 -30.819840042407407 0 0 0 0 90.826723892195105 58.840195401149685 0 58.840195401149685 23.917037435630846 0 0 0 0 264.60185068844089 37.460415261037269 0 37.460415261037269 -71.763077243384032 0 0 0 0 138.30263506625408 162.21478967069743 0 162.21478967069743 157.9880046815706 0 0 0 0 90.125030243277251 63.165730755539698 0 63.165730755539698 -2.5273581414367072 0 0 0 0 -132.89403647380254 29.135109175891557 0 29.135109175891557 -4.1193197121920093 0 0 0 0 94.89115437872897 195.31720720171143 0 195.31720720171143 -119.05917541107192 0 0 0 0 -2.6942936496613008 -3.667349739557249 0 -3.667349739557249 -13.466463782035703 0 0 0 0 -124.24170957662972 1041.2484094684914 0 1041.2484094684914 -2494.6374728139708 0 0 0 0 473.3176700859878 -861.28424541331515 0 -861.28424541331515 -2494.7775599448905 0 0 0 0 -599.29179008425274 -526.53457227051877 0 -526.53457227051877 -172.68207793984084 0 0 0 0 -259.74503162960104 -1044.9428800302167 0 -1044.9428800302167 -1641.7781822305333 0 0 0 0 549.32079640057611 -500.28749657734443 0 -500.28749657734443 -1934.2258880411318 0 0 0 0 593.22945993225937 -313.35152008262048 0 -313.35152008262048 -1198.974355756196 0 0 0 0 -106.93587552194674 -608.04869252958815 0 -608.04869252958815 -515.77865824397304 0 0 0 0 248.84982346986197 -193.67924082892932 0 -193.67924082892932 -416.69058017102361 0 0 0 0 134.61525341336824 -306.6140508681292 0 -306.6140508681292 -408.0152675431018 0 0 0 0 493.61345431506345 -219.57460961669858 0 -219.57460961669858 -1182.8903737627043 0 0 0 0 351.76283570429689 -195.74588342358447 0 -195.74588342358447 -555.16736962912546 0 0 0 0 392.75826674802647 65.320177740260988 0 65.320177740260988 -561.7746369361812 0 0 0 0 809.29627582762453 -9.1905650959015475 0 -9.1905650959015475 -2500.9253522076797 0 0 0 0 702.30859682619882 192.68317184484113 0 192.68317184484113 -1342.4988623435493 0 0 0 0 -1196.1870677950444 1114.9588995607082 0 1114.9588995607082 -504.02959741376253 0 0 0 0 517.31515211599549 826.71611909287094 0 826.71611909287094 -2495.5430647270432 0 0 0 0 4.3793136131089341 -49.122429137809377 0 -49.122429137809377 -84.184593101689643 0 0 0 0 -28.859326395918856 163.68733244879513 0 163.68733244879513 -625.65351861750969 0 0 0 0 8.2403536762564862 -4.1278623787800512 0 -4.1278623787800512 -16.80915767202697 0 0 0 0 239.44071668676543 -295.13705346351344 0 -295.13705346351344 -232.9686880607353 0 0 0 0 363.28583613635374 330.56696262157857 0 330.56696262157857 -1200.908994595884 0 0 0 0 -144.17423878383318 368.00321256071584 0 368.00321256071584 -187.28467985408497 0 0 0 0 -21.21070994431193 24.526541423536401 0 24.526541423536401 -323.15718037456099 0 0 0 0 -488.89568515708675 643.44278843877692 0 643.44278843877692 -362.83402819395269 0 0 0 0 3.6331520199879836 -8.1101594496130289 0 -8.1101594496130289 -16.512374303963895 0 0 0 0 256.47547922439026 -74.765129345796595 0 -74.765129345796595 -830.55512644615737 0 0 0 0 -10.869208250296339 94.299641914563381 0 94.299641914563381 -104.40201261209586 0 0 0 0 18.499877281788713 -73.842338332404324 0 -73.842338332404324 -400.38344096907713 0 0 0 0 139.65166188121225 -32.785452962873023 0 -32.785452962873023 -533.60286709362117 0 0 0 0 131.27227230756546 -28.854842516777353 0 -28.854842516777353 -438.86591754115943 0 0 0 0 122.9888811834287 -74.774717925425648 0 -74.774717925425648 -479.13403884681611 0 0 0 0 142.90258107869175 -62.611520085358279 0 -62.611520085358279 -475.01872874594119 0 0 0 0 143.49897382716745 -60.741129799760529 0 -60.741129799760529 -527.93850044344435 0 0 0 0 128.41934234756627 -36.49861577374395 0 -36.49861577374395 -496.67521284733812 0 0 0 0 125.66173507482074 -36.213239969376446 0 -36.213239969376446 -423.42871591208677 0 0 0 0 125.02656197445867 -105.81906094792794 0 -105.81906094792794 -427.54405867042897 0 0 0 0 132.77645052512526 -38.92748144773941 0 -38.92748144773941 -434.06191246622529 0 0 0 0 132.63201066217334 -44.243996226825402 0 -44.243996226825402 -352.96143148893316 0 0 0 0 171.58526920714121 -112.19046288146637 0 -112.19046288146637 -291.08413657901838 0 0 0 0 164.93973046937788 -68.60068800569843 0 -68.60068800569843 -393.60718761467433 0 0 0 0 130.56985242064093 -88.560319898591843 0 -88.560319898591843 -374.83046324781753 0 0 0 0 276.70934766218033 -339.41018182560219 0 -339.41018182560219 -318.51467341338866 0 0 0 0 226.73337302953428 -150.38058246456603 0 -150.38058246456603 -470.6363145650248 0 0 0 0 301.24954020357336 -267.90391535865729 0 -267.90391535865729 -476.60774678111193 0 0 0 0 142.18520456056376 -92.833971991880389 0 -92.833971991880389 -519.1118024397947 0 0 0 0 -145.8514865416023 -296.79717669935781 0 -296.79717669935781 -469.03568365108731 0 0 0 0 85.989312060921463 -198.98868461818847 0 -198.98868461818847 -984.13811091725074 0 0 0 0 92.588460573726479 -142.08355954782382 0 -142.08355954782382 -604.20242155052983 0 0 0 0 116.94101657540841 -99.929686688738002 0 -99.929686688738002 -562.20737544561325 0 0 0 0 99.030276134345286 -82.119775333907455 0 -82.119775333907455 -509.74708435549474 0 0 0 0 21.318124424907865 -16.913620560531854 0 -16.913620560531854 -105.67780203284929 0 0 0 0 -25.509661644413882 -181.16902700521496 0 -181.16902700521496 -392.39922955944712 0 0 0 0 -15.86263985038488 -102.66173975642687 0 -102.66173975642687 -361.32811857679917 0 0 0 0 4.6479026048720993 3.051130055268878 0 3.051130055268878 -14.555699431667904 0 0 0 0 295.79087045052614 -521.30527142242886 0 -521.30527142242886 -829.68118529846834 0 0 0 0 8.7486274304556311 -2.7354060898604189 0 -2.7354060898604189 -14.730483776131422 0 0 0 0 210.66813265955284 302.92946026450591 0 302.92946026450591 -212.03591878028237 0 0 0 0 18.237492968802144 15.048797180617839 0 15.048797180617839 -116.6131524583061 0 0 0 0 1.9987640846404005 -3.8458773947531881 0 -3.8458773947531881 -2492.3296907195618 0 0 0 0 -870.64836823360133 -412.8839270511744 0 -412.8839270511744 188.36445061185805 0 0 0 0 -3.6343331578604072 -3.9971210550894511 0 -3.9971210550894511 -6.5360004540967083 0 0 0 0 -1.2761611162072191 0.78095482876728539 0 0.78095482876728539 -7.7142583630979686 0 0 0 0 -761.11197706750988 -1337.1925462793517 0 -1337.1925462793517 -779.36531913596991 0 0 0 0 466.96959472814558 -1122.6032921157075 0 -1122.6032921157075 -2496.4191300960556 0 0 0 0 591.00154653317554 -443.45368634743318 0 -443.45368634743318 -1344.2300244512735 0 0 0 0 584.90067669706036 -519.85406349701384 0 -519.85406349701384 -1524.6364705006854 0 0 0 0 -15.020994811026412 -509.8054364024847 0 -509.8054364024847 -325.8774628423198 0 0 0 0 280.44048876026949 264.25497440047184 0 264.25497440047184 -2260.5259373610606 0 0 0 0 564.01452788257905 -91.020959224420949 0 -91.020959224420949 -2499.6667010986039 0 0 0 0 151.46194442648118 221.91891297906113 0 221.91891297906113 -1675.2949476765789 0 0 0 0 410.99001959055101 -33.523965623913682 0 -33.523965623913682 -1582.8134540119281 0 0 0 0 -214.17772008121966 520.8344628276609 0 520.8344628276609 -1165.7313162305727 0 0 0 0 -199.81302379420555 442.96930153964786 0 442.96930153964786 -1046.6039049671526 0 0 0 0 -63.674779895117368 431.65423373045905 0 431.65423373045905 -1281.4394183601835 0 0 0 0 -65.886750932712744 410.38952549136502 0 410.38952549136502 -1338.9272764938214 0 0 0 0 -191.34384909393395 459.03725955099799 0 459.03725955099799 -1058.9481999573145 0 0 0 0 -98.923216379849919 281.27753362186922 0 281.27753362186922 -1172.3624488021851 0 0 0 0 117.37385315407664 114.11185754078906 0 114.11185754078906 -1328.1654393027711 0 0 0 0 -86.30255376860373 219.18798209682063 0 219.18798209682063 -892.1880910298496 0 0 0 0 -98.036050709571228 478.41513480828871 0 478.41513480828871 -908.94192578431102 0 0 0 0 -150.24691594836122 557.36989728127082 0 557.36989728127082 -816.20571670088793 0 0 0 0 -145.91269472754766 454.07748163848009 0 454.07748163848009 -848.93434022853216 0 0 0 0 -146.79226046718759 499.43720309533819 0 499.43720309533819 -985.04631458131917 0 0 0 0 -149.27143409406162 427.22592855998118 0 427.22592855998118 -1036.3208452453982 0 0 0 0 -143.0970905195008 558.71580152574097 0 558.71580152574097 -1051.5102154181805 0 0 0 0 -113.13732924366718 573.37398849645979 0 573.37398849645979 -1044.9770963785995 0 0 0 0 -185.50606356151042 417.58452455278166 0 417.58452455278166 -1122.6053588383802 0 0 0 0 44.552988215853247 540.27442024790071 0 540.27442024790071 -1189.0926182026742 0 0 0 0 -250.75662204788068 449.89405161268951 0 449.89405161268951 -1041.5271238272107 0 0 0 0 207.88685989444758 84.784564982168376 0 84.784564982168376 317.22804428781092 0 0 0 0 799.30931920574665 254.37508784308739 0 254.37508784308739 -413.32883744081755 0 0 0 0 280.72955163823258 80.0944100299821 0 80.0944100299821 -891.80637971162651 0 0 0 0 116.98200014159659 119.82937333184964 0 119.82937333184964 -862.44959200938683 0 0 0 0 -108.07957726512842 469.92902054211891 0 469.92902054211891 -374.10425921165734 0 0 0 0 551.60645131296337 735.43145389376878 0 735.43145389376878 -918.95043394087043 0 0 0 0 -302.69342665651038 -699.96329331485686 0 -699.96329331485686 -1425.1152749721732 0 0 0 0 708.90379883033074 1197.9130573192379 0 1197.9130573192379 -211.84124804245403 0 0 0 0 1.2950199804109608 1.8946823669140684 0 1.8946823669140684 -6.9688671967171416 0 0 0 0 98.59046973598106 155.07041422676411 0 155.07041422676411 -1607.6258017457585 0 0 0 0 -254.79404616292777 449.36736393019237 0 449.36736393019237 -976.3686516529051 0 0 0 0 -346.27112582433534 178.74394979508952 0 178.74394979508952 -796.1807595550199 0 0 0 0 -67.319647678918045 398.71253471712407 0 398.71253471712407 -1101.4367614834337 0 0 0 0 4.4573420945037316 -0.59246290821872094 0 -0.59246290821872094 -4.7154002954458605 0 0 0 0 -194.09823098905622 174.88998286129117 0 174.88998286129117 -800.93076691970055 0 0 0 0 -40.50591557399548 298.20858870233496 0 298.20858870233496 -441.28687758722572 0 0 0 0 180.55933038148942 168.62891579080315 0 168.62891579080315 -468.60818453227148 0 0 0 0 -234.67536827787262 295.00757218658691 0 295.00757218658691 -252.35317981981643 0 0 0 0 -127.81840491312551 319.02902781255034 0 319.02902781255034 -547.27764428195951 0 0 0 0 -49.432094844966741 458.70442980993175 0 458.70442980993175 -647.50237443514197 0 0 0 0 -55.801372970196894 208.86722841863593 0 208.86722841863593 -919.1755487517803 0 0 0 0 10.301766569457413 178.23440928913988 0 178.23440928913988 -277.01628386168886 0 0 0 0 -343.94446203025529 497.0721326484163 0 497.0721326484163 -278.33099708883674 0 0 0 0 3.2293211164689524 199.9394060392442 0 199.9394060392442 -170.61306480655912 0 0 0 0 11.200718164852788 98.542790295927261 0 98.542790295927261 -159.16777200556953 0 0 0 0 2.8330296353532773 -0.060446624806118621 0 -0.060446624806118621 -3.2649103502883889 0 0 0 0 10.108066732689394 111.28315008609934 0 111.28315008609934 -306.90734812431037 0 0 0 0 -106.0888217743717 741.85471584668267 0 741.85471584668267 -1056.2770063218204 0 0 0 0 -147.07742138598587 768.11244083441852 0 768.11244083441852 -884.37942496430242 0 0 0 0 -11.288474721582816 38.71613794490986 0 38.71613794490986 -281.66488254765864 0 0 0 0 -177.28299004119322 120.60379203027333 0 120.60379203027333 -253.81974553492182 0 0 0 0 19.533021083374479 47.14323087107914 0 47.14323087107914 -256.77803701095036 0 0 0 0 44.109542359392861 62.330318486139731 0 62.330318486139731 -216.67234236560398 0 0 0 0 15.656550908603858 81.306358863726928 0 81.306358863726928 -214.34576866223506 0 0 0 0 51.393773912385996 -1.0661013562385051 0 -1.0661013562385051 -117.40907683253135 0 0 0 0 31.356473595311286 -4.0114782345408457 0 -4.0114782345408457 -117.66209052499471 0 0 0 0 51.20583673242038 -12.749046869248559 0 -12.749046869248559 -195.64762331397014 0 0 0 0 -5.065390315480272 -5.3357100399807678 0 -5.3357100399807678 -129.6682157819705 0 0 0 0 3.3892223214750175 56.002531215195631 0 56.002531215195631 -208.84379788016668 0 0 0 0 59.253839760912342 -13.640299113903893 0 -13.640299113903893 -257.22709757415305 0 0 0 0 -50.111868813191904 67.785258561394585 0 67.785258561394585 -242.586732347816 0 0 0 0 80.693783013807433 -38.796909209087971 0 -38.796909209087971 -147.38924194125138 0 0 0 0 8.8123426886247671 -65.700176295200436 0 -65.700176295200436 33.920833773656341 0 0 0 0 12.916510854683704 0.72643764891847695 0 0.72643764891847695 -0.85107337057979038 0 0 0 0 0.8090464944645408 0.21381596991203367 0 0.21381596991203367 -1.133271871105876 0 0 0 0 -22.471600757417946 361.78420174579514 0 361.78420174579514 -616.20295715541579 0 0 0 0 2.9613266247745074 -0.68990685488956416 0 -0.68990685488956416 -3.7861343876693923 0 0 0 0 -389.96985232140742 255.95188510170192 0 255.95188510170192 -357.54416434526865 0 0 0 0 100.79913233427669 219.54852029307767 0 219.54852029307767 -457.11501560132456 0 0 0 0 -54.583945823547765 88.487409476359971 0 88.487409476359971 -170.51311352912307 0 0 0 0 52.977789941419815 89.236700336135982 0 89.236700336135982 -328.61919254288478 0 0 0 0 -42.650473595705989 180.10340265629929 0 180.10340265629929 -355.5210490968966 0 0 0 0 30.666684115047701 -115.6921493544487 0 -115.6921493544487 210.71450234520307 0 0 0 0 309.02006828095591 -77.466652418770536 0 -77.466652418770536 -267.2861049713938 0 0 0 0 267.11459243212857 190.7642181327974 0 190.7642181327974 -288.55456724571559 0 0 0 0 -31.863750959236313 53.856865471563651 0 53.856865471563651 -338.84455240937677 0 0 0 0 -69.462076905682807 203.9734561033838 0 203.9734561033838 -307.27875901782318 0 0 0 0 0.75345010420121739 0.47711022430486594 0 0.47711022430486594 -1.44494281655777 0 0 0 0 -92.456919520933297 118.71642951892863 0 118.71642951892863 -192.34115059531314 0 0 0 0 -390.40008142500665 373.8162034681809 0 373.8162034681809 -604.91911011783668 0 0 0 0 -91.711126802109902 290.98727044209954 0 290.98727044209954 -403.75965233008174 0 0 0 0 -215.05795968732764 224.8932558153756 0 224.8932558153756 -195.92530578058791 0 0 0 0 -179.74536041611827 298.75395673290768 0 298.75395673290768 -272.1752400273017 0 0 0 0 -118.56578037374038 136.10101641247456 0 136.10101641247456 -281.46771447610809 0 0 0 0 -21.48925511147354 210.8795118757198 0 210.8795118757198 -275.17680818644294 0 0 0 0 54.19350819497231 129.88837479070207 0 129.88837479070207 -377.92387922837952 0 0 0 0 -18.294275840878299 203.53794781162469 0 203.53794781162469 -366.1666345060512 0 0 0 0 -5.2470585351702539 50.68037619588722 0 50.68037619588722 -110.30895896573202 0 0 0 0 113.78771243596657 96.476751129033801 0 96.476751129033801 -392.50941722204152 0 0 0 0 61.615630517474983 119.30332765049025 0 119.30332765049025 -298.32055847602896 0 0 0 0 45.660499660370988 163.00472428798821 0 163.00472428798821 -359.41566678172967 0 0 0 0 78.30585129006613 107.25803857346182 0 107.25803857346182 -335.95672807830124 0 0 0 0 -24.458856884117267 153.88946071477403 0 153.88946071477403 -156.60641433976707 0 0 0 0 90.329955415226323 74.622700158426596 0 74.622700158426596 -311.47436113013828 0 0 0 0 116.99669482241097 40.221733858423249 0 40.221733858423249 -291.68524170931778 0 0 0 0 1.0918288417085318 -0.16225370822870389 0 -0.16225370822870389 -1.7453256414803491 0 0 0 0 -214.63267168453149 495.65503461047774 0 495.65503461047774 -534.67535647074692 0 0 0 0 208.0506689435324 -10.551800772787828 0 -10.551800772787828 -344.61744279577397 0 0 0 0 97.05538428280488 -68.873944672399375 0 -68.873944672399375 -163.6087124420992 0 0 0 0 -105.76257209152573 151.71175427264825 0 151.71175427264825 -364.65512502317506 0 0 0 0 0.15170688237942365 -0.30620253985149759 0 -0.30620253985149759 -1.5315201848684552 0 0 0 0 146.25266569933592 -34.426648836873937 0 -34.426648836873937 -710.81305618740589 0 0 0 0 58.866926739645805 126.00491021313792 0 126.00491021313792 -413.42283986187977 0 0 0 0 74.160249959665634 51.712373418820789 0 51.712373418820789 -375.22481353655166 0 0 0 0 182.11365176642721 51.8276384594501 0 51.8276384594501 -370.41841109672532 0 0 0 0 113.89602528897558 79.001407980453223 0 79.001407980453223 -347.46901001024526 0 0 0 0 144.91525984993405 6.1523154165770393 0 6.1523154165770393 -303.00595240214898 0 0 0 0 73.925693292029791 57.26840736905433 0 57.26840736905433 -347.21957827958977 0 0 0 0 24.185299190166916 73.20104159906623 0 73.20104159906623 -312.21424689523337 0 0 0 0 55.133620257080565 36.847337007398892 0 36.847337007398892 -340.99157278475468 0 0 0 0 40.505582070251648 6.4534754566375341 0 6.4534754566375341 -401.3380690710037 0 0 0 0 80.1578594385619 42.730082533533277 0 42.730082533533277 -392.00378376339722 0 0 0 0 77.035772100582108 50.230749822998405 0 50.230749822998405 -406.21868782426463 0 0 0 0 101.73588368336186 69.814043484540889 0 69.814043484540889 -444.3828698976431 0 0 0 0 120.60873205791358 77.971599214375601 0 77.971599214375601 -443.1351662788511 0 0 0 0 62.475522552217626 10.160732105811803 0 10.160732105811803 -450.48085599986371 0 0 0 0 116.48951826375833 45.728154317883309 0 45.728154317883309 -441.78943512428305 0 0 0 0 122.52201744518834 66.21832861751318 0 66.21832861751318 -361.54013749488513 0 0 0 0 93.125214824599425 91.103776417112385 0 91.103776417112385 -354.01990932172157 0 0 0 0 82.364170254335477 67.614302405469061 0 67.614302405469061 -374.68731227771559 0 0 0 0 86.40071282340341 73.919498069459223 0 73.919498069459223 -397.05778959195595 0 0 0 0 104.57915677150027 83.075168487163864 0 83.075168487163864 -395.43599064674345 0 0 0 0 114.73428092156701 101.18917789439729 0 101.18917789439729 -438.63038735474402 0 0 0 0 97.438778769924284 114.43006158275239 0 114.43006158275239 -374.37618417283738 0 0 0 0 114.79636871508956 95.284731621948595 0 95.284731621948595 -424.92625518474961 0 0 0 0 121.00644005292361 116.76124750395684 0 116.76124750395684 -438.90972014139697 0 0 0 0 129.47436257203435 104.63290444915037 0 104.63290444915037 -489.35283464478562 0 0 0 0 122.7555900335949 84.281884301371974 0 84.281884301371974 -460.45291723994887 0 0 0 0 125.70866201824356 93.014550533167494 0 93.014550533167494 -445.70997672318845 0 0 0 0 140.9621183020131 82.78638161269555 0 82.78638161269555 -499.77139112864097 0 0 0 0 141.66834060481597 88.176156445479137 0 88.176156445479137 -485.58070164018318 0 0 0 0 144.12299492733678 99.021461317843205 0 99.021461317843205 -554.70565017440822 0 0 0 0 123.50676338808489 56.943808788790193 0 56.943808788790193 -474.27117641898076 0 0 0 0 128.06037198148533 73.305628167901887 0 73.305628167901887 -458.5551600039762 0 0 0 0 130.6308118320012 77.719290165317943 0 77.719290165317943 -475.1101413450524 0 0 0 0 141.80968416267478 74.61878228441492 0 74.61878228441492 -474.58024635496258 0 0 0 0 138.19671226541686 72.474143351762905 0 72.474143351762905 -474.97950661185678 0 0 0 0 137.90772180663407 66.27056719418033 0 66.27056719418033 -469.33439856529003 0 0 0 0 141.48383474490379 62.362627035730839 0 62.362627035730839 -465.91791234046104 0 0 0 0 144.95464360546521 67.333469368735678 0 67.333469368735678 -460.94977114405629 0 0 0 0 150.39385206846146 52.151783139292093 0 52.151783139292093 -463.82302082758724 0 0 0 0 126.58618612260125 52.752194719629188 0 52.752194719629188 -463.79567728974507 0 0 0 0 136.60019215442935 50.97780534481717 0 50.97780534481717 -437.13774748594005 0 0 0 0 146.22649306505718 44.573976079947897 0 44.573976079947897 -442.81444611227198 0 0 0 0 140.82296284880522 49.906352780169982 0 49.906352780169982 -470.79840787293324 0 0 0 0 137.70448761989155 14.947847258004913 0 14.947847258004913 -444.55563402546977 0 0 0 0 137.57970066011239 3.85957820207841 0 3.85957820207841 -489.0273158698692 0 0 0 0 138.91661790057606 5.1971885175225907 0 5.1971885175225907 -408.93929813963041 0 0 0 0 137.5965025455921 7.5860697124226135 0 7.5860697124226135 -396.51747559264186 0 0 0 0 146.44839143057106 -12.231477896635624 0 -12.231477896635624 -358.05540493132139 0 0 0 0 138.59240866099935 41.176116625043505 0 41.176116625043505 -388.48022101653623 0 0 0 0 156.05656654887116 54.287796606859047 0 54.287796606859047 -540.09297042238177 0 0 0 0 151.66299709223449 48.772840394791274 0 48.772840394791274 -547.01488444946881 0 0 0 0 145.49349135056855 44.35414287608728 0 44.35414287608728 -502.66629420852269 0 0 0 0 141.60597410867285 49.306289475422091 0 49.306289475422091 -471.16202313607209 0 0 0 0 142.04002463174584 -12.612149988577585 0 -12.612149988577585 -521.0958879918071 0 0 0 0 141.40606704515631 -10.74673965027614 0 -10.74673965027614 -467.92767570530123 0 0 0 0 147.75519688646591 -16.912201342598564 0 -16.912201342598564 -538.54847513525601 0 0 0 0 155.41451841515027 -20.425826305530791 0 -20.425826305530791 -603.5490211236247 0 0 0 0 148.50410422216919 -11.656813458823308 0 -11.656813458823308 -577.15676114840426 0 0 0 0 156.16880823416432 72.277412312105298 0 72.277412312105298 -660.10872948200631 0 0 0 0 125.85991682226449 105.38230552998721 0 105.38230552998721 -708.84406657368527 0 0 0 0 155.15129186384149 -2.7231099463415376 0 -2.7231099463415376 -817.11725877657591 0 0 0 0 89.323438077545234 106.13860802349518 0 106.13860802349518 -875.67287700180532 0 0 0 0 14.624590797218843 66.09622207898974 0 66.09622207898974 -824.08874715159618 0 0 0 0 93.328676224643914 58.752535850911954 0 58.752535850911954 -672.4872195744174 0 0 0 0 47.204263658528959 181.78211596569236 0 181.78211596569236 -582.15891784525593 0 0 0 0 21.799114154249764 265.00875355193421 0 265.00875355193421 -839.52878016207342 0 0 0 0 44.666616699828865 147.15827490344236 0 147.15827490344236 -618.4555649177637 0 0 0 0 -73.574368078393491 214.79956179740111 0 214.79956179740111 -540.00840667438661 0 0 0 0 -76.80621441682834 260.53447394852719 0 260.53447394852719 -511.16401759907603 0 0 0 0 4.5354826682448675 196.5323820986905 0 196.5323820986905 -440.16704819303413 0 0 0 0 85.33592371058603 136.94100355292903 0 136.94100355292903 -544.04480626572331 0 0 0 0 -2.9547268107971831 153.73848817301769 0 153.73848817301769 -410.79161644847045 0 0 0 0 77.361907283427172 155.51820397403208 0 155.51820397403208 -479.77854226862473 0 0 0 0 104.37241955071568 126.21065848794387 0 126.21065848794387 -462.0634056112176 0 0 0 0 92.847309432340808 138.48861510930874 0 138.48861510930874 -411.59459826696548 0 0 0 0 126.76180751052698 116.45072240107402 0 116.45072240107402 -490.97354984123376 0 0 0 0 124.92138375237482 116.68156723609718 0 116.68156723609718 -490.99212935661853 0 0 0 0 130.07459297921082 119.76890385926163 0 119.76890385926163 -580.99177606224839 0 0 0 0 119.75705136602301 101.90654210082721 0 101.90654210082721 -569.93781087319076 0 0 0 0 -0.072953375766198786 41.954112719169643 0 41.954112719169643 -674.11130575887637 0 0 0 0 -1.1614373269401161 -1.4258504753199759 0 -1.4258504753199759 -2.2734963998794466 0 0 0 0 -121.3200048370409 -96.146894856812651 0 -96.146894856812651 -400.92472155675205 0 0 0 0 -137.57857425457269 -22.438391904732271 0 -22.438391904732271 -258.49315230290813 0 0 0 0 -109.48155594866394 72.1529606376007 0 72.1529606376007 -2277.8407780214038 0 0 0 0 61.258303249950586 -412.8102855931138 0 -412.8102855931138 -1738.4417483662796 0 0 0 0 353.52595116575083 -191.27063519618787 0 -191.27063519618787 -2497.5765690694097 0 0 0 0 0.28980334080580816 -200.00709914165893 0 -200.00709914165893 -2062.5715809443354 0 0 0 0 253.83013187774793 -1478.540036423532 0 -1478.540036423532 -3368.0263360089375 0 0 0 0 0.48898421465807118 2.3343002024688531 0 2.3343002024688531 -6.8698223037575872 0 0 0 0 -172.75063328476807 -351.76272971330764 0 -351.76272971330764 -1241.1587218854074 0 0 0 0 -275.27631778753016 -861.31305865362447 0 -861.31305865362447 -2096.6724016033113 0 0 0 0 -4.1219325750664115 6.8037255492288295 0 6.8037255492288295 -10.489422814244506 0 0 0 0 -73.974661810697185 -543.95829647581559 0 -543.95829647581559 -1979.6102687253951 0 0 0 0 209.14295422777832 282.20639010206651 0 282.20639010206651 -1939.2572004080357 0 0 0 0 85.141932774110956 -666.87709847690712 0 -666.87709847690712 -2391.693194290172 0 0 0 0 388.85822192594924 -921.68776227193302 0 -921.68776227193302 -2189.3213144075271 0 0 0 0 -715.56826762093942 -385.04694446414942 0 -385.04694446414942 345.00706532326149 0 0 0 0 -206.55401099921164 -852.16315170877351 0 -852.16315170877351 -699.25979523058049 0 0 0 0 -333.95084324144591 -960.18606115776493 0 -960.18606115776493 -619.24689441551163 0 0 0 0 165.84977471328648 -657.89554550202593 0 -657.89554550202593 -2057.0880818044134 0 0 0 0 97.274823564116673 -843.31096146639175 0 -843.31096146639175 -2163.3026954697998 0 0 0 0 -147.28152755476771 -600.38622011436382 0 -600.38622011436382 -1074.6402386447662 0 0 0 0 132.66866213683849 205.93585480226466 0 205.93585480226466 -1068.6000020212159 0 0 0 0 160.0554448535845 -211.60521941788465 0 -211.60521941788465 -882.74888550551941 0 0 0 0 -2.6072844609967101 -1.7900340638655479 0 -1.7900340638655479 -1.7511808781323577 0 0 0 0 -159.18726880393979 78.221243191077519 0 78.221243191077519 -287.26417560740811 0 0 0 0 -1.3477284446941225 0.66141017777822242 0 0.66141017777822242 -0.77423635217752818 0 0 0 0 417.76846912266592 -101.32120609256526 0 -101.32120609256526 -1025.6477655645431 0 0 0 0 1.4007537009719528 0.057068573207208928 0 0.057068573207208928 -63.79797194879265 0 0 0 0 322.79810118249725 -188.07727919263925 0 -188.07727919263925 -124.6472660243162 0 0 0 0 156.21842469231387 -45.426720204584853 0 -45.426720204584853 -43.903450960817281 0 0 0 0 603.01783210444501 662.8975749799356 0 662.8975749799356 -156.49528068512882 0 0 0 0 -219.50225848859009 -251.31325254250396 0 -251.31325254250396 245.17266834829934 0 0 0 0 -239.15735935657165 -108.6411350848939 0 -108.6411350848939 34.352331960701122 0 0 0 0 -303.13217635652063 291.0711755619559 0 291.0711755619559 -390.71740505453636 0 0 0 0 -254.00661627373472 233.2967281032943 0 233.2967281032943 -484.7711266690967 0 0 0 0 -436.3530606155843 868.03985378278071 0 868.03985378278071 -1154.0611849168199 0 0 0 0 -0.5806218183616636 -1.3737182212948476 0 -1.3737182212948476 -26.327765060186806 0 0 0 0 -329.68500002922019 793.86974042597285 0 793.86974042597285 -1337.0626197020902 0 0 0 0 -632.27942403382622 -1242.4446364665928 0 -1242.4446364665928 -1147.4655464384123 0 0 0 0 -506.38509951969235 345.9863372322061 0 345.9863372322061 44.000893961652764 0 0 0 0 -292.39244685272115 -298.51299126408412 0 -298.51299126408412 606.32665046754846 0 0 0 0 -304.18863389330915 -1034.3031927560805 0 -1034.3031927560805 -2500.5117537313818 0 0 0 0 376.00283788910656 -1085.569163158576 0 -1085.569163158576 -3566.1598813601449 0 0 0 0 -220.80677858275931 -1428.2980796964184 0 -1428.2980796964184 -2463.6990740843903 0 0 0 0 394.99436045755647 478.51590214855969 0 478.51590214855969 -3728.714138923584 0 0 0 0 -1988.1277363612389 -734.63271497772621 0 -734.63271497772621 -168.8048761671962 0 0 0 0 -5.9478307467613734 2.5675494756864907 0 2.5675494756864907 -5.9754485117993141 0 0 0 0 -1133.7878313462149 581.29996835909151 0 581.29996835909151 -1998.0618643896523 0 0 0 0 -1468.8195150196025 -527.07867715423708 0 -527.07867715423708 -2493.9249754167686 0 0 0 0 -136.98162424922748 343.26764849506799 0 343.26764849506799 -2476.110567526106 0 0 0 0 -679.86584201425876 586.37102222060457 0 586.37102222060457 -1245.2536226036755 0 0 0 0 -168.09130555715058 606.72333494723352 0 606.72333494723352 -2131.9947100405516 0 0 0 0 -290.04323275425412 705.73884219593674 0 705.73884219593674 -1499.9620035726039 0 0 0 0 -242.68338015700286 674.81639915400228 0 674.81639915400228 -2497.3641698427382 0 0 0 0 5.5735943646127719 362.64172247557872 0 362.64172247557872 -2135.2574723335874 0 0 0 0 261.78243680910191 450.67310457073108 0 450.67310457073108 -2500.1013079834192 0 0 0 0 -65.975919469670032 534.97702202020446 0 534.97702202020446 -1557.6357951401842 0 0 0 0 20.618432500381076 515.69059848377947 0 515.69059848377947 -2179.4240271208491 0 0 0 0 3.7406520377078323 360.26920750186764 0 360.26920750186764 -1529.2693992655695 0 0 0 0 -216.76420347094424 502.2594235288343 0 502.2594235288343 -1097.6434111272174 0 0 0 0 -192.63207411864624 617.76929404506518 0 617.76929404506518 -1254.3549832350109 0 0 0 0 -207.43853097582448 490.28253165388037 0 490.28253165388037 -1329.6576132846822 0 0 0 0 -195.55747660111467 720.57067691774864 0 720.57067691774864 -1150.5395343486161 0 0 0 0 -459.92973052173812 553.67243692530974 0 553.67243692530974 -690.63457047910197 0 0 0 0 103.96698505054621 -10.148709519111435 0 -10.148709519111435 -547.39445558542411 0 0 0 0 -16.417512640943414 398.41265431871579 0 398.41265431871579 -957.24408069739729 0 0 0 0 -277.78693149100008 455.80741785167993 0 455.80741785167993 -929.93436297847074 0 0 0 0 -184.30612022525156 457.88639037387111 0 457.88639037387111 -938.91289396480352 0 0 0 0 -3.4314971639418568 0.82572243739552675 0 0.82572243739552675 1.6988983254186181 0 0 0 0 -270.89994160657449 549.9099865715616 0 549.9099865715616 -1017.7460547504597 0 0 0 0 -240.19016250755641 436.05026175366947 0 436.05026175366947 -878.28473939510877 0 0 0 0 -73.721526512257014 157.24372913788102 0 157.24372913788102 122.19944990592194 0 0 0 0 33.411501830357111 63.389614271480241 0 63.389614271480241 -119.84160134538979 0 0 0 0 0.50683461466144308 177.27682720684425 0 177.27682720684425 -35.809203665441601 0 0 0 0 53.783633122661342 26.133395798078709 0 26.133395798078709 -86.546933350429754 0 0 0 0 45.004210880935261 -1.9216656809439883 0 -1.9216656809439883 -2.7309234467848 0 0 0 0 30.603343813273 51.473466667099274 0 51.473466667099274 -108.43784271715413 0 0 0 0 50.488473121278503 11.805599686187634 0 11.805599686187634 -98.581589186595011 0 0 0 0 42.714854751834196 60.423565035951469 0 60.423565035951469 -127.38862209703075 0 0 0 0 49.302709371279889 23.80593752677305 0 23.80593752677305 -171.54416966885765 0 0 0 0 42.6520627324673 -16.131174799612381 0 -16.131174799612381 -79.90919794945512 0 0 0 0 21.109262250572556 2.1009679495242608 0 2.1009679495242608 1.7536171043303739 0 0 0 0 7.5593107698850872 29.829616462408922 0 29.829616462408922 -110.19235262930306 0 0 0 0 19.919079306896492 26.526764899961563 0 26.526764899961563 -180.35711438340149 0 0 0 0 36.070312266212568 25.569173365457573 0 25.569173365457573 -97.700817635275598 0 0 0 0 47.101927447684602 5.5278561583927512 0 5.5278561583927512 -106.84158864261917 0 0 0 0 33.567820077942088 18.822617308920599 0 18.822617308920599 -112.95579350575827 0 0 0 0 29.109521148675519 6.239077151884544 0 6.239077151884544 -18.027634345767623 0 0 0 0 27.667774011747497 2.8274888770247344 0 2.8274888770247344 -117.88717643422206 0 0 0 0 62.737623381163758 17.028033809634508 0 17.028033809634508 -136.77730505173531 0 0 0 0 3.7794755501042663 -6.824425916307673 0 -6.824425916307673 -87.819836787075815 0 0 0 0 364.04287048973009 -75.650600971215681 0 -75.650600971215681 -348.82394660287537 0 0 0 0 414.09570068926871 -32.611668382392963 0 -32.611668382392963 -460.67531150925788 0 0 0 0 71.48499400990022 27.47503944863638 0 27.47503944863638 -124.31100459051231 0 0 0 0 84.244940662289835 43.900501333581559 0 43.900501333581559 -98.134918571828166 0 0 0 0 6.1996536521437271 9.0456876447277139 0 9.0456876447277139 -86.584679173300685 0 0 0 0 3.5765721693426182 -0.51552680428567044 0 -0.51552680428567044 -29.01188461656708 0 0 0 0 273.70849613436263 -258.27569662265887 0 -258.27569662265887 500.28631215397036 0 0 0 0 14.678253428153273 13.724225275879562 0 13.724225275879562 -93.306041619900498 0 0 0 0 1.725396752662846 7.6779875223261769 0 7.6779875223261769 -81.742095141073492 0 0 0 0 45.328331942874861 4.1351079316926018 0 4.1351079316926018 -87.942149658410926 0 0 0 0 235.66327557223991 -97.600799321728118 0 -97.600799321728118 -62.782805075112265 0 0 0 0 -5.2998740787961651 16.30111329198553 0 16.30111329198553 -72.554568389048654 0 0 0 0 27.527763164463977 17.544720084883011 0 17.544720084883011 -89.325268561806297 0 0 0 0 27.026089355964359 23.761256868710916 0 23.761256868710916 -86.910457197500364 0 0 0 0 21.758409445515099 33.852707520327385 0 33.852707520327385 -61.231534425562131 0 0 0 0 -74.697458894008378 7.5325589180138195 0 7.5325589180138195 105.36974247310718 0 0 0 0 -4.743572597505457 1.1927352222262897 0 1.1927352222262897 -14.361306534637102 0 0 0 0 6.8763281780501426 0.12646478394795224 0 0.12646478394795224 -20.850238680593819 0 0 0 0 -48.66704548047062 298.6659288358569 0 298.6659288358569 442.76399986448814 0 0 0 0 213.96680597365798 -113.88752051259507 0 -113.88752051259507 -83.49706209748183 0 0 0 0 746.19694534949952 51.31640782202885 0 51.31640782202885 -294.39146691269707 0 0 0 0 -158.438179463952 37.098182997266122 0 37.098182997266122 284.4027263775788 0 0 0 0 200.57271290344269 269.52859844100203 0 269.52859844100203 -2.1094599454081617 0 0 0 0 358.02958884347549 26.968614190760491 0 26.968614190760491 -89.552998508210294 0 0 0 0 188.18067629559255 -123.14780068958862 0 -123.14780068958862 102.87689682762721 0 0 0 0 35.85674990963787 69.824221609895176 0 69.824221609895176 -89.778200194672536 0 0 0 0 -196.34897566962798 112.93598942046083 0 112.93598942046083 108.81524686543298 0 0 0 0 338.3130967041206 -259.6878499602426 0 -259.6878499602426 -609.45150217675837 0 0 0 0 261.24764740295103 259.44089580326727 0 259.44089580326727 -712.28923573737848 0 0 0 0 217.29891187490671 -97.345789359726041 0 -97.345789359726041 -293.39450644987664 0 0 0 0 0.32301747417217758 0.14464306854628717 0 0.14464306854628717 -0.51597322187296868 0 0 0 0 9.929668698214158 233.14968201907686 0 233.14968201907686 -156.29227274817822 0 0 0 0 83.703869791967264 108.77081011968403 0 108.77081011968403 -80.130350926869141 0 0 0 0 -36.529885652977953 153.74103553702662 0 153.74103553702662 -18.35104545563081 0 0 0 0 -31.940589998258499 50.505054343200754 0 50.505054343200754 -68.68449641454572 0 0 0 0 0.52522381325497647 0.33624580083574074 0 0.33624580083574074 -1.0256196227171017 0 0 0 0 -11.462498802204472 35.033343120103382 0 35.033343120103382 -83.380482006701641 0 0 0 0 -8.0355934706582701 34.534355944539129 0 34.534355944539129 -83.468156625618576 0 0 0 0 -0.0064105464095919294 25.245362970712449 0 25.245362970712449 -73.194992246993934 0 0 0 0 -27.508867844142465 33.457876147942443 0 33.457876147942443 -33.035012407548493 0 0 0 0 -0.038011248177793 7.2674845429501147 0 7.2674845429501147 -17.675997385729715 0 0 0 0 -164.34294178342856 67.326156463648658 0 67.326156463648658 8.9958457766479114 0 0 0 0 -32.46388546306747 127.66453504885067 0 127.66453504885067 -50.178183391588391 0 0 0 0 -63.883035007239414 3.6623193841442117 0 3.6623193841442117 -279.99311473045964 0 0 0 0 0.12278872011550632 0.25457368730539542 0 0.25457368730539542 -0.5591793305396493 0 0 0 0 -156.25217978724535 100.9027719072983 0 100.9027719072983 -327.10926961672521 0 0 0 0 -2.5333591218953067 26.69297384571837 0 26.69297384571837 -76.149467053881381 0 0 0 0 -2.5333591218939855 26.692973845725646 0 26.692973845725646 -76.149467053845001 0 0 0 0 -2.5333591218977176 26.692973845762026 0 26.692973845762026 -76.149467053837725 0 0 0 0 1.0138209754544318 0.087736058735131905 0 0.087736058735131905 -0.21141242126937243 0 0 0 0 3.6341855863146293 3.1752451647334965 0 3.1752451647334965 -0.80593522276103613 0 0 0 0 3.8458882908530114 3.9607887571864921 0 3.9607887571864921 0.68361605658719782 0 0 0 0 3.1244588046921109 2.9221960907043467 0 2.9221960907043467 0.71412490669172257 0 0 0 0 3.3803898036246665 2.3942421815445414 0 2.3942421815445414 -0.70344632947126229 0 0 0 0 -1.0351607664583446 0.64978527738682601 0 0.64978527738682601 -0.28143187776888112 0 0 0 0 -15.964578952015486 56.955620993059711 0 56.955620993059711 28.361065185687039 0 0 0 0 0.77935594528255625 44.38763972419838 0 44.38763972419838 24.657464532865561 0 0 0 0 10.586749102636933 18.888010838676564 0 18.888010838676564 -77.108129514970642 0 0 0 0 -0.0019382940023417964 36.877930481680892 0 36.877930481680892 -90.14431720617722 0 0 0 0 -50.583459043775463 117.57285113285616 0 117.57285113285616 -173.52120274424669 0 0 0 0 4.6110398257476533 -3.4230388345458778 0 -3.4230388345458778 32.304153471102154 0 0 0 0 29.247508786469417 35.892654224729995 0 35.892654224729995 -85.703228214551928 0 0 0 0 -0.35983002545949083 0.35420986871282878 0 0.35420986871282878 -0.2533733998072023 0 0 0 0 27.954850158570594 16.541099346824922 0 16.541099346824922 8.115674604443484 0 0 0 0 3.8376397330133045 46.425098629846616 0 46.425098629846616 -46.031275782239391 0 0 0 0 15.425439677457803 3.547349933127407 0 3.547349933127407 -107.95966222005882 0 0 0 0 -15.316051081089711 9.4085678066730907 0 9.4085678066730907 -53.793758959072875 0 0 0 0 76.391449265620281 -88.181472243362805 0 -88.181472243362805 -97.095908030139981 0 0 0 0 -0.10540483278363635 1.3021152037650978 0 1.3021152037650978 -6.7832866999123098 0 0 0 0 -326.07178693772204 211.86600057394389 0 211.86600057394389 -71.231962000165367 0 0 0 0 6.789232927947296 57.927795255673118 0 57.927795255673118 50.989660051025567 0 0 0 0 35.388265431273524 39.098481644236813 0 39.098481644236813 -54.823267535466584 0 0 0 0 0.16290711931372834 2.1262452274339609 0 2.1262452274339609 -19.962329602936904 0 0 0 0 110.20719435068327 64.197278507461306 0 64.197278507461306 -114.8278599958212 0 0 0 0 38.002007604558514 7.6163271891164186 0 7.6163271891164186 1.7967404997034464 0 0 0 0 19.720845095181403 14.288035582241719 0 14.288035582241719 8.1650931083042906 0 0 0 0 24.049052962696351 3.8936668088499573 0 3.8936668088499573 1.2747154608687197 0 0 0 0 26.135141642897167 -2.1884631686480134 0 -2.1884631686480134 -2.6880192585522309 0 0 0 0 -0.072923466003546961 1.9717411224284422 0 1.9717411224284422 -32.261896406223713 0 0 0 0 41.91949105976596 -21.524292396199598 0 -21.524292396199598 -41.857189126450976 0 0 0 0 17.425313118408098 16.331001189468225 0 16.331001189468225 -13.369875020100153 0 0 0 0 87.251669800354421 4.614937923176285 0 4.614937923176285 -63.304453727934742 0 0 0 0 37.036918271060927 3.5046128839967423 0 3.5046128839967423 -40.520856964503764 0 0 0 0 57.432376559504036 33.640249472700816 0 33.640249472700816 -63.249799981009346 0 0 0 0 20.6263278813326 -41.980190704736742 0 -41.980190704736742 -41.513325282161532 0 0 0 0 16.357516736272373 -53.400974098978622 0 -53.400974098978622 -60.040898644605477 0 0 0 0 48.268519204427321 -13.867677652400744 0 -13.867677652400744 -48.051690134935598 0 0 0 0 5.8090586225662264 -29.371007277033641 0 -29.371007277033641 -44.109685904104481 0 0 0 0 23.864649717223983 -43.477306162787499 0 -43.477306162787499 -74.042815509696084 0 0 0 0 52.701230020323237 -32.175405298024998 0 -32.175405298024998 -64.117116277710011 0 0 0 0 42.006360872303958 -19.233750014753241 0 -19.233750014753241 -71.667827083336306 0 0 0 0 -5.5230610291291562 11.856801283353747 0 11.856801283353747 -20.325396537198685 0 0 0 0 77.066577529929418 -21.805101709256633 0 -21.805101709256633 -74.955281863090931 0 0 0 0 0.082571001065263133 -5.1914884400057995 0 -5.1914884400057995 -60.226291860217032 0 0 0 0 31.866664738646762 -26.0126329607956 0 -26.0126329607956 -12.655316649954329 0 0 0 0 100.31919763975826 -7.9908386117527073 0 -7.9908386117527073 -93.783626803655352 0 0 0 0 -0.17066955093221398 -5.5813348719015847 0 -5.5813348719015847 -75.422238850582687 0 0 0 0 127.03452227476964 94.34175823437181 0 94.34175823437181 -57.033283882308751 0 0 0 0 -132.71116661709561 -45.348556233107956 0 -45.348556233107956 146.37958285960485 0 0 0 0 48.746671311283535 27.481663119251607 0 27.481663119251607 -89.080806183286768 0 0 0 0 46.431796923732691 -16.467035073936131 0 -16.467035073936131 -77.713071016312824 0 0 0 0 43.84073491613691 -8.6638282133862958 0 -8.6638282133862958 -96.23504712079739 0 0 0 0 43.390600087422172 -8.2695906670414843 0 -8.2695906670414843 -60.279202607169282 0 0 0 0 10.676980426711452 -11.156017729568703 0 -11.156017729568703 -88.449556096911692 0 0 0 0 40.537453060366488 7.1167042978158861 0 7.1167042978158861 -123.14860990948364 0 0 0 0 2.7549553701451259 5.2007199120889709 0 5.2007199120889709 -126.91398195929287 0 0 0 0 -15.405680514200412 -32.599452410002414 0 -32.599452410002414 -103.01326918554332 0 0 0 0 10.92997195366415 -1.851863558230491 0 -1.851863558230491 -135.55935571891314 0 0 0 0 3.1532252732049528 -32.655939763622882 0 -32.655939763622882 -107.15412587858373 0 0 0 0 25.96500319232382 -35.394132953722874 0 -35.394132953722874 -84.384123848360105 0 0 0 0 6.3971656058688495 -23.2863346522754 0 -23.2863346522754 -80.222080309846206 0 0 0 0 26.105701131744354 -54.775854479386908 0 -54.775854479386908 -95.599662727250688 0 0 0 0 22.587786930371294 -48.618477991836698 0 -48.618477991836698 -56.727120688039577 0 0 0 0 0.74354382639512551 -44.474783519190169 0 -44.474783519190169 -43.347077420425194 0 0 0 0 -39.371074128430337 -11.979376926787154 0 -11.979376926787154 -98.546743602782954 0 0 0 0 2.1073440467177988 -62.053029324702948 0 -62.053029324702948 -148.11522635106667 0 0 0 0 -37.224656477268553 -30.112602602133393 0 -30.112602602133393 44.453178383446357 0 0 0 0 -29.926250279355372 -91.391402587210905 0 -91.391402587210905 -50.217511548358743 0 0 0 0 -0.50088275174118557 -3.5294287411031462 0 -3.5294287411031462 -5.8860034460927437 0 0 0 0 24.292850925413632 -55.404548027198871 0 -55.404548027198871 -38.704530353199516 0 0 0 0 -3.2772995087693744 -12.358299387942679 0 -12.358299387942679 -35.973352015513228 0 0 0 0 -12.739917837634424 -24.335170981296287 0 -24.335170981296287 7.9023143897565475 0 0 0 0 -48.350192991681126 16.145980344419513 0 16.145980344419513 209.80115812977601 0 0 0 0 -4.8627611094316308 21.535127974042553 0 21.535127974042553 203.93476140586608 0 0 0 0 -0.25357986958938294 3.0838616592012613 0 3.0838616592012613 6.9034448405950037 0 0 0 0 -6.8209908149746923 60.882258178638722 0 60.882258178638722 80.593654651878751 0 0 0 0 5.5105446125652406 30.63256972147974 0 30.63256972147974 95.905889930727426 0 0 0 0 0.89723896736086317 34.128803649757174 0 34.128803649757174 226.96572218558686 0 0 0 0 -4.0615735763371958 12.260121857500053 0 12.260121857500053 96.609915691959031 0 0 0 0 25.004556961868502 24.639853703360131 0 24.639853703360131 100.76903088833205 0 0 0 0 -36.304811021413343 46.025808546466578 0 46.025808546466578 124.98908325850789 0 0 0 0 -25.334067837896487 -48.462426499504318 0 -48.462426499504318 80.537567551691609 0 0 0 0 -18.221302450114081 -6.3201448091203929 0 -6.3201448091203929 29.60866657999577 0 0 0 0 -86.233105893379957 13.635435514428536 0 13.635435514428536 24.340222158862161 0 0 0 0 -51.672890181124757 -15.030580247981561 0 -15.030580247981561 -89.29230325644312 0 0 0 0 -127.59889763477554 -28.346054816283868 0 -28.346054816283868 -86.718171367740979 0 0 0 0 -69.848041380250947 14.850986455548991 0 14.850986455548991 -220.94683416480984 0 0 0 0 -81.412899905561517 -78.361511563438398 0 -78.361511563438398 -154.66359586492035 0 0 0 0 -54.714684641293843 43.670206225209768 0 43.670206225209768 -47.382196186241345 0 0 0 0 -94.792801351434036 -27.612192439199134 0 -27.612192439199134 -70.121660291188164 0 0 0 0 -30.82709152503412 31.885890564291913 0 31.885890564291913 -58.519694168213391 0 0 0 0 -3.6870039794000604 41.810935662713746 0 41.810935662713746 -52.930985897051869 0 0 0 0 1.6117488662148389 38.701550655110623 0 38.701550655110623 12.384556301951307 0 0 0 0 -53.625288995759661 26.916140306893794 0 26.916140306893794 13.82055757381022 0 0 0 0 -34.696001524969518 46.231819739565253 0 46.231819739565253 65.808413870370714 0 0 0 0 -18.957679953779689 40.356569652718463 0 40.356569652718463 62.083556375990156 0 0 0 0 3.2645666439752858 63.697706644903519 0 63.697706644903519 23.326355754392353 0 0 0 0 13.817894509275675 46.523490560761275 0 46.523490560761275 50.355253133922815 0 0 0 0 4.7603905447097077 68.555405002589396 0 68.555405002589396 18.85567549312691 0 0 0 0 54.345060518321247 54.801718084007007 0 54.801718084007007 6.7794513932603877 0 0 0 0 -11.865492951635588 30.866593416241813 0 30.866593416241813 15.222426028549307 0 0 0 0 24.822382126117645 -27.307360202838026 0 -27.307360202838026 15.431185534251199 0 0 0 0 66.198230234008406 81.332746363994374 0 81.332746363994374 -5.0707074672609451 0 0 0 0 40.887624411284833 13.79274464048649 0 13.79274464048649 -87.211368847711128 0 0 0 0 -4.0291262974924393 24.779712747775193 0 24.779712747775193 -36.081179240631172 0 0 0 0 -0.38863028861362942 -1.3267159267045168 0 -1.3267159267045168 -7.2103831397777753 0 0 0 0 -5.6906046796593728 -6.1311572133126901 0 -6.1311572133126901 -12.229184439973324 0 0 0 0 -18.390439087947698 7.6898848253949836 0 7.6898848253949836 -14.447665004525334 0 0 0 0 119.12977569244003 52.279072710076434 0 52.279072710076434 -19.133151882037055 0 0 0 0 5.1216578996450153 7.6020027450431371 0 7.6020027450431371 -21.991833688050974 0 0 0 0 1.1949119276001738 -0.23359693976753704 0 -0.23359693976753704 -2.5415242463831618 0 0 0 0 61.697021019369458 23.046064091528933 0 23.046064091528933 24.971745474991621 0 0 0 0 -2.7058787228170331 -12.564983241900336 0 -12.564983241900336 -11.768531401641667 0 0 0 0 0.15106564880789186 -4.9896146643121142 0 -4.9896146643121142 -7.6050181777102352 0 0 0 0 -5.8291829305271676 -9.0685044343699701 0 -9.0685044343699701 -11.455825287902371 0 0 0 0 -0.015205240832941058 -0.58408092151074698 0 -0.58408092151074698 -5.7408342674632138 0 0 0 0 -3.512930610051626 -11.286059297417523 0 -11.286059297417523 -9.3386191462777788 0 0 0 0 3.8901900077098617 -19.363607192673953 0 -19.363607192673953 -52.721275532538129 0 0 0 0 -1.0633234017032009 -9.9290393252304057 0 -9.9290393252304057 -43.631442134399549 0 0 0 0 -4.0897539073548614 -17.762107454596844 0 -17.762107454596844 -33.409401165234158 0 0 0 0 8.4438644652176755 -8.8690672274320121 0 -8.8690672274320121 -25.761216802946958 0 0 0 0 23.000040676850574 -0.31538001581793651 0 -0.31538001581793651 -43.292077741032699 0 0 0 0 -6.4739850612542131 -15.855063707016797 0 -15.855063707016797 -10.279188261472632 0 0 0 0 -0.24109333242267894 -13.1337062015009 0 -13.1337062015009 -50.890160113803177 0 0 0 0 -3.9114432926107252 -9.7707358497966652 0 -9.7707358497966652 -13.761828987990157 0 0 0 0 -1.6928050300428623 -7.8434442100649591 0 -7.8434442100649591 -5.4728057926249249 0 0 0 0 -1.5042752740510785 -14.363820776831261 0 -14.363820776831261 -24.622622143331682 0 0 0 0 -2.362791340273696 -6.0990289073460957 0 -6.0990289073460957 -5.0104979590296637 0 0 0 0 23.338079013262359 19.996130062390876 0 19.996130062390876 25.152018473881981 0 0 0 0 -1.4312613857505105 -15.670545089296262 0 -15.670545089296262 -23.152276288087819 0 0 0 0 -1.7477143997334879 -8.4166663678304765 0 -8.4166663678304765 -9.713058018773836 0 0 0 0 -10.379178463446351 40.43719758518273 0 40.43719758518273 93.88236896885428 0 0 0 0 23.070319292149293 21.731519620576819 0 21.731519620576819 68.61664896417642 0 0 0 0 -4.5035725731582481 -9.6679832107396066 0 -9.6679832107396066 0.36419110673632815 0 0 0 0 -1.7710906083793816 -9.0353876686422154 0 -9.0353876686422154 -10.400886547082337 0 0 0 0 -7.5737258276405797 -14.304431843780478 0 -14.304431843780478 9.8985967336235987 0 0 0 0 -1.8264295370336185 -14.823252021087683 0 -14.823252021087683 -25.016855345878867 0 0 0 0 -2.9427941115621588 -14.090700089426193 0 -14.090700089426193 -25.373196893942264 0 0 0 0 -18.723835849410541 -26.190450450595197 0 -26.190450450595197 -46.291072316613281 0 0 0 0 -18.764228667850148 -63.053794510578882 0 -63.053794510578882 -57.858241554000415 0 0 0 0 0.018914264931481392 -8.1168956925936193 0 -8.1168956925936193 -45.390607851894742 0 0 0 0 19.570656218043418 -24.729269205338909 0 -24.729269205338909 -60.105526110826759 0 0 0 0 -5.4538448252581269 -21.087699469788816 0 -21.087699469788816 -29.482304899720475 0 0 0 0 8.7219883983343607 -34.675408099086781 0 -34.675408099086781 -52.28420145191194 0 0 0 0 0.88433572592356313 1.316799103631638 0 1.316799103631638 -30.015643619815819 0 0 0 0 52.26593741576005 -21.855546379985753 0 -21.855546379985753 -53.942123281027307 0 0 0 0 32.285539552264595 4.798570478829788 0 4.798570478829788 -82.334704083448742 0 0 0 0 2.9175073470787338 1.3531216001106769 0 1.3531216001106769 -43.884511712227351 0 0 0 0 33.241379662287954 -28.512807436862204 0 -28.512807436862204 -0.10693583023476094 0 0 0 0 0.36993494795177639 0.045376388028259385 0 0.045376388028259385 -0.10205659229940522 0 0 0 0 2.7716649683162018 30.257397734938422 0 30.257397734938422 -94.749235796072753 0 0 0 0 0.55899680855489109 4.4580694658345692 0 4.4580694658345692 -29.161102343015955 0 0 0 0 -0.62839181773760466 4.7728513018300447 0 4.7728513018300447 -1.3114208915246781 0 0 0 0 1.8295107034267433 -3.9829383110176906 0 -3.9829383110176906 -6.9704548547038172 0 0 0 0 0.47659545045156904 1.2836076537826671 0 1.2836076537826671 -26.57046636933228 0 0 0 0 2.3488111444389688 -14.021479513503436 0 -14.021479513503436 -39.959876881213859 0 0 0 0 0.72324355540954843 -6.3488695175801491 0 -6.3488695175801491 -20.249200671248929 0 0 0 0 1.3575139791219044 -4.8053100498655112 0 -4.8053100498655112 -20.614401243226894 0 0 0 0 4.1397358495508039 3.5999961521909967 0 3.5999961521909967 -11.395560738320352 0 0 0 0 0.78732207799293974 -23.506091201496019 0 -23.506091201496019 -42.836576442292426 0 0 0 0 1.714068007095193 -11.426218186752521 0 -11.426218186752521 -11.746236051083542 0 0 0 0 -0.21990676967715306 -6.3123017446635998 0 -6.3123017446635998 -11.274563898748298 0 0 0 0 -2.8637210148102099 -11.000885150652721 0 -11.000885150652721 -11.079421616974287 0 0 0 0 -5.618371606961615 -10.897234130929178 0 -10.897234130929178 -18.31434527131205 0 0 0 0 1.6901922814589365 -6.5706221423803193 0 -6.5706221423803193 -15.368613005383281 0 0 0 0 4.5747098305942018 -5.6876284487298108 0 -5.6876284487298108 -11.230583080585347 0 0 0 0 5.7281006922596589 10.194646812604333 0 10.194646812604333 -30.472454048867803 0 0 0 0 -1.6016802046402105 -5.3950464344594593 0 -5.3950464344594593 -13.747155851549252 0 0 0 0 1.6765938677713956 -2.4643810219176459 0 -2.4643810219176459 -18.980163197299277 0 0 0 0 0.99914152479583807 -0.50544871259676416 0 -0.50544871259676416 -27.316459008627021 0 0 0 0 42.027355752601125 -11.681881713739131 0 -11.681881713739131 -49.140378788495582 0 0 0 0 3.0746200495903788 -5.8967381027930514 0 -5.8967381027930514 0.12370277355861958 0 0 0 0 23.141674097684131 -8.4637247846076207 0 -8.4637247846076207 -19.127776934798021 0 0 0 0 26.254927187637975 -17.592837722739205 0 -17.592837722739205 -34.419938911698409 0 0 0 0 8.9797358505330855 -13.635698326700549 0 -13.635698326700549 -8.2072219949623104 0 0 0 0 9.8298833402898538 -8.4603400445703301 0 -8.4603400445703301 -22.792855924533796 0 0 0 0 25.652081968031069 -28.926857892252883 0 -28.926857892252883 -19.679645984590024 0 0 0 0 0.042581644902710186 -62.662136170696613 0 -62.662136170696613 -31.127263517199026 0 0 0 0 28.777681005678275 -37.736755076567533 0 -37.736755076567533 -9.6508926097376388 0 0 0 0 14.932789973613822 -37.236230602349679 0 -37.236230602349679 -9.2499572191409243 0 0 0 0 0.19603320822282796 0.1074718158435104 0 0.1074718158435104 -1.0604168390581066 0 0 0 0 -2.9407118413603115 -29.324638269044954 0 -29.324638269044954 46.301043285282503 0 0 0 0 0.0060824781448697608 -40.554012541379052 0 -40.554012541379052 21.063169510242005 0 0 0 0 14.930516471779171 -20.485756490612403 0 -20.485756490612403 18.112874872575048 0 0 0 0 14.783822406410522 -18.075491100014915 0 -18.075491100014915 -4.992951880718465 0 0 0 0 -11.682218117009283 25.173739995715152 0 25.173739995715152 -74.740473443154769 0 0 0 0 -11.813436180270585 30.401637528415449 0 30.401637528415449 -68.43484620959498 0 0 0 0 -0.0074619967249483308 1.6608941209633485 0 1.6608941209633485 -7.5129571505640342 0 0 0 0 0.11228214143808159 0.37375254475442432 0 0.37375254475442432 -0.81813228004466509 0 0 0 0 -44.462877093462339 50.630318266677932 0 50.630318266677932 -294.88556232691917 0 0 0 0 3.0870964213659136 73.628305509266283 0 73.628305509266283 -265.39229712288943 0 0 0 0 -80.801159687609925 -88.024104685431666 0 -88.024104685431666 -338.58619550805361 0 0 0 0 -11.814161927061377 -67.294252495410547 0 -67.294252495410547 -436.21002186283295 0 0 0 0 95.736164618572275 5.3669791765350965 0 5.3669791765350965 -467.17180401810856 0 0 0 0 -203.13082227903351 286.32438451563939 0 286.32438451563939 -599.13852968541323 0 0 0 0 -205.63103046018887 81.458711616945948 0 81.458711616945948 -303.96522105811528 0 0 0 0 -172.05489762468051 111.47309456217044 0 111.47309456217044 -442.03310761298781 0 0 0 0 -57.651362582178763 19.397757186037779 0 19.397757186037779 -368.0383068668707 0 0 0 0 -114.92450956514347 111.55300798327244 0 111.55300798327244 -328.07543871783855 0 0 0 0 -172.1798791790543 9.974600848130649 0 9.974600848130649 -430.83191564401932 0 0 0 0 -334.82017581643925 14.869538523283836 0 14.869538523283836 -332.70489308599645 0 0 0 0 -103.09736532066631 -44.10695644547377 0 -44.10695644547377 -38.135025530151324 0 0 0 0 -75.296119571724375 113.89710504767208 0 113.89710504767208 -453.28202445841998 0 0 0 0 -0.1805061789063398 -0.30582337219807698 0 -0.30582337219807698 -0.79961578550997103 0 0 0 0 -113.55340994571213 169.88330267859237 0 169.88330267859237 -290.23287429446646 0 0 0 0 -120.82213681640769 166.9849447679444 0 166.9849447679444 -286.27853894605687 0 0 0 0 -126.92707199246161 176.10182521396928 0 176.10182521396928 -285.09856933422998 0 0 0 0 -118.36436108146336 148.17554428818403 0 148.17554428818403 -264.88446656825181 0 0 0 0 -144.25269913431521 163.63355293814311 0 163.63355293814311 -266.56782581347215 0 0 0 0 -105.32855905778979 149.04239279712056 0 149.04239279712056 -271.47137577320973 0 0 0 0 -86.583741791614102 120.59004214390006 0 120.59004214390006 -342.0147040564807 0 0 0 0 -70.198232947238466 81.905236516937293 0 81.905236516937293 -250.99601662749774 0 0 0 0 36.500731781496995 34.936267500279428 0 34.936267500279428 -231.00864583368821 0 0 0 0 34.180066851355605 11.73273054009951 0 11.73273054009951 -288.64086807697458 0 0 0 0 -87.016045208302785 75.720834193482006 0 75.720834193482006 -196.25123221102695 0 0 0 0 -41.344257304536313 104.9453329192911 0 104.9453329192911 -231.23031628085664 0 0 0 0 -120.55334536497867 180.88782973751586 0 180.88782973751586 -198.06098106924765 0 0 0 0 -83.979362924209113 89.557937375759138 0 89.557937375759138 -216.19351250980981 0 0 0 0 -34.367914686170991 -0.36170001143159425 0 -0.36170001143159425 -8.0620791437031585 0 0 0 0 266.69449016219187 -51.025877897267492 0 -51.025877897267492 -228.88086035277229 0 0 0 0 -15.656757946725975 222.8338796484295 0 222.8338796484295 -56.714068476088869 0 0 0 0 213.23789537442281 46.953830674694473 0 46.953830674694473 -248.89460539444553 0 0 0 0 53.978873794650553 115.03713836252791 0 115.03713836252791 -274.88229562566994 0 0 0 0 4.3822005646653892 0.061164590839155153 0 0.061164590839155153 -0.25561723933068947 0 0 0 0 131.51011547217149 40.370619484478084 0 40.370619484478084 -247.2913950042639 0 0 0 0 118.68035374442388 -10.112629277558881 0 -10.112629277558881 -236.92122148704766 0 0 0 0 18.170129605235616 15.410847959490638 0 15.410847959490638 -234.07345913565496 0 0 0 0 8.1693617849509792 -10.776827159119421 0 -10.776827159119421 -165.39208398674236 0 0 0 0 63.378806919651197 -47.323142776058376 0 -47.323142776058376 -173.29142779143876 0 0 0 0 43.538239627822804 -29.785677752697666 0 -29.785677752697666 -164.39323022199733 0 0 0 0 -3.6381241022559152 -51.448534689517146 0 -51.448534689517146 -96.938425127176743 0 0 0 0 -72.275331537943657 -60.598942520169658 0 -60.598942520169658 -97.806574552195343 0 0 0 0 161.35169674688223 -74.75873897553538 0 -74.75873897553538 -165.60862335590173 0 0 0 0 91.339036640197264 -80.687733049657254 0 -80.687733049657254 -147.97697076394979 0 0 0 0 104.45289460853473 -118.98223073580812 0 -118.98223073580812 -112.28365694144486 0 0 0 0 191.54470129349011 -138.90094538611083 0 -138.90094538611083 -115.81345438496646 0 0 0 0 144.84708790528202 -67.244936906157818 0 -67.244936906157818 -53.471294514918554 0 0 0 0 25.170706474329563 -143.01716765789388 0 -143.01716765789388 -102.42673876643676 0 0 0 0 237.2434925233938 -4.0830060497464729 0 -4.0830060497464729 -290.45559703932668 0 0 0 0 143.33169351267679 42.887410323739459 0 42.887410323739459 -288.41360113878909 0 0 0 0 251.59722650108597 -40.658978688225034 0 -40.658978688225034 -280.1402263918776 0 0 0 0 233.77347194005006 -15.363972711791575 0 -15.363972711791575 -232.10418297446449 0 0 0 0 163.54444407013543 -31.504572454589152 0 -31.504572454589152 -224.13571702685294 0 0 0 0 245.29765875338489 -90.1966904966539 0 -90.1966904966539 -196.79750568671443 0 0 0 0 202.46998039850382 -38.313063745452382 0 -38.313063745452382 -164.89335039544676 0 0 0 0 232.08526284050004 -59.428353190291091 0 -59.428353190291091 -162.231605163528 0 0 0 0 278.07419572679464 -150.76233316232538 0 -150.76233316232538 -69.376148595110863 0 0 0 0 194.86293249695177 -160.76824114243936 0 -160.76824114243936 121.03771860105917 0 0 0 0 220.48019264451432 -52.465836140458123 0 -52.465836140458123 81.36815698632563 0 0 0 0 263.11200470316527 -62.697528731512193 0 -62.697528731512193 -182.18536967892578 0 0 0 0 323.50619184763946 -293.68156788640772 0 -293.68156788640772 30.24769093519717 0 0 0 0 329.65404950921311 -74.889148422506935 0 -74.889148422506935 -408.20465589606465 0 0 0 0 414.30067276248451 -5.0459543433398721 0 -5.0459543433398721 487.35181294722133 0 0 0 0 156.7061693464475 -550.74982738006656 0 -550.74982738006656 310.64792597722499 0 0 0 0 166.93642637207813 -140.56370694232464 0 -140.56370694232464 231.64640062183025 0 0 0 0 6.7091565130515765 -1.6009272071943599 0 -1.6009272071943599 -4.8251018341557455 0 0 0 0 297.01581306908338 -113.6757753911661 0 -113.6757753911661 230.90561914415412 0 0 0 0 306.99757134382162 -109.49546823842684 0 -109.49546823842684 99.765657919746445 0 0 0 0 439.31142384812119 -275.01912181645457 0 -275.01912181645457 172.727345641586 0 0 0 0 -3.8981556624946716 -10.563233832243156 0 -10.563233832243156 5.9502219001361425 0 0 0 0 -6.6535098590611597 -15.619823366883793 0 -15.619823366883793 17.289981796930078 0 0 0 0 -16.495614868349595 -10.294677644267495 0 -10.294677644267495 26.511966083319578 0 0 0 0 4.8873477458016445 -21.618105815770775 0 -21.618105815770775 -28.745968013465216 0 0 0 0 71.041459453008429 -20.443738926529477 0 -20.443738926529477 -80.730572634452983 0 0 0 0 -9.977333968141739 -23.940013053798879 0 -23.940013053798879 -34.704043521592553 0 0 0 0 37.604409170966392 -46.505115579067933 0 -46.505115579067933 -12.342591835336862 0 0 0 0 59.084459275111584 -155.39343913830362 0 -155.39343913830362 84.089284632158524 0 0 0 0 -99.304718272864193 -97.182782436721027 0 -97.182782436721027 -10.035655361309182 0 0 0 0 -12.535633996587318 -24.052652720073155 0 -24.052652720073155 11.164918577044723 0 0 0 0 -5.887987481571372 -12.574028004526554 0 -12.574028004526554 39.50443232293037 0 0 0 0 -2.0044012305042997 -4.7673746146610938 0 -4.7673746146610938 -11.481709344865521 0 0 0 0 -6.0250074681462706 -63.318743399577215 0 -63.318743399577215 62.195568678682321 0 0 0 0 -20.883674850100761 6.5392683917270915 0 6.5392683917270915 28.299315318108711 0 0 0 0 -1.6053929628510417 -1.4598645569591611 0 -1.4598645569591611 2.7392700349942629 0 0 0 0 -11.845749331488525 -25.978780333293699 0 -25.978780333293699 5.4794915027439259 0 0 0 0 -2.7311575785408682 -3.2389291457970053 0 -3.2389291457970053 4.0301286344926268 0 0 0 0 -19.840438957607944 -79.114360527208191 0 -79.114360527208191 84.712416921211116 0 0 0 0 6.4434075403909219 -69.096842211059993 0 -69.096842211059993 62.337594431752223 0 0 0 0 -64.040879608102671 -12.043736558807723 0 -12.043736558807723 162.80949972223971 0 0 0 0 -38.275926023613465 -68.717086662793008 0 -68.717086662793008 81.169727661996149 0 0 0 0 -121.97678597916774 -9.3239682645798894 0 -9.3239682645798894 64.778677178852377 0 0 0 0 -63.310762571374624 -54.880002296204111 0 -54.880002296204111 -47.256880885637656 0 0 0 0 -42.288601341124469 -102.36376031033979 0 -102.36376031033979 4.0978021878254367 0 0 0 0 -93.990637394784528 -59.556653101906704 0 -59.556653101906704 81.632267305200912 0 0 0 0 -66.635133703701257 -94.597406585260615 0 -94.597406585260615 -185.49460706187529 0 0 0 0 -30.010158609488286 -6.5989957515739661 0 -6.5989957515739661 -71.854689833009616 0 0 0 0 -165.35487370897488 -9.8211430400842801 0 -9.8211430400842801 -53.125083189852376 0 0 0 0 -81.175822174436632 -20.15798170427297 0 -20.15798170427297 -319.4850401635631 0 0 0 0 -77.336483155753058 -143.05651625309292 0 -143.05651625309292 -58.510654220037395 0 0 0 0 -22.871472154251478 15.690408303682489 0 15.690408303682489 -8.9282791840741993 0 0 0 0 -41.323372487997716 -30.270797903947823 0 -30.270797903947823 35.270804905831028 0 0 0 0 -60.870496515794642 -112.98663687840781 0 -112.98663687840781 129.5009055619521 0 0 0 0 201.61130800428057 -270.16174010879877 0 -270.16174010879877 -69.098363053075445 0 0 0 0 -8.3397427943181892 -15.048184262215276 0 -15.048184262215276 -28.036296551378769 0 0 0 0 -69.374602847618462 -169.69132537679252 0 -169.69132537679252 39.946034895503544 0 0 0 0 -85.575121344493368 -128.15027824973458 0 -128.15027824973458 -30.922398224967765 0 0 0 0 -62.94682757333635 -10.939703040236054 0 -10.939703040236054 236.10602835082682 0 0 0 0 29.27264939722896 -332.44868866858997 0 -332.44868866858997 396.53701841191651 0 0 0 0 369.65635762192682 -489.23295740668027 0 -489.23295740668027 84.967223242216278 0 0 0 0 305.04648994388333 -102.67487573445396 0 -102.67487573445396 -60.256095420918427 0 0 0 0 -29.719580045028124 -157.84237809014121 0 -157.84237809014121 -15.046574856503867 0 0 0 0 76.852245806848259 -444.00555990010253 0 -444.00555990010253 120.39317390770884 0 0 0 0 45.840093609940595 -303.09844388333295 0 -303.09844388333295 -220.1311415449527 0 0 0 0 -0.32225086554461235 -0.15130266148764804 0 -0.15130266148764804 0.96995060725930671 0 0 0 0 12.836048968438263 -5.6057771488158323 0 -5.6057771488158323 -392.4983047370406 0 0 0 0 -199.65018079345009 -608.63627296066988 0 -608.63627296066988 766.67161912265874 0 0 0 0 466.59745132352327 -283.89544647177172 0 -283.89544647177172 29.378232373244828 0 0 0 0 -2.7791070556932262 -4.0989726602076324 0 -4.0989726602076324 -3.3990871929537718 0 0 0 0 -307.66747433073397 -105.12110522178045 0 -105.12110522178045 545.296590144113 0 0 0 0 601.07074607948834 -47.474746940313707 0 -47.474746940313707 -293.76081688688282 0 0 0 0 240.09351241296918 -276.61733746813479 0 -276.61733746813479 -438.68966412726979 0 0 0 0 -257.33531056232459 -640.43252781503907 0 -640.43252781503907 9.4792591133409587 0 0 0 0 -473.1299234775617 -282.24371554555228 0 -282.24371554555228 -686.15701131959941 0 0 0 0 -17.474929661041415 86.412177654103289 0 86.412177654103289 -387.89172547232738 0 0 0 0 -47.352884182268895 98.784010362303889 0 98.784010362303889 10.071488462301204 0 0 0 0 181.92740057659273 -60.176365395200264 0 -60.176365395200264 -300.32030795502942 0 0 0 0 90.895544451826481 -194.79064067635409 0 -194.79064067635409 307.08966292208061 0 0 0 0 -249.21115958451014 -309.37440271179366 0 -309.37440271179366 -252.28032466076183 0 0 0 0 -132.61862452536752 -96.350601205878775 0 -96.350601205878775 49.651995183739928 0 0 0 0 -514.77950580437061 -475.01117592225637 0 -475.01117592225637 -73.8622395929101 0 0 0 0 -5.6123723990449008 -9.4468780211485068 0 -9.4468780211485068 -9.0510980241887751 0 0 0 0 467.36824716629144 -140.08442373889193 0 -140.08442373889193 -135.08825319827156 0 0 0 0 562.60213772676616 -560.45177729536226 0 -560.45177729536226 -14.111472775834045 0 0 0 0 -4.0392212346588892 -5.9069252258998901 0 -5.9069252258998901 -4.7252567792554601 0 0 0 0 -725.01524842089498 -708.00148718196942 0 -708.00148718196942 17.513315568683538 0 0 0 0 -322.5337656886694 -85.714090771358315 0 -85.714090771358315 302.4731353985444 0 0 0 0 -120.17935186435568 -436.08077815664728 0 -436.08077815664728 -1078.345355575957 0 0 0 0 -431.17030667332455 -912.62100761366673 0 -912.62100761366673 -839.81752390809561 0 0 0 0 589.94203787095739 -535.67584642153815 0 -535.67584642153815 -981.32698188182258 0 0 0 0 54.529996218331519 -686.2227470334401 0 -686.2227470334401 -994.39729118731339 0 0 0 0 -532.94174125674022 -355.0707029988971 0 -355.0707029988971 -550.32770103368239 0 0 0 0 -175.00210915772459 -371.41126736112346 0 -371.41126736112346 -596.32736877907337 0 0 0 0 -39.627348288416698 -64.436083867210982 0 -64.436083867210982 -448.30137052828104 0 0 0 0 -143.71493781208167 -103.26451476826969 0 -103.26451476826969 -253.26916831326525 0 0 0 0 -36.684009444301068 170.81026269820359 0 170.81026269820359 -155.508404080334 0 0 0 0 -193.15091884420599 -44.560008289536199 0 -44.560008289536199 -91.636627769330516 0 0 0 0 -44.478048409492658 73.972870283359953 0 73.972870283359953 -87.29808199132458 0 0 0 0 -96.480775012577396 -20.483896757687035 0 -20.483896757687035 -129.05705272127307 0 0 0 0 152.95536983267948 -124.62790966504326 0 -124.62790966504326 -646.69758547317724 0 0 0 0 48.855011261656728 52.611833513772581 0 52.611833513772581 -444.00764376929146 0 0 0 0 -209.83738701009383 125.21982791580012 0 125.21982791580012 -1011.1381019159053 0 0 0 0 -70.663396016664592 -228.20734767350496 0 -228.20734767350496 -538.04032894094416 0 0 0 0 -578.26200995201566 -421.36648001521917 0 -421.36648001521917 -559.74431629070023 0 0 0 0 -3.6781645737092958 2.0615835242533649 0 2.0615835242533649 -73.258322567970026 0 0 0 0 -781.273630273241 -635.64753411433958 0 -635.64753411433958 -440.53882834907563 0 0 0 0 308.64796703153922 -482.02626501190753 0 -482.02626501190753 -1375.5288703311053 0 0 0 0 -3.556962017074067 -6.118486718556241 0 -6.118486718556241 -10.764731048874921 0 0 0 0 28.389321562366376 -395.03106731050866 0 -395.03106731050866 -1253.14089976994 0 0 0 0 280.45107790186916 202.21595908170639 0 202.21595908170639 -967.41891545894032 0 0 0 0 -145.4763816422919 -67.720890058066288 0 -67.720890058066288 -53.05466602381739 0 0 0 0 -35.595300110588553 31.25301165797282 0 31.25301165797282 -602.66233336681034 0 0 0 0 85.93734439350564 -96.336254167064908 0 -96.336254167064908 -947.74843112634699 0 0 0 0 -67.630001778896755 -43.253074139167438 0 -43.253074139167438 -599.20027523171302 0 0 0 0 -130.88744675676838 -12.39884372529923 0 -12.39884372529923 -320.21026421821443 0 0 0 0 -205.62324197662059 14.822855068385252 0 14.822855068385252 -219.66948944089927 0 0 0 0 -201.0990232879962 -144.1611087571182 0 -144.1611087571182 -627.17916747896561 0 0 0 0 -212.935367969146 99.602687573762523 0 99.602687573762523 -688.6162447630486 0 0 0 0 -26.863968819327262 -99.153749633893312 0 -99.153749633893312 -1003.5120356649895 0 0 0 0 -453.75359585732338 -251.67973226069989 0 -251.67973226069989 -974.99888562161505 0 0 0 0 -236.76507717222759 249.28623302238157 0 249.28623302238157 -1440.7203111446361 0 0 0 0 -172.01591209634364 -677.64383475440627 0 -677.64383475440627 -1802.7985396656677 0 0 0 0 -186.43084607658284 -504.93837355029973 0 -504.93837355029973 -1140.5258150028094 0 0 0 0 -105.35336477830947 -395.51387049675031 0 -395.51387049675031 -993.88010428551206 0 0 0 0 -588.10349419373506 152.10209818036674 0 152.10209818036674 -963.0367100682995 0 0 0 0 -211.63366425750382 363.39664009294393 0 363.39664009294393 -1592.0152786653271 0 0 0 0 -9.2079363439354154 1.7622848506639031 0 1.7622848506639031 -1.0711432521002635 0 0 0 0 -308.49000384178214 -324.356261890116 0 -324.356261890116 -278.70727441376221 0 0 0 0 -601.42039693775064 -403.58204282586303 0 -403.58204282586303 -336.17550631854101 0 0 0 0 -255.14558784557858 -173.38571662517643 0 -173.38571662517643 -545.48657685006583 0 0 0 0 -855.91458296853011 233.47793102284322 0 233.47793102284322 -647.82232211646624 0 0 0 0 -152.9503600115022 147.94916849171204 0 147.94916849171204 -825.10946882585995 0 0 0 0 -111.77561598826014 10.410594390636106 0 10.410594390636106 -944.47329308892949 0 0 0 0 92.735608076962251 331.79505088685255 0 331.79505088685255 -1356.402832496773 0 0 0 0 0.74028294934521499 2.0156096122995706 0 2.0156096122995706 -7.6468059254870866 0 0 0 0 103.84826887359173 651.90286929620197 0 651.90286929620197 20.807960768179328 0 0 0 0 -115.31669422112211 -212.41284240061941 0 -212.41284240061941 -560.83876257660449 0 0 0 0 -0.37303591205653674 -422.48961649069679 0 -422.48961649069679 -369.60385890645011 0 0 0 0 240.01225623235803 -87.54414192477816 0 -87.54414192477816 -313.30963464723754 0 0 0 0 1.8757810265234425 4.3765259555794671 0 4.3765259555794671 -14.925370567001892 0 0 0 0 -25.511379003980785 -318.12046992462774 0 -318.12046992462774 -391.53051587022492 0 0 0 0 -81.429525335956782 -294.56131271100821 0 -294.56131271100821 -383.07160082195333 0 0 0 0 -250.65889505552263 -345.48487714572548 0 -345.48487714572548 -346.05321210851253 0 0 0 0 -91.623355022472197 -351.78972763397542 0 -351.78972763397542 -361.78950286004692 0 0 0 0 -29.972381692104477 -298.1133007045355 0 -298.1133007045355 -334.91199348389637 0 0 0 0 -62.415725464974741 -247.56275333338272 0 -247.56275333338272 -243.13475900531193 0 0 0 0 -8.3455388590772372 -230.51495658430213 0 -230.51495658430213 -321.84111254337313 0 0 0 0 -6.49386079622235 -253.0579161539863 0 -253.0579161539863 -392.47904846908227 0 0 0 0 -385.6963281037315 -40.735920989656734 0 -40.735920989656734 -399.27512957307044 0 0 0 0 -81.817159613476178 -80.969468118812074 0 -80.969468118812074 -409.12864392202755 0 0 0 0 -318.54705557080729 -150.31960631567199 0 -150.31960631567199 -376.27644403185695 0 0 0 0 -123.66155120171243 -238.00620604249707 0 -238.00620604249707 -358.46318224633796 0 0 0 0 -200.3967309942384 -131.01542418976896 0 -131.01542418976896 -229.12633379800536 0 0 0 0 -145.01087570036805 -218.14063107072252 0 -218.14063107072252 -255.45044968316506 0 0 0 0 -10.715974030632424 -185.26185964064643 0 -185.26185964064643 -263.35859664357849 0 0 0 0 -6.4753858931385366 -114.53362000372726 0 -114.53362000372726 -231.41755575183197 0 0 0 0 -90.187380508153183 -126.03549068624488 0 -126.03549068624488 -123.51044094011013 0 0 0 0 -68.252117722511684 -91.507228818500153 0 -91.507228818500153 -72.646709206805099 0 0 0 0 -152.92876620036259 -54.530242137323512 0 -54.530242137323512 -194.91291335444839 0 0 0 0 44.045110381036466 1.4621866914239945 0 1.4621866914239945 -194.98968077192282 0 0 0 0 -26.517454632885801 25.850673717814061 0 25.850673717814061 8.3556015081994701 0 0 0 0 68.96157346128166 23.622919359142543 0 23.622919359142543 85.024377831097809 0 0 0 0 101.82052733628325 53.836737180190539 0 53.836737180190539 -190.32767057712772 0 0 0 0 -10.264237879757275 -12.87548006085126 0 -12.87548006085126 -197.11201100051949 0 0 0 0 24.258867194216691 -5.744839967093867 0 -5.744839967093867 -419.62902402722466 0 0 0 0 6.3494183306438572 43.343274503462453 0 43.343274503462453 -405.38210322413943 0 0 0 0 117.44049873632866 157.48566938084696 0 157.48566938084696 -367.29772383921954 0 0 0 0 57.14549769641053 59.899001796173252 0 59.899001796173252 -862.78456842315791 0 0 0 0 -98.784060740809764 -18.953873200618546 0 -18.953873200618546 -424.18380368546241 0 0 0 0 156.1165093232803 133.9853008883947 0 133.9853008883947 -885.89971737569431 0 0 0 0 57.625121745855722 154.22259843882057 0 154.22259843882057 -610.6889234161863 0 0 0 0 28.054190435974306 -6.978536364811589 0 -6.978536364811589 -406.07510343854926 0 0 0 0 -9.4466012783705082 0.17386523215100169 0 0.17386523215100169 -406.08256643550158 0 0 0 0 -24.692715437196966 -24.497729530885408 0 -24.497729530885408 -378.50600865916931 0 0 0 0 -34.430257192016143 -36.690369492251193 0 -36.690369492251193 -230.81416693353094 0 0 0 0 -0.84538505653694007 -0.79428751271821962 0 -0.79428751271821962 1.0618309275911315 0 0 0 0 -0.049171061768738866 0.19044621117461702 0 0.19044621117461702 -0.63895792304484189 0 0 0 0 -3.0366115669812643 9.1940236852387898 0 9.1940236852387898 -116.78510895071668 0 0 0 0 228.01818126342187 23.357392696103489 0 23.357392696103489 -213.71906635643973 0 0 0 0 -49.127996961606186 -12.462837210863654 0 -12.462837210863654 196.56759283423889 0 0 0 0 13.928870896656008 16.911783203657251 0 16.911783203657251 5.9814475869643502 0 0 0 0 2.4414995832635746 7.144896482969699 0 7.144896482969699 -10.012565977871432 0 0 0 0 -44.252095685986205 2.422644489835875 0 2.422644489835875 -23.07858194806613 0 0 0 0 -8.4440561843537587 13.033817615905917 0 13.033817615905917 -7.6929521323083918 0 0 0 0 -40.281048315824592 15.292100942591787 0 15.292100942591787 -37.918836945813382 0 0 0 0 -39.890475932301342 -28.801376612231252 0 -28.801376612231252 -66.610635830082174 0 0 0 0 -33.919882136513479 29.172889671201119 0 29.172889671201119 -5.7055619996772293 0 0 0 0 -118.23152720617509 7.7491197936760727 0 7.7491197936760727 93.040698969300138 0 0 0 0 -178.08626033748442 -63.994825462825247 0 -63.994825462825247 -27.279553211963503 0 0 0 0 -9.0060548289254854 10.540173093096513 0 10.540173093096513 -10.148444472452553 0 0 0 0 -100.45894804412819 -33.308721005902044 0 -33.308721005902044 3.8166607146795286 0 0 0 0 -118.84387901239256 110.94611040464952 0 110.94611040464952 32.565877521861694 0 0 0 0 98.400005181360029 76.728223106663791 0 76.728223106663791 -1.6963816421848605 0 0 0 0 -88.596508440343314 87.22085238416912 0 87.22085238416912 24.617095553738181 0 0 0 0 -322.11876106521231 142.93963229117799 0 142.93963229117799 31.2364549167105 0 0 0 0 118.99933408478682 158.84349137882964 0 158.84349137882964 2.6242194923588613 0 0 0 0 293.37139006455618 29.992991301187431 0 29.992991301187431 8.4325683692122766 0 0 0 0 119.71433985107979 225.99492388942599 0 225.99492388942599 -111.23213884919824 0 0 0 0 -2.1642204987762526 3.264583638870576 0 3.264583638870576 -4.9312016959216436 0 0 0 0 1.2288244617471342 -2.7452446847465133 0 -2.7452446847465133 0.88419713193863458 0 0 0 0 -30.047923120451742 -289.77739183712401 0 -289.77739183712401 -1117.2759772883728 0 0 0 0 25.283156393157697 -442.95972987423738 0 -442.95972987423738 -81.483844192654942 0 0 0 0 -48.539587526953255 -170.33380517769365 0 -170.33380517769365 93.468645669927355 0 0 0 0 -489.45910782554711 -399.3205831796804 0 -399.3205831796804 1851.7515335300996 0 0 0 0 1.0701424330756173 3.6871084209162071 0 3.6871084209162071 -30.480279959533618 0 0 0 0 716.71361851800975 181.73337925520173 0 181.73337925520173 -79.430881505628349 0 0 0 0 0.93901771844684845 -234.43381875220803 0 -234.43381875220803 -1161.4748219067988 0 0 0 0 -0.83078803254829836 -218.14737789768697 0 -218.14737789768697 -1249.8749550077482 0 0 0 0 79.990451675323129 -571.24269364379143 0 -571.24269364379143 -2670.920284293883 0 0 0 0 -1354.9700756284619 611.20485389530222 0 611.20485389530222 -374.06412756541977 0 0 0 0 -34.529255868590553 27.396321281819837 0 27.396321281819837 -406.70761718202994 0 0 0 0 -23.295768833682814 242.27759356588649 0 242.27759356588649 -86.119671437278157 0 0 0 0 -66.57277434655407 -333.42666330219072 0 -333.42666330219072 -953.15698612859705 0 0 0 0 -80.271147939143702 -303.76010335778119 0 -303.76010335778119 -791.78603518102318 0 0 0 0 142.01033277884198 -35.472160466335481 0 -35.472160466335481 -1280.0719547381304 0 0 0 0 32.0879018104024 -172.97013799763226 0 -172.97013799763226 -915.39766506329761 0 0 0 0 17.23396789310209 -226.49082532986358 0 -226.49082532986358 -1067.6424188151141 0 0 0 0 4.0599650719414058 -147.83365297511773 0 -147.83365297511773 -1018.9574537981534 0 0 0 0 154.30957682414373 67.403889477478515 0 67.403889477478515 -925.41852018981081 0 0 0 0 26.829715870093423 -184.65908611300983 0 -184.65908611300983 -847.16603287379257 0 0 0 0 133.16983030524079 295.27033072904851 0 295.27033072904851 -1115.2287449954019 0 0 0 0 -11.436215223779072 234.22258962597698 0 234.22258962597698 -1012.0723039096629 0 0 0 0 158.54812817324091 78.573587241473433 0 78.573587241473433 -956.7174262572953 0 0 0 0 152.10067383382921 -99.214000782310904 0 -99.214000782310904 -1437.887047552882 0 0 0 0 432.99749722576962 216.32192993065109 0 216.32192993065109 -1325.3508179630589 0 0 0 0 61.639245231177483 -555.38231681336765 0 -555.38231681336765 -1556.1837196131601 0 0 0 0 -0.35617003567963135 0.39905883284953703 0 0.39905883284953703 -12.412015706668569 0 0 0 0 -1001.8615002988627 1124.4221709001213 0 1124.4221709001213 -988.60708726514713 0 0 0 0 372.71324023627676 -68.931010727043031 0 -68.931010727043031 -2302.0533390491037 0 0 0 0 465.34619219235537 865.47791584576771 0 865.47791584576771 -1863.5366252542408 0 0 0 0 -51.623489846519703 125.54396585016184 0 125.54396585016184 12.863988639888703 0 0 0 0 69.504537188449831 569.04234865611579 0 569.04234865611579 -789.55467534069612 0 0 0 0 -115.22274733699695 -24.977973103712429 0 -24.977973103712429 164.7921556574729 0 0 0 0 -38.978491476809587 8.1368965571616769 0 8.1368965571616769 1.3335413453249245 0 0 0 0 97.306503513238567 160.8414511541996 0 160.8414511541996 -1345.1967809289408 0 0 0 0 -278.49365785236898 -118.32230501621052 0 -118.32230501621052 143.15443231829704 0 0 0 0 -25.558801815964344 5.1541183729842572 0 5.1541183729842572 -0.34902885511495185 0 0 0 0 -116.33176546376561 144.53911704216205 0 144.53911704216205 -881.96319694811245 0 0 0 0 7.5699888609351547 43.235069676906278 0 43.235069676906278 -917.47882725381351 0 0 0 0 162.05233118174783 -155.26139382264228 0 -155.26139382264228 -930.94621108380488 0 0 0 0 207.04085540696332 -231.91032619503312 0 -231.91032619503312 -1007.0662546934909 0 0 0 0 142.58533967865418 -165.44114958101181 0 -165.44114958101181 -588.80082426069566 0 0 0 0 183.64214691404081 88.592770674331405 0 88.592770674331405 -478.16320358401572 0 0 0 0 0.40912148026289652 -222.86555410420988 0 -222.86555410420988 -780.87975408327475 0 0 0 0 -0.11700972488936386 -120.61722900610908 0 -120.61722900610908 -209.76584349201585 0 0 0 0 85.091444841953688 -20.815581809765717 0 -20.815581809765717 -103.70045525190653 0 0 0 0 0.77647938266836558 -0.89582226602306037 0 -0.89582226602306037 2.118165962041985 0 0 0 0 85.964541178860216 35.082053194890364 0 35.082053194890364 -0.13863546089851297 0 0 0 0 -115.90053824182746 200.38610353023978 0 200.38610353023978 -257.177005477497 0 0 0 0 -158.41004163192741 48.020168591529 0 48.020168591529 -21.630017478804803 0 0 0 0 -42.884283516692676 63.393318351270864 0 63.393318351270864 -200.48692754485455 0 0 0 0 -58.65751310988685 -98.458724610542276 0 -98.458724610542276 21.709987488400657 0 0 0 0 76.246280515947291 36.964407305216582 0 36.964407305216582 1.7365894185495563 0 0 0 0 54.075950734972139 -71.3650671864998 0 -71.3650671864998 15.145222140439728 0 0 0 0 -74.16490037724293 334.94966565922005 0 334.94966565922005 -620.32621329162066 0 0 0 0 -0.41502499302825313 -0.34365532749594108 0 -0.34365532749594108 -10.844291935751784 0 0 0 0 -298.29246941348214 -324.91016430148397 0 -324.91016430148397 -644.95540676463861 0 0 0 0 184.14330579480884 48.399825962886098 0 48.399825962886098 -929.72260934245423 0 0 0 0 183.10592281136451 -91.099114243384975 0 -91.099114243384975 -1472.3090571305947 0 0 0 0 96.766099846494853 -282.44636354067188 0 -282.44636354067188 -1092.05149260084 0 0 0 0 119.3351805284517 -318.56453093920572 0 -318.56453093920572 -1036.9898880436722 0 0 0 0 -167.66507414045827 -517.49836462434905 0 -517.49836462434905 -1300.5556047817699 0 0 0 0 -684.77068810244873 18.709667646799062 0 18.709667646799062 -1145.0804698957509 0 0 0 0 -94.084236655513905 -224.49200810211914 0 -224.49200810211914 -1049.0604746581266 0 0 0 0 -261.05261973560664 -115.99017060263213 0 -115.99017060263213 -796.26454303041101 0 0 0 0 88.641725790570717 -102.25457426679714 0 -102.25457426679714 -951.98759855623211 0 0 0 0 88.689973083412042 -94.012222091194417 0 -94.012222091194417 -1217.9623906708584 0 0 0 0 118.80962320368508 -318.22967179090483 0 -318.22967179090483 -1361.9954162760696 0 0 0 0 112.81921090668868 -241.22388771396072 0 -241.22388771396072 -904.81749574739661 0 0 0 0 -124.10895128365109 -144.32768703730108 0 -144.32768703730108 -1132.6425390814766 0 0 0 0 -20.747519883073892 -521.74454739651264 0 -521.74454739651264 -1461.8362670695133 0 0 0 0 -126.48923902630622 -320.77342062890239 0 -320.77342062890239 -1666.1876931053484 0 0 0 0 112.50944719208951 -121.65674918408331 0 -121.65674918408331 -650.72868530453707 0 0 0 0 -0.12089175618989005 -1.8359872990049131 0 -1.8359872990049131 -3.5308286419743524 0 0 0 0 -335.64537675292564 -591.63829836157106 0 -591.63829836157106 -672.97030824286048 0 0 0 0 -233.38966584853688 -25.190516471848241 0 -25.190516471848241 238.8650176760857 0 0 0 0 0.12006746876721627 -1.5967507333005093 0 -1.5967507333005093 -7.2168745312099247 0 0 0 0 -32.951637323189971 94.11394248475699 0 94.11394248475699 238.47879828781035 0 0 0 0 246.70161764649612 29.602241972912736 0 29.602241972912736 -137.62283335102256 0 0 0 0 -87.125364483062242 2.3477165956437034 0 2.3477165956437034 90.312884964921977 0 0 0 0 -8.0388234383490271 35.648063247368555 0 35.648063247368555 -103.67803696736519 0 0 0 0 -35.697007484831374 52.707976967016293 0 52.707976967016293 42.850670766551048 0 0 0 0 -130.04560096211821 -205.00221300337216 0 -205.00221300337216 -220.5946620174509 0 0 0 0 -39.962843651176854 -182.80080080449261 0 -182.80080080449261 -348.88879054482095 0 0 0 0 -204.05416190515825 -289.63663416358759 0 -289.63663416358759 -113.17478941814989 0 0 0 0 -61.52115595014061 -450.34559257455112 0 -450.34559257455112 -895.91843428291031 0 0 0 0 -37.999812095529023 -240.97649069775071 0 -240.97649069775071 -558.21858223350864 0 0 0 0 58.033354032886507 -107.87011015804455 0 -107.87011015804455 -808.57047806636547 0 0 0 0 -46.628779884419771 -30.838559634295962 0 -30.838559634295962 -282.85981701029232 0 0 0 0 -73.870280457904329 -93.303654407845897 0 -93.303654407845897 -293.55028621843667 0 0 0 0 -42.805354368069573 12.453423128725262 0 12.453423128725262 -629.76736788291601 0 0 0 0 53.002576759712383 -138.45085248643227 0 -138.45085248643227 -740.88818847940092 0 0 0 0 -7.5017691865403222 40.360092918825785 0 40.360092918825785 -1043.8863189752519 0 0 0 0 145.75379641232504 -244.20019130909168 0 -244.20019130909168 -1117.9606142492266 0 0 0 0 198.79971956119169 -205.21684823264513 0 -205.21684823264513 -1000.2097192148212 0 0 0 0 199.8417597497214 -148.97784063167637 0 -148.97784063167637 -1136.6056102035436 0 0 0 0 198.70910382610919 -210.46821795453434 0 -210.46821795453434 -1252.9555593997538 0 0 0 0 -98.210616576307643 -368.32921665928006 0 -368.32921665928006 -724.71852969816973 0 0 0 0 81.937672571360224 -79.817151905303035 0 -79.817151905303035 -561.5988187302828 0 0 0 0 89.686312269353493 -166.31781335749474 0 -166.31781335749474 -820.82694308157079 0 0 0 0 114.44019813294153 -130.33661265042792 0 -130.33661265042792 -827.95270021483157 0 0 0 0 20.050961485134849 -174.43259532912452 0 -174.43259532912452 -315.04585546546878 0 0 0 0 -124.36687921841337 -356.28855504247076 0 -356.28855504247076 -440.51671443421219 0 0 0 0 -111.81421245338663 -233.25439102864402 0 -233.25439102864402 -431.13594678956611 0 0 0 0 138.70527058323137 -91.353246278823917 0 -91.353246278823917 -320.95733162506076 0 0 0 0 175.88608091209085 190.27570560052482 0 190.27570560052482 -81.681248471830258 0 0 0 0 1.5692788713884012 3.6295810846173993 0 3.6295810846173993 -12.557777347867756 0 0 0 0 -73.094986722244357 -4.9061739114622469 0 -4.9061739114622469 56.323656064152601 0 0 0 0 0.44666423295920055 1.3209061668026294 0 1.3209061668026294 -5.2042726274526956 0 0 0 0 160.38537955057859 348.40176678892021 0 348.40176678892021 10.05734305127271 0 0 0 0 -145.69913513724623 17.231581069547246 0 17.231581069547246 -159.13704594841693 0 0 0 0 -72.103692595409484 14.260979885766574 0 14.260979885766574 -159.56218562509821 0 0 0 0 -68.309949603713818 -5.0739538481202544 0 -5.0739538481202544 -294.38120659207925 0 0 0 0 -134.72102971779032 -56.251665972340561 0 -56.251665972340561 -257.30377547651369 0 0 0 0 -91.545238147427654 -70.023143836428062 0 -70.023143836428062 -562.31852025190892 0 0 0 0 -50.191538962897084 -61.965822427857347 0 -61.965822427857347 -311.08867297327379 0 0 0 0 -25.370314080953449 -122.08909700710865 0 -122.08909700710865 -624.09525955357094 0 0 0 0 -179.88364260137655 -83.455079571769602 0 -83.455079571769602 -541.58977022238832 0 0 0 0 -36.702684755392966 -25.825845881412533 0 -25.825845881412533 -784.64749593524903 0 0 0 0 -63.401246735314544 -173.26572239611414 0 -173.26572239611414 -799.09482508762449 0 0 0 0 -247.91377809306096 -126.09311266462464 0 -126.09311266462464 -809.6511484052462 0 0 0 0 -62.399589785436717 -355.81486017942007 0 -355.81486017942007 -1030.1872261899844 0 0 0 0 143.32015258433785 -186.32408438233688 0 -186.32408438233688 -899.34611897932336 0 0 0 0 31.934583715317103 -4.0572710553533398 0 -4.0572710553533398 -627.29963638882509 0 0 0 0 -113.12339905519025 -166.79692639178393 0 -166.79692639178393 -659.94844644421391 0 0 0 0 -137.72539003870304 6.5576924861052248 0 6.5576924861052248 -278.671466081978 0 0 0 0 -113.61712006422692 -9.0492473961603537 0 -9.0492473961603537 -273.77221380220726 0 0 0 0 -75.135201398157733 88.506298951120698 0 88.506298951120698 -125.55966810809696 0 0 0 0 -55.488552113990636 -20.886151633811096 0 -20.886151633811096 -307.47251246753149 0 0 0 0 74.711875658462134 -202.06945153949346 0 -202.06945153949346 -206.20312738757639 0 0 0 0 209.54105913247025 -89.500896839374036 0 -89.500896839374036 -308.90133493168105 0 0 0 0 -0.63139392868370292 -3.7723229823197357 0 -3.7723229823197357 -7.8658087891089394 0 0 0 0 23.518468361637446 60.120005301549099 0 60.120005301549099 -77.343172150351165 0 0 0 0 0.38092405244214317 -120.90310171785313 0 -120.90310171785313 108.8086919999987 0 0 0 0 141.94360924994521 139.62053309643306 0 139.62053309643306 -1555.6549157628106 0 0 0 0 -0.052234400954817573 -1.5462162944812263 0 -1.5462162944812263 -4.6792735676574466 0 0 0 0 142.49717733985847 118.8955175965275 0 118.8955175965275 -780.19612113534822 0 0 0 0 127.64815669146726 -256.83463940577349 0 -256.83463940577349 -1139.4192820730241 0 0 0 0 108.47551854342248 -311.23962718198891 0 -311.23962718198891 -1041.8029301334209 0 0 0 0 -0.43411610825066121 -330.38344274258077 0 -330.38344274258077 -1067.8519883730914 0 0 0 0 105.41224778792696 -215.83259644616919 0 -215.83259644616919 -944.0569950843219 0 0 0 0 11.642091771941711 -5.7121605506836204 0 -5.7121605506836204 3.4339409097883618 0 0 0 0 4.3532831019572971 -12.511649593667244 0 -12.511649593667244 5.8228394377438235 0 0 0 0 -0.98313491243364837 10.717277121366351 0 10.717277121366351 -8.1477128590922803 0 0 0 0 7.8658630102208633 -20.538461275667942 0 -20.538461275667942 -6.6365184115129523 0 0 0 0 -3.0147082411652972 -30.76087401600762 0 -30.76087401600762 -173.91144057328347 0 0 0 0 -4.6177911816317021 -7.2161902813677443 0 -7.2161902813677443 10.582965103811148 0 0 0 0 10.345511714669513 125.49867927614105 0 125.49867927614105 -265.8022874451417 0 0 0 0 -0.36863345604615405 -3.3585451082354041 0 -3.3585451082354041 -6.7959644531467802 0 0 0 0 0.015475885251924754 -8.4400844299379969 0 -8.4400844299379969 5.6944702165201306 0 0 0 0 4.8825240737604938 -3.4020392115526192 0 -3.4020392115526192 0.28892760368762538 0 0 0 0 8.6926227474741538 -11.87490777860512 0 -11.87490777860512 3.2362436355324462 0 0 0 0 -0.49733987620927306 -1.1653578870634149 0 -1.1653578870634149 -0.59657463329671145 0 0 0 0 0.36817446891210598 0.51487309598334718 0 0.51487309598334718 -1.8063811629454847 0 0 0 0 0.021438665572736784 -2.8998381461351528 0 -2.8998381461351528 -7.9787287544604624 0 0 0 0 -277.74206895466972 524.37532242417183 0 524.37532242417183 -817.8654075555387 0 0 0 0 0.29197943584003583 -0.31865790027846685 0 -0.31865790027846685 -4.369183337794766 0 0 0 0 158.75168045992555 171.30832955880032 0 171.30832955880032 -1160.3757457118663 0 0 0 0 -1.0532618702278036 -136.8686247624201 0 -136.8686247624201 -446.02257285997621 0 0 0 0 144.10880784906573 63.202552771498176 0 63.202552771498176 -789.98832198497257 0 0 0 0 17.43426929277723 247.68165967446839 0 247.68165967446839 -351.89458087114872 0 0 0 0 -150.82410538410215 254.74179673851904 0 254.74179673851904 -255.72219456629682 0 0 0 0 68.576930152836212 140.40937134763954 0 140.40937134763954 -823.33910076155007 0 0 0 0 46.940954744598457 122.46962899181563 0 122.46962899181563 -460.22827755878097 0 0 0 0 -6.7777490790604134 -68.904287038647453 0 -68.904287038647453 -957.31221610969715 0 0 0 0 8.2510444333930195 327.70678449593197 0 327.70678449593197 -918.00399957560876 0 0 0 0 -0.20193956966329907 -1.6981402754575754 0 -1.6981402754575754 -4.3633292108300452 0 0 0 0 -8.221381493044646 -252.66596285306514 0 -252.66596285306514 2.5903575491975062 0 0 0 0 -52.256684236636488 -67.223122979743493 0 -67.223122979743493 -631.91495408788614 0 0 0 0 -204.63179943318983 59.654337650608795 0 59.654337650608795 -377.35332785038918 0 0 0 0 -82.641186265573083 48.950773227868922 0 48.950773227868922 -707.41824767745857 0 0 0 0 -117.04733730048122 23.688638129438914 0 23.688638129438914 -365.75967541233695 0 0 0 0 -185.91908143767921 50.817214675404102 0 50.817214675404102 -167.29339072424045 0 0 0 0 39.199111013892889 52.85323760934989 0 52.85323760934989 -476.03152888477052 0 0 0 0 -115.06522663262012 83.024400907313975 0 83.024400907313975 26.819591343257343 0 0 0 0 -107.91969683312004 -21.073784443353361 0 -21.073784443353361 -234.6439376672497 0 0 0 0 -136.11963486109585 87.648893345598481 0 87.648893345598481 -160.42460800166009 0 0 0 0 -63.698898557747498 -65.642371117202856 0 -65.642371117202856 44.701188889189325 0 0 0 0 -1.8854137807449831 -31.937185228263843 0 -31.937185228263843 5.2311689311318332 0 0 0 0 -18.958994106686987 -13.608771147322841 0 -13.608771147322841 -114.22115379121533 0 0 0 0 -2.8029829903741561 -5.5024168244496536 0 -5.5024168244496536 -7.7049880252337459 0 0 0 0 15.15051046853614 60.827308846084634 0 60.827308846084634 31.208195995743154 0 0 0 0 -0.54434055914181489 -2.4004721756967626 0 -2.4004721756967626 -0.82043758785903265 0 0 0 0 -287.67020167387045 51.808305713428126 0 51.808305713428126 45.699831146856013 0 0 0 0 -48.180994922117861 36.722354541765526 0 36.722354541765526 -39.672561608196702 0 0 0 0 -296.08944041595441 -5.861425220129604 0 -5.861425220129604 -45.867918475614715 0 0 0 0 -215.29507529084412 27.356957516087277 0 27.356957516087277 -163.68682276969776 0 0 0 0 -259.82614249861626 19.938846999182715 0 19.938846999182715 -36.511865209082316 0 0 0 0 -131.13897862148053 130.19601505043829 0 130.19601505043829 -38.351131846327917 0 0 0 0 -245.14229899739621 14.367623281563283 0 14.367623281563283 -166.90663836431486 0 0 0 0 -247.31846760731037 -42.255126604221005 0 -42.255126604221005 -83.515129388564674 0 0 0 0 -293.45850531175529 -30.874173743039137 0 -30.874173743039137 -4.2754831576748984 0 0 0 0 -261.52834919888232 -7.1759843478102994 0 -7.1759843478102994 -69.208281530682143 0 0 0 0 -205.63897669014671 -93.782755180276581 0 -93.782755180276581 -158.19500681966747 0 0 0 0 -204.07973325207035 -10.435125217363748 0 -10.435125217363748 -324.70749238352437 0 0 0 0 -232.74267754507719 -37.022729415977665 0 -37.022729415977665 -177.2022464260408 0 0 0 0 -175.54499332475064 18.34942924085226 0 18.34942924085226 -443.809829342179 0 0 0 0 -61.357866838305199 -37.519504502633936 0 -37.519504502633936 -431.73035172303025 0 0 0 0 -148.69983497798034 -190.92144029773408 0 -190.92144029773408 -664.78747882434254 0 0 0 0 62.127913754163956 71.888528949453757 0 71.888528949453757 -724.88252785943041 0 0 0 0 -346.62051588634574 -82.780783381731453 0 -82.780783381731453 -339.81789560381731 0 0 0 0 -155.0429669881961 41.061461752797186 0 41.061461752797186 -643.65478319011163 0 0 0 0 -358.27913520085667 -548.47095999486737 0 -548.47095999486737 -788.35853115039936 0 0 0 0 -66.220337574000595 16.276107084933756 0 16.276107084933756 -223.0017170253268 0 0 0 0 -121.78452210165506 -139.07329347363338 0 -139.07329347363338 -321.76520590248401 0 0 0 0 -189.5283913514977 65.941476291016443 0 65.941476291016443 -167.77526509199015 0 0 0 0 -7.2156810796398645 -30.496147873647715 0 -30.496147873647715 -118.85628927889047 0 0 0 0 -178.5322882795067 38.168383612886828 0 38.168383612886828 31.251582964494446 0 0 0 0 22.01107262809694 49.059754679801699 0 49.059754679801699 -0.56870716385310516 0 0 0 0 -39.876982496113101 100.36695789272926 0 100.36695789272926 44.726208220025001 0 0 0 0 -20.684481284118135 60.461119311014045 0 60.461119311014045 123.31968805369252 0 0 0 0 36.49038241792357 18.456497029030288 0 18.456497029030288 57.488143502443563 0 0 0 0 -3.3769500173784457 9.6006879596113208 0 9.6006879596113208 -16.868914451286912 0 0 0 0 270.20342008724731 180.44163196899353 0 180.44163196899353 94.830790491796506 0 0 0 0 95.164822822114729 187.49855320332063 0 187.49855320332063 -175.91983184556011 0 0 0 0 100.06092668574411 -147.34602374623501 0 -147.34602374623501 -734.27387745044689 0 0 0 0 -77.53997458253184 -205.98844550312424 0 -205.98844550312424 -276.61548454783042 0 0 0 0 99.272103511386376 453.36670164282259 0 453.36670164282259 9.7464383818878559 0 0 0 0 -28.074290825144544 198.26801749350852 0 198.26801749350852 236.52908471174305 0 0 0 0 -1.0964716095042442 3.6057917483900184 0 3.6057917483900184 -7.6977222441142885 0 0 0 0 -57.326929596599598 -38.398362310545053 0 -38.398362310545053 157.4465735861304 0 0 0 0 -89.799171213679756 35.882093286754753 0 35.882093286754753 -1.0804804849467473 0 0 0 0 -283.66821911986733 6.5511232874632697 0 6.5511232874632697 90.188852598355879 0 0 0 0 -326.84187933290696 43.000517893786309 0 43.000517893786309 5.9763841404419509 0 0 0 0 -55.537488061823112 64.111499589936102 0 64.111499589936102 -268.49297214607941 0 0 0 0 -305.75976246401513 81.317985672723808 0 81.317985672723808 -127.6351608808327 0 0 0 0 -255.84240236397778 54.887903701113828 0 54.887903701113828 -316.08348923664016 0 0 0 0 -285.00470534085167 43.85214349379828 0 43.85214349379828 25.250411098830227 0 0 0 0 -219.9987283339533 -15.978452511430078 0 -15.978452511430078 -51.53210405851496 0 0 0 0 -299.85491931566651 39.533760067555704 0 39.533760067555704 35.003447936807788 0 0 0 0 -121.31698221310046 -39.657840054576809 0 -39.657840054576809 23.592761703210272 0 0 0 0 -137.12921714336554 -48.586215348554106 0 -48.586215348554106 -62.098705397795129 0 0 0 0 -261.55271552643205 -0.31042142126170802 0 -0.31042142126170802 38.014561538533599 0 0 0 0 -374.37769228852585 -39.154721263235842 0 -39.154721263235842 -5.1228344705814379 0 0 0 0 -263.1735380156947 -33.13704074951545 0 -33.13704074951545 -64.155144003030728 0 0 0 0 -8.9772812160501303 -17.278995418142586 0 -17.278995418142586 -53.527537380658032 0 0 0 0 -0.51376643921666965 -0.22405016962120783 0 -0.22405016962120783 -2.1791457458713523 0 0 0 0 -326.78159594901115 81.989762764807892 0 81.989762764807892 -40.159409887841321 0 0 0 0 -0.19684830350884983 0.050258056069576895 0 0.050258056069576895 -11.101656912834613 0 0 0 0 45.037229331469192 8.0864892690660781 0 8.0864892690660781 -37.33091999674798 0 0 0 0 7.9530642185876417 -4.8193249221367296 0 -4.8193249221367296 10.385763968428364 0 0 0 0 38.081267025517285 -8.3816613447088457 0 -8.3816613447088457 -49.886029364584829 0 0 0 0 -278.06883965718197 -28.701880303375219 0 -28.701880303375219 30.419695624244923 0 0 0 0 -222.14853441917438 43.212519096913923 0 43.212519096913923 -4.4025744416067027 0 0 0 0 -117.20909169578312 -117.35382175631094 0 -117.35382175631094 -98.833860989871027 0 0 0 0 -2.7869370637712905 -0.10114300363056827 0 -0.10114300363056827 -25.83884167566066 0 0 0 0 0.34488323962572687 1.0913759308978825 0 1.0913759308978825 -11.86738437645235 0 0 0 0 65.70028524900701 -0.69853256530041108 0 -0.69853256530041108 -11.09363427227072 0 0 0 0 18.648809032644458 -34.921088233149931 0 -34.921088233149931 -17.290738635398156 0 0 0 0 100.93353088774178 -9.9421954687659309 0 -9.9421954687659309 -26.620088672243583 0 0 0 0 0.34970383462486565 0.70547804169477502 0 0.70547804169477502 -10.963173582047233 0 0 0 0 0.09976405734307453 -28.019189770053959 0 -28.019189770053959 -4.7769556564453524 0 0 0 0 9.9596128481008677 -29.558182563676382 0 -29.558182563676382 -6.5569495637064392 0 0 0 0 10.232911643576623 -33.03468812628671 0 -33.03468812628671 -29.672103230070206 0 0 0 0 -8.9944898767334536 -11.227463278766663 0 -11.227463278766663 -2.5230943815586215 0 0 0 0 -0.09857651228066161 -0.16352219033525017 0 -0.16352219033525017 -0.40350175020222423 0 0 0 0 -43.155640795080188 3.785905047225242 0 3.785905047225242 3.9102667271072278 0 0 0 0 19.234630970261374 -13.785655874220538 0 -13.785655874220538 -24.179216102449573 0 0 0 0 -44.043630360145386 -23.70437451806356 0 -23.70437451806356 0.8696064771793317 0 0 0 0 -12.218018758884135 -40.603194890452869 0 -40.603194890452869 -38.280311624112073 0 0 0 0 -0.0079222588928536137 -20.148586738843424 0 -20.148586738843424 -14.45230814126262 0 0 0 0 11.410486835769916 56.721311196903116 0 56.721311196903116 -47.73370091032848 0 0 0 0 30.747438817064335 7.2229620947734361 0 7.2229620947734361 -2.5880095986996992 0 0 0 0 33.416712289554198 -5.968816049527959 0 -5.968816049527959 -38.483259104599711 0 0 0 0 -8.2430013191601574 25.291768273986236 0 25.291768273986236 -6.4371293501462787 0 0 0 0 9.6218695466345707 12.531281455663702 0 12.531281455663702 -15.088715421421512 0 0 0 0 0.23065890855787075 9.7086640761372109 0 9.7086640761372109 13.111945408880274 0 0 0 0 7.5923951576031481 7.6785021412482024 0 7.6785021412482024 -3.1650596404088418 0 0 0 0 6.5870024703663148 20.747864472774381 0 20.747864472774381 -44.671280415466754 0 0 0 0 4.8110507599753127 0.49723945081084775 0 0.49723945081084775 -3.3520366882581811 0 0 0 0 4.0903969812470677 -9.3293669359263731 0 -9.3293669359263731 -57.160104856418911 0 0 0 0 17.746843111280214 9.0180979732067499 0 9.0180979732067499 -122.9766328294354 0 0 0 0 158.02523899043126 -7.5071081080604927 0 -7.5071081080604927 -206.62218675175973 0 0 0 0 -8.9509294130923536 -61.249445790279424 0 -61.249445790279424 -104.13325893144065 0 0 0 0 35.296021739705338 4.4246351350157056 0 4.4246351350157056 -81.395757771417266 0 0 0 0 34.637061420276041 4.0360576941820909 0 4.0360576941820909 -78.271634066697516 0 0 0 0 21.986947503742158 0.4126885121295345 0 0.4126885121295345 -69.708639256285096 0 0 0 0 20.120784398101932 10.23958378144971 0 10.23958378144971 -103.52901165374351 0 0 0 0 8.3907949333151581 3.5380871251265038 0 3.5380871251265038 -75.715920536321164 0 0 0 0 2.5214262176887807 -0.049352236563493079 0 -0.049352236563493079 -19.630992844931306 0 0 0 0 66.462246684035563 5.3607525421693936 0 5.3607525421693936 -169.12331449397607 0 0 0 0 10.764181163083776 1.1837789658311522 0 1.1837789658311522 -70.771811062368215 0 0 0 0 39.311922317676363 -45.433947760575393 0 -45.433947760575393 -13.502349068143303 0 0 0 0 7.6285359853984058 -0.0038469081436964814 0 -0.0038469081436964814 -66.184296132733351 0 0 0 0 27.224921431916968 4.7677570773639957 0 4.7677570773639957 -20.553513294214866 0 0 0 0 10.469394486688543 60.682084234074864 0 60.682084234074864 25.234344713055179 0 0 0 0 63.720282131755084 33.70525500644726 0 33.70525500644726 -121.63760975503465 0 0 0 0 106.12776182656671 14.599276661319891 0 14.599276661319891 -113.11223795646947 0 0 0 0 5.4244924476515735 49.082524397032103 0 49.082524397032103 12.485370996557322 0 0 0 0 103.91910439180583 41.676333309077563 0 41.676333309077563 -9.5944004621269414 0 0 0 0 22.267530482527945 6.3754915911740682 0 6.3754915911740682 -21.060413703176891 0 0 0 0 100.43677128469062 82.97102626353626 0 82.97102626353626 -0.74292105485801585 0 0 0 0 0.75868550205137097 7.1819786137049544 0 7.1819786137049544 -25.798402107064561 0 0 0 0 5.6862370383677208 7.0995143722506917 0 7.0995143722506917 -13.935255191238809 0 0 0 0 2.324016430098709 35.95868978989165 0 35.95868978989165 17.195173830827116 0 0 0 0 17.385395274022557 13.576902826066117 0 13.576902826066117 -34.158640510955792 0 0 0 0 0.54979274587360294 -0.73673357447466969 0 -0.73673357447466969 -14.878830029389427 0 0 0 0 54.429589761966781 -29.46159969803557 0 -29.46159969803557 -52.488341867225245 0 0 0 0 88.064960202813381 90.991414379102935 0 90.991414379102935 31.676387353958489 0 0 0 0 53.611284430593059 -23.711839734767636 0 -23.711839734767636 -18.573790580267087 0 0 0 0 34.978082960387837 32.224881923953944 0 32.224881923953944 -22.410465906101535 0 0 0 0 0.69805228927801632 4.8438872174367482 0 4.8438872174367482 -15.382501384399546 0 0 0 0 304.31088249301001 107.39950131748265 0 107.39950131748265 -48.490893828828121 0 0 0 0 1.6064532875896322 -1.9075293342037529 0 -1.9075293342037529 -20.95350396004099 0 0 0 0 109.27416714642095 64.747764061648923 0 64.747764061648923 12.703077147249132 0 0 0 0 31.525568769950041 43.035748429669184 0 43.035748429669184 4.2913905411842279 0 0 0 0 -10.929129416323121 86.868179676610453 0 86.868179676610453 29.896674661977158 0 0 0 0 89.279301131628017 98.449815479809331 0 98.449815479809331 -0.92659179790643975 0 0 0 0 -6.4968065919274522 57.161866879418085 0 57.161866879418085 20.721447710428038 0 0 0 0 -30.058595091109964 23.290411929394395 0 23.290411929394395 2.5374899047019426 0 0 0 0 -6.3107010699124606 13.945634600234825 0 13.945634600234825 -7.870354691027444 0 0 0 0 -34.288983857084531 27.304542536272493 0 27.304542536272493 -3.7990269677829929 0 0 0 0 -40.197293969403745 0.35234099019726273 0 0.35234099019726273 -18.056620298069902 0 0 0 0 -43.282247819448457 18.159968577732798 0 18.159968577732798 4.5670028636523057 0 0 0 0 -33.189607774562319 12.377851129982446 0 12.377851129982446 -25.407476871236213 0 0 0 0 -11.471981827705161 14.148679316968575 0 14.148679316968575 -2.7581499270106065 0 0 0 0 -25.93180022557226 21.140443630752998 0 21.140443630752998 0.108829079719726 0 0 0 0 9.5346699340298073 45.127934691234259 0 45.127934691234259 2.5654640447210113 0 0 0 0 -19.287242669803163 11.577519355727418 0 11.577519355727418 -8.4013842161512002 0 0 0 0 -9.3753157235387334 38.85172121569849 0 38.85172121569849 3.2497719489692827 0 0 0 0 5.9453703014206338 12.964920702299832 0 12.964920702299832 -13.46271869784087 0 0 0 0 8.833392228830462 12.734055475849345 0 12.734055475849345 -12.692280124669196 0 0 0 0 8.6039569184385982 10.609644831164587 0 10.609644831164587 -13.87574743120058 0 0 0 0 8.3781631406563974 10.542898385043372 0 10.542898385043372 -8.9393597817979753 0 0 0 0 26.028958679757636 -100.43085309706191 0 -100.43085309706191 -29.88260517983872 0 0 0 0 16.43668606845597 16.035501765976733 0 16.035501765976733 -6.3236610631865915 0 0 0 0 1.8594408535593079 6.131117763312453 0 6.131117763312453 -13.156866331460151 0 0 0 0 32.293099601711219 49.704902642813977 0 49.704902642813977 -50.728065687144408 0 0 0 0 96.417933818990605 192.11613163476432 0 192.11613163476432 138.63046625895004 0 0 0 0 4.7533453636530858 1.4679764495272707 0 1.4679764495272707 -3.9356262862719973 0 0 0 0 13.608982459760455 -0.68548635453134921 0 -0.68548635453134921 1.7735257804015419 0 0 0 0 143.61289869213385 44.49083827049617 0 44.49083827049617 -21.304625512580969 0 0 0 0 148.79631625890943 28.936256980203325 0 28.936256980203325 -62.439129197809962 0 0 0 0 91.633874654745341 194.82652699517712 0 194.82652699517712 209.8251409022414 0 0 0 0 1.5403274861629228 0.55131171938812429 0 0.55131171938812429 -1.3130133056558293 0 0 0 0 92.783415497927933 52.354910731730342 0 52.354910731730342 22.397523893407197 0 0 0 0 10.057091489569302 37.841224246258207 0 37.841224246258207 -8.4097532799933106 0 0 0 0 39.815459828479561 -104.66933317574149 0 -104.66933317574149 -155.42851800470089 0 0 0 0 33.012515464024546 -27.268338196532568 0 -27.268338196532568 -73.171127137793519 0 0 0 0 106.51398730433004 -49.23054241334512 0 -49.23054241334512 -78.85718726219784 0 0 0 0 105.126893458822 45.65367550180963 0 45.65367550180963 -12.671832936786814 0 0 0 0 67.749242517783046 -20.635213092074991 0 -20.635213092074991 21.510381960615632 0 0 0 0 147.25995232766809 -2.7133750387947657 0 -2.7133750387947657 42.851276110319304 0 0 0 0 106.95813916785073 170.12848963675788 0 170.12848963675788 182.47864679214035 0 0 0 0 0.15062907678206372 1.2734534569357265 0 1.2734534569357265 -4.716830469096351 0 0 0 0 -1.4529552781228006 7.6346257237399087 0 7.6346257237399087 -11.258954232249152 0 0 0 0 101.90562843855832 108.83786304160458 0 108.83786304160458 -50.957370896139764 0 0 0 0 239.96674183878122 93.503180724215781 0 93.503180724215781 -13.363334980444051 0 0 0 0 -90.26219095344905 -275.22338653890802 0 -275.22338653890802 -349.58678387675172 0 0 0 0 27.760095337696875 -153.83418407211866 0 -153.83418407211866 -445.1162166433387 0 0 0 0 -5.9534561661337371 -108.34015609791822 0 -108.34015609791822 -153.05875433219626 0 0 0 0 39.695100327112186 -110.42205597690918 0 -110.42205597690918 -253.55330292122244 0 0 0 0 9.4851465054784683 -145.46223715795441 0 -145.46223715795441 -128.58491198324191 0 0 0 0 56.141911042754508 -81.828865021601814 0 -81.828865021601814 -214.85730500372301 0 0 0 0 86.779211735564218 3.4787566231025266 0 3.4787566231025266 -106.24944929507183 0 0 0 0 31.41635960356443 -57.264610323156376 0 -57.264610323156376 -173.4217551736001 0 0 0 0 96.336703578860011 38.304742604155763 0 38.304742604155763 20.22774866646796 0 0 0 0 73.271834266351163 86.526121178852918 0 86.526121178852918 -70.522116963202279 0 0 0 0 207.44130872622259 241.54039655450106 0 241.54039655450106 70.542816806570954 0 0 0 0 -3.5111647117518272 10.740620231193105 0 10.740620231193105 -19.431641659388816 0 0 0 0 -37.017222566557336 115.65867180273517 0 115.65867180273517 -3.3291983442832134 0 0 0 0 -0.41147974887424343 8.741335143255867 0 8.741335143255867 -17.434490771929489 0 0 0 0 239.79778546707121 124.7760086855269 0 124.7760086855269 36.368029694847792 0 0 0 0 7.7503021555626219 33.85833438278496 0 33.85833438278496 12.387587617486133 0 0 0 0 12.284842818584821 21.272852789325043 0 21.272852789325043 -17.876653069295571 0 0 0 0 190.48401449566632 167.10096951115702 0 167.10096951115702 72.44289718863638 0 0 0 0 192.62270182427494 102.92815180333128 0 102.92815180333128 -53.741616095261634 0 0 0 0 -19.072078754899849 4.1078578458837001 0 4.1078578458837001 9.3990032903657266 0 0 0 0 -3.0552018654934727 -6.7026469396005268 0 -6.7026469396005268 -10.751561466306157 0 0 0 0 1.9648390624020067 -0.72174092923523858 0 -0.72174092923523858 -3.6772139657441585 0 0 0 0 -20.335950555927866 -80.05178695489667 0 -80.05178695489667 31.476479691584245 0 0 0 0 -46.815085100120996 -55.812528643957194 0 -55.812528643957194 -6.5350142953102477 0 0 0 0 -41.733211581919704 -45.853899513740544 0 -45.853899513740544 7.0500993690366158 0 0 0 0 32.231746740300764 65.013986925716381 0 65.013986925716381 42.786823538597673 0 0 0 0 -64.052922571369407 18.077585397063558 0 18.077585397063558 69.755001692312362 0 0 0 0 -81.015105194042007 -49.816792478539355 0 -49.816792478539355 13.366492856453988 0 0 0 0 -45.819747151489537 -8.4743386533773446 0 -8.4743386533773446 -127.46907161423587 0 0 0 0 -68.889573793043837 -67.772706827418006 0 -67.772706827418006 -86.205888719836366 0 0 0 0 -44.969591263122311 -29.258318739837705 0 -29.258318739837705 13.529548662612797 0 0 0 0 -40.400661561145625 -19.250922983657802 0 -19.250922983657802 -44.095642922678962 0 0 0 0 199.57148171115944 225.83963450231386 0 225.83963450231386 97.859169726616528 0 0 0 0 104.35983089925013 35.18417360512467 0 35.18417360512467 32.004797567686182 0 0 0 0 -40.615413226704277 -58.455279338468245 0 -58.455279338468245 -99.135747154890851 0 0 0 0 -4.6283065227247082 11.605333317318355 0 11.605333317318355 -19.472252985988803 0 0 0 0 -9.304998657468559 149.77152710577502 0 149.77152710577502 88.049592856586969 0 0 0 0 -106.80295246959031 -91.291127177311864 0 -91.291127177311864 -108.49104343066938 0 0 0 0 132.78961944914033 46.165255321579025 0 46.165255321579025 -490.44563873473089 0 0 0 0 -291.70501799448061 -190.42328005609397 0 -190.42328005609397 -327.26880841189995 0 0 0 0 -242.34823219686535 136.81981946560518 0 136.81981946560518 -485.48214110058325 0 0 0 0 44.257035342162908 65.296418616606388 0 65.296418616606388 -1033.5782556709728 0 0 0 0 76.657976229847918 -127.05236602007426 0 -127.05236602007426 -469.01973490373348 0 0 0 0 11.826127456643462 18.05203081678701 0 18.05203081678701 -210.23656953579484 0 0 0 0 -6.3702175264545531 -85.759759282802406 0 -85.759759282802406 -374.36861601871351 0 0 0 0 -57.904082374408972 4.6501818531760364 0 4.6501818531760364 -186.20339397679345 0 0 0 0 -93.239648976238641 -56.025741850527993 0 -56.025741850527993 -155.23111356182562 0 0 0 0 133.50867536683268 -127.66232906562072 0 -127.66232906562072 -1001.1984616090813 0 0 0 0 122.06175920819172 36.103128854317447 0 36.103128854317447 -479.01344178698491 0 0 0 0 75.299288089910988 53.822870404641435 0 53.822870404641435 -388.79655079539953 0 0 0 0 86.830708705323332 81.613744386741018 0 81.613744386741018 -461.20598067827086 0 0 0 0 84.556516447447621 97.963830332184443 0 97.963830332184443 -383.99655049978173 0 0 0 0 -30.330429946102186 80.285976987757749 0 80.285976987757749 -287.89057295223029 0 0 0 0 24.141687751407972 30.961599892954837 0 30.961599892954837 -321.10959517048286 0 0 0 0 -22.64314995578593 -4.6019466205052595 0 -4.6019466205052595 -200.6041438121465 0 0 0 0 11.027487060071962 21.667766474976816 0 21.667766474976816 -116.94744853505836 0 0 0 0 63.940532815455185 -28.351235333331715 0 -28.351235333331715 -211.97741550643696 0 0 0 0 61.322629900606444 -2.0354858800128568 0 -2.0354858800128568 -262.48181818763805 0 0 0 0 4.6442226344904043 -7.1230284902967469 0 -7.1230284902967469 -146.26037754979916 0 0 0 0 36.675689850680669 -43.937730712683333 0 -43.937730712683333 -68.387126822060964 0 0 0 0 60.882553361022474 38.102056948810059 0 38.102056948810059 -121.26690352210426 0 0 0 0 205.5550876000334 21.560125937445264 0 21.560125937445264 -43.196623848467425 0 0 0 0 2.8980758671699274 0.31394836959837846 0 0.31394836959837846 0.039008240796478688 0 0 0 0 77.916768219505229 142.43422230204305 0 142.43422230204305 87.397737548570149 0 0 0 0 30.062301621142524 -76.054652545673889 0 -76.054652545673889 101.24945156183821 0 0 0 0 55.323577831254624 46.045243831576954 0 46.045243831576954 -17.832676008605631 0 0 0 0 245.82587922038829 144.59931362505449 0 144.59931362505449 -162.25138864645851 0 0 0 0 -93.646691680584809 -241.32251919657574 0 -241.32251919657574 153.39546069419885 0 0 0 0 -4.6866823046120771 -154.59331566972833 0 -154.59331566972833 -150.4762176410386 0 0 0 0 -61.099580683543536 -40.248346474356367 0 -40.248346474356367 6.9018155080411816 0 0 0 0 -44.064850349506287 33.712528520503838 0 33.712528520503838 252.87171621840389 0 0 0 0 21.923715251588373 -38.244004656174809 0 -38.244004656174809 -5.8003198005261014 0 0 0 0 -14.537037013813233 -24.215102298043348 0 -24.215102298043348 23.125520028021128 0 0 0 0 8.4458360750808268 -1.0536332586566601 0 -1.0536332586566601 -11.270202547210159 0 0 0 0 27.403293041488723 12.561784325531335 0 12.561784325531335 -48.691256417674595 0 0 0 0 35.383022303562029 10.444750426875544 0 10.444750426875544 -76.673082591820275 0 0 0 0 40.392653398015909 -20.527746443356591 0 -20.527746443356591 -20.164864333507467 0 0 0 0 33.601871720008717 -39.091361849861642 0 -39.091361849861642 -64.122489435096213 0 0 0 0 14.498953046874931 -37.142623585430556 0 -37.142623585430556 -93.491673721151528 0 0 0 0 -26.544582878983476 -59.491064136556815 0 -59.491064136556815 -30.988842938662856 0 0 0 0 1.7784056308039244 -5.1549235416065482 0 -5.1549235416065482 -1.180146835653602 0 0 0 0 -14.231381596944061 -29.638881485734601 0 -29.638881485734601 -92.507952303101774 0 0 0 0 24.860476227470372 0.075307039525796426 0 0.075307039525796426 -212.82587695356779 0 0 0 0 1.5999408640159345 -48.68233718913325 0 -48.68233718913325 -66.810511120034789 0 0 0 0 24.718281672913122 -13.345223074676142 0 -13.345223074676142 -237.13980555214221 0 0 0 0 33.374238554999465 10.970981600246887 0 10.970981600246887 -322.6301246525436 0 0 0 0 -13.703311522492754 32.20553557414496 0 32.20553557414496 -231.76220951293362 0 0 0 0 21.34390638960781 -41.68424557949038 0 -41.68424557949038 -168.43131443699531 0 0 0 0 4.2436287267798889 -6.977433620224474 0 -6.977433620224474 -213.51328177630785 0 0 0 0 -12.153814606657306 3.2019850293218042 0 3.2019850293218042 -153.96624071497354 0 0 0 0 4.3398060415363489 -16.417902042332571 0 -16.417902042332571 -172.47751637023634 0 0 0 0 -4.3317740278726546 -7.0552847409235255 0 -7.0552847409235255 -128.33756451024237 0 0 0 0 6.7139359105859455 -32.806561536155641 0 -32.806561536155641 -115.24298747748253 0 0 0 0 1.1312409581773863 -52.440648091644107 0 -52.440648091644107 -98.401816241588676 0 0 0 0 10.117898753654856 -33.123998611830757 0 -33.123998611830757 -79.265252689376211 0 0 0 0 14.073429190784736 -28.882182729626948 0 -28.882182729626948 -150.54382755895858 0 0 0 0 28.614301167319013 -53.386111719262772 0 -53.386111719262772 -73.216056331904838 0 0 0 0 69.940573525027048 -41.4169073688754 0 -41.4169073688754 -79.095051115866227 0 0 0 0 8.4771552764092064 -13.359298654389931 0 -13.359298654389931 -107.17246746992168 0 0 0 0 19.519796317825438 -49.96009189949109 0 -49.96009189949109 -68.452051948654116 0 0 0 0 9.6685048623373291 -25.620717779987899 0 -25.620717779987899 -100.62915016451734 0 0 0 0 23.348928043041155 -18.551514544880774 0 -18.551514544880774 -143.40627028195013 0 0 0 0 19.403596497634453 -59.944362381145766 0 -59.944362381145766 -70.612327042512334 0 0 0 0 37.387308683066721 -51.979766599142749 0 -51.979766599142749 -78.817883669260482 0 0 0 0 18.944444080303754 -52.395181767358736 0 -52.395181767358736 -46.662112387726665 0 0 0 0 52.472964871254703 -62.413884933921508 0 -62.413884933921508 -65.678712048073066 0 0 0 0 35.163690474528423 -54.192770928857499 0 -54.192770928857499 -46.722614130121656 0 0 0 0 19.799208587522529 -20.661450643016295 0 -20.661450643016295 -58.245732794147159 0 0 0 0 48.296290096842711 -61.378469567634966 0 -61.378469567634966 -24.745429942515329 0 0 0 0 59.161145507771494 -60.989170893430128 0 -60.989170893430128 -39.448333668187843 0 0 0 0 55.541900839390365 -74.835245674606085 0 -74.835245674606085 -34.325672552295146 0 0 0 0 49.679091738220315 -62.33251761649808 0 -62.33251761649808 -54.024235451885033 0 0 0 0 33.223407852069812 -64.060509835602716 0 -64.060509835602716 -37.695031408104114 0 0 0 0 23.27271462034372 -61.308865040238743 0 -61.308865040238743 -31.208470727877284 0 0 0 0 37.673612099642583 -56.367642985971543 0 -56.367642985971543 -48.313904346679919 0 0 0 0 36.212803623131549 -33.126098092616303 0 -33.126098092616303 -318.46876485753819 0 0 0 0 27.196442687702586 -39.684306587674584 0 -39.684306587674584 -5.7722123446469027 0 0 0 0 12.936078751195964 -75.279705699314945 0 -75.279705699314945 -306.37672689263491 0 0 0 0 35.746176484308023 -51.544572609840543 0 -51.544572609840543 -23.868570267237374 0 0 0 0 3.4120679208046347 2.2324445907424035 0 2.2324445907424035 -14.398180624486582 0 0 0 0 46.722150189617423 -5.1427435324039834 0 -5.1427435324039834 -433.68366707941459 0 0 0 0 -7.2653479917653385 26.876009673811495 0 26.876009673811495 -427.28045764324634 0 0 0 0 -2.128135656778074 -2.9061485950589869 0 -2.9061485950589869 6.4310846883556536 0 0 0 0 38.104641222602822 -46.025179657044646 0 -46.025179657044646 -37.512560946854137 0 0 0 0 -8.4675217451774643 -38.861153923291567 0 -38.861153923291567 -37.782724200849771 0 0 0 0 22.582600363329277 -43.316074739821488 0 -43.316074739821488 -33.491563549247076 0 0 0 0 20.3535072003084 -64.839292153212227 0 -64.839292153212227 -57.387176580996311 0 0 0 0 40.593602313700103 -36.354747352528648 0 -36.354747352528648 -244.84755569217941 0 0 0 0 24.416096107003817 -41.450363300760642 0 -41.450363300760642 4.9190227205650778 0 0 0 0 9.7200662411444227 -56.013723773368838 0 -56.013723773368838 4.8761033863556804 0 0 0 0 74.935252906378992 7.8888187935153837 0 7.8888187935153837 -177.39500718782233 0 0 0 0 38.027029705066525 53.81275974140226 0 53.81275974140226 -91.275738089650986 0 0 0 0 18.078768667684017 -62.159606445893587 0 -62.159606445893587 -116.16769678667333 0 0 0 0 27.429395593092522 41.415116110245435 0 41.415116110245435 -104.71263796893618 0 0 0 0 70.961883805215621 56.182962469050835 0 56.182962469050835 -126.46750719464035 0 0 0 0 24.464041082510448 23.042170467295364 0 23.042170467295364 -93.153640014512348 0 0 0 0 61.704581143680116 44.511838408452604 0 44.511838408452604 -140.62640145345358 0 0 0 0 35.843017661760314 -15.635878203407628 0 -15.635878203407628 -167.2068205409596 0 0 0 0 6.6580314947198254 11.963280817803145 0 11.963280817803145 -1.7621697889270536 0 0 0 0 28.915522185949158 36.586924968720268 0 36.586924968720268 -131.05019026689843 0 0 0 0 11.81809173990132 5.9627035608227743 0 5.9627035608227743 -150.01687816832418 0 0 0 0 19.826188535953406 24.015564979003102 0 24.015564979003102 -172.90023491692955 0 0 0 0 11.454529354577971 -39.814755332350614 0 -39.814755332350614 -203.30925671881414 0 0 0 0 2.5305110262943344 22.000613390835497 0 22.000613390835497 -248.89203577565422 0 0 0 0 4.9643613646226186 -15.043035701197368 0 -15.043035701197368 -217.47886730252503 0 0 0 0 -13.526193254534519 -39.098658918213914 0 -39.098658918213914 -312.12404440814862 0 0 0 0 -9.6494647478357365 31.992970820025221 0 31.992970820025221 -224.57498525135452 0 0 0 0 -21.296769338297963 29.572596631598572 0 29.572596631598572 -123.74420556030236 0 0 0 0 52.103722936846225 -2.2763495787567081 0 -2.2763495787567081 -118.42310683055985 0 0 0 0 10.141192488443266 -8.5995640431865468 0 -8.5995640431865468 -186.87983571370205 0 0 0 0 7.3424869157734065 -0.0050914211933559272 0 -0.0050914211933559272 -111.91084124172448 0 0 0 0 6.5996034703275654 51.525218276648957 0 51.525218276648957 -160.36624318647591 0 0 0 0 -12.514550049593709 48.219516027887948 0 48.219516027887948 -45.154958828494273 0 0 0 0 -74.065680946684552 47.697220325573653 0 47.697220325573653 52.563307871336292 0 0 0 0 11.544787697181011 12.823204894240178 0 12.823204894240178 -0.51513474628604783 0 0 0 0 61.976567778701451 -22.027136260584939 0 -22.027136260584939 -20.594543129664089 0 0 0 0 63.491501701578727 -26.923385466117907 0 -26.923385466117907 -231.09645042281045 0 0 0 0 18.576189564480956 210.19206989450686 0 210.19206989450686 -501.52808301654659 0 0 0 0 -28.666719457620275 83.800144300123065 0 83.800144300123065 -160.43792012491031 0 0 0 0 29.549650088592898 83.475531152980693 0 83.475531152980693 -168.94486461497036 0 0 0 0 6.1337777226508479 -37.64640344858708 0 -37.64640344858708 -25.145174731398583 0 0 0 0 -17.666441649249464 93.206282750179525 0 93.206282750179525 -173.6143284697755 0 0 0 0 -28.398002048978014 10.849173808182968 0 10.849173808182968 5.8374344326548453 0 0 0 0 17.85568115628676 12.354026587687088 0 12.354026587687088 -4.5161128486093318 0 0 0 0 -14.882988825454959 -4.070688733154384 0 -4.070688733154384 51.882276389642357 0 0 0 0 84.444598711144863 -24.632965245938976 0 -24.632965245938976 -24.18287550855166 0 0 0 0 -420.34481929153844 127.04756200539123 0 127.04756200539123 -27.575660625855107 0 0 0 0 -142.20023936528287 350.77641808115732 0 350.77641808115732 -517.86297717302659 0 0 0 0 -221.65903093434645 93.819306968696765 0 93.819306968696765 -448.44855215249845 0 0 0 0 -488.95852120651671 391.11484093095351 0 391.11484093095351 -460.43090968769684 0 0 0 0 -94.077608884511847 275.99139737592122 0 275.99139737592122 -404.45910247173742 0 0 0 0 -112.8661319034934 262.52403889132438 0 262.52403889132438 -287.90551467682235 0 0 0 0 23.784964309561929 115.04087206748591 0 115.04087206748591 -338.31113358968287 0 0 0 0 -55.365737406786138 79.846798772436159 0 79.846798772436159 -221.58594726577576 0 0 0 0 -71.747331031954786 183.80414513632604 0 183.80414513632604 -414.27015510939236 0 0 0 0 21.405179509445588 96.837346500691638 0 96.837346500691638 -267.77362842571165 0 0 0 0 -141.29245229327535 29.695780984955491 0 29.695780984955491 -240.38368050281861 0 0 0 0 -154.99598851179417 203.99895287041727 0 203.99895287041727 -436.68000105792453 0 0 0 0 -206.51882920904427 206.29995446374596 0 206.29995446374596 -365.16116905173112 0 0 0 0 -153.29890770586917 337.17430462721313 0 337.17430462721313 -574.77797413443477 0 0 0 0 -262.58703425476142 313.79220837725006 0 313.79220837725006 -476.47235532757622 0 0 0 0 -322.01046653261983 536.82108840875298 0 536.82108840875298 -772.30488476730034 0 0 0 0 0.54037952981720849 -0.7056448422309245 0 -0.7056448422309245 -2.8334223273583348 0 0 0 0 22.477491417578676 6.8863061118318001 0 6.8863061118318001 -41.164793449283025 0 0 0 0 7.7931094394911113 13.268566932444216 0 13.268566932444216 -0.30738736141639755 0 0 0 0 -39.976070044758671 17.580736478757899 0 17.580736478757899 10.786334617225293 0 0 0 0 1.8719121536499941 -1.6935076980184078 0 -1.6935076980184078 -10.166107285005452 0 0 0 0 -156.57017086811538 325.81537683730858 0 325.81537683730858 -573.98534950600288 0 0 0 0 -179.17782786859789 408.20947970510679 0 408.20947970510679 -858.52645406623196 0 0 0 0 -2.4113960816614259 0.47350964012105123 0 0.47350964012105123 0.50306289697604356 0 0 0 0 6.2662631282033026 7.644283804695668 0 7.644283804695668 2.7626494140963871 0 0 0 0 11.941004609924278 15.617435318390449 0 15.617435318390449 2.1566876384458737 0 0 0 0 23.964173413205572 32.168835481741553 0 32.168835481741553 -200.71347986658657 0 0 0 0 11.351683298495118 -6.4727170348924119 0 -6.4727170348924119 -186.0036264043847 0 0 0 0 7.4775747474019454 66.310904583260708 0 66.310904583260708 -106.2265664218794 0 0 0 0 4.9305858820364392 -15.972090691918311 0 -15.972090691918311 -258.84127561931382 0 0 0 0 12.031952021290635 50.30722832464744 0 50.30722832464744 -323.75235297352629 0 0 0 0 160.11436733693063 85.329649946103018 0 85.329649946103018 -441.06585651349087 0 0 0 0 13.262909405952996 238.00703764778882 0 238.00703764778882 -107.05971418738409 0 0 0 0 145.88720562531125 36.570833782170666 0 36.570833782170666 -315.43547857854719 0 0 0 0 52.976810833808486 309.99795250113675 0 309.99795250113675 -522.96385264033415 0 0 0 0 77.221609718481886 -98.396447966035339 0 -98.396447966035339 -774.88402732289251 0 0 0 0 -259.49776541197753 401.56845198828523 0 401.56845198828523 -391.71525730659778 0 0 0 0 -203.29364334852562 346.61490203025824 0 346.61490203025824 -275.82660079171274 0 0 0 0 -221.94162113283346 334.72342801401101 0 334.72342801401101 -272.7678446164573 0 0 0 0 2.6679920336415908 1.4805531493417305 0 1.4805531493417305 0.48046708230685908 0 0 0 0 -417.07987185028469 -302.89826738720512 0 -302.89826738720512 -15.344754926423775 0 0 0 0 -209.80040177974257 267.71135510665795 0 267.71135510665795 -237.66525111055671 0 0 0 0 178.01291627323963 325.54899658656268 0 325.54899658656268 -323.59657830428478 0 0 0 0 -310.62830699447568 215.58264122909168 0 215.58264122909168 -313.60176541701367 0 0 0 0 112.10885823902299 419.25648277187065 0 419.25648277187065 -278.65795820990024 0 0 0 0 -279.25055283139136 -303.17325881118086 0 -303.17325881118086 -259.76187832302458 0 0 0 0 -0.76945072488169242 2.3304408448236522 0 2.3304408448236522 -7.1049422412450411 0 0 0 0 335.39589919527361 562.03908049705478 0 562.03908049705478 -408.61912450194723 0 0 0 0 50.374411053868243 628.86257932741137 0 628.86257932741137 -284.13951739433469 0 0 0 0 -142.89768247103621 -301.11177917484747 0 -301.11177917484747 -37.67984933218122 0 0 0 0 1.2159761922034669 -0.39604534303568073 0 -0.39604534303568073 -0.48180399566163423 0 0 0 0 31.541412554291128 -8.4512734610289044 0 -8.4512734610289044 -68.481360690221209 0 0 0 0 48.417773631439559 -64.416706843826432 0 -64.416706843826432 -417.37967018688505 0 0 0 0 120.42447806829841 67.522303310790448 0 67.522303310790448 -52.791422445450735 0 0 0 0 75.810853017125112 46.041657770354249 0 46.041657770354249 -204.10414329220657 0 0 0 0 141.1550573894001 -148.24359736423503 0 -148.24359736423503 -329.10329786019065 0 0 0 0 -163.72145409037466 -88.076872674150763 0 -88.076872674150763 -89.890676197486755 0 0 0 0 13.890641970909201 -27.593417374726414 0 -27.593417374726414 -70.112155226928735 0 0 0 0 11.32782659992472 -33.986571002962137 0 -33.986571002962137 -45.006051663760445 0 0 0 0 33.46421047883905 -3.209093982612103 0 -3.209093982612103 -110.31325893980102 0 0 0 0 81.512937643394025 -51.149611684493721 0 -51.149611684493721 -64.041466774593573 0 0 0 0 83.18661137837762 -45.972799522172863 0 -45.972799522172863 -54.550048521181452 0 0 0 0 70.169652000211727 -42.736340235016542 0 -42.736340235016542 -43.865714781612041 0 0 0 0 17.224489660451212 -12.892371367028787 0 -12.892371367028787 -62.612349157168666 0 0 0 0 -10.385336091802856 -43.152186967723537 0 -43.152186967723537 -46.561695085307292 0 0 0 0 4.665268998625379 -6.3524411417256488 0 -6.3524411417256488 -27.61662825406529 0 0 0 0 21.475616763491416 -53.101093326375121 0 -53.101093326375121 -51.140479670540117 0 0 0 0 49.56318196815937 -16.672556866527884 0 -16.672556866527884 -32.927316309229354 0 0 0 0 11.81649984624605 -2.7475149119597866 0 -2.7475149119597866 -48.903884084546661 0 0 0 0 5.51696431784144 14.073246008011068 0 14.073246008011068 -46.022722486683094 0 0 0 0 19.553895797905454 -13.742626061666154 0 -13.742626061666154 -61.57142586449794 0 0 0 0 -22.36383396046449 84.201808760343738 0 84.201808760343738 -61.827179578394862 0 0 0 0 111.30450044997315 -13.596229137663613 0 -13.596229137663613 -58.322505646909121 0 0 0 0 73.85240555438088 -24.80528070445871 0 -24.80528070445871 -61.579153386584949 0 0 0 0 88.896480365481239 -36.370008387697453 0 -36.370008387697453 -56.725851565208359 0 0 0 0 87.875181947775218 -39.996983457960596 0 -39.996983457960596 -60.258116782424622 0 0 0 0 103.67377106872124 -45.972771663308777 0 -45.972771663308777 -72.912891663247137 0 0 0 0 71.765759388926085 -50.888450731858029 0 -50.888450731858029 -65.645907126134261 0 0 0 0 0.044551985388064541 1.4014219990661898 0 1.4014219990661898 -5.5370316788564224 0 0 0 0 290.65589130113767 -97.291515441984302 0 -97.291515441984302 -110.5294518951232 0 0 0 0 337.77924282468575 7.1978504480539414 0 7.1978504480539414 -47.153357939510897 0 0 0 0 2.2260254887084372 1.4502658702664171 0 1.4502658702664171 -19.391031513095044 0 0 0 0 181.8913407650798 -97.135735298279542 0 -97.135735298279542 -129.76606790439109 0 0 0 0 0.54047542862016229 4.9857172834433783 0 4.9857172834433783 -9.6337057474203505 0 0 0 0 176.64912617852133 -112.79628500177569 0 -112.79628500177569 -47.551006591276916 0 0 0 0 0.43438615837553146 -0.048472601871554666 0 -0.048472601871554666 -12.642550073481388 0 0 0 0 103.95726581905225 -136.95250802069108 0 -136.95250802069108 -64.307097368262475 0 0 0 0 357.06785323686699 47.793434415178126 0 47.793434415178126 -221.40297937600917 0 0 0 0 -521.55554304496718 -349.52145229377948 0 -349.52145229377948 -102.09968067169575 0 0 0 0 -127.16833959146879 411.35580795279202 0 411.35580795279202 -287.77091184912479 0 0 0 0 -499.29765185759811 54.226524283334584 0 54.226524283334584 -370.9288612466662 0 0 0 0 -1.7429085235555675 2.5088630064665782 0 2.5088630064665782 -3.5894280403039716 0 0 0 0 -117.07778567904859 291.0445293949997 0 291.0445293949997 12.421426686542532 0 0 0 0 -208.37446169665168 256.05847519032432 0 256.05847519032432 -114.35063047597941 0 0 0 0 -127.85880989988868 188.28841211861891 0 188.28841211861891 -405.50588261661687 0 0 0 0 -214.37370761228965 189.33098039017841 0 189.33098039017841 -321.74137119922671 0 0 0 0 -246.30753655611329 231.31351709616138 0 231.31351709616138 -51.627658242581674 0 0 0 0 -353.88141477832596 -42.160165403347492 0 -42.160165403347492 -385.84106155632844 0 0 0 0 -277.49365002571426 110.10975035800038 0 110.10975035800038 -211.32060736761559 0 0 0 0 -418.76329526477684 -65.48067621246264 0 -65.48067621246264 -339.13842690123784 0 0 0 0 -336.53744155031518 166.29080542921702 0 166.29080542921702 -212.38704320007309 0 0 0 0 78.553020695597297 -66.308268951168429 0 -66.308268951168429 -713.25371640993399 0 0 0 0 -83.103384351725936 225.32915207697442 0 225.32915207697442 -610.12282262083454 0 0 0 0 -286.07234597505084 -63.085966008410651 0 -63.085966008410651 -577.12553119867152 0 0 0 0 -153.73601492385478 132.42124192794108 0 132.42124192794108 -397.00152951787686 0 0 0 0 -89.202971607489417 171.49486914091176 0 171.49486914091176 -402.85100004772994 0 0 0 0 -106.84635451064264 135.39321024049968 0 135.39321024049968 -573.21299476228523 0 0 0 0 242.41230467802038 277.586831684706 0 277.586831684706 -523.61238898941519 0 0 0 0 -139.04758556992306 111.27271294484308 0 111.27271294484308 -371.57522735612292 0 0 0 0 23.944122044735195 2.9052534893546635 0 2.9052534893546635 -82.224321639339905 0 0 0 0 29.80386152797746 19.802426272763114 0 19.802426272763114 -15.221583800506778 0 0 0 0 36.648388048938614 16.203664302845937 0 16.203664302845937 -37.395017315600853 0 0 0 0 3.7230276203078043 3.939653965125947 0 3.939653965125947 -21.047251885224441 0 0 0 0 45.392774846801331 3.8209792989764537 0 3.8209792989764537 -15.679201778431889 0 0 0 0 108.28728100483568 -1.4015789628547282 0 -1.4015789628547282 -35.33554555826413 0 0 0 0 29.922158118366497 3.8483951120069833 0 3.8483951120069833 -22.591016109290649 0 0 0 0 15.136890121632248 10.16707768550933 0 10.16707768550933 -16.864064464041931 0 0 0 0 -40.020065028540557 -21.227432490530191 0 -21.227432490530191 -1.7661549401236698 0 0 0 0 -4.0340267270048997 -19.352124794549354 0 -19.352124794549354 -20.524883210476489 0 0 0 0 27.43797487116127 21.011273247906935 0 21.011273247906935 -31.232125733215462 0 0 0 0 7.8689649263267931 7.0941059154496102 0 7.0941059154496102 -1.4963824281078359 0 0 0 0 -23.729706461217575 -58.583083407755112 0 -58.583083407755112 2.8735401957374052 0 0 0 0 23.519116969808238 133.07458402967131 0 133.07458402967131 -157.22369562169843 0 0 0 0 -25.329734980779904 92.863104680865945 0 92.863104680865945 -190.07612418654389 0 0 0 0 -14.406237603534464 -38.821747944988601 0 -38.821747944988601 25.746650101085834 0 0 0 0 -0.097993671903168433 165.75102448555845 0 165.75102448555845 160.81374792611314 0 0 0 0 3.8882904800570195 1.6684288536822649 0 1.6684288536822649 -0.13922061837257615 0 0 0 0 141.01474161479928 254.23039800983315 0 254.23039800983315 -140.66870863160784 0 0 0 0 238.70470907353592 -32.087845498106617 0 -32.087845498106617 -24.31611797880123 0 0 0 0 6.359368930776327 243.60861322431992 0 243.60861322431992 -285.61585823302448 0 0 0 0 -70.643930008064672 127.15281912037426 0 127.15281912037426 -122.60850404352095 0 0 0 0 -33.413894672809874 156.96243929247612 0 156.96243929247612 -99.924063899361499 0 0 0 0 -138.22432078868133 260.41281360287576 0 260.41281360287576 -162.3401329942526 0 0 0 0 -139.11541740216398 258.05450499821745 0 258.05450499821745 -124.71274392862324 0 0 0 0 -147.95412048543403 108.48533928610595 0 108.48533928610595 -294.11843498496455 0 0 0 0 -156.70097740806307 167.0596264409379 0 167.0596264409379 219.39179529421017 0 0 0 0 23.617970204011272 -127.96080572445317 0 -127.96080572445317 -536.43409118420095 0 0 0 0 -48.061815629683224 -165.57543365308265 0 -165.57543365308265 -164.87128979819681 0 0 0 0 11.612147621535769 -245.73783190112954 0 -245.73783190112954 -31.953738008625805 0 0 0 0 16.244002060742787 -410.70276378695416 0 -410.70276378695416 -564.54562837214326 0 0 0 0 179.83477134290661 -132.55514473520634 0 -132.55514473520634 -225.15224814324574 0 0 0 0 21.794475579552 212.90323990650404 0 212.90323990650404 313.99289536914148 0 0 0 0 589.32367230870841 364.62511624436775 0 364.62511624436775 166.49834329689475 0 0 0 0 139.8644873768626 277.63257097548558 0 277.63257097548558 194.79254204368499 0 0 0 0 179.82182916383499 81.700240132318868 0 81.700240132318868 50.657785614916065 0 0 0 0 -245.40525965529196 -145.44901012287664 0 -145.44901012287664 -68.138106538339343 0 0 0 0 33.548466349390765 -938.76841300389242 0 -938.76841300389242 -1488.5370657406165 0 0 0 0 -764.5531760924132 -1147.4346534265969 0 -1147.4346534265969 983.27810419713296 0 0 0 0 -66.305377143553414 514.03475271071238 0 514.03475271071238 1109.1861199104824 0 0 0 0 -30.551880095483284 -5.7352011870425486 0 -5.7352011870425486 -31.690784852153229 0 0 0 0 -3.4856650905094284 10.907801679515615 0 10.907801679515615 -39.17367310274858 0 0 0 0 -10.439290240850369 15.579528328680453 0 15.579528328680453 -23.411075658579648 0 0 0 0 0.10124424002424348 7.3812294483795995 0 7.3812294483795995 -28.650898763924488 0 0 0 0 0.54537919209699925 -0.071739102400650623 0 -0.071739102400650623 -36.155734313210758 0 0 0 0 -57.608297823395333 169.80275435608019 0 169.80275435608019 -438.82780432973595 0 0 0 0 -178.33430393753952 70.872548335306419 0 70.872548335306419 -4.4833096423976713 0 0 0 0 0.31223703578558215 -4.5307296146263099 0 -4.5307296146263099 -37.557856683282836 0 0 0 0 -13.927931994280698 -19.789995847620048 0 -19.789995847620048 -30.47082659435182 0 0 0 0 -94.347688870242564 35.000610849552686 0 35.000610849552686 -25.98831896723641 0 0 0 0 -14.750979657249445 14.459937213556259 0 14.459937213556259 -22.898925433913973 0 0 0 0 -61.237420886433483 -30.556765624693071 0 -30.556765624693071 3.1226575739565305 0 0 0 0 30.504038221219162 287.92709221591576 0 287.92709221591576 -1348.3208819190768 0 0 0 0 518.63783880382016 525.28889862587494 0 525.28889862587494 -199.67212479918089 0 0 0 0 959.39761541906319 -597.93205781771576 0 -597.93205781771576 -2495.599033310391 0 0 0 0 31.229328475583316 -38.028530227318697 0 -38.028530227318697 -23.608586209455098 0 0 0 0 -11.775199929159154 -8.5168451870881228 0 -8.5168451870881228 -9.3992419720902092 0 0 0 0 -375.98396079935901 -293.54369889588816 0 -293.54369889588816 346.97505574345996 0 0 0 0 -4.0594536461560438 0.59042210862978095 0 0.59042210862978095 -4.2116869828776373 0 0 0 0 -412.36341365838143 -548.11863748695941 0 -548.11863748695941 342.94574975424621 0 0 0 0 -330.34945968076863 -118.22234479533108 0 -118.22234479533108 1018.5960909200876 0 0 0 0 270.01704152601815 -206.38106558738218 0 -206.38106558738218 137.59276854405834 0 0 0 0 -90.270984654911445 -27.233087085573061 0 -27.233087085573061 -89.741607635070977 0 0 0 0 -67.951382716672697 113.26163831519898 0 113.26163831519898 -494.96831543313601 0 0 0 0 124.87735533434352 -173.42197194478285 0 -173.42197194478285 -835.43130134489547 0 0 0 0 105.920637367685 -203.1419328858633 0 -203.1419328858633 -566.7718293299622 0 0 0 0 -45.255645405759424 -206.63677036881927 0 -206.63677036881927 -463.2195181186471 0 0 0 0 -19.598089421147762 -16.77835941710952 0 -16.77835941710952 -18.070559723562049 0 0 0 0 -115.04279418339956 -40.60207967259521 0 -40.60207967259521 -85.810808488742623 0 0 0 0 -70.280225382353819 -77.940174439718248 0 -77.940174439718248 -85.643234403633642 0 0 0 0 -65.129573535872623 -21.990905169142934 0 -21.990905169142934 -273.0716508132391 0 0 0 0 -3.9219855754186028 20.907360522071031 0 20.907360522071031 -58.508531850595318 0 0 0 0 -6.8672553763974946 -19.147072880205577 0 -19.147072880205577 -20.771840217005035 0 0 0 0 -30.242065404865571 73.192237787276099 0 73.192237787276099 5.7605263433142682 0 0 0 0 -6.2885111651262378 -103.89767106060935 0 -103.89767106060935 -432.17994629903114 0 0 0 0 5.043180435555854 -2.2834659927665371 0 -2.2834659927665371 -19.401575208496325 0 0 0 0 33.595606254818378 -5.3850516264437545 0 -5.3850516264437545 122.60414768540249 0 0 0 0 392.55258483420403 184.48490810734074 0 184.48490810734074 79.052633704870459 0 0 0 0 22.862413453215972 -19.658119364004342 0 -19.658119364004342 -1.9629433738867377 0 0 0 0 484.03763419000097 81.792606515301713 0 81.792606515301713 -812.63918698390989 0 0 0 0 267.83771381705446 -228.09256862991606 0 -228.09256862991606 -76.383194901594834 0 0 0 0 -37.501050520792887 -681.39282061679296 0 -681.39282061679296 -504.41442238680065 0 0 0 0 -1.0586689284745012 -4.8644742352214028 0 -4.8644742352214028 -15.246476920286092 0 0 0 0 -143.47545847998481 777.410716498076 0 777.410716498076 443.10027714573539 0 0 0 0 -700.60180257916909 478.357360624188 0 478.357360624188 451.06923551598447 0 0 0 0 362.80505663356962 180.02828559580848 0 180.02828559580848 55.797667758830443 0 0 0 0 -849.79005420834483 -221.84014289863671 0 -221.84014289863671 50.53628526632383 0 0 0 0 -155.26028376202885 -571.94933684357966 0 -571.94933684357966 -720.23683029047606 0 0 0 0 37.809121856518686 -137.95041353511806 0 -137.95041353511806 -84.513116096846716 0 0 0 0 -238.60015070742543 244.95666615282494 0 244.95666615282494 -397.26818414783338 0 0 0 0 79.911416869506866 31.898361757252133 0 31.898361757252133 -1098.8783672059999 0 0 0 0 97.264752514384782 -99.278982463493776 0 -99.278982463493776 -406.91258303751965 0 0 0 0 10.648327888212634 109.44026609039793 0 109.44026609039793 -175.50177477274428 0 0 0 0 -101.83256150023999 210.63850769380588 0 210.63850769380588 -174.14155012788103 0 0 0 0 -26.635206035429292 190.29745668073519 0 190.29745668073519 -253.4094741351355 0 0 0 0 -119.80574754542977 282.72934162241654 0 282.72934162241654 -276.44646149784239 0 0 0 0 -66.485348710587232 233.78769360455954 0 233.78769360455954 -283.8035872242981 0 0 0 0 -135.98349490864507 229.31552356605835 0 229.31552356605835 -282.72397523636755 0 0 0 0 -114.34371701687064 230.94655086127386 0 230.94655086127386 -300.70349266958874 0 0 0 0 -138.97440729374284 223.11505368520375 0 223.11505368520375 -213.7770014587586 0 0 0 0 -85.706050594068984 144.06242165461663 0 144.06242165461663 -240.31891837146395 0 0 0 0 -72.554453183317321 228.61407065669755 0 228.61407065669755 -285.99989326485229 0 0 0 0 -141.01196960015307 170.1080364921072 0 170.1080364921072 -313.81301499282563 0 0 0 0 0.81399022224759854 0.91113669111781448 0 0.91113669111781448 -6.6892342984595814 0 0 0 0 -292.68593367848507 345.33248553555677 0 345.33248553555677 -333.98572578806852 0 0 0 0 -98.636353747689668 -132.40085609587322 0 -132.40085609587322 -123.63009711994891 0 0 0 0 -195.33679273640746 -363.70910986283889 0 -363.70910986283889 -430.27388593923388 0 0 0 0 -14.667020685956913 36.919088306168305 0 36.919088306168305 -100.39294747274471 0 0 0 0 19.403429688869437 7.0568386635968636 0 7.0568386635968636 -77.312616317540233 0 0 0 0 59.104214065951282 55.336726353481936 0 55.336726353481936 -136.23213927578036 0 0 0 0 0.85005129084405251 -0.78217593577550204 0 -0.78217593577550204 -15.098110793698027 0 0 0 0 -163.16534330276602 87.977849036393309 0 87.977849036393309 -34.774957044755865 0 0 0 0 37.208184823723741 -22.104583664357051 0 -22.104583664357051 -38.403809275121603 0 0 0 0 -19.079824663181171 3.3218003552356095 0 3.3218003552356095 -2.9335842174259597 0 0 0 0 -108.82526377929753 -7.7064516145946982 0 -7.7064516145946982 -112.56845521696232 0 0 0 0 -16.883927333297834 17.467517087403394 0 17.467517087403394 -14.994204746217292 0 0 0 0 -11.811413848285838 -10.871812067675314 0 -10.871812067675314 -8.6934476542507895 0 0 0 0 -29.969948745871989 10.961078918942803 0 10.961078918942803 -2.5694087192342181 0 0 0 0 -90.474663275545026 -98.343580696036952 0 -98.343580696036952 -200.21796077788167 0 0 0 0 -32.784475897540233 34.04873493766172 0 34.04873493766172 -27.379341726598796 0 0 0 0 -43.815631140245387 24.573498805577401 0 24.573498805577401 -2.7092779338199762 0 0 0 0 -43.394331458783199 80.209144081272825 0 80.209144081272825 -73.968355851842716 0 0 0 0 13.851311436099301 -29.124343387204277 0 -29.124343387204277 -72.825037190149871 0 0 0 0 31.289783794638971 -206.9853492705314 0 -206.9853492705314 145.78473453230436 0 0 0 0 0.13484708319943195 -3.0736069046005241 0 -3.0736069046005241 -8.5910712388497217 0 0 0 0 0.57265739226542589 -2.7446237088444008 0 -2.7446237088444008 -19.397621717206931 0 0 0 0 20.5137457771134 9.2410307917562022 0 9.2410307917562022 -36.735211651273858 0 0 0 0 -34.456527590476981 32.657681477634469 0 32.657681477634469 -177.00516469799913 0 0 0 0 48.614660612696298 26.666583645283026 0 26.666583645283026 -66.17562925582024 0 0 0 0 135.06834633985488 -58.812194533980801 0 -58.812194533980801 -66.192139710990887 0 0 0 0 -42.337176201392936 68.719926144851343 0 68.719926144851343 -12.185153863785672 0 0 0 0 9.4333082943160207 130.00619270987772 0 130.00619270987772 -231.78706361472723 0 0 0 0 -59.108304383553786 176.24295974193228 0 176.24295974193228 -199.19959313110303 0 0 0 0 72.321270474369157 12.333452836126526 0 12.333452836126526 -129.26136786993811 0 0 0 0 45.636949843544244 -9.6200328746490413 0 -9.6200328746490413 -98.472861624806683 0 0 0 0 129.44373693208081 26.252438897095999 0 26.252438897095999 -106.18068332478288 0 0 0 0 7.3865360398822304 4.8790335773155675 0 4.8790335773155675 58.625534626022272 0 0 0 0 68.395210205677358 212.2817653650859 0 212.2817653650859 -516.0331931009423 0 0 0 0 1.4416882412676451 -2.3079146351412021 0 -2.3079146351412021 -3.3793109309787042 0 0 0 0 186.73439656633195 106.55480951469599 0 106.55480951469599 -505.18062945759448 0 0 0 0 48.719267083826601 56.429428391563761 0 56.429428391563761 -358.54762752393435 0 0 0 0 241.06645485678564 -19.563726705990121 0 -19.563726705990121 -448.26939284703985 0 0 0 0 -314.61689550431197 -510.44077831158938 0 -510.44077831158938 189.0244229000873 0 0 0 0 8.7935194150692233 -39.206092087793181 0 -39.206092087793181 -83.613790983365305 0 0 0 0 -46.476837378544587 588.37394905767178 0 588.37394905767178 -384.77750540517445 0 0 0 0 1.4615411650017731 1.4963390255231808 0 1.4963390255231808 -7.1678085185975817 0 0 0 0 2.1982983572335302 -3.6483051350624862 0 -3.6483051350624862 -9.4557257186680346 0 0 0 0 -49.353017137591621 -81.543786839716631 0 -81.543786839716631 -141.28191709398379 0 0 0 0 158.65810816320595 -143.66081322648461 0 -143.66081322648461 32.363742395416921 0 0 0 0 232.88926532923637 -356.6539698380256 0 -356.6539698380256 7.187597657830338 0 0 0 0 5.275812594310695 -33.652880108837422 0 -33.652880108837422 -82.489457715871382 0 0 0 0 63.093633854834479 -4.8605321104587347 0 -4.8605321104587347 -168.48363956511093 0 0 0 0 23.468442566705562 -240.2291105962222 0 -240.2291105962222 -117.36930720660894 0 0 0 0 -95.25925485753578 -106.92615121084054 0 -106.92615121084054 168.67029170629576 0 0 0 0 223.03701958953934 -83.566894703280013 0 -83.566894703280013 -15.099985643377295 0 0 0 0 -8.3855578669767965 -90.866925225647492 0 -90.866925225647492 -96.720250888374721 0 0 0 0 78.274490964666256 -266.22521905348367 0 -266.22521905348367 -207.74384780454784 0 0 0 0 244.71844824463528 -88.407624044824843 0 -88.407624044824843 -212.08801951952773 0 0 0 0 107.4286187571106 -130.91056523766201 0 -130.91056523766201 76.37942859071336 0 0 0 0 139.79752810646733 37.390334124180299 0 37.390334124180299 -310.05484159853086 0 0 0 0 152.78807994811459 -62.079214406680194 0 -62.079214406680194 -118.8271410106754 0 0 0 0 266.91996747639678 -24.600274286844069 0 -24.600274286844069 -302.00598320927782 0 0 0 0 111.48546927147459 1.8268921952076198 0 1.8268921952076198 -354.72675700547188 0 0 0 0 87.88376527776154 76.450790850305566 0 76.450790850305566 -571.22736826994515 0 0 0 0 13.812623034172702 149.4402083225259 0 149.4402083225259 -356.8853402549903 0 0 0 0 55.762044878590586 191.22912201356439 0 191.22912201356439 -532.56112665756882 0 0 0 0 99.728188426970974 134.68395829450856 0 134.68395829450856 -431.01960721036448 0 0 0 0 89.747554407535517 47.603168137844477 0 47.603168137844477 -337.10393630793624 0 0 0 0 103.30028901433184 74.101852648596832 0 74.101852648596832 -301.07492709086 0 0 0 0 148.3075504606303 -39.549372189725091 0 -39.549372189725091 -254.8712624988766 0 0 0 0 -0.82899471665632518 -11.253365744451003 0 -11.253365744451003 -148.59536998714975 0 0 0 0 26.937224493114172 61.103875834844075 0 61.103875834844075 -312.79034695727569 0 0 0 0 -3.0172668454509903 -0.82465165992539369 0 -0.82465165992539369 -193.95399667528909 0 0 0 0 -22.207216905234404 -45.452407177101435 0 -45.452407177101435 -60.437800650511257 0 0 0 0 0.69971914656298395 7.6155157787006829 0 7.6155157787006829 -190.50619483410992 0 0 0 0 44.977267956051151 -7.1707650351003309 0 -7.1707650351003309 -22.87122266700587 0 0 0 0 101.82954659410598 -152.98289958325586 0 -152.98289958325586 -15.21086058374749 0 0 0 0 243.07683986674465 -97.192769845492876 0 -97.192769845492876 -157.79408962097295 0 0 0 0 4.43401494563056 -6.457115774215918 0 -6.457115774215918 -30.714858894404983 0 0 0 0 42.347781818225485 79.9733096899472 0 79.9733096899472 -10.101325582918435 0 0 0 0 -97.045359666342847 270.37854956201045 0 270.37854956201045 231.17212571541313 0 0 0 0 9.0759606291294261 4.321773391347687 0 4.321773391347687 -1.5170636428613271 0 0 0 0 118.92700930784486 505.72555995806943 0 505.72555995806943 -442.0787457257411 0 0 0 0 3.8969309815367978 228.0279228983394 0 228.0279228983394 458.39082497198251 0 0 0 0 -17.306355515624119 8.4718143922815017 0 8.4718143922815017 -0.43210961878334331 0 0 0 0 51.175087782909031 -313.60605654190294 0 -313.60605654190294 90.805329506238195 0 0 0 0 36.797297500763392 -35.486148847830947 0 -35.486148847830947 -89.582635775292147 0 0 0 0 18.792402677227074 86.800855216912169 0 86.800855216912169 37.289831414205764 0 0 0 0 -0.97039410911652624 -0.51995710426984232 0 -0.51995710426984232 4.1159665772449046 0 0 0 0 -0.67458458909276686 0.15832617461727949 0 0.15832617461727949 0.53106155301044744 0 0 0 0 -270.7465495155393 64.62376838284581 0 64.62376838284581 664.54884195140858 0 0 0 0 13.811434761479461 -17.255681846744835 0 -17.255681846744835 -70.670322011425014 0 0 0 0 -123.99996440962423 -18.495381045788235 0 -18.495381045788235 124.5406064281251 0 0 0 0 -27.286444127919822 66.897550819608114 0 66.897550819608114 -207.0120124062687 0 0 0 0 -195.05140583058346 95.899630349860672 0 95.899630349860672 -15.489183106183191 0 0 0 0 -219.55555920648476 -187.217808469798 0 -187.217808469798 138.74203335709171 0 0 0 0 -229.95541144898925 -339.90674682272493 0 -339.90674682272493 -376.33432137240379 0 0 0 0 -2.1803815453780828 -1.4739859758495903 0 -1.4739859758495903 0.37931111018085861 0 0 0 0 -274.84115464218849 -177.93989807146318 0 -177.93989807146318 370.29012025333145 0 0 0 0 85.74372284433889 245.14328002918057 0 245.14328002918057 -1397.2120045652919 0 0 0 0 97.061913803668176 132.4437900785415 0 132.4437900785415 -465.63819210705333 0 0 0 0 -288.82359591628483 620.66261550956187 0 620.66261550956187 -473.59214356059238 0 0 0 0 -399.1419212530127 -730.98532740613155 0 -730.98532740613155 -558.80893665947951 0 0 0 0 -454.96897638079264 760.18641521252027 0 760.18641521252027 -553.90412886061313 0 0 0 0 365.8675801157442 -72.247492113279804 0 -72.247492113279804 -1748.6682630379792 0 0 0 0 -332.32565049621371 -778.73447147753541 0 -778.73447147753541 -1230.046719064715 0 0 0 0 -7.2423045748846278 9.1788186513568775 0 9.1788186513568775 -13.794250340143996 0 0 0 0 -322.69370588157108 330.89779974823614 0 330.89779974823614 -58.567202455560619 0 0 0 0 -171.38047411376328 -181.58056672371777 0 -181.58056672371777 -759.52792203724675 0 0 0 0 148.00514630484031 24.876480311684645 0 24.876480311684645 -796.84010126348085 0 0 0 0 -119.42929497211298 -353.07293641974866 0 -353.07293641974866 -444.72069015203124 0 0 0 0 171.36147169646574 54.628237089336835 0 54.628237089336835 -773.70847967191276 0 0 0 0 35.319734959426569 -5.8450752914131954 0 -5.8450752914131954 -703.56598970635969 0 0 0 0 115.54638817077648 206.73575238581725 0 206.73575238581725 -357.62080994952521 0 0 0 0 -14.541014406846934 23.815850024373681 0 23.815850024373681 -41.179945759680095 0 0 0 0 117.19615494677782 107.64370157443955 0 107.64370157443955 -122.25180834752246 0 0 0 0 23.375295699370326 -31.282165444397833 0 -31.282165444397833 -1.4462440906645497 0 0 0 0 89.494756457720769 83.513891445130014 0 83.513891445130014 -33.18765746565623 0 0 0 0 8.5355929404108792 14.764494660155286 0 14.764494660155286 -37.592716815324508 0 0 0 0 41.991050051059574 33.073978267610073 0 33.073978267610073 -11.833881827769801 0 0 0 0 -17.718053122223431 43.617416510374817 0 43.617416510374817 -41.326627527671548 0 0 0 0 5.5496689098889078 -2.4450268400562862 0 -2.4450268400562862 -12.756297329524735 0 0 0 0 -48.134168585261477 115.52555131298868 0 115.52555131298868 -376.07751348619604 0 0 0 0 170.64154703633267 -162.07407263605114 0 -162.07407263605114 -266.10283430765048 0 0 0 0 8.3878904841840267 -13.470215020615797 0 -13.470215020615797 53.664751853058988 0 0 0 0 -2.3252321216667227 -3.0945199995866872 0 -3.0945199995866872 3.6764827179112345 0 0 0 0 161.64701621604036 231.26104708530693 0 231.26104708530693 100.18312297949888 0 0 0 0 84.737887492581649 -13.761370728476322 0 -13.761370728476322 -78.096365180088469 0 0 0 0 -7.73667781707627 -9.5798605566305923 0 -9.5798605566305923 -160.51703112445102 0 0 0 0 -7.4392396138064214 10.065137007222802 0 10.065137007222802 -333.1772617570241 0 0 0 0 -117.65096912829904 78.337781959282438 0 78.337781959282438 9.9526792593351274 0 0 0 0 165.48288540348585 -13.559397652006737 0 -13.559397652006737 -209.84990014297 0 0 0 0 -193.95598570870879 303.96654881399263 0 303.96654881399263 -126.87125673196715 0 0 0 0 -155.71404783973776 274.18435657318332 0 274.18435657318332 -248.36272636459944 0 0 0 0 -207.00362818833401 320.52187743248396 0 320.52187743248396 -244.0105434580837 0 0 0 0 -201.30939073254694 317.87340062307339 0 317.87340062307339 -381.47346648338862 0 0 0 0 -162.84498951591013 185.20094308846456 0 185.20094308846456 -271.41343506737394 0 0 0 0 -219.1444537356947 178.20990622378577 0 178.20990622378577 -396.53687164169241 0 0 0 0 -207.55155375235699 225.37209213674942 0 225.37209213674942 -304.09277412648953 0 0 0 0 -142.13408809410612 194.0355989039108 0 194.0355989039108 -282.1508906911331 0 0 0 0 -140.39764329344325 124.18762089106895 0 124.18762089106895 -219.49015422316734 0 0 0 0 -130.65845257610999 145.74974887856297 0 145.74974887856297 -418.63446414200007 0 0 0 0 -27.510122242500074 -10.102606281958288 0 -10.102606281958288 -349.8648624716443 0 0 0 0 -88.072360615406069 -29.054043295815063 0 -29.054043295815063 -315.69795591771981 0 0 0 0 -82.50552991990844 -41.967992139070702 0 -41.967992139070702 -623.04965392567101 0 0 0 0 -144.8359173713261 183.17313928033855 0 183.17313928033855 -766.02197855676059 0 0 0 0 -134.67813696051599 115.18645112711965 0 115.18645112711965 -389.09610117618286 0 0 0 0 6.3915468121349477 -29.270083408068786 0 -29.270083408068786 -29.824635343680711 0 0 0 0 -2.0820617436991498 -0.77054811344360985 0 -0.77054811344360985 -2.2401969225078915 0 0 0 0 -33.512995059742479 -26.323785501447674 0 -26.323785501447674 -854.2246324273292 0 0 0 0 -12.451692144326444 -108.19527316339372 0 -108.19527316339372 -562.56044852215564 0 0 0 0 0.52770203514686642 -0.60916919671588232 0 -0.60916919671588232 0.36923076562224821 0 0 0 0 -57.06402943813373 -6.9378636216279119 0 -6.9378636216279119 -300.22627448682761 0 0 0 0 11.468918761570421 -34.555712648483677 0 -34.555712648483677 -41.796973774742582 0 0 0 0 0.64014618327018979 -13.762376797213619 0 -13.762376797213619 -13.671880449703167 0 0 0 0 11.132028594093189 -10.893803630877059 0 -10.893803630877059 5.3657923787831194 0 0 0 0 -47.952548781991936 -133.47199162250035 0 -133.47199162250035 -285.07788561307279 0 0 0 0 36.743106800582609 -107.66298206993088 0 -107.66298206993088 -323.62021251775786 0 0 0 0 55.145246016327292 -155.19706938340823 0 -155.19706938340823 -247.30897653489592 0 0 0 0 91.57876477456557 -10.513628903223434 0 -10.513628903223434 -176.35699989193745 0 0 0 0 -5.1389011614701303 27.603864951059222 0 27.603864951059222 -97.130774454246421 0 0 0 0 16.182815488900815 -12.461732477071564 0 -12.461732477071564 -22.943222832451283 0 0 0 0 16.114769184991928 -5.8179025491608627 0 -5.8179025491608627 -39.883581484453316 0 0 0 0 26.279596382426107 -15.233366918704697 0 -15.233366918704697 -0.77110828980135082 0 0 0 0 8.2125826334058463 9.312581843416492 0 9.312581843416492 -45.044694283971296 0 0 0 0 6.3894593607037677 9.8569202837825287 0 9.8569202837825287 -23.303079155564774 0 0 0 0 29.441995965633396 -9.214170628993088 0 -9.214170628993088 -86.294707582674164 0 0 0 0 27.483060717667016 1.9627031729382196 0 1.9627031729382196 -69.296513245497863 0 0 0 0 36.731772268046825 117.41731643800813 0 117.41731643800813 -405.63521741391742 0 0 0 0 52.496184392998316 127.48013759651258 0 127.48013759651258 -401.95597445084422 0 0 0 0 47.369827542390567 139.92563933775273 0 139.92563933775273 -430.37148254473868 0 0 0 0 -51.612480857544142 119.29065501565492 0 119.29065501565492 -363.43420491786674 0 0 0 0 35.573687665926627 120.84416033327943 0 120.84416033327943 -399.12511100417032 0 0 0 0 -89.798107908601196 108.58543943715631 0 108.58543943715631 -268.01720422147082 0 0 0 0 38.084987877336971 71.374275510628649 0 71.374275510628649 -340.39434283042465 0 0 0 0 76.335338483837518 46.016855367677636 0 46.016855367677636 -340.73827384677861 0 0 0 0 35.999053122596607 102.96878056502965 0 102.96878056502965 -379.52540812779625 0 0 0 0 62.310391030201458 94.506012427238602 0 94.506012427238602 -394.9248963114369 0 0 0 0 69.429588423894302 119.91471563956748 0 119.91471563956748 -432.61885054245795 0 0 0 0 93.840824934675993 108.10806064063036 0 108.10806064063036 -411.31155126265367 0 0 0 0 44.681416146498123 138.83563706214773 0 138.83563706214773 -435.62152154092473 0 0 0 0 30.83492542170552 106.54510963579378 0 106.54510963579378 -402.48846624474027 0 0 0 0 -99.708911175504909 308.68160207185429 0 308.68160207185429 -491.4724720790573 0 0 0 0 -11.236941589505477 202.83530190625606 0 202.83530190625606 -407.64718240749062 0 0 0 0 -40.389875102210681 157.57408305599165 0 157.57408305599165 -392.62486660457034 0 0 0 0 -172.03236393011139 248.06669142502142 0 248.06669142502142 -318.81463434049147 0 0 0 0 -181.94773922943205 176.41820962200291 0 176.41820962200291 -393.54282413634428 0 0 0 0 -66.724963323302291 150.48272194988749 0 150.48272194988749 -439.20058633842564 0 0 0 0 -45.648495949448261 110.70729733130793 0 110.70729733130793 -584.12018549790082 0 0 0 0 -281.23530404541452 263.74196043864868 0 263.74196043864868 -459.01005012714813 0 0 0 0 -269.70673661014553 100.17723922397636 0 100.17723922397636 -442.39191214378297 0 0 0 0 23.562356980261939 130.12970346768634 0 130.12970346768634 -423.88629885096452 0 0 0 0 32.57781657344276 137.1031542460405 0 137.1031542460405 -422.89351138656275 0 0 0 0 22.673419149449728 137.38112206398728 0 137.38112206398728 -483.02219015663286 0 0 0 0 -69.26470133642124 137.01544229974115 0 137.01544229974115 -425.32962748231512 0 0 0 0 -39.477085702892509 181.25076634896323 0 181.25076634896323 -433.46610864721151 0 0 0 0 39.163676964180922 130.35653129026468 0 130.35653129026468 -433.90178285565344 0 0 0 0 16.522894500885741 157.49313880411501 0 157.49313880411501 -395.48077581500547 0 0 0 0 6.4572578602092108 171.65765045920125 0 171.65765045920125 -406.04567927364405 0 0 0 0 -5.9552055281719731 150.94512371086239 0 150.94512371086239 -333.60508368370211 0 0 0 0 2.656093996995196 156.28868668465293 0 156.28868668465293 -419.71451124254963 0 0 0 0 -26.495324425757644 205.31754325515067 0 205.31754325515067 -412.25719829556328 0 0 0 0 -58.007628254561496 198.13655173236475 0 198.13655173236475 -296.12987563776551 0 0 0 0 5.0713804495838275 -11.704310476531653 0 -11.704310476531653 -12.691526851431028 0 0 0 0 -128.53513737556023 35.474031326208205 0 35.474031326208205 -116.86792660401261 0 0 0 0 -315.28038706765801 208.88269389468769 0 208.88269389468769 -33.835057246076758 0 0 0 0 -76.507682588756325 305.65378764018169 0 305.65378764018169 -474.61191739261267 0 0 0 0 -63.9633819573246 181.96091662315303 0 181.96091662315303 -337.35777437256183 0 0 0 0 -75.552352010090544 213.36380304211343 0 213.36380304211343 -337.08928829818615 0 0 0 0 39.58111157672829 248.59956311946735 0 248.59956311946735 -287.40930981832207 0 0 0 0 -40.927206646538252 210.42748803031282 0 210.42748803031282 -337.30439203231026 0 0 0 0 3.370307061647182 1.4757260145113094 0 1.4757260145113094 -6.3280554711449781 0 0 0 0 -38.861551152123866 180.50333887445595 0 180.50333887445595 -338.47671247636754 0 0 0 0 17.781228196336997 -5.8784092074874934 0 -5.8784092074874934 -17.988647109848898 0 0 0 0 18.593555525566785 -4.0636266141482977 0 -4.0636266141482977 -5.9769704915943791 0 0 0 0 -95.427061136723069 122.78231949654946 0 122.78231949654946 -186.60671923969858 0 0 0 0 18.982790589371707 -15.960505353006738 0 -15.960505353006738 -24.614212769454753 0 0 0 0 13.098931430576661 -8.8174099018625327 0 -8.8174099018625327 -18.22624632509963 0 0 0 0 -11.067972114364466 110.67887884068841 0 110.67887884068841 -263.91896511019695 0 0 0 0 8.0485062684932132 131.96183875329734 0 131.96183875329734 -336.99067412123259 0 0 0 0 2.9917911208740406 119.6626512630537 0 119.6626512630537 -261.90677311114268 0 0 0 0 37.318252646026622 128.18336794958304 0 128.18336794958304 -401.82041477946768 0 0 0 0 19.526702291332867 139.63232153960598 0 139.63232153960598 -336.11763588248868 0 0 0 0 14.676613243923384 114.91069484466425 0 114.91069484466425 -394.41233036303311 0 0 0 0 32.256894458135775 131.2306500788718 0 131.2306500788718 -379.84445115012932 0 0 0 0 24.840236065333102 95.014899020705343 0 95.014899020705343 -369.08339623024222 0 0 0 0 5.6532107322191223 -32.316063114420103 0 -32.316063114420103 -375.99421020907175 0 0 0 0 9.1940997416058963 108.94204011274087 0 108.94204011274087 -348.60591527412907 0 0 0 0 -108.18283686263385 183.66851121883519 0 183.66851121883519 -168.25087042249106 0 0 0 0 -85.017034472647538 289.77027705832006 0 289.77027705832006 -219.74795668641309 0 0 0 0 -219.90633209059524 380.51745119273437 0 380.51745119273437 766.78551777064422 0 0 0 0 -139.81086305048393 32.470287713387734 0 32.470287713387734 -481.65440628822398 0 0 0 0 19.749760310957754 102.08329876170137 0 102.08329876170137 -402.29539333934736 0 0 0 0 -12.094177965046583 160.25938688151018 0 160.25938688151018 -423.2680210929102 0 0 0 0 -117.59222289472382 149.02064019112913 0 149.02064019112913 -358.68382629656116 0 0 0 0 -51.378221477380691 126.3063795554387 0 126.3063795554387 -353.46286698026233 0 0 0 0 -204.01259933908568 349.58097434803403 0 349.58097434803403 -608.46558593070586 0 0 0 0 -8.7817472830092385 -18.254068848569688 0 -18.254068848569688 -30.326755107760576 0 0 0 0 269.33906639043198 -348.06688634426973 0 -348.06688634426973 63.868470308326323 0 0 0 0 283.57506233388631 -151.84289781596271 0 -151.84289781596271 -184.47754856919346 0 0 0 0 88.737978013265092 -66.622157371457433 0 -66.622157371457433 143.43242992042178 0 0 0 0 -112.32296950582622 167.26332662891036 0 167.26332662891036 -337.45538727741223 0 0 0 0 -18.108784432024912 -31.143550912372191 0 -31.143550912372191 -47.883698900691797 0 0 0 0 203.26851655572682 -358.6711979957181 0 -358.6711979957181 21.023376270924928 0 0 0 0 41.863725913116014 75.344349313562816 0 75.344349313562816 -330.31690778359916 0 0 0 0 70.559994296172135 -74.951421409429713 0 -74.951421409429713 -311.24204543121596 0 0 0 0 163.32857852753023 -137.9986057189908 0 -137.9986057189908 -266.8405607731911 0 0 0 0 35.975016835098359 40.880151657838724 0 40.880151657838724 -84.722168892396439 0 0 0 0 121.89776534230805 -101.90090448492629 0 -101.90090448492629 184.01390837406507 0 0 0 0 87.253640095130322 -214.00588949934536 0 -214.00588949934536 17.641598734348008 0 0 0 0 120.55990850244098 -20.851589163813969 0 -20.851589163813969 -93.34427223707462 0 0 0 0 192.30851157917641 -260.66556237183249 0 -260.66556237183249 185.52943774997053 0 0 0 0 125.20315089167343 -176.23515721093827 0 -176.23515721093827 329.90022444658825 0 0 0 0 -2.726172701474745 -5.2525373924063459 0 -5.2525373924063459 -10.624420192307923 0 0 0 0 -557.97807552141967 432.03181447249517 0 432.03181447249517 -449.38428963957267 0 0 0 0 -264.34699732100307 1295.4527790077436 0 1295.4527790077436 -1290.3179801123988 0 0 0 0 55.395927004778059 -418.29426689510365 0 -418.29426689510365 41.046335547855051 0 0 0 0 1511.6472495984781 245.13237260513051 0 245.13237260513051 -1814.5797407269129 0 0 0 0 -17.859850660250377 19.230074240624432 0 19.230074240624432 -14.418570348828155 0 0 0 0 -519.07716067926958 1119.6937606667361 0 1119.6937606667361 -283.83100294238102 0 0 0 0 -88.769742953435525 148.5175054247411 0 148.5175054247411 -310.25747523096652 0 0 0 0 -14.265600475564497 161.60141449764342 0 161.60141449764342 -528.54735624971272 0 0 0 0 -64.806288756382855 -64.052744285570952 0 -64.052744285570952 -35.34262711752308 0 0 0 0 0.83940877329479857 -1.8007993970476193 0 -1.8007993970476193 -7.7777449096467706 0 0 0 0 -1.9040154723835756 3.1476043945762928 0 3.1476043945762928 -16.317822027375882 0 0 0 0 104.4095118135192 96.473888700698808 0 96.473888700698808 90.703262030416226 0 0 0 0 -11.774527049778325 16.669050671639525 0 16.669050671639525 -20.056354240175921 0 0 0 0 -22.781171956581602 12.850233683820989 0 12.850233683820989 6.0898876798328274 0 0 0 0 324.86544131765913 -39.615232458087121 0 -39.615232458087121 17.858585052053058 0 0 0 0 288.81749773400588 -219.92712961804864 0 -219.92712961804864 89.661159238811706 0 0 0 0 -312.6820109921423 -605.80634835815727 0 -605.80634835815727 -641.59173733765783 0 0 0 0 -279.43468294402646 -279.6193584938992 0 -279.6193584938992 -193.93859590241482 0 0 0 0 -34.093006104699725 -172.88159978692784 0 -172.88159978692784 -371.79136105065118 0 0 0 0 91.398380270220514 30.389345582123497 0 30.389345582123497 -45.793146250158316 0 0 0 0 -113.52474715146991 -242.73999835735231 0 -242.73999835735231 -185.3009051780391 0 0 0 0 -1.8428442383610673 -259.1166678513473 0 -259.1166678513473 -500.85011679558738 0 0 0 0 -228.35361204052333 -397.4018558527423 0 -397.4018558527423 -405.26379981781065 0 0 0 0 -262.39276525205855 -50.333992369616681 0 -50.333992369616681 -290.76595761008502 0 0 0 0 -80.753426302450862 -142.76178561908455 0 -142.76178561908455 -248.20692558759038 0 0 0 0 -101.50108040952773 72.954219132676371 0 72.954219132676371 -188.95758630044656 0 0 0 0 -91.850432587521709 30.025051504169369 0 30.025051504169369 0.38550208602100611 0 0 0 0 -0.91601752199540254 9.4165475163399712 0 9.4165475163399712 -45.824113445076136 0 0 0 0 33.643791760870045 15.746476723605156 0 15.746476723605156 -174.80850985719007 0 0 0 0 215.65336346966888 66.124400619395601 0 66.124400619395601 -131.68860553530976 0 0 0 0 96.068084232099864 75.45214832937927 0 75.45214832937927 -135.61075755875936 0 0 0 0 65.514701233649248 6.8795830835078959 0 6.8795830835078959 -170.84170290414477 0 0 0 0 -14.96621560832773 78.22833326975524 0 78.22833326975524 -11.444358537351945 0 0 0 0 166.50213357566281 135.25192196965509 0 135.25192196965509 -73.184276368905557 0 0 0 0 183.945499254487 120.56078816486115 0 120.56078816486115 -79.051366370375035 0 0 0 0 183.97797052841634 78.53440531285014 0 78.53440531285014 -33.156778824049979 0 0 0 0 308.99608490658284 -50.300263517536223 0 -50.300263517536223 97.468186886049807 0 0 0 0 5.8773567166183902 2.2018914391602635 0 2.2018914391602635 -10.664000668383409 0 0 0 0 35.980613808882481 50.498522470472381 0 50.498522470472381 -298.08760172157781 0 0 0 0 24.28500274905673 81.313256845220167 0 81.313256845220167 -346.95275644944923 0 0 0 0 -14.067317745102628 6.7081710705242585 0 6.7081710705242585 -314.66644095392257 0 0 0 0 -28.187797588876492 -90.334296068533149 0 -90.334296068533149 -389.52015033582575 0 0 0 0 32.79032286126494 -100.00368308606994 0 -100.00368308606994 -511.97434471144516 0 0 0 0 21.325236857419441 95.466503828174609 0 95.466503828174609 15.77722744327184 0 0 0 0 80.877854938245036 -21.645812439033762 0 -21.645812439033762 -6.5233381888683653 0 0 0 0 211.87453485454216 7.4736973030471745 0 7.4736973030471745 -101.30548138564336 0 0 0 0 -3.030568448896787 -9.4960581944869773 0 -9.4960581944869773 -120.35865785756323 0 0 0 0 -12.89887182841494 31.777457836527901 0 31.777457836527901 -30.316943878002348 0 0 0 0 13.556466313585133 59.185130626501632 0 59.185130626501632 -42.186317035826505 0 0 0 0 -38.554187031005085 99.599129736110626 0 99.599129736110626 -71.835469191282755 0 0 0 0 1.1511074760455813 4.1914161529202829 0 4.1914161529202829 -102.13547963803785 0 0 0 0 125.43485460508236 -152.76297680998687 0 -152.76297680998687 99.132042772922432 0 0 0 0 102.29879840138165 52.08907385506609 0 52.08907385506609 -0.33594044047458738 0 0 0 0 95.624705610316596 -6.6105085407180013 0 -6.6105085407180013 -102.86805739157717 0 0 0 0 -44.04000135295064 47.013502640620572 0 47.013502640620572 93.622537855853807 0 0 0 0 -16.407767047276138 79.178401803641464 0 79.178401803641464 62.747527501414879 0 0 0 0 67.212977007598965 102.06611643068027 0 102.06611643068027 -32.51379000399902 0 0 0 0 -8.7785997308710648 -11.532498020598723 0 -11.532498020598723 32.206245014960587 0 0 0 0 1.365948401416972 19.796186216044589 0 19.796186216044589 -55.325047464080853 0 0 0 0 39.908876990666613 -6.4263745351781836 0 -6.4263745351781836 -174.21435168715834 0 0 0 0 -2.4494498412168468 61.55102446852834 0 61.55102446852834 -93.529359950931394 0 0 0 0 52.27646751881548 69.039748658644385 0 69.039748658644385 -272.60318373443442 0 0 0 0 53.392082513033529 18.966175103545538 0 18.966175103545538 -332.10389136429876 0 0 0 0 20.897773255132051 102.33751211659546 0 102.33751211659546 -191.23832350717566 0 0 0 0 20.615916796105012 8.6051831834101904 0 8.6051831834101904 -116.51779251388507 0 0 0 0 79.519452446395007 124.34119464885589 0 124.34119464885589 -530.68847191122768 0 0 0 0 138.42718382582461 91.127722256023844 0 91.127722256023844 -774.62328482491648 0 0 0 0 34.98543060382508 19.606785640993621 0 19.606785640993621 -332.12610708761076 0 0 0 0 -32.275872359074128 225.56167470636137 0 225.56167470636137 -519.75517365453834 0 0 0 0 31.464179517293132 11.476032943952305 0 11.476032943952305 -323.07187043403974 0 0 0 0 14.233175241195568 77.187172411344363 0 77.187172411344363 -400.26472571729391 0 0 0 0 53.346961978220861 22.191792420650017 0 22.191792420650017 -518.59178849414457 0 0 0 0 -158.65245624058844 135.70723117259331 0 135.70723117259331 -378.57691443329713 0 0 0 0 -10.067020043977209 9.298682104652471 0 9.298682104652471 -326.02512479762663 0 0 0 0 70.082354747541103 80.252314883902727 0 80.252314883902727 -273.19266696657724 0 0 0 0 33.632510502209698 -108.67287625028985 0 -108.67287625028985 -167.98894546427618 0 0 0 0 -49.000932332426601 -70.233840661592694 0 -70.233840661592694 -456.69991549432962 0 0 0 0 477.22306439685781 53.247971643653727 0 53.247971643653727 145.07552677267086 0 0 0 0 -337.17868546003228 -225.6041673687796 0 -225.6041673687796 988.17923616784356 0 0 0 0 2.9873168641239509 -0.0322670575715307 0 -0.0322670575715307 0.16827195010028362 0 0 0 0 36.882248954665101 84.38570667822114 0 84.38570667822114 -815.05618901393609 0 0 0 0 52.212506514166307 237.44484330346313 0 237.44484330346313 -714.92796669568997 0 0 0 0 26.610878267309545 86.20404445467193 0 86.20404445467193 -613.58914542129787 0 0 0 0 -33.242528040329489 101.18632992341736 0 101.18632992341736 -605.33602719476039 0 0 0 0 -6.5998425462845027 -4.2373383475227797 0 -4.2373383475227797 -0.7008579633465164 0 0 0 0 -25.860534366200227 68.371681517663092 0 68.371681517663092 -471.40792173254886 0 0 0 0 -79.474942926325639 64.108475474105944 0 64.108475474105944 100.80823732395947 0 0 0 0 -40.426295168090661 8.3858583790787975 0 8.3858583790787975 -2.9407119100454313 0 0 0 0 -2.8784583884225867 44.342617675567453 0 44.342617675567453 61.64157601196348 0 0 0 0 -67.87165955013802 74.793873101130885 0 74.793873101130885 54.442919969849754 0 0 0 0 -4.8255252916087557 101.95010071966681 0 101.95010071966681 -18.189942377211992 0 0 0 0 48.03090791805198 54.464968585565657 0 54.464968585565657 23.699412012429093 0 0 0 0 -39.231003237451887 -40.081038732903835 0 -40.081038732903835 450.74930397518619 0 0 0 0 70.250590315294176 88.682307869141368 0 88.682307869141368 -13.852166242533713 0 0 0 0 -17.951500181043272 -4.0090844516628863 0 -4.0090844516628863 -6.5526085325203312 0 0 0 0 -7.0726078496695983 7.6787839691196123 0 7.6787839691196123 -39.872186291177627 0 0 0 0 335.16830889003995 -284.61076387137291 0 -284.61076387137291 -51.565372185912565 0 0 0 0 -46.24306807353787 -41.668658864866302 0 -41.668658864866302 -563.14954746762942 0 0 0 0 58.436783590514096 236.26711168659676 0 236.26711168659676 -876.54072127040126 0 0 0 0 24.112538028308336 427.26727716730966 0 427.26727716730966 -1243.8079142436141 0 0 0 0 -11.100339054845168 1.2715524292576212 0 1.2715524292576212 -0.5512086472618023 0 0 0 0 -41.776063298593726 -351.27699870019569 0 -351.27699870019569 -1272.4667272575607 0 0 0 0 -1077.7553745891787 -541.45258189255219 0 -541.45258189255219 -445.45784237508633 0 0 0 0 214.96735398899182 791.1975551190335 0 791.1975551190335 -1839.9918923313162 0 0 0 0 780.03143768681275 356.88440970942065 0 356.88440970942065 -1599.9140023434593 0 0 0 0 -103.84299669015309 713.41972285528755 0 713.41972285528755 -1707.776988911668 0 0 0 0 -522.10433329752414 1097.3895486460824 0 1097.3895486460824 -1588.1897003872291 0 0 0 0 -105.81649173311598 680.2134644346952 0 680.2134644346952 -1183.2352696503804 0 0 0 0 -88.659942377427797 201.48688615023639 0 201.48688615023639 -243.02447642419429 0 0 0 0 -307.49352232008096 362.51832323776762 0 362.51832323776762 -296.40494929426495 0 0 0 0 -175.78021742887358 120.26768236568751 0 120.26768236568751 -272.74061882161186 0 0 0 0 -847.73457457354925 819.2098056298164 0 819.2098056298164 -482.79029073219863 0 0 0 0 -474.9694841620294 334.25002300659253 0 334.25002300659253 -119.71675741122453 0 0 0 0 -153.56791277800221 436.95179891394946 0 436.95179891394946 -1013.5268635804678 0 0 0 0 -532.71824518357971 667.88436258627189 0 667.88436258627189 -498.80495651334058 0 0 0 0 -225.29933476925271 386.40189536625167 0 386.40189536625167 -448.92430189234437 0 0 0 0 -95.617151151393045 310.81032392428824 0 310.81032392428824 -647.88362186316226 0 0 0 0 -67.63906932457212 407.14913879384767 0 407.14913879384767 -739.08679587002189 0 0 0 0 -161.5327795086464 465.50467037108592 0 465.50467037108592 -856.05834060336929 0 0 0 0 -39.837171620618392 313.25017807391487 0 313.25017807391487 -477.78091085022606 0 0 0 0 -106.91200087200696 121.86124611614832 0 121.86124611614832 -110.62536161302705 0 0 0 0 -58.600392455586643 245.42845037314055 0 245.42845037314055 -406.03696084883268 0 0 0 0 -66.447493433497584 193.80421057506464 0 193.80421057506464 -335.38630390595881 0 0 0 0 111.34646586290432 2.0383793694015822 0 2.0383793694015822 -93.229798703614506 0 0 0 0 -221.06506913356498 102.43245463662242 0 102.43245463662242 73.52172866914043 0 0 0 0 -92.118173117411061 233.0746956414805 0 233.0746956414805 -518.17843309827003 0 0 0 0 -82.444339230460173 205.32787842064863 0 205.32787842064863 -527.06148956644756 0 0 0 0 -92.870250650428261 173.08459897643843 0 173.08459897643843 -441.44170261584804 0 0 0 0 -32.354380788066919 216.89120777738754 0 216.89120777738754 -585.06016210449889 0 0 0 0 -6.0180756613181074 250.00406400724751 0 250.00406400724751 -553.31918266268622 0 0 0 0 6.1217708593212592 285.6494492397469 0 285.6494492397469 -745.45702084796721 0 0 0 0 -7.3945958150816296 258.18108768938691 0 258.18108768938691 -559.48926743984703 0 0 0 0 -47.882010634292783 282.67136421701798 0 282.67136421701798 -496.5144676425698 0 0 0 0 -44.45634440572212 222.95551793617778 0 222.95551793617778 -439.51122094611492 0 0 0 0 -124.52190310501828 249.42413725298684 0 249.42413725298684 -456.93521650077309 0 0 0 0 -90.60147620533462 230.89557411706846 0 230.89557411706846 -515.16425063497445 0 0 0 0 -161.2117160656976 183.60352918401077 0 183.60352918401077 -506.50485082187515 0 0 0 0 -80.021827202010172 210.84963527627042 0 210.84963527627042 -745.77795051590192 0 0 0 0 -182.01752511716495 270.58400312323647 0 270.58400312323647 -471.34079110040329 0 0 0 0 -134.52413760615673 221.26089186136232 0 221.26089186136232 -482.18263905858475 0 0 0 0 -93.049011613854645 118.1671591103086 0 118.1671591103086 -421.27444834954076 0 0 0 0 -31.890852789882047 16.338685857233941 0 16.338685857233941 -322.74000508173776 0 0 0 0 96.999286035757905 24.606312457784952 0 24.606312457784952 -370.62509834776756 0 0 0 0 107.19180709662396 -44.59925612648658 0 -44.59925612648658 -323.9536130717679 0 0 0 0 -31.265986864691513 164.37301300710533 0 164.37301300710533 -387.51206857479519 0 0 0 0 -40.209785937340314 36.363338078354673 0 36.363338078354673 -272.35314191842917 0 0 0 0 -144.92763418599498 127.22384295577285 0 127.22384295577285 -336.40770593313937 0 0 0 0 -76.054817818881929 132.61147837982207 0 132.61147837982207 -481.31708584115734 0 0 0 0 -53.796899330045562 35.665718145064602 0 35.665718145064602 -320.44490137285902 0 0 0 0 -95.820445784193907 13.349760573933963 0 13.349760573933963 -174.10216794851294 0 0 0 0 142.23620305320492 -364.09905886120032 0 -364.09905886120032 131.81478953565147 0 0 0 0 65.931010962041 -127.28749080692796 0 -127.28749080692796 -262.33756952676049 0 0 0 0 5.2634684086697234 -80.256641393265454 0 -80.256641393265454 -70.353498612235853 0 0 0 0 22.190185952801585 29.774694780211576 0 29.774694780211576 -298.37379909445735 0 0 0 0 146.13497325346543 -46.895843277139647 0 -46.895843277139647 -295.80313137461053 0 0 0 0 11.554958104650723 -79.344890879547165 0 -79.344890879547165 -302.09259783769085 0 0 0 0 -86.866693935083276 -146.4687564124888 0 -146.4687564124888 473.43340965980315 0 0 0 0 45.965507882560814 24.833791537168509 0 24.833791537168509 80.943746666089282 0 0 0 0 121.06984929260034 95.572946762556967 0 95.572946762556967 -27.383727592365176 0 0 0 0 -49.051348431122733 -175.52109675238898 0 -175.52109675238898 106.29179636966364 0 0 0 0 188.25299947228268 -78.22434136774973 0 -78.22434136774973 -272.56286156576243 0 0 0 0 -74.568689159801124 -123.90661063184098 0 -123.90661063184098 93.683359190465126 0 0 0 0 28.373883254412647 -6.1129828575392509 0 -6.1129828575392509 -0.76397097776946765 0 0 0 0 177.94759357947441 81.48608916471494 0 81.48608916471494 -523.07146002302761 0 0 0 0 -38.442061362900859 107.1187215814316 0 107.1187215814316 -171.35585061424354 0 0 0 0 -79.666186865357304 -100.99369378892879 0 -100.99369378892879 -220.70915184794649 0 0 0 0 -180.08091732454614 -351.89321028340783 0 -351.89321028340783 950.70056499710336 0 0 0 0 -75.857455681347346 167.04952796295765 0 167.04952796295765 -369.251149055106 0 0 0 0 13.808314884838872 -4.4271469328466679 0 -4.4271469328466679 -2.2012981690869182 0 0 0 0 96.916068369771892 103.2282402098208 0 103.2282402098208 -650.02919384072447 0 0 0 0 -1.1556784103767512 -1.9863938327993083 0 -1.9863938327993083 -0.34532739332722784 0 0 0 0 202.48157982336852 72.561394772543281 0 72.561394772543281 643.96410517592449 0 0 0 0 -5.5700885739715886 55.02019651225055 0 55.02019651225055 -528.28017095083487 0 0 0 0 -62.628888654850016 101.63378626984195 0 101.63378626984195 -497.12995850470907 0 0 0 0 43.520350229029646 -3.5384920787982992 0 -3.5384920787982992 -483.27867895919917 0 0 0 0 -78.122157510823854 82.307127725840473 0 82.307127725840473 -416.78647783565975 0 0 0 0 48.023941366884173 -110.69319261773853 0 -110.69319261773853 17.227149362384807 0 0 0 0 74.464346791679418 -45.121395982037939 0 -45.121395982037939 -427.91390507753385 0 0 0 0 98.557108390739813 -329.41405123941513 0 -329.41405123941513 97.98796542097989 0 0 0 0 266.58537610971507 -247.82509079571901 0 -247.82509079571901 -274.53983222396346 0 0 0 0 
</DataArray>
<DataArray type="Float64" Name="cross_section_updated" format="ascii">
0.010042260016802394 1 1 1 1 1 1 1 1 0.010008089265526895 1 1 1 0.0098407892696463339 1 1 1 1 1 1 1 1 1 1 1 1 1 1 1 0.01000801739579313 1 1 0.010167852822268078 1 1 1 0.010272514417991388 1 1 1 0.010146887653496165 1 1 1 1 1 1 1 1 0.0095851996455351973 1 1 1 1 1 1 0.0096532641742121117 1 1 1 1 1 1 1 1 1 0.0092274635436377529 1 1 0.010072853509138134 1 1 1 0.0077843887338828952 1 0.0083101616097422271 1 0.010037582464568314 0.009771776422102689 1 1 1 1 1 1 1 1 1 0.0091817077991678177 1 0.0066071678007051018 1 1 0.0099347180893879627 1 1 1 1 1 1 1 1 1 1 1 1 1 1 1 0.0099385259248106223 1 1 1 1 0.0088574330098551545 1 1 0.0099968955971539621 0.0079566396919568769 1 1 0.01000362879588171 1 1 1 0.0089611459095399418 0.0094153827764721244 0.0095319473736329395 1 0.0090335309713941991 1 1 1 1 1 1 1 1 1 0.010007789632728198 0.0086896297781610243 1 1 1 1 1 1 0.010000937939629934 1 1 1 1 1 0.0097022453575415068 0.0091039691249510946 1 1 0.0099027873765943734 1 1 0.01013084449545512 0.0078831843069234742 1 0.0082838065796917802 0.0083810602688334599 1 1 1 1 1 1 1 1 1 1 1 1 0.0066725663902519189 1 1 0.0094860689367755654 1 1 1 1 1 1 1 1 1 1 1 1 1 1 1 1 1 1 1 1 0.0098408655986575808 1 1 1 1 1 1 1 1 1 1 1 1 1 1 1 0.0099247206350399006 1 1 0.010094117529404622 1 1 1 1 0.0095435450949616571 0.0098290304593794259 1 1 1 1 1 1 1 1 1 1 1 1 1 1 1 0.0094447036462499134 1 1 1 0.010379630443371656 1 1 1 1 1 1 1 1 0.010535506146517937 0.0096925829392946264 1 1 1 1 1 1 1 1 1 0.011199298399481755 1 1 1 1 1 0.0087789052261785967 1 0.0093929984184210041 1 1 1 1 1 0.0044687474009991457 0.0086972752733970784 1 1 1 0.012013374196849816 1 0.0031944185612572552 1 1 1 0.0060317008762219432 1 0.010044194485275623 1 1 0.0059980528681399057 1 1 1 0.010129243942842496 1 1 1 1 1 0.0085601565179325746 0.0093222259523161825 1 1 0.0098100676203211491 1 0.0091877099295861551 0.010031160218919612 1 1 0.0099377069301221834 1 0.010124594011040605 1 1 1 1 0.0098408974913282606 1 0.010412387135519202 1 1 0.010356624538894231 0.010189338849373309 0.010109755771595248 1 0.0098687517033772595 1 0.010193084892909807 0.0095713876649400967 1 1 1 1 1 1 1 1 1 0.0099879023040412365 1 1 1 1 1 1 1 1 1 1 1 1 1 1 1 1 1 1 1 1 1 1 1 1 0.010614557329280192 1 0.010038962314826969 1 1 1 1 1 0.010444330128615365 1 0.0089748011480311699 1 1 0.010334172764469487 1 1 1 1 0.0081721781834211554 1 0.010561674062356204 1 1 1 1 1 1 1 1 1 1 1 1 1 0.0087825236250028641 1 1 0.0098625179428765402 1 1 1 1 1 1 1 1 1 1 1 1 1 1 1 1 1 0.010123422074972291 1 1 1 1 1 1 1 1 1 1 0.010135867829325931 1 1 1 0.0099713515509871863 0.010260231808707596 1 1 1 1 1 1 1 1 1 1 1 1 1 1 1 1 1 1 1 1 1 1 1 0.0092547656837845601 1 1 0.010394214537591472 1 1 0.0089186612807226444 1 0.0096172935759067189 1 1 1 0.0098641768881312895 1 0.0086901600462388866 0.0096199106834882336 1 1 1 1 1 1 1 1 1 1 0.0098525405434864294 1 1 1 1 1 1 1 1 1 1 1 1 1 1 1 1 1 1 1 1 1 1 1 1 1 1 1 1 1 1 1 1 0.0099522358869561407 1 1 1 1 0.010067703340426067 1 1 1 1 1 1 1 0.0082890855045298761 1 1 1 1 1 1 1 1 1 0.009883058268315266 1 0.0085057266991012698 0.0091822696342535801 1 1 0.0095150094106411648 1 0.0078301747651319462 1 1 1 1 1 1 1 1 0.0099558381136968695 1 1 1 1 1 0.0082851007830042778 1 1 1 1 1 1 0.0086034624122681893 1 1 1 1 1 1 1 1 0.0091870270930780144 1 0.0085462385820538403 1 1 1 1 1 0.0076807751081461872 1 0.0097394913571328349 1 1 1 1 1 1 0.010394783790108296 1 1 1 1 1 1 1 1 1 1 0.0096798472807823645 0.0094323278875087565 1 1 1 1 0.0088179196157459113 1 1 1 1 1 1 1 1 1 1 1 1 0.010461485328455368 1 1 0.0098350856407304482 1 1 1 1 1 1 1 1 1 1 0.010056885883486041 0.010212476644871085 1 1 1 1 1 1 1 1 1 1 0.010017308112797147 1 0.010026134296035603 1 1 1 1 1 1 1 1 1 1 1 1 1 1 1 1 1 1 1 1 1 1 1 1 1 1 1 1 1 1 1 1 1 1 1 1 1 1 1 0.0098318020926826174 1 1 1 0.0069719699057076735 1 0.0090681696619828774 1 0.0099199269011759107 1 1 0.0098514007197036974 1 0.0099989350194026796 1 0.0087659764264786735 1 1 0.0074897848961324592 1 1 1 1 1 1 1 1 0.0088703270713794032 1 1 0.0089374501266070109 1 1 1 1 0.010297176829412979 1 1 1 1 1 1 1 1 1 1 0.0080490644917239618 1 0.009185890102651164 1 0.01049865120825267 1 0.0082610584209871565 1 0.009346120086987722 1 1 1 0.0099933766977048921 1 0.0099194186940546186 1 1 1 1 1 1 1 1 1 1 1 1 0.010115942579534484 1 1 0.0099962629576092199 0.0087566920007358141 1 1 1 0.0083702691568971008 1 1 0.0090352677273005267 1 1 0.0086065678222199127 1 1 1 0.0089405576912234656 1 1 1 1 1 0.0079468401342922493 1 1 0.0085421454807984784 0.0089039988926930876 1 1 1 0.010153491654765463 0.0087639123493442675 0.0076604772480461311 1 1 0.0098794828460434265 1 1 0.009990257040216572 1 1 1 1 1 1 0.0099437778297743404 1 1 0.0078265243100386801 1 1 0.008130436177879348 1 1 1 1 1 1 1 1 0.0098611644931555602 1 1 1 1 1 0.0075853781797439249 0.0095929578122338054 0.0085793130187626441 1 1 1 1 1 1 1 1 1 1 1 0.0077492922452966559 1 1 1 1 0.0099336977698220412 1 1 1 1 1 1 1 0.0090470592867098777 1 1 1 0.0098198134532207701 1 0.0089496940348712511 1 0.0088549257247625378 1 0.010038984159026508 1 1 1 1 1 1 1 1 1 1 0.0099974923798647111 1 1 1 1 1 1 1 1 0.0099512178950796996 1 1 0.0098606118349592216 1 1 1 1 0.009963093014030918 1 1 1 1 1 1 0.0090910694578263517 1 0.0098868191098072378 1 1 1 1 1 1 0.0090660766246064752 0.0098223659344272504 1 1 1 1 0.0099761296061989645 1 0.0099302573810877825 1 1 1 0.0099228801353891585 1 1 1 1 1 1 1 0.0089244748125348675 0.0098688529830507458 1 1 0.0097035166953898296 1 0.010014188004578697 0.010000111486653753 0.0099654068449646551 1 1 1 1 1 1 1 0.0097796165917857641 1 1 1 1 1 1 1 1 1 1 1 1 1 0.0092256794080195839 1 1 1 1 1 1 1 1 1 1 0.0097127780721206411 1 1 0.0088581729473184347 1 1 1 1 1 0.009549140499468629 1 1 1 1 1 1 1 1 0.0071734053504878877 1 0.0062760346574405827 1 1 0.0093249537553342365 1 1 0.007971568983647823 1 1 1 1 0.0089994959477546314 1 1 1 1 1 0.009631787894837875 1 1 1 1 1 1 1 1 1 0.0078618675221335949 1 1 0.0099924074672526533 0.009736065414138087 1 1 1 1 0.0079033466790801449 1 0.0084208283912048428 1 1 0.008831350882456698 0.010320408441720266 1 0.00882597872842345 1 0.0095928655226131879 1 1 1 1 1 0.0095338752283116203 1 1 1 0.006099854565542101 1 1 1 0.0064637575361689553 1 1 1 1 1 1 1 1 1 1 0.010089527060911048 1 1 1 1 1 1 1 1 1 1 1 1 1 1 1 1 1 1 0.007042577968488695 1 1 0.0079169275226366187 1 1 1 1 0.0092161790541640271 1 1 1 1 1 1 1 1 1 1 1 1 1 1 1 1 1 1 1 1 1 1 1 1 1 1 1 1 1 1 1 1 1 1 1 1 1 1 1 1 1 1 1 1 1 1 1 1 1 1 1 1 1 1 1 1 1 1 0.0094609062099272525 1 1 1 1 1 1 1 1 1 1 1 1 1 1 1 1 1 1 1 0.0090054960686005714 1 1 1 1 0.0095445898586733174 1 1 1 1 1 1 1 1 1 1 1 1 1 1 1 1 1 1 0.010007236785324301 1 1 1 1 0.01000788597222374 1 1 1 1 1 0.01015417095571999 0.0085772688519930775 1 1 1 1 1 1 1 1 1 1 1 1 1 1 1 1 1 1 0.0094197409278432617 1 1 1 0.0084967115753898995 1 0.010119968539592848 1 1 1 1 1 1 1 1 1 0.0095720086734985763 1 1 1 1 0.009887346879935581 0.0087704866924399744 1 1 1 1 1 1 1 1 1 1 1 1 1 1 1 1 1 1 1 0.0096734735469035712 1 1 1 1 1 1 1 1 1 1 1 1 1 0.0095285913334970801 1 1 1 1 1 1 1 1 1 1 1 1 1 1 1 1 1 1 1 1 1 1 0.0096777994036409652 1 1 1 1 1 1 1 0.0093913015712624517 1 1 1 0.0096765389085509534 1 1 1 1 1 1 1 1 1 1 1 1 1 1 1 1 1 1 1 1 1 1 1 1 0.0090271572388679038 1 0.010085353700737314 1 1 1 1 0.0090392021236152253 1 0.0088373840834704807 1 1 1 1 1 1 1 0.0094914918968972174 1 1 1 1 0.009480113142695706 1 1 1 1 1 1 1 1 1 1 1 0.0089299088127950225 1 1 1 1 1 1 0.009958505855524654 1 -2.0774122613115287e-09 1 1 1 1 1 0.0099979342979090082 1 1 0.0061415328823819799 1 1 0.010039370029486096 1 1 1 1 1 1 1 1 1 1 1 1 1 1 1 1 1 1 1 1 1 1 1 1 1 1 1 0.0081917152619541567 1 1 1 0.010124909209967205 1 0.0073765630299464932 1 1 0.0099977082556722864 0.0093168978910982154 1 1 1 0.0099633689369715301 1 1 1 1 0.010118130452586327 1 0.0070410967746613465 1 1 0.0093292353700876966 1 1 1 1 1 0.0085343081087046295 1 1 1 1 1 0.01003567659066691 1 1 1 1 1 1 1 1 1 1 1 1 1 1 1 1 1 1 1 1 1 1 1 1 1 1 1 1 1 1 1 1 1 1 1 1 1 1 1 1 1 1 1 0.009694985849030174 0.010022062582720254 1 1 1 1 1 1 1 1 1 1 1 1 1 1 1 1 1 1 1 1 1 1 1 1 1 1 1 1 0.0072003487204302802 1 1 1 1 0.0084297215906506962 1 1 1 1 0.0088906708169336421 1 1 1 1 1 1 1 0.0099244600431682827 1 0.0018706483278299636 1 1 1 1 1 0.0099810148252837735 1 1 1 1 1 1 1 1 1 1 0.0099487241989422506 1 1 1 1 1 1 1 1 1 1 1 1 1 1 1 1 1 1 1 1 1 1 1 1 1 0.0022666812310930713 1 1 1 1 0.0095924707388746894 1 0.0018598798996807553 1 1 0.0099922199903458228 1 0.0095784796887153044 1 1 1 1 1 1 0.0096919704422133261 1 1 1 0.0098340694722815584 1 1 1 1 1 1 1 1 1 1 1 1 1 1 1 1 1 0.010061311378409448 1 0.009545189654363408 1 1 1 1 1 0.0097712131555107093 1 0.0099365802643337636 1 1 1 1 1 1 1 1 0.0099862593808651857 1 1 1 1 1 1 1 1 1 1 1 1 1 1 1 1 1 1 1 1 1 1 1 0.009987108332773496 1 0.0097963255634486383 1 1 1 1 1 1 1 1 1 1 1 1 0.0091166357264551908 1 1 1 1 1 1 1 1 1 1 1 1 1 1 1 1 1 1 1 1 1 1 1 1 1 1 1 0.00050834975858242079 1 1 1 0.0094511642993310909 1 0.0062984707960676454 2.7077580264794898e-09 1 1 1 1 1 0.010295846408458625 1 1 1 1 1 1 1 1 1 1 1 1 1 1 1 1 1 1 1 1 1 1 1 1 0.0077429490024722505 1 1 0.0083515014028982121 1 1 1 1 1 1 1 1 0.0077688379384380241 0.0074808784035610386 1 1 1 1 1 1 1 1 1 1 0.0069064601773856007 1 1 0.0075879250717808024 0.0085047492960646578 1 0.0092314944517497104 1 1 1 1 1 0.0055902763783658976 1 0.0080286460251971746 0.0093122150608917938 0.010196468222814956 1 1 1 1 1 1 0.0071782180587155759 1 1 1 1 1 1 1 1 1 0.0094108388928169258 1 0.0086789135532593965 1 1 0.0081184988252456895 1 1 1 1 1 1 1 1 1 1 1 1 1 1 1 1 1 1 1 1 1 1 1 1 1 1 0.0098316514763560556 0.010105577334878718 1 1 1 1 1 1 1 1 1 1 1 1 1 1 1 1 1 1 1 1 1 1 1 1 1 1 1 1 1 1 1 1 1 1 1 1 1 1 1 1 1 1 1 1 1 1 1 1 1 1 1 1 1 1 1 1 0.0028737513407795876 1 1 1 1 1 1 1 1 1 0.00074194245592174024 0.0097140610849220307 1 1 1 0.0091221228377313703 1 1 1 1 1 1 1 1 1 1 1 1 1 1 1 1 1 1 1 1 1 1 1 1 1 1 1 1 1 1 0.0070775151701766162 1 1 1 1 1 1 1 0.0018814451941761155 1 1 1 1 1 1 1 0.0094263038274193297 1 1 0.012218978259620896 1 1 1 1 1 1 1 1 1 0.0098504786285810754 1 1 0.010691284258140147 0.010210966162149199 1 1 1 -2.2066253217017939e-09 1 1 1 1 1 1 1 1 1 1 1 0.0097494361672835518 1 1 1 1 0.0099623578629694631 1 1.4483068106353053e-09 1 1 0.011847889918805758 1 1 0.012951855521217942 0.0046739093993497793 1 1 1 1 1 1 1 1 1 1 0.0047805638590679702 0.010041998865792472 1 1 1 1 1 1 0.0099913421527365424 1 1 1 1 1 1 0.010197414215061852 1 0.010208881751875678 1 1 1 1 1 0.010001342711993943 0.0099957334789153619 1 1 1 1 1 1 1 1 1 1 1 1 1 1 1 1 1 1 1 0.0060566740998765599 0.010472197291682315 1 1 0.010163364416154078 1 1 1 1 1 1 1 1 1 1 1 0.010057882654553327 1 1 1 1 1 1 1 1 1 1 1 1 1 1 1 1 1 1 1 1 1 1 1 1 1 1 1 1 0.010223253908804799 1 1 1 1 0.0095350772246513629 0.011779757562825123 1 1 1 1 1 1 1 0.010071899340743897 1 0.0088449083693625703 1 1 1 1 1 1 1 1 1 1 1 1 1 1 1 1 1 1 1 1 0.0087523304253429406 0.009635286924216226 1 0.0099750578790527428 1 1 1 1 1 0.0093401467846909655 1 1 1 1 1 1 1 1 1 1 1 1 1 1 1 1 1 0.0068272181806808257 1 1 1 1 1 1 1 1 1 1 1 0.0037203954894623669 1 1 1 1 1 1 1 1 1 1 0.010277159366487133 1 1 1 1 1 1 1 1 1 0.0044286645858914054 1 1 1 1 0.0039976272916650707 1 1 1 0.010737433958984197 1 1 1 1 0.010724443719735206 1 1 1 1 1 1 1 1 1 0.010246233297519681 1 1 1 1 0.010078953530176247 1 1 1 1 1 1 1 1 0.0099230299338687825 1 0.0057722532476626263 0.0098195192368555444 1 0.0076179495507143133 0.0062217390020642407 1 1 1 0.0092283779724589773 1 1 1 0.009912952778546584 1 0.0097726345287867805 1 1 1 1 1 0.010409360872710797 1 1 1 0.0051548505421195627 1 1 1 1 1 1 0.0079696203392086665 0.0071617014275341517 1 1 1 1 1 1 1 1 1 1 1 0.01001045593724377 1 0.006621078840713124 0.0095762687458915575 1 1 1 1 1 0.0091729284467606011 0.0090034414696800284 1 1 0.0079668350468162317 1 1 1 1 0.0079320527255948518 1 1 1 1 1 0.008204032658760612 1 1 1 1 0.0055830645307529741 0.0094870533404484356 1 1 0.0080600166397093217 1 0.0073192001030714261 0.0098665325629198677 1 1 1 1 1 1 1 1 1 1 1 1 1 1 1 1 1 1 1 1 1 0.010067004106494566 1 1 0.0026494665329187244 1 0.0096947620705377831 1 1 1 0.0032078154680647789 1 1 1 1 1 1 0.0095480399901507421 0.0096374831936005337 1 1 1 1 1 1 0.0094225979473900115 1 1 0.00025131976437363021 1 1 1 1 1 1 0.0094254612015516256 1 1 1 0.0073788853460490583 1 1 1 1 1 1 0.0057865688714271828 1 1 1 1 1 1 1 1 1 1 1 1 1 0.0091976185536207233 1 0.0099572227236045582 1 1 1 1 1 1 1 1 1 0.0096766511950256359 1 1 1 0.010976100310633716 1 1 1 1 1 1 1 1 1 1 0.010297857150954057 1 1 1 1 1 1 1 1 1 1 1 1 1 1 1 1 1 1 1 1 1 1 1 1 1 0.0092092966970226224 1 1 1 0.0039439632691031807 1 1 0.004589680162804418 1 1 1 1 1 0.0091128168504825881 1 1 1 0.0095982822239977384 1 1 1 1 1 1 1 0.0097349464592531854 1 1 1 1 1 1 1 1 1 1 1 1 1 1 1 1 1 0.0099903423045557965 1 0.0099121346708223122 1 1 1 1 1 1 1 1 1 0.0100181364222427 1 0.0098738755888617621 1 0.0069717706058286567 1 0.009606722169869495 0.0050976128270290751 1 1 1 1 0.0099423093925105691 1 1 1 1 0.010036001773718722 1 1 1 1 1 0.0096563087709737871 1 0.0060730759472993126 1 1 0.0059937715077130159 1 1 1 1 1 1 1 1 1 1 1 1 1 1 1 1 1 0.00988555320905821 1 1 1 1 1 1 0.009991758288121674 1 1 1 1 1 0.0079838930536807184 1 1 1 1 1 1 1 0.008750259605269449 1 1 0.0095669475129897558 1 1 1 1 1 1 0.0093311362893804504 1 1 1 0.010023328251165198 1 1 1 1 1 1 1 1 1 1 1 1 1 1 1 1 1 0.0063006363649305043 1 1 1 1 1 0.011285228902294997 0.0091304502468127074 1 1 1 1 1 0.010170477751557598 1 0.0084001899395026725 1 0.0066302609910254221 1 0.0092664203221854251 0.0068113027183820361 1 1 1 0.0093940821876281229 0.0098205434836360003 1 1 1 1 1 1 1 1 1 1 1 1 1 1 1 1 1 1 1 1 1 1 1 1 1 1 1 1 1 1 1 1 1 1 1 1 1 1 0.010007122397564228 1 1 1 1 1 1 1 0.010021040175787298 1 0.0080397280295904979 1 1 1 1 1 1 0.0079542718128871193 1 1 1 0.010058683748625253 1 1 1 0.0099326240126327014 0.0029159218285325374 1 0.0070039591726178772 1 1 1 1 1 1 0.0058703661963774283 1 1 0.0092632413104329278 1 1 1 1 1 1 1 1 1 1 1 1 0.0057901391005568854 0.0099796590626773131 0.0073318829857549825 1 1 1 0.0097557217461776563 1 1 1 1 1 1 1 1 1 1 1 1 1 1 1 1 1 1 1 1 1 1 0.003914122762544988 1 1 1 1 0.0056223051361910473 1 1 1 1 1 1 1 0.0097750954911123497 1 1 1 1 1 0.0099530808785825969 1 1 1 1 1 0.0092461540037855026 1 1 1 1 1 1 1 1 1 0.0084763863504414821 1 1 1 1 0.0093451112046489815 1 1 1 1 1 1 1 1 1 1 0.0093402912086713169 1 1 0.0091305097589736688 1 1 1 1 1 1 1 1 1 1 1 1 1 1 1 1 1 1 1 1 0.0098285950411209633 1 1 1 1 0.0096678881265047055 1 1 1 1 1 1 1 1 0.010005600178221151 1 1 1 1 1 0.0099426905518537161 1 1 0.0099370903736325667 1 1 1 1 1 1 1 1 1 1 1 1 0.0091888007913248932 1 1 1 1 1 1 1 1 1 1 1 1 1 1 1 1 1 1 1 1 1 1 1 1 1 1 1 1 0.0098390379191449599 1 1 1 1 1 1 1 1 1 1 1 1 1 1 0.0086692450078737302 1 1 1 1 1 1 1 1 1 1 1 1 1 1 1 1 1 1 1 0.0071169459046179773 1 1 1 1 1 1 1 0.0084454490648850564 1 1 1 1 1 1 1 1 1 1 1 1 1 1 1 1 1 1 1 1 1 1 1 1 0.0083537841110805956 1 1 1 1 1 0.0065679045963261146 1 1 1 1 1 1 1 1 1 1 0.010262876727696955 1 1 0.0096357583533332753 1 0.0065823684538363555 1 1 1 1 1 1 1 0.0092731443086975698 1 0.0096502525815301884 1 0.0098478355194126163 1 1 1 1 1 1 1 1 1 1 1 1 1 1 1 1 1 1 1 1 1 1 1 1 1 1 1 1 1 1 1 1 1 1 1 1 0.0094376201289418475 1 1 1 1 1 1 1 1 1 1 1 1 1 1 1 1 1 1 1 1 1 1 1 1 1 1 1 1 1 1 1 0.0096534746269947864 1 1 1 1 1 1 0.010054480820292824 0.0093637166213136891 1 1 1 1 1 1 1 1 1 1 1 1 1 0.01003183830201322 1 1 1 1 1 1 1 1 1 1 0.009298671040283913 0.0085630485464603355 1 0.0075178122970613716 1 1 1 0.0086865755682456105 1 0.0088884240005261839 0.0094246498604561198 1 0.0061759486000291155 1 1 1 1 1 1 1 0.0078412046385411462 0.0086030543683811179 1 1 1 1 0.010117262115881924 1 1 1 1 0.0071989284150050428 1 0.0096057472953827976 1 0.0077302322582862744 0.0094229785618573595 1 0.0092738029357299669 1 1 1 1 1 0.0099995923888483457 1 0.0079430890509115445 0.0093997084582145719 0.0097568697572506542 0.0091189770785795477 1 1 1 1 1 0.008421298084272541 1 1 0.0076940205871032542 0.0096646035047483619 1 1 1 0.0058008026158848985 1 1 0.009918843265368571 1 1 1 1 0.0049941419655943949 1 1 0.0098856793260411642 1 1 0.008007796584795307 1 1 1 1 1 1 1 1 1 1 1 1 1 1 0.0087224341785496953 1 0.0091712802835293202 1 1 1 1 1 0.0089172216140908454 1 1 0.0095558286708308932 1 1 1 1 1 0.0056225549214825492 1 1 1 1 1 1 1 1 1 1 0.0087698590161652823 1 1 1 1 1 1 1 1 1 1 1 0.0095387562273220768 1 1 1 1 1 1 0.0055206275536847909 1 1 1 1 1 1 1 1 1 1 1 1 1 1 0.0065254345394350211 1 1 1 0.0098482700311389761 1 1 1 1 1 1 1 0.0078617540570805559 1 0.0092810388679303822 1 1 1 1 1 1 1 1 1 1 1 1 1 1 1 1 1 1 1 1 1 1 1 1 1 1 1 1 1 1 1 1 1 1 1 1 0.0083505947331931427 1 0.0092917674157889252 1 1 0.0081574631777756139 1 0.0098615937534253257 1 1 1 1 1 1 0.007685524159666628 1 1 0.0098796365053435142 0.0080039913108434398 1 1 1 1 1 1 0.009177464325549365 1 1 1 1 1 1 1 0.0090905749707044601 1 1 1 1 1 1 1 1 1 1 1 1 1 1 1 1 1 1 1 0.0097687496893246236 1 1 1 0.0050485781899952762 1 0.010004040814152404 1 0.0049947893885425153 1 1 1 1 0.0093381756423753272 1 1 1 1 1 1 0.009737874605513128 1 1 1 1 1 1 0.010093960709011751 1 1 0.010254625371610378 1 1 1 1 1 1 0.010160786314223352 1 1 1 1 1 1 1 1 1 0.0080481364247008413 1 0.008211112708549009 1 1 1 1 1 0.010874264815704474 0.014026394641618398 1 1 1 0.0094344752846660836 0.0071458250928771901 1 1 1 1 1 1 0.010086313537985817 1 1 0.0099956112536105732 0.0052447930334397468 1 1 0.010592382692977843 1 1 0.0051201906263074661 1 1 1 1 0.0039518466988453013 1 1 1 1 1 1 0.0072951844737455009 1 1 1 1 1 1 1 1 1 1 0.0069106663527108945 1 1 1 0.0098260597318051059 0.0090551223708028785 1 1 1 1 1 1 1 1 1 0.0097130218751118203 1 1 1 1 1 1 1 1 1 1 1 0.0092555081704865962 0.0069640140696020578 1 1 1 1 0.0065831670697543082 1 1 1 1 0.0087659945646522148 1 1 1 1 0.0092897855447122684 1 1 1 0.0095041848754219872 1 1 1 1 0.0078280065523232047 1 1 1 1 1 0.0047442332811391316 1 1 1 1 0.010259042055231806 1 1 1 1 1 1 1 1 1 1 1 1 1 1 1 1 1 1 1 1 1 1 1 1 1 1 1 1 1 1 1 1 0.0097481905665135777 1 1 1 1 0.0094612124416253961 1 1 1 1 1 1 0.0098179479218933954 1 1 1 0.0099229997070416388 1 0.0096657834413060081 1 1 1 1 1 1 1 1 1 1 1 1 1 1 1 1 1 1 1 1 1 1 1 0.0093463899474314997 1 0.0097587205395551352 1 1 1 0.0092411440348711474 1 1 1 1 1 1 1 1 1 1 1 1 1 0.0059592253555864451 1 1 0.0080414588510799544 1 1 0.0098078778452617907 0.0065611871507165916 1 0.0055689674746862618 1 1 1 1 1 1 1 1 1 1 1 1 1 1 1 1 1 0.0073453371274774908 1 1 1 1 1 0.0078279974847406987 1 1 1 1 1 1 1 0.0084391962018282342 1 1 1 1 1 1 1 0.010655000668949047 1 1 1 1 1 1 1 1 1 1 1 1 1 1 1 0.0090372505921542945 1 1 1 0.0095548453746721121 1 1 1 1 1 1 1 1 1 1 1 0.0077751676564767527 1 1 1 1 1 1 0.003143314974044957 1 1 0.0099903132869605532 1 0.0098340734957428223 1 1 1 0.012850658133011169 1 1 1 1 1 1 1 1 1 1 1 0.01188446017100353 1 1 1 1 1 0.010278391340726828 1 1 1 0.011524313246402467 1 1 1 0.013821129963447837 1 1 1 1 1 0.0048559799875597916 1 0.0044821171368138804 1 1 1 1 1 1 1 1 0.0090496264002032385 1 0.0074118390825119729 1 1 0.0082634251495146312 1 0.0043888751353875766 1 0.0099853706674261182 1 1 1 1 1 1 1 1 1 1 0.010079779467685417 1 0.0064387696747146145 1 1 1 1 0.0097121893980189264 1 1 1 0.0095672756581466397 0.0073885570086212743 1 1 1 0.008996166356323311 1 0.00985866018662916 0.0084113184527349009 1 1 0.0091471423582036512 0.0068606527402458855 1 0.0083659676425364999 0.0086788787228464781 1 1 0.0089665100395487501 0.0091222032863980257 1 1 0.0092949945080394846 1 1 0.0099852800851705972 1 0.010038058590237493 1 1 0.0091729051184740243 1 1 0.0099382714144510866 1 0.0093504740648790857 1 1 1 0.0095766348191847483 1 0.010014006440901497 1 1 0.0082414656412005145 0.0088360898853090206 1 1 1 0.0080156796245147641 0.0066929288955573148 1 0.0092593296355281685 1 1 1 1 1 1 1 1 0.010033439858342472 1 1 0.009513059274278788 0.0050655349197552563 1 0.0079601793296741035 1 0.0091629665869594357 0.0051833463233846525 1 1 1 0.0059945025644173901 1 1 0.0065031971982337546 1 1 1 1 1 1 0.0097420766749281452 0.0048907491579196216 1 1 1 1 1 1 1 0.0098738017050948104 0.0099595827165590792 1 1 1 1 0.0094749761631375828 1 1 1 0.010003126206996244 1 1 0.010268476768169936 1 1 1 1 1 0.00105135253516353 1 1 0.0070051158623673799 1 1 1 0.0095710615191594815 0.010577732078208928 1 1 0.0099919589582617013 1 1 1 0.0096698772800511371 1 1 1 0.0065860177280706866 0.010914995958707877 1 1 0.012296179864316773 1 1 1 1 0.010007830550889368 0.0063009902366565271 1 1 0.0091148214117070716 0.010001159990405364 1 0.0066219933430214199 0.0048061218768894812 1 1 1 1 1 1 0.0063276165750480312 1 1 1 1 1 1 1 1 1 1 0.0096564990633775886 0.0099626867922460727 1 1 1 1 1 1 1 0.0098492252391086839 1 1 1 1 1 1 1 1 1 0.0086089185074414831 1 1 0.0097904361635012069 1 1 0.0063849908486588915 1 1 1 1 1 1 1 1 1 1 1 1 1 1 1 1 1 1 0.007799010588644466 0.0084372898853748921 1 1 1 1 0.0095987192093637368 1 1 0.0068461006973932186 1 1 1 1 1 1 1 1 1 0.0050962386877865268 1 1 0.0099300222737073104 1 1 1 1 1 1 1 1 1 1 1 0.0098219900734423313 1 0.0097177601284403042 1 1 1 1 1 1 1 1 1 1 0.010198118298952296 1 1 1 1 1 1 1 1 1 1 1 1 1 1 1 1 1 1 1 1 1 1 1 1 1 1 1 1 1 1 1 1 1 1 1 1 1 1 1 0.0065565862816387198 1 1 1 1 1 1 1 1 1 0.0090177241616272268 1 1 0.011460702204797753 1 1 1 1 1 1 1 1 1 1 1 1 1 1 1 1 0.013661533678561801 1 0.0035499316004097455 1 1 0.0092649063257427867 1 1 1 0.0099933891365809775 0.010026468640932359 1 0.0095024078401850214 0.0099063790650041374 1 0.010784431768209549 1 1 0.010272657706891772 1 1 0.0099234637844315271 1 1 1 1 1 1 1 1 1 1 1 1 1 1 1 1 1 1 1 1 1 0.0096351866583270877 1 1 1 1 1 1 1 1 1 1 1 1 1 1 1 1 1 1 1 0.0095998032154963105 1 1 1 1 1 0.0092340804904725189 1 1 1 1 1 1 1 1 1 1 1 1 1 1 1 1 1 1 1 1 1 1 1 1 0.0082134383390855444 1 1 1 1 1 1 0.010034017760363988 1 1 1 1 1 1 1 1 1 1 1 1 1 1 1 0.0099907370574659118 1 1 1 0.010107504325855495 0.0086279576311118125 1 1 1 0.010171817671042988 1 1 1 1 1 1 1 1 0.010041324513441278 1 1 1 1 0.010008980950203318 1 1 1 1 1 1 1 1 1 1 1 1 1 0.0094298808559038407 1 1 1 1 1 1 1 1 1 1 1 1 1 1 1 1 1 1 1 1 1 1 1 1 1 1 1 0.0074857966643617005 1 1 1 1 1 1 1 1 1 1 1 1 1 1 1 0.0068088470770877943 0.0097941178695134454 1 1 1 0.0096678223246619149 1 1 1 1 1 1 1 1 1 1 1 1 1 1 1 1 1 1 1 1 1 1 1 1 1 1 1 1 1 1 0.0087482641057818489 1 1 1 1 1 1 1 1 1 1 1 1 1 1 1 1 1 1 1 1 1 1 1 1 1 0.0099879307154127767 1 1 1 1 1 1 1 0.010087982390912836 1 1 1 0.010484748230592516 1 1 0.0054432924550680481 1 1 1 1 1 1 1 1 0.008324607637858512 0.0033971060659951993 1 1 1 1 1 0.0096323449003454225 1 1 1 1 1 1 1 1 1 1 1 1 1 1 1 1 1 1 1 0.009777599945289199 1 0.010038744715593514 1 0.0095560397902337627 1 1 1 0.00092535349448478327 1 0.0039441945316954306 1 1 1 1 1 1 1 1 1 1 1 1 0.0004445700632526306 1 1 1 1 0.010063026078755753 1 1 0.0071736400953903365 1 0.003572439938854189 1 1 0.010028940351437157 1 1 1 0.0099977120379566471 1 1 1 1 1 1 1 1 1 0.0063370418872427418 1 1 1 1 0.0065144977958571998 1 1 1 1 0.0067918236474206967 1 1 1 1 1 1 0.0099292264438445559 1 0.0100968732963871 1 0.0072334170844047998 1 1 1 0.0093446257131735086 1 1 1 1 1 1 0.0074877748825661738 0.0080293785428020709 1 1 1 1 1 0.009723404195384075 1 1 1 1 1 1 1 1 1 1 1 1 1 1 1 1 1 1 1 0.010072709816978751 1 1 1 1 1 1 1 1 1 0.002327732075447838 1 0.0099966828061632297 1 0.010087230113397733 1 1 1 1 1 1 1 1 1 1 1 1 0.0091576867714861614 1 1 0.0052889209359557876 1 1 1 1 1 1 1 1 1 0.012153508501637387 1 0.0064423964012539844 1 1 1 1 1 1 0.010745616370449591 1 1 1 1 1 1 1 1 1 1 1 1 1 1 1 1 1 1 1 1 1 1 1 1 1 1 1 1 1 1 1 1 1 1 1 1 1 1 1 1 1 0.0098053290469495135 1 1 0.010005594863551664 1 0.0093336908157286846 1 1 1 0.0087412824306439853 0.009997512917951739 1 1 0.0087636588898759825 1 1 1 1 1 1 1 1 1 1 1 1 0.0087042212682127418 1 1 1 1 1 1 1 1 1 1 1 1 0.0095429660081049871 1 1 1 1 1 1 1 1 1 1 1 1 1 1 1 0.0091354408893504178 1 1 1 1 1 0.0092066941234719684 1 1 1 1 1 1 1 1 1 0.0097091727029987966 1 1 1 1 0.0093089759184951139 1 1 1 1 1 1 1 1 1 1 1 0.0064206364545115937 1 0.010210138213404094 1 0.0099591881882301163 1 1 1 0.010777622094613758 1 1 1 1 1 1 1 1 1 1 1 1 1 1 1 1 1 1 1 1 0.0097064398924486418 1 1 1 1 1 1 1 1 1 1 1 1 1 1 1 1 1 1 0.0098560440578549756 1 1 1 1 1 0.012046995815874262 1 1 1 1 1 1 1 1 0.010277332407637634 1 1 0.01099913491204167 1 1 1 1 1 1 1 0.0093242777704643717 1 1 1 1 1 1 1 1 1 0.01044639391447433 1 1 1 1 1 1 1 1 1 1 1 1 1 1 1 1 1 1 1 1 1 1 1 1 0.008801357838435336 1 0.00667361041595603 1 1 0.0078548395058949949 1 1 1 1 1 1 1 1 0.0099580618256529408 1 1 1 1 1 1 0.0018646328176235086 1 1 1 1 1 1 1 1 1 1 1 1 0.0088104523693354388 1 1 1 1 1 1 1 1 1 1 1 1 1 1 0.0094861745988710656 1 1 1 4.2289551548113646e-09 1 1 1 1 0.0088732813710976095 1 1 1 1 1 1 1 1 1 1 1 1 1 1 1 1 1 1 1 1 1 1 1 1 1 1 0.010256960408659267 1 1 0.0096072680248413707 1 1 1 1 1 1 1 1 1 0.010092323376666714 1 1 0.0098279335232335594 1 1 0.010213720177534904 1 1 1 1 1 1 1 1 1 1 1 1 1 1 1 1 1 1 1 1 1 1 1 1 1 1 1 1 1 1 1 1 1 1 1 1 1 1 1 1 1 1 1 1 1 1 1 1 1 1 1 1 1 1 1 1 1 1 1 1 1 1 1 0.0090475502736849372 1 1 1 1 1 1 -5.8124769251183261e-09 1 1 1 1 1 1 1 1 1 1 1 2.8575503274383407e-09 0.0072356523911940515 1 1 0.004872953996322143 1 0.0094002349195615419 1 1 0.00046781751095149784 1 1 0.006764706397625146 1 1 1 1 1 1 1 1 0.010246903648273839 1 1 1 1 1 1 1 1 1 0.0096065271533476923 1 1 1 1 0.010140080468477539 1 1 1 1 1 1 1 1 1 1 1 1 1 1 1 0.0092100835510490076 1 1 1 1 9.3916728539054917e-10 1 0.0099868618301252651 1 1 1 0.01055809697437971 1 1 1.713645822248519e-09 1 1 1 1 1 1 1 1 1 1 1 0.011820689344134397 1 1 0.0094960600686173034 1 1 1 0.011406455537289429 1 1 0.00044066333099899817 0.0082999720103153138 1 1 0.013360973985753926 1 1 1 1 1 1 1 1 0.0087062210933176905 1 1 1 1 0.0095020854218400737 1 0.0087128039824659956 1 0.011557074365177514 1 1 1 1 0.011764047641295655 1 1 1 0.0099257721147667493 1 1 1 1 1 1 1 1 1 1 1 1 1 1 1 1 1 1 0.0094987636590695614 1 1 1 1 1 1 1 1 1 1 1 1 1 1 1 1 1 1 1 1 1 1 1 1 1 1 1 1 1 1 1 1 1 1 1 1 1 1 1 1 0.0079984145878942443 1 1 1 1 1 0.0071616871356712034 1 1 1 1 1 1 1 1 1 1 1 1 1 0.0086040032159842763 1 1 0.005919386147009491 1 1 1 0.0095809973649786696 1 0.0091410208152543863 1 1 1 1 0.010299018274392016 1 1 1 1 1 1 1 1 1 0.0086856168160257471 1 1 0.010063448268633549 0.012642326127977672 1 0.0085349438602932218 1 1 1 1 1 1 1 1 1 1 1 1 1 1 1 1 1 1 1 1 1 1 1 0.0081768713861797536 1 1 1 0.0088429643403065503 1 1 1 1 1 1 1 0.0095966999085413465 1 1 1 1 1 1 1 1 1 1 1 1 1 1 1 1 1 1 1 1 1 1 1 0.0094831072894991549 1 1 1 1 1 0.0086486696005323872 1 0.0092376113553468905 0.010606765372124505 1 1 1 0.010063425207152935 1 1 0.0099717612464446451 1 1 1 1 1 1 1 1 1 1 1 0.010112134680876964 1 1 1 0.011097054579106719 1 0.010348138115033536 1 1 1 1 1 0.0086812397639691695 1 0.010033823065363771 1 0.011533723898858404 1 1 1 1 1 1 1 1 0.0069497121241971823 0.0098524669377533947 0.0078874971862508397 1 1 0.0099555753644676847 1 1 1 1 1 1 1 1 1 1 1 1 1 1 1 1 1 1 1 1 1 1 1 1 1 1 1 1 1 1 1 1 1 1 1 1 1 0.010661186479617526 1 1 1 1 1 1 1 0.01024314119620183 1 1 0.0099898346479690009 1 1 1 1 1 1 1 1 1 1 1 1 1 1 1 1 1 1 1 1 1 1 1 0.0096406781086470598 1 1 1 1 1 1 1 1 1 1 0.0081841569986780462 1 1 1 1 0.0067932687114227773 1 1 1 1 0.015396099646985968 1 0.0099688665717690261 -4.6672042619544385e-09 1 1 1 1 0.0064379916464712573 1 1 0.017732793469806812 1 1 0.0028001351015744282 0.0091577407203353983 1 1 1 1 1 1 1 0.0018957319158769623 1 1 1 1 1 1 1 1 1 1 1 1 1 0.010155614119891517 1 1 1 1 1 1 1 0.0010700927547661445 0.010376910125044863 1 0.010569402957782829 1 0.0031802625057505826 1 1 1 0.0081844476074796543 1 1 1 1 1 0.0088794414140916794 1 1 0.00961882743372151 1 1 1 1 1 1 1 0.0094005663228362065 1 1 1 1 1 1 1 1 0.0099889952975799508 1 1 1 0.0045870662543925512 1 1 1 1 1 0.010422976108869563 0.00016614603513880966 1 1 0.011185280529724333 1 1 1 1 1 1 1 1 1 1 1 1 1 1 0.0098425464119883711 1 1 0.012554867208260578 1 0.0079584964163923917 1 1 1 1 0.0091556336418589911 1 1 1 1 1 1.1096867418014522e-09 1 1 0.010038416803301857 0.00063140172345134307 1 1 1 1 0.0051585820267616884 1 1 1 1 1 1 1 1 0.0058809605338567368 1 0.0074067466129870262 1 1 1 1 1 1 1 1 0.0062712834745901102 1 1 1 1 0.0095934219455479572 1 1 1 1 1 1 1 1 1 1 1 1 1 1 1 1 1 1 1 1 1 1 1 1 1 1 1 1 1 1 1 1 1 0.0094762809416956608 1 1 1 1 1 1 1 0.0088226899513386518 1 1 1 1 1 1 1 1 1 1 1 1 0.010129723244133783 1 1 1 1 -3.089472762254214e-09 1 1 1 1 1 1 1 1 1 1 1 1 1 0.009994296285756021 1 1 0.006944596197376092 1 1 1 1 0.0089467481493412191 1 1 1 1 1 1 1 1 1 1 1 0.0095751810698480877 1 2.0879281845131992e-09 1 1 0.0098523445455835391 1 1 1 1 0.010550260704447907 1 1 1 1 1 1 1 1 1 1 1 1 1 1 1 1 1 1 1 1 1 1 1 1 1 1 1 1 0.010174168224574094 1 1 1 1 0.0099427856720256391 1 1 1 1 1 1 1 1 1 0.010339430204253333 1 1 1 0.0078070353907101807 1 1 1 1 1 1 0.0093431885539501588 1 0.0077459770554021059 1 0.0096743639159740623 1 1 1 1 1 1 1 1 1 1 1 1 1 1 1 1 1 1 1 1 1 1 1 1 1 1 1 1 1 1 1 1 1 1 1 0.0099987963337599111 1 0.0087706285311728426 1 1 1 1 1 1 1 1 0.0094857861131725091 1 1 1 1 1 1 1 1 1 1 1 1 0.011427585295092283 1 1 1 1 1 1 1 1 1 1 1 1 1 0.010456347929719861 1 1 0.010048225503141861 1 1 1 1 0.0099981703026593757 1 1 1 1 0.0098181729133390051 1 1 1 1 1 0.0098085532442749902 0.010015665935642463 1 0.0096418350702484751 1 1 0.0085335163430028445 1 1 1 1 0.0099889930730119661 1 0.0095365199632592105 1 1 1 1 1 1 1 1 0.010024177278946151 1 1 1 1 0.0099446503376041818 1 1 1 1 1 1 1 1 1 1 1 1 1 1 1 1 1 1 1 1 1 1 0.0098939413031619745 1 1 1 1 1 1 1 1 1 1 1 1 1 1 1 1 1 1 1 1 1 0.0098385916407661509 1 1 1 1 1 1 1 0.0092507398375225227 1 0.0096842191910681535 1 1 1 1 1 1 1 1 1 1 1 1 1 1 1 1 1 1 1 1 1 1 1 1 1 1 0.0076954888807546761 1 1 1 1 1 0.0090604001671791834 1 0.010016089053058123 1 1 1 1 0.0082394018556831723 0.0086111011001188606 0.0099531377663753858 1 0.0064112512514649372 1 1 1 0.011515230560410664 1 1 1 1 0.0093953707117560726 1 0.0073142688474751244 1 1 1 1 0.010000775609609987 1 1 1 0.0081863933539649825 0.0090773313161978814 0.010391952973683314 1 0.0082978188037459988 1 0.0086153125167995857 1 1 0.0099830045246951781 1 1 1 1 1 1 1 1 1 1 0.009902912763580414 1 0.0098552889409034491 1 0.0098664430709818653 1 1 1 1 0.009507313439533753 1 1 1 1 0.010429188164845709 1 1 1 1 1 1 1 1 1 1 -3.1351208261420904e-09 1 0.0099653997259545202 1 1 0.011979930101222966 1 1 1.3867264697653425e-09 1 1 1 1 1 0.010801764645239693 1 1 1 1 1 1 1 1 1 1 1 1 0.0091909005484737422 1 1 1 0.009979350928931081 1 1 1 1 1 0.0098766933510236535 1 1 1 1 1 1 1 1 1 1 1 1 1 1 1 1 1 1 1 1 1 0.010065264438195992 1 1 1 1 0.0070682201034945394 1 1 1 0.0062059217497096898 1 0.011009065730196055 1 1 0.006062902392249837 1 0.0099491059581246072 1 1 1 1 1 1 0.0098038767565604597 1 1 1 1 0.011499637208871462 1 0.0076491883667774855 1 1 1 1 1 1 1 0.0097336951911730467 1 1 1 1 1 1 1 1.3587590826785734e-09 1 1 1 1 1 1 1 1 1 1 1 1 1 1 1 1 1 0.0093271171367210089 1 1 1 0.010331447072396156 1 1 1 1 1 1 1 1 1 1 1 1 1 1 0.01094277584390684 1 1 1 1 1 1 1 1 1 1 1 1 1 1 1 1 1 1 1 1 1 1 1 1 1 1 1 0.0085033057887053988 1 0.0071479166869391694 1 1 1 0.010408045538288039 1 1 1 0.0054760078184490461 1 1 0.0098036562474813245 0.005884372763300845 1 1 1 1 1 1 1 1 0.0081045694986754645 1 1 0.0069124567074878868 1 1 1 1 0.0087928634508684309 1 0.0095763085579462018 1 1 1 0.0098273131140937629 1 1 1 1 1 1 1 1 1 1 0.0080629143508574794 1 1 0.010830737036720035 1 1 0.0099826204300611579 1 1 1 1 1 1 1 0.0053018656801998663 1 1 0.0066618544029528083 0.0031580607625552488 1 1 1 0.010000960415727497 1 1 1 1 1 1 0.011520614019595025 1 1 1 1 0.0012874996238388045 1 1 1 0.0093734995104289842 1 1 1 1 0.010223579759693459 1 1 0.0093514068006112158 1 1 1 1 1 1 1 1 1 1 1 0.0097987825928649661 1 1 1 1 0.0071298321964788306 1 0.0074135640152990841 1 0.010812201621830057 1 0.0089858492078916663 1 1 1 1 1 1 1 1 1 1 1 0.0096556720825934431 0.006345061658219733 1 1 1 1 1 1 0.010121007613335793 1 1 0.010011287090684235 1 1 1 1 1 1 0.01030678205949521 1 1 1 0.0096218765523392157 1 0.009651932930841654 1 1 1 0.0090651067048639986 1 1 1 1 1 1 0.0094636289740610974 1 1 1 1 1 1 0.0099774569810544781 1 0.0099766031878939995 1 1 1 0.006253275861907652 1 1 1 1 0.0094648614921551064 1 1 1 1 1 1 1 0.0099992190695926114 1 0.0085697983041330798 1 0.0070331290875943319 1 1 1 0.010473002867935281 0.006862346450397773 1 1 0.010428441563065697 1 1 1 1 1 0.0092608833576600918 1 0.00894005598284036 0.0093321662144472736 0.0084456769006029577 0.0073143574164132863 1 1 1 1 1 0.0087755398431508033 0.010470488110462889 1 1 0.0099324365561477695 1 1 1 0.008105365900537025 1 1 1 1 1 1 1 1 1 0.009952004408864035 1 1 1 0.0099983386500921718 1 1 1 1 1 1 1 0.0099725093080017067 1 0.009997054463286973 1 1 1 1 0.010127960712980919 1 0.0096639744615540993 1 1 1 1 0.0097526695591748005 1 1 1 1 1 1 1 1 1 0.0099011032951880507 1 1 1 1 1 1 1 1 1 1 1 1 1 1 1 1 1 1 1 1 1 0.0099905401035234043 1 1 1 1 0.0099954457049691997 1 1 1 1 1 0.0082386318064770689 1 0.0099195231096716116 1 1 1 1 1 1 1 1 1 1 1 0.0097408533029436639 1 0.0088515848893712997 1 0.0086393126016132398 0.0094552822164427168 1 0.010046345880816768 1 0.0083796459819735266 1 1 1 0.010022123582303031 1 1 1 0.0098380839736888579 1 1 1 1 0.0083327301487630331 1 0.010031518108542702 1 1 1 1 1 1 1 1 0.009870482898527308 1 1 1 1 1 1 1 1 0.0099858520807372501 1 1 1 1 1 1 1 1 1 0.01000570359153034 1 1 0.01044444420738205 1 1 1 0.010124310161133181 1 1 1 1 1 1 1 1 1 1 1 1 0.0094893177290845069 1 1 1 1 0.0060967108660312328 1 1 1 1 1 1 0.0056667371745384564 1 1 1 1 0.010018120762915007 1 0.0095673820381927833 1 1 1 1 1 1 1 0.0086429300451742602 1 1 1 0.01001425818792036 0.0099718381600326228 1 1 1 1 0.0056290059972179032 1 0.010001969963271979 1 1 0.0090618194112579709 1 1 1 1 1 1 1 1 1 1 1 1 1 1 1 1 1 1 1 1 1 1 1 1 1 1 1 1 1 1 1 1 1 1 1 0.010877750597237187 1 1 1 0.007223992887744668 1 1 1 1 1 1 1 1 1 1 1 1 1 0.0099927833799319833 1 0.0092195271473803301 1 1 1 1 1 1 1 1 1 1 1 1 1 0.007504403809453105 1 1 0.0068051803874445947 1 1 1 1 1 0.0074677136261168068 1 1 1 1 1 1 1 1 1 1 1 1 1 1 1 1 1 1 1 0.0087171390541007053 0.0085605028645760403 1 1 0.010022935086727854 1 1 0.005938349529492272 1 1 1 1 1 1 1 0.0099691256835549458 1 1 1 1 0.0091333366818476952 1 1 1 1 1 1 1 1 1 1 1 1 1 1 0.0092054802403860603 1 1 0.0097860937608753445 1 1 1 1 1 1 1 0.0096320799989800584 0.0094930134393471383 1 1 1 1 1 1 1 1 1 1 1 1 1 1 1 1 0.0098240295645282867 1 1 1 1 0.0098281380697423613 1 1 0.0065894541663006571 1 1 0.0085077973019140937 1 1 1 1 1 1 1 1 1 1 1 1 0.0092748912376199241 1 1 1 1 0.010270104227450019 1 1 1 1 1 1 1 1 1 0.0094295042290876395 0.0078806113796067445 0.0063636144496559827 1 1 1 0.0098449399262184271 1 1 0.010130532502139276 0.010942306454664954 1 0.011883701115842546 1 1 1 0.0098975809610007022 1 1 1 1 1 1 1 1 1 1 1 1 1 1 1 1 1 1 1 1 1 1 1 1 1 1 1 1 1 1 1 1 1 1 1 1 1 1 1 1 1 1 1 1 1 1 1 1 0.0099555909636039833 1 0.0099454401261017625 1 1 1 1 1 1 1 1 1 0.0096843189891030242 1 1 1 1 1 1 0.0099849627332772549 1 1 1 1 1 0.010001756922273874 1 1 1 1 1 1 1 1 1 1 1 1 1 1 1 0.0094199920096142593 1 1 1 1 1 1 1 0.0098717325354072665 1 1 1 1 1 0.0097031068326918143 0.0095517350628212764 1 1 1 1 0.0092044304879683337 1 1 1 1 1 1 1 1 1 1 1 1 1 1 1 1 1 1 1 1 1 0.009738190373108864 1 1 1 1 1 1 0.009341502621958115 1 1 1 0.0094314146759200568 1 1 1 1 1 1 1 1 1 1 1 1 1 1 1 1 1 1 0.0093577509569175883 1 0.010060821750029196 1 1 1 1 1 0.0093755464328968974 0.010235506838966756 1 1 1 0.0099904208259054342 1 1 1 1 1 1 0.010635472036590798 1 1 1 1 1 0.0092433245744679513 1 0.0086504770488873232 1 1 0.0091318350309344543 1 1 1 1 0.0092086031715338957 1 1 1 1 0.0080695235745192936 1 1 1 1 0.009998569519331188 1 1 1 1 1 1 1 1 1 1 1 1 1 0.0092441859303493204 1 1 1 1 1 1 1 1 1 1 1 1 1 1 1 1 0.010203808378950808 1 1 1 1 0.010945643903027276 1 1 1 1 0.0074621074375432802 1 1 1 1 1 1 1 1 1 1 0.0079456823602692319 1 1 1 1 0.0097186468952910696 1 1 1 1 1 1 1 1 1 1 1 1 1 1 1 0.009122239721253169 1 1 1 0.0099383431234841297 1 1 1 1 1 1 1 1 1 1 1 1 1 1 0.0083064057385821826 1 1 1 1 1 1 1 1 1 1 1 0.010384919704242369 1 1 0.01018682179709425 1 1 1 1 1 1 0.0056901746151867862 0.010708453173532799 1 1 1 1 0.010093663375119986 1 0.009867043412621488 1 1 1 0.0067207501321718197 1 1 0.0086742699197000922 1 1 1 1 1 1 1 1 1 1 1 1 1 1 1 1 0.0075294107257691725 1 1 1 1 1 1 1 1 0.0040849149177588969 0.010063612488766761 1 1 1 0.0096882806269234113 0.0083740666022533543 1 0.011225155222205182 1 0.010263131654033029 1 1 1 1 0.010075220737601923 1 1 1 1 1 1 1 1 1 1 1 1 1 0.0099766105204747019 1 0.0059474206617581207 1 1 1 1 1 1 1 1 0.0076463946986844687 0.0099986660903696404 1 1 0.010510367914896389 0.0081833661059047425 0.0081515754273306339 1 1 1 1 1 1 0.0099947407493221046 1 1 0.0078892015552282351 1 1 0.0098608840475877969 0.010534134823808425 0.010389502070957696 0.010618184989090982 1 1 1 1 1 1 1 1 1 1 1 1 1 0.0098069777224557078 1 1 0.006262302736317873 1 0.0098908525906520658 1 1 1 1 1 1 1 0.010038657943549214 0.0064638792238853431 1 1 0.007009029834976201 1 1 0.0114764848182685 1 1 1 1 0.010861000178523945 0.010757851591014413 0.01133490432164291 0.010866699894803667 1 1 1 1 1 1 1 1 1 1 1 1 1 1 0.0093759081711539648 1 1 0.0082567288734598718 1 1 1 1 0.0099878863802340505 1 1 1 0.0073589887200395439 1 1 0.0072513979555350388 1 1 0.0099983782799535209 1 1 0.0070980650318411588 0.0066945618667403044 1 0.010077343805697039 1 1 1 1 1 1 0.010750025076055943 1 1 1 1 0.0075917140133707631 1 1 1 1 1 0.0080557386211703406 1 1 0.0099986897720740625 1 0.0095228339666729653 0.0067901992575759382 1 1 1 0.0099909826471082808 1 1 1 1 1 0.010032901437498654 1 1 1 0.01007934666072759 1 1 1 0.010004692802783018 1 1 1 1 1 1 1 0.010290109082312603 1 1 1 1 1 0.010256920861166148 1 1 1 1 1 1 1 0.010060747151573197 1 0.0098616825215160735 0.010188697185988778 1 1 0.0099478081449601973 1 1 1 1 1 1 0.010081844458916286 1 1 1 1 1 1 0.010900729155691652 1 1 1 1 1 1 0.0060730970799412077 1 0.0064472039100857449 1 0.010172219065266002 1 1 0.0051256741763207742 1 1 1 1 0.0068303549907240742 0.010120608685486629 0.0089715842017500345 0.0078161675634759922 1 1 1 1 1 1 1 1 0.010302041039406464 1 1 1 0.010002373941830863 1 0.010110107383007098 1 1 1 1 1 1 1 1 1 1 1 1 1 1 1 1 0.008379524755992046 1 0.0070640986096895285 1 1 1 1 1 1 1 1 0.0099796965117283677 1 1 1 1 1 0.0061562738236787444 1 1 0.0063693955412196454 1 1 1 1 1 1 0.0065154208743368061 0.0062208317829375104 1 1 0.0069153970721615721 1 1 1 1 1 1 1 1 1 1 1 0.010194100344097672 0.0087903524472083792 1 1 1 1 0.010002818291118024 1 1 1 1 1 1 1 1 0.0066138527167200409 1 1 1 1 0.0093741949821010313 1 1 1 1 1 1 0.0084677854573930351 1 0.0076633428364392252 1 0.0072003133851359404 1 1 1 1 1 1 1 1 1 1 1 1 1 1 1 1 1 1 0.0098057427151005266 1 1 1 1 1 1 1 1 1 1 1 1 1 1 1 1 1 0.0099925132019967888 0.0099990596131079301 1 1 1 1 1 1 1 1 1 1 1 1 1 1 1 1 1 1 1 1 1 1 1 1 1 1 1 1 1 1 1 1 1 1 1 1 1 1 1 1 1 1 1 1 1 0.0098321306636148468 1 0.0094848260887619024 1 1 1 1 1 1 1 0.009990458504431218 1 1 1 0.0071024300438380615 1 0.0099496875198692176 0.009989478085621218 0.0098258299073039571 1 0.009001295845572339 0.0056709898407886726 1 1 0.010012119365486223 0.0059529186055951259 0.0096700080016701665 1 1 1 1 1 0.0094887725575098277 1 0.0051452995033429132 0.0072567096263489519 1 1 1 1 1 1 1 0.0090095749902615284 1 1 0.0048100306378270011 1 1 0.0099685416494062762 0.0087948141871688652 1 1 1 1 1 1 0.0086130978521479599 1 1 0.0093751925322834353 0.0082190016510999137 1 1 0.009846490987072215 1 1 1 0.0096180884159946696 1 1 1 1 0.0068853027428861348 1 1 1 0.0059686835533943293 1 1 0.0084770799361829699 1 1 1 1 1 1 1 1 1 1 1 1 1 1 1 1 1 1 1 0.0044263384602368835 0.0099845286688111014 1 1 1 0.0037338867687195902 1 1 1 1 0.0049614431716977743 1 1 1 1 1 0.0091410987252629992 0.0081582840085758813 1 1 1 1 1 1 1 1 1 0.0088877014050087518 1 1 1 1 1 1 1 1 1 1 1 1 1 1 1 1 1 1 1 1 1 1 1 1 1 1 1 0.010002417611899244 1 0.002460150150465629 0.010205689176480476 1 1 1 1 1 1 1 1 1 1 1 1 1 1 1 1 1 1 1 1 1 1 1 1 1 1 1 0.0041378202886113453 1 1 0.0099225310477939043 1 1 0.0045775588797025545 1 1 0.0071855330388339717 1 0.0077917509172420185 1 1 1 1 1 1 1 0.0087064969532666854 1 1 1 1 1 1 1 1 1 1 1 1 0.0070897279663448927 1 0.010613656787513423 1 0.0099984545704995507 1 1 1 1 1 0.0081180738528592103 1 1 1 1 0.0099657994251789051 1 1 0.010189404954035124 1 1 1 1 1 1 1 1 0.0090252218706607049 1 1 1 1 1 1 0.0076175519719279055 1 1 1 1 0.0089727491589032433 1 1 1 0.0090691303681088818 1 1 1 1 1 1 1 1 1 1 1 1 1 1 1 1 1 1 0.0083328892918106533 1 0.0088465042536643515 1 1 1 0.0095848903388370179 1 1 1 1 1 1 1 1 1 1 1 1 1 1 1 1 1 1 1 0.008026177023387605 1 1 1 0.0099234453516971223 1 1 1 0.0097699363387693354 1 1 1 1 1 1 1 1 1 1 1 1 1 1 1 0.0099292462832676689 1 1 1 1 0.0069208845580342702 1 1 0.0084791697399611565 1 1 1 1 1 1 0.0098762120770791977 1 0.0067520738959278119 1 0.0076532019217631841 0.010958004086360738 0.0099797469354844515 1 1 1 0.010013118417672317 0.003544154348948972 1 1 1 1 1 1 1 0.0096599803262757394 1 1 1 0.0078390437741531534 1 0.0055594133380898123 1 1 1 1 1 1 1 1 1 0.0091169204186296454 1 1 1 1 1 1 1 1 0.0063835872072035673 1 1 1 1 0.0084653915347397413 1 1 1 1 1 1 1 1 1 1 1 1 1 1 1 1 1 1 1 1 1 0.010580420707099558 0.010086125996637331 1 1 1 1 1 1 1 1 0.0077868597553907275 1 1 1 1 1 1 1 1 1 1 0.0040722298402045779 1 1 1 1 1 1 0.012420861678264171 1 1 1 1 1 0.011505137369933109 1 0.010005312308082484 1 1 0.0097174868613098351 0.0068090271332963363 1 1 1 1 1 1 1 1 1 1 1 1 1 1 1 1 1 1 1 1 1 1 1 1 1 1 1 1 1 1 1 1 1 1 1 1 1 1 1 1 1 1 1 1 1 1 1 1 0.0077693620981915444 0.010006516222926885 1 1 0.0047436394159545755 1 1 1 1 1 0.0065522503589821434 0.010001948225173167 1 1 0.0099739409151750613 0.010671200300405097 1 1 1 1 1 1 1 1 1 1 0.010869883295403997 1 1 1 1 1 1 1 1 1 1 1 1 1 1 1 0.0090748551075475279 1 1 1 1 1 1 1 1 1 1 1 1 1 0.0078470122925359959 1 0.0066775891283554732 0.010482199477987727 0.010426527188457678 1 1 1 1 1 1 1 1 0.0054914801178032775 0.010324353140930335 1 1 1 1 0.010106287323290088 1 1 1 1 1 1 1 1 0.0082798330051773242 1 1 1 1 1 1 1 1 1 1 1 1 1 1 1 1 1 0.0053525209739176995 1 1 1 1 1 1 0.0095466828421715624 1 1 0.0081023166296577236 1 1 1 1 1 1 1 1 1 1 1 1 1 1 1 1 1 1 0.0099190557178813234 1 1 1 0.0092449896440633811 1 1 0.009912556802898459 1 0.0086182250306555321 0.010900043076431014 1 1 0.0099167818077304272 1 1 1 0.0035555869749095666 1 1 0.0093544841657541376 1 0.0091615340675449217 0.011449339876200226 1 1 1 1 0.0090097307733134502 1 1 1 1 1 1 0.0081223281560458688 1 0.010016426967751764 1 1 1 0.0098720085502196075 1 1 1 1 0.011187612625960684 1 0.010711510449406348 0.0069035673826325882 1 1 1 1 1 0.0099418281360741222 1 0.0064750762529027211 1 0.010401530101273556 1 0.011379956713984151 0.0097807109001182904 1 1 1 1 1 1 1 0.0086768576127219388 1 0.0083775843885708773 1 1 0.013537768260785392 1 1 0.011391289838564737 1 1 1 1 1 1 1 1 1 1 1 1 1 1 1 1 1 1 1 1 1 1 1 1 1 1 1 1 1 1 1 0.0083399901691367205 1 1 1 1 1 1 1 1 1 1 1 1 1 1 1 1 1 1 1 1 1 1 1 0.010240970387824459 1 1 1 1 1 0.0092640985466926166 0.010536316506266685 1 1 1 1 1 1 1 1 1 1 1 1 1 1 1 1 1 1 1 1 1 0.0038067011623328885 1 1 1 1 1 1 1 1 1 1 1 1 1 0.010429072942510258 1 0.0085181179629563088 1 1 1 0.0057315115827367563 1 1 1 1 1 1 1 1 0.0083879489502805219 1 0.011806539859795573 1 1 1 1 1 0.01049904901393549 1 1 1 1 1 1 1 1 1 1 1 0.0069973283758703059 1 1 1 1 1 1 1 1 1 1 1 0.007602194539994462 1 1 1 1 1 1 1 1 0.0090662933248644127 1 1 1 1 1 1 1 1 1 1 1 1 1 1 1 1 1 1 1 1 1 1 1 1 1 1 0.0091644402895619155 1 1 0.0087118979234462792 1 1 1 1 1 1 1 1 1 1 1 1 1 1 1 1 1 1 1 1 1 1 1 1 1 1 1 1 0.0028546439515123858 1 0.0099474857864550528 1 0.010060503597321366 1 1 1 1 1 0.0075331388221271025 1 1 1 1 0.0099874047965444815 1 1 1 0.007041510445376287 1 1 1 1 1 1 1 1 1 1 1 1 1 1 1 1 1 1 0.0083764209323862991 0.0025698740712026998 0.010018669670831183 1 1 1 1 1 1 1 1 1 1 1 1 1 0.01033902658291859 1 1 1 1 1 1 1 1 1 1 1 1 0.0099479511996014899 1 1 0.011231542278998464 1 1 1 1 1 1 1 1 1 1 1 1 1 1 1 1 1 1 1 1 1 0.0095474576338843604 0.0092770420476995658 1 1 1 1 1 1 1 1 1 1 1 1 1 1 0.010740326668984598 1 1 0.011804683629813999 1 1 1 1 0.0065020935673518361 1 1 1 1 1 1 0.0085503152117042472 1 1 1 1 1 1 1 1 1 1 1 1 1 1 1 1 1 1 0.0093837031126363241 1 1 1 1 1 0.0087332700199401966 1 1 1 1 1 1 1 1 1 1 1 1 1 1 1 1 1 1 1 1 1 1 1 1 1 1 1 1 0.0089497095817183611 1 0.0096446437017893658 1 1 1 1 0.0091232273686636702 0.0093877279162311277 1 1 1 1 1 1 1 1 1 1 1 1 1 1 1 1 1 1 1 1 1 1 1 1 1 1 1 1 1 1 1 1 1 1 1 0.0094215437306986657 1 1 1 1 0.010117961540685512 1 1 1 1 1 1 1 1 1 1 1 0.010095909740181326 1 1 1 1 1 1 1 1 1 1 1 1 1 1 1 1 1 0.011247675513453325 0.010057071551348669 1 0.010031774825096589 1 1 1 1 1 1 1 1 1 1 0.010067615456049278 1 1 1 1 1 1 1 1 1 1 1 1 1 1 1 1 1 0.010009723024592397 1 1 1 1 0.0099542827907113419 1 1 1 1 1 1 1 1 1 1 1 1 1 1 1 1 1 1 1 1 1 1 1 1 1 1 1 1 1 1 1 1 1 1 1 1 1 1 1 1 1 1 1 1 1 1 1 1 1 1 1 1 1 1 1 1 1 1 1 1 1 1 1 1 1 1 1 1 1 1 1 1 1 1 1 1 1 1 1 1 1 0.0098970275727905573 1 1 1 1 1 1 1 0.0097123619070891357 1 1 0.0089121735833489826 1 1 1 1 1 1 1 1 1 1 1 1 0.0097563067469800258 1 0.0098591301633899724 1 0.0036203034910514652 1 1 1 1 1 1 1 1 0.0073663834090073703 1 1 1 1 1 1 1 1 1 0.0091983300566864292 1 1 1 1 1 1 1 1 1 1 1 1 1 1 1 1 1 1 1 1 1 0.009644582384051999 1 1 1 1 1 1 1 1 1 1 1 1 0.012098857020415989 1 1 1 1 1 0.012933290846824482 1 1 0.0012138068608050206 1 1 1 1 0.0013473243071828681 0.01015056694859098 1 1 0.0018307116088690043 1 1 1 1 1 1 1 0.0094461636925187251 0.010582346170238717 1 1 1 1 1 1 1 1 1 1 1 1 0.0099857557639636621 1 1 1 1 0.0099727278684639386 1 1 1 1 1 1 1 1 0.0099868638570958426 1 1 1 1 0.010088698809820279 1 1 1 1 0.0098590575864082076 1 1 1 1 1 1 1 0.0099359007929812511 1 1 1 1 1 0.0093251443269741132 1 1 1 0.0080095918277058066 1 1 1 1 1 0.0067794373149466947 1 1 1 1 1 1 1 1 1 1 1 1 1 1 0.003974159281796551 1 1 0.002454333756078543 1 1 1 1 1 1 1 1 1 1 1 1 1 1 1 1 1 1 1 1 1 0.010040542243591081 1 1 0.0097838082695933595 1 1 0.01000618326220299 1 1 1 1 1 1 1 1 1 1 1 1 1 1 1 1 1 1 1 1 1 1 1 1 1 1 1 1 1 1 0.0092781324317303526 1 1 1 1 0.01000077302843444 1 1 0.010136267913431647 1 0.0099979833737155865 1 1 1 1 0.010750474815163386 1 0.0091981891743962412 1 1 0.010128247155039695 1 0.010244502178454103 1 0.0076749191830833095 0.0090233983662448402 1 1 0.009956021788513755 1 0.0091082280732645484 1 0.01002221366926025 1 1 0.0054558694543294858 1 1 1 1 1 1 0.0056158222205087201 1 0.010032946492797387 1 1 0.0099832139937768571 0.0096011946613208596 1 1 0.0079590384263071266 1 0.010445181160795149 1 1 0.0091319903346504614 1 1 0.0084464594637924852 1 1 0.0090458941279668165 0.0094082761657854983 0.0072675210784443334 1 0.010753258477669036 1 1 1 1 1 1 1 1 0.010020348745161983 1 1 1 1 1 1 1 0.010019683887054646 1 1 1 1 1 1 1 1 1 1 1 1 1 1 0.0099437388860107376 1 1 1 1 1 1 1 1 1 1 1 1 1 1 1 1 1 1 1 0.010414947745486722 1 1 1 1 1 1 1 1 1 1 1 1 1 1 1 1 1 1 1 1 1 1 1 1 1 1 1 1 1 1 1 0.010310341679402117 1 1 1 0.0089613189804917757 1 0.010982015961889077 0.011509449452503961 1 0.0051117649743822671 1 1 1 0.0098056784763009865 1 1 1 1 0.0098098465241321202 0.0099250669876195814 0.010011567253178776 1 1 1 1 1 1 1 1 1 1 1 1 1 1 1 1 1 0.0063871975230849996 1 1 1 1 1 1 1 1 1 0.0099816536220554801 1 1 1 0.0093350898531747665 1 1 1 1 1 1 1 1 1 1 1 1 0.0083896900974669304 1 1 0.0090546002442921519 1 1 1 1 1 1 1 1 1 1 1 1 1 1 1 1 1 1 1 1 1 1 0.0085787075419210407 1 1 1 1 1 1 1 1 1 1 1 1 1 1 1 1 1 1 0.0091123536532224988 1 1 1 1 1 1 1 0.0093638506409896346 1 1 1 1 0.0087319267302616577 1 1 1 1 1 1 1 1 1 1 1 1 1 1 1 1 1 1 1 1 1 1 1 1 1 1 1 1 1 1 1 1 1 1 1 0.010118365855248879 0.009942142845268476 1 1 1 1 0.0091485427561130584 1 0.0079119429529465757 1 1 1 1 1 0.0080642430576275109 1 1 1 1 1 1 1 1 0.0093815774066356109 0.010159135056512574 1 1 1 1 0.0070029902424703361 1 1 1 1 1 1 1 1 1 1 1 1 1 1 1 1 1 1 1 1 1 0.0087670205310944067 1 1 1 1 1 1 0.0062569398944373718 1 1 0.0075419610230232888 1 1 1 1 1 1 1 1 1 0.010232523374287627 1 1 1 1 1 1 1 1 0.0089148573974644259 1 1 1 1 1 1 1 1 1 1 1 1 1 1 1 1 1 0.0096457635785591519 1 1 0.0092773136423337371 1 1 1 1 1 1 1 1 1 1 1 1 1 1 1 1 1 1 1 1 1 1 1 1 1 1 1 1 1 0.0089378677532972045 1 0.0095697916640251676 1 1 1 1 1 1 1 1 1 1 1 1 1 1 1 1 1 1 1 1 1 1 0.0091434053939824563 1 1 1 0.009572756945532673 1 1 1 1 1 1 1 1 1 1 1 1 0.0093743037699236843 1 1 1 0.0098578087360786729 0.0099996061222658601 1 1 0.009611736780979185 1 1 1 1 1 1 1 1 1 0.0095699253768905864 1 1 1 1 1 1 1 1 1 1 1 1 1 0.008982054899019886 1 0.010032035826810738 1 1 1 1 1 1 1 1 1 1 1 1 1 1 1 1 1 1 1 1 1 1 1 1 1 1 1 1 1 0.0079333869857758626 1 1 1 1 1 1 0.0091522348273621185 1 1 1 1 1 1 1 1 1 1 1 1 1 1 1 1 0.009859452829530586 1 0.0089510301192006723 1 1 1 1 1 1 1 0.0088332968945126489 1 1 1 0.0089365572187768694 1 1 1 1 0.009952541315970502 1 1 1 1 1 1 0.013192631722608135 1 1 1 1 0.01109771435270674 1 0.009662306915204125 1 1 1 1 1 1 1 1 0.0024775954452067421 0.010058050896308197 1 1 1 0.0035041730035804339 0.012577708864204683 1 1 1 1 1 1 1 0.007280729796682768 0.0086918571620351482 1 0.011638864127919094 0.010058222197526704 1 1 1 1 0.0085208467257883603 1 0.0079908305253911481 1 1 1 1 1 1 0.0089755326850810592 1 1 1 1 0.0094757064753541453 1 1 1 1 0.0084462311159875687 1 1 1 1 1 0.0087114353144372228 1 1 0.010043487894969134 1 1 1 1 0.010005672413930121 1 1 1 1 1 1 1 1 1 0.010044568301011038 0.0085332595171408662 1 1 1 1 1 1 1 1 1 1 1 1 1 0.0076668479657550481 1 0.0081104431028001297 1 1 1 1 1 1 1 1 1 1 1 1 1 1 1 1 1 1 1 1 1 0.0075320439054083529 1 1 1 1 1 1 1 1 1 1 1 1 1 1 1 1 1 1 1 1 1 1 1 1 1 1 0.010286105270790354 1 1 1 1 1 1 1 1 0.012555409065231192 1 0.010850151607797858 1 1 1 1 1 1 0.010018608272121718 1 1 1 1 1 1 1 1 1 1 1 1 1 1 1 1 1 1 1 1 1 1 1 1 1 1 0.0054417604916525506 1 1 1 1 1 1 1 1 0.01309537142341638 1 1 0.010315469710296243 1 1 0.0099930431115304291 1 1 1 1 1 0.012837552475875258 1 1 1 1 1 1 1 1 1 0.0099599588802985004 1 1 1 1 1 1 1 1 1 1 1 1 1 1 1 0.011064688735578436 1 1 1 1 1 1 1 1 0.011697785492841162 1 1 1 1 1 1 1 1 1 1 1 1 1 1 1 1 1 1 0.0098361425811540077 1 0.010686922709366395 1 0.0094915207708945754 1 1 0.0097559440648671888 0.011231650378579417 1 1 1 1 1 1 1 1 1 1 1 1 1 1 0.010317845521208915 1 1 1 1 1 1 0.0092131759950239266 1 1 1 0.010125027123760771 1 1 1 1 1 1 1 1 1 1 1 1 0.0058489189382155363 1 1 1 1 0.0055678281039818582 0.0089734883216644364 0.0053474873147281565 1 1 1 1 1 1 1 0.009438853525586207 1 1 0.0081706962675475985 1 0.0099606896829985119 1 0.0087370536036451615 1 1 1 1 1 0.0095114251011499881 1 1 1 1 1 1 1 1 1 1 1 1 1 1 1 1 1 1 1 1 0.0079913104732012383 1 1 1 0.0085330265427870644 1 0.010702419771778987 0.011850355859677718 0.011018212396319433 1 1 1 1 1 0.010350099712544754 1 1 1 1 1 1 1 1 1 1 1 1 1 1 1 1 1 1 1 1 1 1 1 1 1 1 0.0064157367007528967 1 1 0.0061928160149117319 1 1 1 1 1 1 1 1 0.0081059082645802034 1 0.0096437803158241318 1 1 1 1 1 1 1 1 0.0065417369106760938 1 1 1 1 0.0066430056743140148 1 1 0.0099819913444493986 1 1 0.013343765818459615 1 1 1 0.0083966125413653774 1 1 1 1 1 1 1 1 1 1 1 1 1 1 1 1 1 1 1 1 0.0094430074188476074 1 1 1 1 1 1 0.0085785818727779593 1 1 1 1 1 0.0079128315463179028 1 1 1 1 1 0.0037168216539168568 1 0.0094642615771269624 0.0080738495628118519 1 1 1 1 1 1 1 1 1 1 1 1 0.0097845760576457386 1 1 1 1 0.001892568419575141 1 0.0094366113087339318 0.0095283622266592212 1 1 1 0.0023487902728025565 1 1 1 1 1 1 1 1 1 1 1 1 1 1 1 1 1 1 1 1 1 1 0.0011529611192164814 1 0.013996306768772051 1 1 0.01008279419875836 1 1 0.010843703779118218 1 1 0.0079984067331386258 1 1 1 0.010102778493356177 0.0099309454828946861 1 1 1 1 1 1 1 0.0098032609216137587 1 1 1 1 1 1 1 1 0.0079737711629288641 1 1 1 1 1 1 1 0.0045327044115852436 1 1 1 0.0064148120927630409 1 0.0068376320912358337 0.01038417978924942 1 1 1 0.010135268879840544 1 1 1 1 1 1 1 1 1 1 1 1 1 1 1 1 1 1 1 1 1 1 0.0098368717694996659 1 1 0.0099921280412234494 1 1 1 0.011714396665319534 1 1 1 1 1 1 1 0.013274459981381312 0.0057596398634120298 1 1 0.01065385973946738 1 1 1 1 1 1 1 1 1 1 1 1 1 1 1 1 1 1 1 1 1 1 1 1 1 1 1 1 1 1 1 1 1 1 1 0.0088992304280405173 1 1 1 1 1 1 1 0.0099957606873334777 1 1 0.011646212957162007 1 1 0.0095587961386617189 1 1 1 1 1 1 1 1 1 1 1 1 1 1 1 1 1 1 1 0.0061198690287592363 1 1 1 1 0.0034518050572285124 1 1 1 1 1 1 1 1 1 1 0.0087700810979007091 1 1 1 1 0.0066760184618695016 1 1 1 1 0.0093574739949821833 0.0083048511554104504 1 0.0072310194645342019 1 1 1 1 1 1 1 1 1 1 1 1 1 1 0.0052385075952456686 1 1 1 1 1 1 1 1 1 0.010023217382139534 1 1 1 1 1 1 1 1 1 1 1 1 1 1 1 1 1 1 1 1 1 1 1 1 1 1 1 1 1 1 1 1 1 1 1 1 1 1 1 1 1 0.010287668081356508 1 1 1 1 0.0092764699219035022 1 1 0.0061143197633745459 1 1 1 1 1 1 0.0081484182322259773 0.0058443177776516253 1 1 1 1 0.0098231711741953651 1 1 1 1 1 1 1 1 1 1 1 1 1 1 1 1 1 1 1 1 1 1 1 1 1 1 1 1 1 1 1 1 1 1 1 1 1 1 1 1 1 1 1 1 1 1 1 1 1 1 1 1 1 1 1 1 1 1 1 1 1 0.012510496971718769 1 1 1 1 1 0.011161932937711205 1 0.0098534025816051692 1 1 1 1 1 1 1 1 1 
</DataArray>
</CellData>
</Piece>
</UnstructuredGrid>
</VTKFile>
