<?xml version="1.0"?>
<VTKFile type="UnstructuredGrid" version="0.1" byte_order="LittleEndian">
<UnstructuredGrid>
<Piece NumberOfPoints="31549" NumberOfCells="11130">
<Points>
<DataArray type="Float64" NumberOfComponents="3" format="ascii">
-0.5 -0.5 0 -0.47708944317573349 -0.47821594795675593 0 -0.48653589860659019 -0.468712730114828 0 -0.49268895536135843 -0.49999999999999922 0 -0.47708944317573349 -0.47821594795675593 0 -0.49268895536135843 -0.49999999999999922 0 -0.5 -0.5 0 -0.47708944317573349 -0.47821594795675593 0 -0.5 -0.5 0 -0.48653589860659019 -0.468712730114828 0 -0.50000000000000044 -0.45877168310544608 0 -0.47708944317573349 -0.47821594795675593 0 -0.47609102630019678 -0.48897537517441009 0 -0.45984131232126052 -0.47953584252266479 0 -0.49268895536135843 -0.49999999999999922 0 -0.47609102630019678 -0.48897537517441009 0 -0.46769039030324572 -0.49999999999999772 0 -0.49268895536135843 -0.49999999999999922 0 -0.47708944317573349 -0.47821594795675593 0 -0.47609102630019678 -0.48897537517441009 0 -0.46769039030324572 -0.49999999999999772 0 -0.45984131232126052 -0.47953584252266479 0 -0.47609102630019678 -0.48897537517441009 0 -0.46769039030324572 -0.49999999999999772 0 -0.45984131232126052 -0.47953584252266479 0 -0.46769039030324572 -0.49999999999999772 0 -0.45984131232126052 -0.47953584252266479 0 -0.44446374754850199 -0.48375236384286668 0 -0.47609102630019678 -0.48897537517441009 0 -0.45984131232126052 -0.47953584252266479 0 -0.47708944317573349 -0.47821594795675593 0 -0.45984131232126052 -0.47953584252266479 0 -0.46148993099010832 -0.45643189591351291 0 -0.45984131232126052 -0.47953584252266479 0 -0.45385282899650969 -0.46392263724054511 0 -0.45984131232126052 -0.47953584252266479 0 -0.44446374754850199 -0.48375236384286668 0 -0.43863283525386682 -0.46721574187160542 0 -0.45984131232126052 -0.47953584252266479 0 -0.43863283525386682 -0.46721574187160542 0 -0.45984131232126052 -0.47953584252266479 0 -0.43863283525386682 -0.46721574187160542 0 -0.45385282899650969 -0.46392263724054511 0 -0.46769039030324572 -0.49999999999999772 0 -0.44446374754850199 -0.48375236384286668 0 -0.44032121789458378 -0.5 0 -0.44446374754850199 -0.48375236384286668 0 -0.44032121789458378 -0.5 0 -0.42923992302345992 -0.48325511141328509 0 -0.44786434567175892 -0.44830943195842538 0 -0.44537166828057018 -0.44181051032832852 0 -0.42141764703295698 -0.44300227686976529 0 -0.44786434567175892 -0.44830943195842538 0 -0.44537166828057018 -0.44181051032832852 0 -0.44786434567175892 -0.44830943195842538 0 -0.43863283525386682 -0.46721574187160542 0 -0.43250026047058071 -0.45335793153666221 0 -0.44786434567175892 -0.44830943195842538 0 -0.43863283525386682 -0.46721574187160542 0 -0.45385282899650969 -0.46392263724054511 0 -0.44786434567175892 -0.44830943195842538 0 -0.45385282899650969 -0.46392263724054511 0 -0.45984131232126052 -0.47953584252266479 0 -0.45385282899650969 -0.46392263724054511 0 -0.46148993099010832 -0.45643189591351291 0 -0.44786434567175892 -0.44830943195842538 0 -0.45385282899650969 -0.46392263724054511 0 -0.46148993099010832 -0.45643189591351291 0 -0.44786434567175892 -0.44830943195842538 0 -0.47393217283587968 -0.45354055753193562 0 -0.44786434567175892 -0.44830943195842538 0 -0.46148993099010832 -0.45643189591351291 0 -0.47393217283587968 -0.45354055753193562 0 -0.44537166828057018 -0.44181051032832852 0 -0.47268583414028709 -0.44042973926127421 0 -0.44786434567175892 -0.44830943195842538 0 -0.44537166828057018 -0.44181051032832852 0 -0.47268583414028709 -0.44042973926127421 0 -0.44786434567175892 -0.44830943195842538 0 -0.47268583414028709 -0.44042973926127421 0 -0.47393217283587968 -0.45354055753193562 0 -0.47268583414028709 -0.44042973926127421 0 -0.47393217283587968 -0.45354055753193562 0 -0.48842012635590781 -0.44891032564983058 0 -0.47708944317573349 -0.47821594795675593 0 -0.47393217283587968 -0.45354055753193562 0 -0.48653589860659019 -0.468712730114828 0 -0.47708944317573349 -0.47821594795675593 0 -0.46148993099010832 -0.45643189591351291 0 -0.47393217283587968 -0.45354055753193562 0 -0.47708944317573349 -0.47821594795675593 0 -0.46148993099010832 -0.45643189591351291 0 -0.47393217283587968 -0.45354055753193562 0 -0.48653589860659019 -0.468712730114828 0 -0.50000000000000044 -0.45877168310544608 0 -0.47393217283587968 -0.45354055753193562 0 -0.50000000000000044 -0.45877168310544608 0 -0.47393217283587968 -0.45354055753193562 0 -0.50000000000000044 -0.45877168310544608 0 -0.48842012635590781 -0.44891032564983058 0 -0.50000000000000044 -0.45877168310544608 0 -0.48842012635590781 -0.44891032564983058 0 -0.50000000000000411 -0.43904896819421918 0 -0.47268583414028709 -0.44042973926127421 0 -0.50000000000000411 -0.43904896819421918 0 -0.47268583414028709 -0.44042973926127421 0 -0.48842012635590781 -0.44891032564983058 0 -0.50000000000000411 -0.43904896819421918 0 -0.50000000000000411 -0.43904896819421918 0 -0.5 -0.41800202307073192 0 -0.47838496988948109 -0.41932271456998338 0 -0.5 -0.41800202307073192 0 -0.48501039017846592 -0.4038666158480686 0 -0.5 -0.39695507794724438 0 -0.5 -0.41800202307073192 0 -0.47838496988948109 -0.41932271456998338 0 -0.48501039017846592 -0.4038666158480686 0 -0.47838496988948109 -0.41932271456998338 0 -0.48501039017846592 -0.4038666158480686 0 -0.46579985130323098 -0.4007895440169843 0 -0.47268583414028709 -0.44042973926127421 0 -0.50000000000000411 -0.43904896819421918 0 -0.47838496988948109 -0.41932271456998338 0 -0.47268583414028709 -0.44042973926127421 0 -0.47838496988948109 -0.41932271456998338 0 -0.45790385736120071 -0.42162075867348442 0 -0.49999999999999922 -0.37590813282375701 0 -0.5 -0.39695507794724438 0 -0.48187909763350661 -0.38762162122370591 0 -0.49999999999999922 -0.37590813282375701 0 -0.48187909763350661 -0.38762162122370591 0 -0.47836975258564002 -0.37007195017185851 0 -0.48501039017846592 -0.4038666158480686 0 -0.5 -0.39695507794724438 0 -0.48187909763350661 -0.38762162122370591 0 -0.48501039017846592 -0.4038666158480686 0 -0.48187909763350661 -0.38762162122370591 0 -0.46579985130323098 -0.4007895440169843 0 -0.48187909763350661 -0.38762162122370591 0 -0.46458802293849022 -0.38094864768150011 0 -0.46579985130323098 -0.4007895440169843 0 -0.48187909763350661 -0.38762162122370591 0 -0.46458802293849022 -0.38094864768150011 0 -0.47836975258564002 -0.37007195017185851 0 -0.46458802293849022 -0.38094864768150011 0 -0.44582524923662747 -0.38548458884972248 0 -0.45487498969492601 -0.36156027986876949 0 -0.46458802293849022 -0.38094864768150011 0 -0.46579985130323098 -0.4007895440169843 0 -0.44582524923662747 -0.38548458884972248 0 -0.44736942596854501 -0.40608833991122428 0 -0.44582524923662747 -0.38548458884972248 0 -0.42975489186758681 -0.4010943685678442 0 -0.46579985130323098 -0.4007895440169843 0 -0.44736942596854501 -0.40608833991122428 0 -0.44582524923662747 -0.38548458884972248 0 -0.44537166828057018 -0.44181051032832852 0 -0.47268583414028709 -0.44042973926127421 0 -0.45790385736120071 -0.42162075867348442 0 -0.46579985130323098 -0.4007895440169843 0 -0.44736942596854501 -0.40608833991122428 0 -0.45790385736120071 -0.42162075867348442 0 -0.47838496988948109 -0.41932271456998338 0 -0.46579985130323098 -0.4007895440169843 0 -0.45790385736120071 -0.42162075867348442 0 -0.44736942596854501 -0.40608833991122428 0 -0.43756328007407891 -0.42145243944808619 0 -0.42975489186758681 -0.4010943685678442 0 -0.44736942596854501 -0.40608833991122428 0 -0.45790385736120071 -0.42162075867348442 0 -0.43756328007407891 -0.42145243944808619 0 -0.44537166828057018 -0.44181051032832852 0 -0.43756328007407891 -0.42145243944808619 0 -0.44537166828057018 -0.44181051032832852 0 -0.45790385736120071 -0.42162075867348442 0 -0.43756328007407891 -0.42145243944808619 0 -0.44537166828057018 -0.44181051032832852 0 -0.43756328007407891 -0.42145243944808619 0 -0.43055136993891602 -0.43303064887608073 0 -0.43756328007407891 -0.42145243944808619 0 -0.43055136993891602 -0.43303064887608073 0 -0.41970670154486078 -0.42925283206241122 0 -0.43055136993891602 -0.43303064887608073 0 -0.41970670154486078 -0.42925283206241122 0 -0.42141764703295698 -0.44300227686976529 0 -0.43756328007407891 -0.42145243944808619 0 -0.41955145266608462 -0.41250668563350201 0 -0.41970670154486078 -0.42925283206241122 0 -0.43756328007407891 -0.42145243944808619 0 -0.42975489186758681 -0.4010943685678442 0 -0.43756328007407891 -0.42145243944808619 0 -0.41955145266608462 -0.41250668563350201 0 -0.42975489186758681 -0.4010943685678442 0 -0.41955145266608462 -0.41250668563350201 0 -0.41970670154486078 -0.42925283206241122 0 -0.40429306675039012 -0.41612687127526882 0 -0.41955145266608462 -0.41250668563350201 0 -0.40643932309350639 -0.39460691681389942 0 -0.40429306675039012 -0.41612687127526882 0 -0.41970670154486078 -0.42925283206241122 0 -0.40456791176864942 -0.43101455579505288 0 -0.40429306675039012 -0.41612687127526882 0 -0.41970670154486078 -0.42925283206241122 0 -0.40456791176864942 -0.43101455579505288 0 -0.41610218878606448 -0.4432901253618366 0 -0.44582524923662747 -0.38548458884972248 0 -0.42194650366109482 -0.3807362976876022 0 -0.43728005073319948 -0.3701969851528884 0 -0.44582524923662747 -0.38548458884972248 0 -0.42194650366109482 -0.3807362976876022 0 -0.42975489186758681 -0.4010943685678442 0 -0.42194650366109482 -0.3807362976876022 0 -0.42975489186758681 -0.4010943685678442 0 -0.42194650366109482 -0.3807362976876022 0 -0.42975489186758681 -0.4010943685678442 0 -0.40643932309350639 -0.39460691681389942 0 -0.41955145266608462 -0.41250668563350201 0 -0.42975489186758681 -0.4010943685678442 0 -0.40643932309350639 -0.39460691681389942 0 -0.42194650366109482 -0.3807362976876022 0 -0.40643932309350639 -0.39460691681389942 0 -0.4053623591349228 -0.37678630914255418 0 -0.40643932309350639 -0.39460691681389942 0 -0.4053623591349228 -0.37678630914255418 0 -0.38728562052208387 -0.37329333708369061 0 -0.40643932309350639 -0.39460691681389942 0 -0.38118384196418342 -0.39997126713680942 0 -0.38728562052208387 -0.37329333708369061 0 -0.40643932309350639 -0.39460691681389942 0 -0.38118384196418342 -0.39997126713680942 0 -0.40429306675039012 -0.41612687127526882 0 -0.38118384196418342 -0.39997126713680942 0 -0.38728562052208387 -0.37329333708369061 0 -0.36668040290695292 -0.37643445035084472 0 -0.40456791176864942 -0.43101455579505288 0 -0.38652172064285117 -0.42382740970626259 0 -0.39621588111908013 -0.44257554056948523 0 -0.40456791176864942 -0.43101455579505288 0 -0.40429306675039012 -0.41612687127526882 0 -0.38652172064285117 -0.42382740970626259 0 -0.38118384196418342 -0.39997126713680942 0 -0.40429306675039012 -0.41612687127526882 0 -0.38652172064285117 -0.42382740970626259 0 -0.38118384196418342 -0.39997126713680942 0 -0.38652172064285117 -0.42382740970626259 0 -0.36025109705412228 -0.42011982671734949 0 -0.38652172064285117 -0.42382740970626259 0 -0.37954144464962081 -0.43842240063410431 0 -0.36025109705412228 -0.42011982671734949 0 -0.38652172064285117 -0.42382740970626259 0 -0.37954144464962081 -0.43842240063410431 0 -0.39621588111908013 -0.44257554056948523 0 -0.37954144464962081 -0.43842240063410431 0 -0.38065733364769899 -0.45604709096406332 0 -0.36570596008021639 -0.44676618002486829 0 -0.37954144464962081 -0.43842240063410431 0 -0.39621588111908013 -0.44257554056948523 0 -0.38065733364769899 -0.45604709096406332 0 -0.39621588111908013 -0.44257554056948523 0 -0.39987755423057669 -0.4582165687514812 0 -0.38065733364769899 -0.45604709096406332 0 -0.40456791176864942 -0.43101455579505288 0 -0.39621588111908013 -0.44257554056948523 0 -0.41610218878606448 -0.4432901253618366 0 -0.39621588111908013 -0.44257554056948523 0 -0.39987755423057669 -0.4582165687514812 0 -0.41742435818647339 -0.45489564122054532 0 -0.39987755423057669 -0.4582165687514812 0 -0.39187660470843377 -0.4710999517277481 0 -0.40893860514116409 -0.46920662372149591 0 -0.39987755423057669 -0.4582165687514812 0 -0.38065733364769899 -0.45604709096406332 0 -0.39187660470843377 -0.4710999517277481 0 -0.38065733364769899 -0.45604709096406332 0 -0.39187660470843377 -0.4710999517277481 0 -0.36973774519324598 -0.47387341846705711 0 -0.37755231736467509 -0.48541577312370232 0 -0.39187660470843377 -0.4710999517277481 0 -0.36973774519324598 -0.47387341846705711 0 -0.37755231736467509 -0.48541577312370232 0 -0.40136512742859398 -0.48484105870447702 0 -0.39187660470843377 -0.4710999517277481 0 -0.38558287307726008 -0.5 0 -0.37755231736467509 -0.48541577312370232 0 -0.40136512742859398 -0.48484105870447702 0 -0.38558287307726008 -0.5 0 -0.40136512742859398 -0.48484105870447702 0 -0.41295204548592201 -0.5 0 -0.40136512742859398 -0.48484105870447702 0 -0.39187660470843377 -0.4710999517277481 0 -0.40893860514116409 -0.46920662372149591 0 -0.40136512742859398 -0.48484105870447702 0 -0.40893860514116409 -0.46920662372149591 0 -0.41659347110948941 -0.47909219427359462 0 -0.40893860514116409 -0.46920662372149591 0 -0.41659347110948941 -0.47909219427359462 0 -0.42247622084839609 -0.46947036849164459 0 -0.41659347110948941 -0.47909219427359462 0 -0.41295204548592201 -0.5 0 -0.42923992302345992 -0.48325511141328509 0 -0.40136512742859398 -0.48484105870447702 0 -0.41659347110948941 -0.47909219427359462 0 -0.41295204548592201 -0.5 0 -0.44032121789458378 -0.5 0 -0.41295204548592201 -0.5 0 -0.42923992302345992 -0.48325511141328509 0 -0.44446374754850199 -0.48375236384286668 0 -0.43863283525386682 -0.46721574187160542 0 -0.42923992302345992 -0.48325511141328509 0 -0.43863283525386682 -0.46721574187160542 0 -0.42247622084839609 -0.46947036849164459 0 -0.42923992302345992 -0.48325511141328509 0 -0.41659347110948941 -0.47909219427359462 0 -0.42247622084839609 -0.46947036849164459 0 -0.42923992302345992 -0.48325511141328509 0 -0.43863283525386682 -0.46721574187160542 0 -0.43250026047058071 -0.45335793153666221 0 -0.41742435818647339 -0.45489564122054532 0 -0.43863283525386682 -0.46721574187160542 0 -0.42247622084839609 -0.46947036849164459 0 -0.41742435818647339 -0.45489564122054532 0 -0.43863283525386682 -0.46721574187160542 0 -0.41742435818647339 -0.45489564122054532 0 -0.44786434567175892 -0.44830943195842538 0 -0.43250026047058071 -0.45335793153666221 0 -0.42141764703295698 -0.44300227686976529 0 -0.44786434567175892 -0.44830943195842538 0 -0.42141764703295698 -0.44300227686976529 0 -0.44537166828057018 -0.44181051032832852 0 -0.43055136993891602 -0.43303064887608073 0 -0.42141764703295698 -0.44300227686976529 0 -0.44537166828057018 -0.44181051032832852 0 -0.42141764703295698 -0.44300227686976529 0 -0.43250026047058071 -0.45335793153666221 0 -0.42141764703295698 -0.44300227686976529 0 -0.41742435818647339 -0.45489564122054532 0 -0.42141764703295698 -0.44300227686976529 0 -0.41610218878606448 -0.4432901253618366 0 -0.41742435818647339 -0.45489564122054532 0 -0.39621588111908013 -0.44257554056948523 0 -0.41742435818647339 -0.45489564122054532 0 -0.39621588111908013 -0.44257554056948523 0 -0.41610218878606448 -0.4432901253618366 0 -0.41742435818647339 -0.45489564122054532 0 -0.41970670154486078 -0.42925283206241122 0 -0.42141764703295698 -0.44300227686976529 0 -0.41610218878606448 -0.4432901253618366 0 -0.42141764703295698 -0.44300227686976529 0 -0.41610218878606448 -0.4432901253618366 0 -0.39987755423057669 -0.4582165687514812 0 -0.40893860514116409 -0.46920662372149591 0 -0.41742435818647339 -0.45489564122054532 0 -0.40893860514116409 -0.46920662372149591 0 -0.42247622084839609 -0.46947036849164459 0 -0.41742435818647339 -0.45489564122054532 0 -0.45187604829435019 -0.25853282430193381 0 -0.44007830204345222 -0.25665972400536508 0 -0.44760029471019708 -0.27068184174006971 0 -0.45187604829435019 -0.25853282430193381 0 -0.44007830204345222 -0.25665972400536508 0 -0.45049772360759321 -0.24368036969740839 0 -0.44007830204345222 -0.25665972400536508 0 -0.44832929805383798 -0.2797888469684302 0 -0.44007830204345222 -0.25665972400536508 0 -0.44832929805383798 -0.2797888469684302 0 -0.437120115007198 -0.27800144011167471 0 -0.44007830204345222 -0.25665972400536508 0 -0.44832929805383798 -0.2797888469684302 0 -0.44760029471019708 -0.27068184174006971 0 -0.44832929805383798 -0.2797888469684302 0 -0.44760029471019708 -0.27068184174006971 0 -0.44832929805383798 -0.2797888469684302 0 -0.44760029471019708 -0.27068184174006971 0 -0.45428855865965262 -0.27842138134446798 0 -0.44832929805383798 -0.2797888469684302 0 -0.45428855865965262 -0.27842138134446798 0 -0.44968997608236372 -0.28360308823036873 0 -0.45187604829435019 -0.25853282430193381 0 -0.44760029471019708 -0.27068184174006971 0 -0.45874094985390729 -0.26902340545636422 0 -0.44760029471019708 -0.27068184174006971 0 -0.45874094985390729 -0.26902340545636422 0 -0.45428855865965262 -0.27842138134446798 0 -0.45874094985390729 -0.26902340545636422 0 -0.45428855865965262 -0.27842138134446798 0 -0.46469814665013848 -0.28226251238449912 0 -0.45874094985390729 -0.26902340545636422 0 -0.4738058848376136 -0.26956994275514412 0 -0.46469814665013848 -0.28226251238449912 0 -0.45874094985390729 -0.26902340545636422 0 -0.46246297125660107 -0.25261878061046122 0 -0.4738058848376136 -0.26956994275514412 0 -0.45187604829435019 -0.25853282430193381 0 -0.45874094985390729 -0.26902340545636422 0 -0.46246297125660107 -0.25261878061046122 0 -0.45187604829435019 -0.25853282430193381 0 -0.46246297125660107 -0.25261878061046122 0 -0.45049772360759321 -0.24368036969740839 0 -0.46246297125660107 -0.25261878061046122 0 -0.4738058848376136 -0.26956994275514412 0 -0.48417132913366079 -0.23942776774926991 0 -0.5 -0.25863979386782399 0 -0.4738058848376136 -0.26956994275514412 0 -0.48417132913366079 -0.23942776774926991 0 -0.5 -0.25863979386782399 0 -0.4738058848376136 -0.26956994275514412 0 -0.5 -0.2879568786068073 0 -0.4803544136282098 -0.29615449027229751 0 -0.46452462572575282 -0.29724751662806631 0 -0.46469814665013848 -0.28226251238449912 0 -0.4738058848376136 -0.26956994275514412 0 -0.4803544136282098 -0.29615449027229751 0 -0.46469814665013848 -0.28226251238449912 0 -0.4738058848376136 -0.26956994275514412 0 -0.4803544136282098 -0.29615449027229751 0 -0.4738058848376136 -0.26956994275514412 0 -0.4803544136282098 -0.29615449027229751 0 -0.5 -0.2879568786068073 0 -0.4803544136282098 -0.29615449027229751 0 -0.5 -0.3172739633457905 0 -0.48690294241880611 -0.32273903778945079 0 -0.4803544136282098 -0.29615449027229751 0 -0.5 -0.2879568786068073 0 -0.5 -0.3172739633457905 0 -0.4803544136282098 -0.29615449027229751 0 -0.46452462572575282 -0.29724751662806631 0 -0.46807785107666711 -0.31395220713601668 0 -0.4803544136282098 -0.29615449027229751 0 -0.46807785107666711 -0.31395220713601668 0 -0.48690294241880611 -0.32273903778945079 0 -0.4803544136282098 -0.29615449027229751 0 -0.48690294241880611 -0.32273903778945079 0 -0.46452462572575282 -0.29724751662806631 0 -0.45674250047708831 -0.28971609797118902 0 -0.4505111952675338 -0.30704599126854321 0 -0.46452462572575282 -0.29724751662806631 0 -0.4505111952675338 -0.30704599126854321 0 -0.46807785107666711 -0.31395220713601668 0 -0.46452462572575282 -0.29724751662806631 0 -0.46469814665013848 -0.28226251238449912 0 -0.45674250047708831 -0.28971609797118902 0 -0.45428855865965262 -0.27842138134446798 0 -0.46469814665013848 -0.28226251238449912 0 -0.45674250047708831 -0.28971609797118902 0 -0.45428855865965262 -0.27842138134446798 0 -0.45674250047708831 -0.28971609797118902 0 -0.44968997608236372 -0.28360308823036873 0 -0.44832929805383798 -0.2797888469684302 0 -0.44037669531295848 -0.29231882606159232 0 -0.4505111952675338 -0.30704599126854321 0 -0.44832929805383798 -0.2797888469684302 0 -0.44968997608236372 -0.28360308823036873 0 -0.4505111952675338 -0.30704599126854321 0 -0.45674250047708831 -0.28971609797118902 0 -0.44968997608236372 -0.28360308823036873 0 -0.4505111952675338 -0.30704599126854321 0 -0.44832929805383798 -0.2797888469684302 0 -0.4505111952675338 -0.30704599126854321 0 -0.44832929805383798 -0.2797888469684302 0 -0.44968997608236372 -0.28360308823036873 0 -0.44832929805383798 -0.2797888469684302 0 -0.44037669531295848 -0.29231882606159232 0 -0.437120115007198 -0.27800144011167471 0 -0.44037669531295848 -0.29231882606159232 0 -0.4505111952675338 -0.30704599126854321 0 -0.43351426719129499 -0.30680788271946458 0 -0.4505111952675338 -0.30704599126854321 0 -0.45269309248122991 -0.33430313556865637 0 -0.434393090398697 -0.33432310400822912 0 -0.4505111952675338 -0.30704599126854321 0 -0.434393090398697 -0.33432310400822912 0 -0.43351426719129499 -0.30680788271946458 0 -0.4505111952675338 -0.30704599126854321 0 -0.45269309248122991 -0.33430313556865637 0 -0.45269309248122991 -0.33430313556865637 0 -0.45487498969492601 -0.36156027986876949 0 -0.434393090398697 -0.33432310400822912 0 -0.45269309248122991 -0.33430313556865637 0 -0.4722327731887484 -0.32905182195243521 0 -0.4712216600701698 -0.3417843069228837 0 -0.45269309248122991 -0.33430313556865637 0 -0.46807785107666711 -0.31395220713601668 0 -0.4722327731887484 -0.32905182195243521 0 -0.4505111952675338 -0.30704599126854321 0 -0.45269309248122991 -0.33430313556865637 0 -0.46807785107666711 -0.31395220713601668 0 -0.46807785107666711 -0.31395220713601668 0 -0.48690294241880611 -0.32273903778945079 0 -0.4722327731887484 -0.32905182195243521 0 -0.48690294241880611 -0.32273903778945079 0 -0.5 -0.3465910480847737 0 -0.49345147120940219 -0.3493235853066039 0 -0.48690294241880611 -0.32273903778945079 0 -0.49345147120940219 -0.3493235853066039 0 -0.48690294241880611 -0.32273903778945079 0 -0.48139022466996872 -0.33605617460777648 0 -0.49345147120940219 -0.3493235853066039 0 -0.5 -0.3172739633457905 0 -0.48690294241880611 -0.32273903778945079 0 -0.5 -0.3465910480847737 0 -0.48139022466996872 -0.33605617460777648 0 -0.48138608600891541 -0.34453362559272599 0 -0.49345147120940219 -0.3493235853066039 0 -0.48139022466996872 -0.33605617460777648 0 -0.4712216600701698 -0.3417843069228837 0 -0.48138608600891541 -0.34453362559272599 0 -0.48690294241880611 -0.32273903778945079 0 -0.48139022466996872 -0.33605617460777648 0 -0.4722327731887484 -0.32905182195243521 0 -0.48139022466996872 -0.33605617460777648 0 -0.4722327731887484 -0.32905182195243521 0 -0.4712216600701698 -0.3417843069228837 0 -0.4712216600701698 -0.3417843069228837 0 -0.47860289285921992 -0.35454618779624869 0 -0.48138608600891541 -0.34453362559272599 0 -0.47860289285921992 -0.35454618779624869 0 -0.48138608600891541 -0.34453362559272599 0 -0.49345147120940219 -0.3493235853066039 0 -0.49999999999999922 -0.37590813282375701 0 -0.5 -0.3465910480847737 0 -0.49345147120940219 -0.3493235853066039 0 -0.47860289285921992 -0.35454618779624869 0 -0.49345147120940219 -0.3493235853066039 0 -0.48760602916356549 -0.36246246402461701 0 -0.49999999999999922 -0.37590813282375701 0 -0.48760602916356549 -0.36246246402461701 0 -0.47836975258564002 -0.37007195017185851 0 -0.49999999999999922 -0.37590813282375701 0 -0.49345147120940219 -0.3493235853066039 0 -0.48760602916356549 -0.36246246402461701 0 -0.49999999999999922 -0.37590813282375701 0 -0.49345147120940219 -0.3493235853066039 0 -0.47860289285921992 -0.35454618779624869 0 -0.47836975258564002 -0.37007195017185851 0 -0.45487498969492601 -0.36156027986876949 0 -0.47860289285921992 -0.35454618779624869 0 -0.48760602916356549 -0.36246246402461701 0 -0.47836975258564002 -0.37007195017185851 0 -0.46458802293849022 -0.38094864768150011 0 -0.47836975258564002 -0.37007195017185851 0 -0.45487498969492601 -0.36156027986876949 0 -0.45269309248122991 -0.33430313556865637 0 -0.4712216600701698 -0.3417843069228837 0 -0.45487498969492601 -0.36156027986876949 0 -0.4712216600701698 -0.3417843069228837 0 -0.47860289285921992 -0.35454618779624869 0 -0.45487498969492601 -0.36156027986876949 0 -0.45269309248122991 -0.33430313556865637 0 -0.45487498969492601 -0.36156027986876949 0 -0.45487498969492601 -0.36156027986876949 0 -0.42647346034014988 -0.35300677420545962 0 -0.434393090398697 -0.33432310400822912 0 -0.44582524923662747 -0.38548458884972248 0 -0.45487498969492601 -0.36156027986876949 0 -0.43728005073319948 -0.3701969851528884 0 -0.45487498969492601 -0.36156027986876949 0 -0.43728005073319948 -0.3701969851528884 0 -0.42647346034014988 -0.35300677420545962 0 -0.42194650366109482 -0.3807362976876022 0 -0.43728005073319948 -0.3701969851528884 0 -0.42647346034014988 -0.35300677420545962 0 -0.42647346034014988 -0.35300677420545962 0 -0.40577798926300579 -0.35850868498502408 0 -0.41615125339214709 -0.33635228997887279 0 -0.40577798926300579 -0.35850868498502408 0 -0.3988206133358525 -0.33724851119151522 0 -0.41615125339214709 -0.33635228997887279 0 -0.42194650366109482 -0.3807362976876022 0 -0.42647346034014988 -0.35300677420545962 0 -0.40577798926300579 -0.35850868498502408 0 -0.42194650366109482 -0.3807362976876022 0 -0.4053623591349228 -0.37678630914255418 0 -0.40577798926300579 -0.35850868498502408 0 -0.38728562052208387 -0.37329333708369061 0 -0.38555365166885941 -0.34881357817435837 0 -0.40577798926300579 -0.35850868498502408 0 -0.4053623591349228 -0.37678630914255418 0 -0.38728562052208387 -0.37329333708369061 0 -0.40577798926300579 -0.35850868498502408 0 -0.38728562052208387 -0.37329333708369061 0 -0.38555365166885941 -0.34881357817435837 0 -0.36682895581360309 -0.35673635825908862 0 -0.38555365166885941 -0.34881357817435837 0 -0.40577798926300579 -0.35850868498502408 0 -0.3988206133358525 -0.33724851119151522 0 -0.38555365166885941 -0.34881357817435837 0 -0.3988206133358525 -0.33724851119151522 0 -0.38775818307785481 -0.3247780091164183 0 -0.38555365166885941 -0.34881357817435837 0 -0.38775818307785481 -0.3247780091164183 0 -0.36822618080594832 -0.33486889704853301 0 -0.38775818307785481 -0.3247780091164183 0 -0.38399273813021267 -0.30535821214348868 0 -0.3720760157130652 -0.31723582219505791 0 -0.38775818307785481 -0.3247780091164183 0 -0.3720760157130652 -0.31723582219505791 0 -0.36822618080594832 -0.33486889704853301 0 -0.38775818307785481 -0.3247780091164183 0 -0.40702494778952492 -0.31318476868855688 0 -0.38399273813021267 -0.30535821214348868 0 -0.3988206133358525 -0.33724851119151522 0 -0.38775818307785481 -0.3247780091164183 0 -0.40702494778952492 -0.31318476868855688 0 -0.40702494778952492 -0.31318476868855688 0 -0.41615125339214709 -0.33635228997887279 0 -0.42334309623125238 -0.32124141687489127 0 -0.40702494778952492 -0.31318476868855688 0 -0.42334309623125238 -0.32124141687489127 0 -0.43351426719129499 -0.30680788271946458 0 -0.3988206133358525 -0.33724851119151522 0 -0.40702494778952492 -0.31318476868855688 0 -0.41615125339214709 -0.33635228997887279 0 -0.42647346034014988 -0.35300677420545962 0 -0.41615125339214709 -0.33635228997887279 0 -0.434393090398697 -0.33432310400822912 0 -0.41615125339214709 -0.33635228997887279 0 -0.434393090398697 -0.33432310400822912 0 -0.42334309623125238 -0.32124141687489127 0 -0.434393090398697 -0.33432310400822912 0 -0.42334309623125238 -0.32124141687489127 0 -0.43351426719129499 -0.30680788271946458 0 -0.44037669531295848 -0.29231882606159232 0 -0.43351426719129499 -0.30680788271946458 0 -0.43240860104492818 -0.28994996923984889 0 -0.43351426719129499 -0.30680788271946458 0 -0.43240860104492818 -0.28994996923984889 0 -0.41803727823141329 -0.29265417444775471 0 -0.43240860104492818 -0.28994996923984889 0 -0.42572953621133619 -0.28159888976561359 0 -0.437120115007198 -0.27800144011167471 0 -0.44037669531295848 -0.29231882606159232 0 -0.43240860104492818 -0.28994996923984889 0 -0.437120115007198 -0.27800144011167471 0 -0.43240860104492818 -0.28994996923984889 0 -0.42572953621133619 -0.28159888976561359 0 -0.41803727823141329 -0.29265417444775471 0 -0.42572953621133619 -0.28159888976561359 0 -0.41803727823141329 -0.29265417444775471 0 -0.41161271994364679 -0.27583832197219121 0 -0.41803727823141329 -0.29265417444775471 0 -0.3971195681890729 -0.29147485722024702 0 -0.41161271994364679 -0.27583832197219121 0 -0.40702494778952492 -0.31318476868855688 0 -0.41803727823141329 -0.29265417444775471 0 -0.3971195681890729 -0.29147485722024702 0 -0.40702494778952492 -0.31318476868855688 0 -0.43351426719129499 -0.30680788271946458 0 -0.41803727823141329 -0.29265417444775471 0 -0.40702494778952492 -0.31318476868855688 0 -0.38399273813021267 -0.30535821214348868 0 -0.3971195681890729 -0.29147485722024702 0 -0.38399273813021267 -0.30535821214348868 0 -0.37539080962379923 -0.28665295649416211 0 -0.36641077946840539 -0.30016905312299608 0 -0.38399273813021267 -0.30535821214348868 0 -0.37539080962379923 -0.28665295649416211 0 -0.3971195681890729 -0.29147485722024702 0 -0.37539080962379923 -0.28665295649416211 0 -0.3971195681890729 -0.29147485722024702 0 -0.38772368766238541 -0.27643387724440438 0 -0.3971195681890729 -0.29147485722024702 0 -0.38772368766238541 -0.27643387724440438 0 -0.41161271994364679 -0.27583832197219121 0 -0.38772368766238541 -0.27643387724440438 0 -0.40159941434613039 -0.25651506035670979 0 -0.41161271994364679 -0.27583832197219121 0 -0.37539080962379923 -0.28665295649416211 0 -0.38772368766238541 -0.27643387724440438 0 -0.36891299203602163 -0.27020661159334503 0 -0.38772368766238541 -0.27643387724440438 0 -0.38441411848753132 -0.25462545902892442 0 -0.36891299203602163 -0.27020661159334503 0 -0.38772368766238541 -0.27643387724440438 0 -0.38441411848753132 -0.25462545902892442 0 -0.38772368766238541 -0.27643387724440438 0 -0.38441411848753132 -0.25462545902892442 0 -0.40159941434613039 -0.25651506035670979 0 -0.38441411848753132 -0.25462545902892442 0 -0.40159941434613039 -0.25651506035670979 0 -0.39123935559103729 -0.24122246721121621 0 -0.38441411848753132 -0.25462545902892442 0 -0.40159941434613039 -0.25651506035670979 0 -0.40159941434613039 -0.25651506035670979 0 -0.41878471020472963 -0.25840466168449511 0 -0.41161271994364679 -0.27583832197219121 0 -0.40159941434613039 -0.25651506035670979 0 -0.41878471020472963 -0.25840466168449511 0 -0.41616874845812241 -0.24320704848411009 0 -0.40159941434613039 -0.25651506035670979 0 -0.41878471020472963 -0.25840466168449511 0 -0.41878471020472963 -0.25840466168449511 0 -0.4273253057712933 -0.25068678432711539 0 -0.41616874845812241 -0.24320704848411009 0 -0.41878471020472963 -0.25840466168449511 0 -0.41161271994364679 -0.27583832197219121 0 -0.42946896682949531 -0.27155054305659848 0 -0.42572953621133619 -0.28159888976561359 0 -0.41161271994364679 -0.27583832197219121 0 -0.42946896682949531 -0.27155054305659848 0 -0.44007830204345222 -0.25665972400536508 0 -0.42946896682949531 -0.27155054305659848 0 -0.437120115007198 -0.27800144011167471 0 -0.42572953621133619 -0.28159888976561359 0 -0.42946896682949531 -0.27155054305659848 0 -0.437120115007198 -0.27800144011167471 0 -0.44007830204345222 -0.25665972400536508 0 -0.42946896682949531 -0.27155054305659848 0 -0.42915807575648629 -0.25998441631151148 0 -0.44007830204345222 -0.25665972400536508 0 -0.4273253057712933 -0.25068678432711539 0 -0.42915807575648629 -0.25998441631151148 0 -0.41878471020472963 -0.25840466168449511 0 -0.4273253057712933 -0.25068678432711539 0 -0.42915807575648629 -0.25998441631151148 0 -0.41878471020472963 -0.25840466168449511 0 -0.42946896682949531 -0.27155054305659848 0 -0.42915807575648629 -0.25998441631151148 0 -0.32458357281679229 -0.25789127739756701 0 -0.33754773670147992 -0.24947228750484479 0 -0.31411454580845388 -0.24689570174280651 0 -0.32458357281679229 -0.25789127739756701 0 -0.31130446940560241 -0.2575812227090471 0 -0.31411454580845388 -0.24689570174280651 0 -0.32458357281679229 -0.25789127739756701 0 -0.31119682040305258 -0.26613120289106978 0 -0.31130446940560241 -0.2575812227090471 0 -0.32336754134273771 -0.27607732769554749 0 -0.30654818197365857 -0.27900167700953682 0 -0.31119682040305258 -0.26613120289106978 0 -0.32458357281679229 -0.25789127739756701 0 -0.32336754134273771 -0.27607732769554749 0 -0.31119682040305258 -0.26613120289106978 0 -0.32458357281679229 -0.25789127739756701 0 -0.32336754134273771 -0.27607732769554749 0 -0.33851763768674059 -0.27084611516966772 0 -0.32336754134273771 -0.27607732769554749 0 -0.33851763768674059 -0.27084611516966772 0 -0.33682060475898989 -0.28938621470165521 0 -0.32458357281679229 -0.25789127739756701 0 -0.33851763768674059 -0.27084611516966772 0 -0.33754773670147992 -0.24947228750484479 0 -0.33851763768674059 -0.27084611516966772 0 -0.35205549488310911 -0.26523649218982193 0 -0.33754773670147992 -0.24947228750484479 0 -0.36098092759450562 -0.25204887326688469 0 -0.33754773670147992 -0.24947228750484479 0 -0.35205549488310911 -0.26523649218982193 0 -0.36098092759450562 -0.25204887326688469 0 -0.33754773670147992 -0.24947228750484479 0 -0.38441411848753132 -0.25462545902892442 0 -0.36098092759450562 -0.25204887326688469 0 -0.36891299203602163 -0.27020661159334503 0 -0.35205549488310911 -0.26523649218982193 0 -0.36098092759450562 -0.25204887326688469 0 -0.36891299203602163 -0.27020661159334503 0 -0.38441411848753132 -0.25462545902892442 0 -0.36098092759450562 -0.25204887326688469 0 -0.37539080962379923 -0.28665295649416211 0 -0.36891299203602163 -0.27020661159334503 0 -0.35431818039679791 -0.28360857341436702 0 -0.33851763768674059 -0.27084611516966772 0 -0.35205549488310911 -0.26523649218982193 0 -0.35431818039679791 -0.28360857341436702 0 -0.35205549488310911 -0.26523649218982193 0 -0.36891299203602163 -0.27020661159334503 0 -0.35431818039679791 -0.28360857341436702 0 -0.35431818039679791 -0.28360857341436702 0 -0.3509054958409038 -0.2992576187137847 0 -0.33682060475898989 -0.28938621470165521 0 -0.35431818039679791 -0.28360857341436702 0 -0.36641077946840539 -0.30016905312299608 0 -0.3509054958409038 -0.2992576187137847 0 -0.37539080962379923 -0.28665295649416211 0 -0.35431818039679791 -0.28360857341436702 0 -0.36641077946840539 -0.30016905312299608 0 -0.36641077946840539 -0.30016905312299608 0 -0.35445078528442459 -0.31586363952131108 0 -0.3720760157130652 -0.31723582219505791 0 -0.38399273813021267 -0.30535821214348868 0 -0.36641077946840539 -0.30016905312299608 0 -0.3720760157130652 -0.31723582219505791 0 -0.36641077946840539 -0.30016905312299608 0 -0.3509054958409038 -0.2992576187137847 0 -0.35445078528442459 -0.31586363952131108 0 -0.3509054958409038 -0.2992576187137847 0 -0.33367559020465321 -0.31236385508904158 0 -0.35445078528442459 -0.31586363952131108 0 -0.33367559020465321 -0.31236385508904158 0 -0.33682060475898989 -0.28938621470165521 0 -0.31781134160022972 -0.29297413284126161 0 -0.3509054958409038 -0.2992576187137847 0 -0.33367559020465321 -0.31236385508904158 0 -0.33682060475898989 -0.28938621470165521 0 -0.33851763768674059 -0.27084611516966772 0 -0.35431818039679791 -0.28360857341436702 0 -0.33682060475898989 -0.28938621470165521 0 -0.32336754134273771 -0.27607732769554749 0 -0.31781134160022972 -0.29297413284126161 0 -0.30654818197365857 -0.27900167700953682 0 -0.32336754134273771 -0.27607732769554749 0 -0.33682060475898989 -0.28938621470165521 0 -0.31781134160022972 -0.29297413284126161 0 -0.33367559020465321 -0.31236385508904158 0 -0.31291167542121878 -0.30879710928772341 0 -0.33367559020465321 -0.31236385508904158 0 -0.31781134160022972 -0.29297413284126161 0 -0.31291167542121878 -0.30879710928772341 0 -0.33367559020465321 -0.31236385508904158 0 -0.31291167542121878 -0.30879710928772341 0 -0.32115453681358791 -0.32927134300068628 0 -0.32115453681358791 -0.32927134300068628 0 -0.32520706364520657 -0.35085557107160048 0 -0.3073676750926746 -0.33936571680386318 0 -0.32115453681358791 -0.32927134300068628 0 -0.34388650797584008 -0.3401807667947932 0 -0.32520706364520657 -0.35085557107160048 0 -0.33367559020465321 -0.31236385508904158 0 -0.32115453681358791 -0.32927134300068628 0 -0.34388650797584008 -0.3401807667947932 0 -0.33367559020465321 -0.31236385508904158 0 -0.35445078528442459 -0.31586363952131108 0 -0.33367559020465321 -0.31236385508904158 0 -0.35445078528442459 -0.31586363952131108 0 -0.34388650797584008 -0.3401807667947932 0 -0.35445078528442459 -0.31586363952131108 0 -0.3720760157130652 -0.31723582219505791 0 -0.36822618080594832 -0.33486889704853301 0 -0.35445078528442459 -0.31586363952131108 0 -0.36822618080594832 -0.33486889704853301 0 -0.34388650797584008 -0.3401807667947932 0 -0.34388650797584008 -0.3401807667947932 0 -0.36682895581360309 -0.35673635825908862 0 -0.34934137100193419 -0.36682712010231211 0 -0.34388650797584008 -0.3401807667947932 0 -0.34934137100193419 -0.36682712010231211 0 -0.36822618080594832 -0.33486889704853301 0 -0.34388650797584008 -0.3401807667947932 0 -0.36682895581360309 -0.35673635825908862 0 -0.38555365166885941 -0.34881357817435837 0 -0.36822618080594832 -0.33486889704853301 0 -0.36682895581360309 -0.35673635825908862 0 -0.36682895581360309 -0.35673635825908862 0 -0.34934137100193419 -0.36682712010231211 0 -0.36668040290695292 -0.37643445035084472 0 -0.38728562052208387 -0.37329333708369061 0 -0.36682895581360309 -0.35673635825908862 0 -0.36668040290695292 -0.37643445035084472 0 -0.34934137100193419 -0.36682712010231211 0 -0.32520706364520657 -0.35085557107160048 0 -0.32355414973539692 -0.37164912537360922 0 -0.34934137100193419 -0.36682712010231211 0 -0.32355414973539692 -0.37164912537360922 0 -0.33884426586226118 -0.38317151531500721 0 -0.34388650797584008 -0.3401807667947932 0 -0.34934137100193419 -0.36682712010231211 0 -0.32520706364520657 -0.35085557107160048 0 -0.32520706364520657 -0.35085557107160048 0 -0.32355414973539692 -0.37164912537360922 0 -0.30145055795498871 -0.35761561757887789 0 -0.32355414973539692 -0.37164912537360922 0 -0.30145055795498871 -0.35761561757887789 0 -0.30225217803993998 -0.37700760015975998 0 -0.32520706364520657 -0.35085557107160048 0 -0.30145055795498871 -0.35761561757887789 0 -0.3073676750926746 -0.33936571680386318 0 -0.30145055795498871 -0.35761561757887789 0 -0.28370758408468222 -0.33919482924243249 0 -0.3073676750926746 -0.33936571680386318 0 -0.30145055795498871 -0.35761561757887789 0 -0.28132468732561389 -0.36010981215295818 0 -0.28370758408468222 -0.33919482924243249 0 -0.30145055795498871 -0.35761561757887789 0 -0.28132468732561389 -0.36010981215295818 0 -0.30225217803993998 -0.37700760015975998 0 -0.28132468732561389 -0.36010981215295818 0 -0.30225217803993998 -0.37700760015975998 0 -0.28424193418845989 -0.38607186638249419 0 -0.28132468732561389 -0.36010981215295818 0 -0.30225217803993998 -0.37700760015975998 0 -0.28132468732561389 -0.36010981215295818 0 -0.26232858768149592 -0.37202517619912112 0 -0.28424193418845989 -0.38607186638249419 0 -0.26232858768149592 -0.37202517619912112 0 -0.26039719661128807 -0.34321202414615648 0 -0.24491708781969621 -0.35918458014641302 0 -0.28132468732561389 -0.36010981215295818 0 -0.26039719661128807 -0.34321202414615648 0 -0.28370758408468222 -0.33919482924243249 0 -0.28132468732561389 -0.36010981215295818 0 -0.26039719661128807 -0.34321202414615648 0 -0.28132468732561389 -0.36010981215295818 0 -0.26232858768149592 -0.37202517619912112 0 -0.26039719661128807 -0.34321202414615648 0 -0.26039719661128807 -0.34321202414615648 0 -0.26211158269006363 -0.32950243953452568 0 -0.28370758408468222 -0.33919482924243249 0 -0.26211158269006363 -0.32950243953452568 0 -0.27328401599818852 -0.3195694970016203 0 -0.28370758408468222 -0.33919482924243249 0 -0.26211158269006363 -0.32950243953452568 0 -0.25016174613383219 -0.32256751083050078 0 -0.24452814586989999 -0.33719548257584009 0 -0.26039719661128807 -0.34321202414615648 0 -0.26211158269006363 -0.32950243953452568 0 -0.24452814586989999 -0.33719548257584009 0 -0.25016174613383219 -0.32256751083050078 0 -0.27328401599818852 -0.3195694970016203 0 -0.26159745978355992 -0.3002215903456199 0 -0.26211158269006363 -0.32950243953452568 0 -0.25016174613383219 -0.32256751083050078 0 -0.27328401599818852 -0.3195694970016203 0 -0.27328401599818852 -0.3195694970016203 0 -0.29870118581360738 -0.32368946211235999 0 -0.28724892745422093 -0.30454283050119568 0 -0.27328401599818852 -0.3195694970016203 0 -0.28370758408468222 -0.33919482924243249 0 -0.29870118581360738 -0.32368946211235999 0 -0.28370758408468222 -0.33919482924243249 0 -0.3073676750926746 -0.33936571680386318 0 -0.29870118581360738 -0.32368946211235999 0 -0.32115453681358791 -0.32927134300068628 0 -0.3073676750926746 -0.33936571680386318 0 -0.29870118581360738 -0.32368946211235999 0 -0.31291167542121878 -0.30879710928772341 0 -0.32115453681358791 -0.32927134300068628 0 -0.29870118581360738 -0.32368946211235999 0 -0.31291167542121878 -0.30879710928772341 0 -0.29870118581360738 -0.32368946211235999 0 -0.28724892745422093 -0.30454283050119568 0 -0.31781134160022972 -0.29297413284126161 0 -0.31291167542121878 -0.30879710928772341 0 -0.29354445590012002 -0.29221861326406501 0 -0.31291167542121878 -0.30879710928772341 0 -0.28724892745422093 -0.30454283050119568 0 -0.31291167542121878 -0.30879710928772341 0 -0.29354445590012002 -0.29221861326406501 0 -0.31291167542121878 -0.30879710928772341 0 -0.29354445590012002 -0.29221861326406501 0 -0.28724892745422093 -0.30454283050119568 0 -0.29354445590012002 -0.29221861326406501 0 -0.29158595206561583 -0.27342093907705661 0 -0.30654818197365857 -0.27900167700953682 0 -0.31781134160022972 -0.29297413284126161 0 -0.29354445590012002 -0.29221861326406501 0 -0.30654818197365857 -0.27900167700953682 0 -0.29354445590012002 -0.29221861326406501 0 -0.28724892745422093 -0.30454283050119568 0 -0.2777368655260099 -0.29205022048232532 0 -0.29354445590012002 -0.29221861326406501 0 -0.2777368655260099 -0.29205022048232532 0 -0.27417723637901947 -0.27564011724040871 0 -0.29354445590012002 -0.29221861326406501 0 -0.27417723637901947 -0.27564011724040871 0 -0.27328401599818852 -0.3195694970016203 0 -0.28724892745422093 -0.30454283050119568 0 -0.26159745978355992 -0.3002215903456199 0 -0.28724892745422093 -0.30454283050119568 0 -0.26159745978355992 -0.3002215903456199 0 -0.2777368655260099 -0.29205022048232532 0 -0.28724892745422093 -0.30454283050119568 0 -0.26159745978355992 -0.3002215903456199 0 -0.25016174613383219 -0.32256751083050078 0 -0.26159745978355992 -0.3002215903456199 0 -0.25016174613383219 -0.32256751083050078 0 -0.26159745978355992 -0.3002215903456199 0 -0.25011512965390431 -0.30968423449200072 0 -0.26159745978355992 -0.3002215903456199 0 -0.25819335326513959 -0.29964813536947049 0 -0.25856858673820649 -0.29355400386306019 0 -0.26159745978355992 -0.3002215903456199 0 -0.25819335326513959 -0.29964813536947049 0 -0.26159745978355992 -0.3002215903456199 0 -0.25819335326513959 -0.29964813536947049 0 -0.2545460309943291 -0.30276916042717161 0 -0.26159745978355992 -0.3002215903456199 0 -0.2545460309943291 -0.30276916042717161 0 -0.25011512965390431 -0.30968423449200072 0 -0.25819335326513959 -0.29964813536947049 0 -0.2545460309943291 -0.30276916042717161 0 -0.25302276653169409 -0.29829965858898039 0 -0.25819335326513959 -0.29964813536947049 0 -0.25302276653169409 -0.29829965858898039 0 -0.25553267818754222 -0.29533101925191108 0 -0.25302276653169409 -0.29829965858898039 0 -0.24935238857308789 -0.30411189337587452 0 -0.24832331915911529 -0.29744915229777108 0 -0.2545460309943291 -0.30276916042717161 0 -0.25302276653169409 -0.29829965858898039 0 -0.24935238857308789 -0.30411189337587452 0 -0.2545460309943291 -0.30276916042717161 0 -0.25011512965390431 -0.30968423449200072 0 -0.24935238857308789 -0.30411189337587452 0 -0.25185047229710672 -0.29011282615452061 0 -0.26239140792931698 -0.28511825997498258 0 -0.25400494646361033 -0.27880320636125011 0 -0.25185047229710672 -0.29011282615452061 0 -0.25856858673820649 -0.29355400386306019 0 -0.26239140792931698 -0.28511825997498258 0 -0.25302276653169409 -0.29829965858898039 0 -0.25185047229710672 -0.29011282615452061 0 -0.25553267818754222 -0.29533101925191108 0 -0.25302276653169409 -0.29829965858898039 0 -0.25185047229710672 -0.29011282615452061 0 -0.24832331915911529 -0.29744915229777108 0 -0.25185047229710672 -0.29011282615452061 0 -0.25553267818754222 -0.29533101925191108 0 -0.25856858673820649 -0.29355400386306019 0 -0.25819335326513959 -0.29964813536947049 0 -0.25553267818754222 -0.29533101925191108 0 -0.25856858673820649 -0.29355400386306019 0 -0.26159745978355992 -0.3002215903456199 0 -0.25856858673820649 -0.29355400386306019 0 -0.26239140792931698 -0.28511825997498258 0 -0.26159745978355992 -0.3002215903456199 0 -0.2777368655260099 -0.29205022048232532 0 -0.27417723637901947 -0.27564011724040871 0 -0.26159745978355992 -0.3002215903456199 0 -0.27417723637901947 -0.27564011724040871 0 -0.26159745978355992 -0.3002215903456199 0 -0.26239140792931698 -0.28511825997498258 0 -0.27417723637901947 -0.27564011724040871 0 -0.27417723637901947 -0.27564011724040871 0 -0.28153098038932661 -0.26127055676051553 0 -0.27417723637901947 -0.27564011724040871 0 -0.25856417317950658 -0.26227520928920067 0 -0.26239140792931698 -0.28511825997498258 0 -0.27417723637901947 -0.27564011724040871 0 -0.26220379616878342 -0.27489575860279541 0 -0.26220379616878342 -0.27489575860279541 0 -0.25400494646361033 -0.27880320636125011 0 -0.25856417317950658 -0.26227520928920067 0 -0.26239140792931698 -0.28511825997498258 0 -0.26220379616878342 -0.27489575860279541 0 -0.25400494646361033 -0.27880320636125011 0 -0.25400494646361033 -0.27880320636125011 0 -0.25856417317950658 -0.26227520928920067 0 -0.23977097481667911 -0.28046515112179471 0 -0.27417723637901947 -0.27564011724040871 0 -0.26220379616878342 -0.27489575860279541 0 -0.25856417317950658 -0.26227520928920067 0 -0.25738056957626421 -0.25252364539322492 0 -0.25165102228839947 -0.25635749640148803 0 -0.25426167453643861 -0.24375500549720949 0 -0.25738056957626421 -0.25252364539322492 0 -0.25165102228839947 -0.25635749640148803 0 -0.25856417317950658 -0.26227520928920067 0 -0.25165102228839947 -0.25635749640148803 0 -0.25856417317950658 -0.26227520928920067 0 -0.25738056957626421 -0.25252364539322492 0 -0.25856417317950658 -0.26227520928920067 0 -0.2650454083007121 -0.24770687038500161 0 -0.25856417317950658 -0.26227520928920067 0 -0.27094367912344769 -0.25835105336421488 0 -0.27981738006789608 -0.2417042245322551 0 -0.27417723637901947 -0.27564011724040871 0 -0.25856417317950658 -0.26227520928920067 0 -0.27094367912344769 -0.25835105336421488 0 -0.27417723637901947 -0.27564011724040871 0 -0.27644858295375307 -0.25938935040037198 0 -0.28153098038932661 -0.26127055676051553 0 -0.27417723637901947 -0.27564011724040871 0 -0.27094367912344769 -0.25835105336421488 0 -0.27644858295375307 -0.25938935040037198 0 -0.25856417317950658 -0.26227520928920067 0 -0.27981738006789608 -0.2417042245322551 0 -0.27094367912344769 -0.25835105336421488 0 -0.28075914373749039 -0.25337017632224618 0 -0.27981738006789608 -0.2417042245322551 0 -0.25856417317950658 -0.26227520928920067 0 -0.27981738006789608 -0.2417042245322551 0 -0.2650454083007121 -0.24770687038500161 0 -0.27644858295375307 -0.25938935040037198 0 -0.28075914373749039 -0.25337017632224618 0 -0.28153098038932661 -0.26127055676051553 0 -0.27094367912344769 -0.25835105336421488 0 -0.27644858295375307 -0.25938935040037198 0 -0.28075914373749039 -0.25337017632224618 0 -0.28153098038932661 -0.26127055676051553 0 -0.28888472439963409 -0.24690099628062259 0 -0.29532293859411102 -0.25940670880474509 0 -0.28153098038932661 -0.26127055676051553 0 -0.28888472439963409 -0.24690099628062259 0 -0.28075914373749039 -0.25337017632224618 0 -0.28153098038932661 -0.26127055676051553 0 -0.28888472439963409 -0.24690099628062259 0 -0.29532293859411102 -0.25940670880474509 0 -0.29855551544642739 -0.24631168070550441 0 -0.28888472439963409 -0.24690099628062259 0 -0.29532293859411102 -0.25940670880474509 0 -0.28153098038932661 -0.26127055676051553 0 -0.29158595206561583 -0.27342093907705661 0 -0.27417723637901947 -0.27564011724040871 0 -0.28153098038932661 -0.26127055676051553 0 -0.29158595206561583 -0.27342093907705661 0 -0.29354445590012002 -0.29221861326406501 0 -0.27417723637901947 -0.27564011724040871 0 -0.29158595206561583 -0.27342093907705661 0 -0.29532293859411102 -0.25940670880474509 0 -0.29158595206561583 -0.27342093907705661 0 -0.30116347325910953 -0.26949013194560212 0 -0.29158595206561583 -0.27342093907705661 0 -0.30116347325910953 -0.26949013194560212 0 -0.30654818197365857 -0.27900167700953682 0 -0.30116347325910953 -0.26949013194560212 0 -0.30654818197365857 -0.27900167700953682 0 -0.31119682040305258 -0.26613120289106978 0 -0.29532293859411102 -0.25940670880474509 0 -0.31411454580845388 -0.24689570174280651 0 -0.29532293859411102 -0.25940670880474509 0 -0.30116347325910953 -0.26949013194560212 0 -0.31119682040305258 -0.26613120289106978 0 -0.29532293859411102 -0.25940670880474509 0 -0.30820024449321343 -0.24624539745301249 0 -0.31411454580845388 -0.24689570174280651 0 -0.29532293859411102 -0.25940670880474509 0 -0.31119682040305258 -0.26613120289106978 0 -0.31130446940560241 -0.2575812227090471 0 -0.29532293859411102 -0.25940670880474509 0 -0.31130446940560241 -0.2575812227090471 0 -0.31411454580845388 -0.24689570174280651 0 -0.29532293859411102 -0.25940670880474509 0 -0.29855551544642739 -0.24631168070550441 0 -0.30820024449321343 -0.24624539745301249 0 -0.33899225252001758 -0.46689272652791192 0 -0.33249023382438092 -0.44356906033403282 0 -0.35587875066913183 -0.46151430506907648 0 -0.33899225252001758 -0.46689272652791192 0 -0.33249023382438092 -0.44356906033403282 0 -0.33899225252001758 -0.46689272652791192 0 -0.33249023382438092 -0.44356906033403282 0 -0.31971051268249417 -0.45931053304645092 0 -0.33249023382438092 -0.44356906033403282 0 -0.31527143737595209 -0.44052567221646721 0 -0.31971051268249417 -0.45931053304645092 0 -0.33899225252001758 -0.46689272652791192 0 -0.31971051268249417 -0.45931053304645092 0 -0.32432610223939817 -0.48126511756280982 0 -0.31971051268249417 -0.45931053304645092 0 -0.32432610223939817 -0.48126511756280982 0 -0.30615693474627842 -0.47266405043519361 0 -0.32432610223939817 -0.48126511756280982 0 -0.33084452825993638 -0.5 0 -0.30347535585127478 -0.49999999999997091 0 -0.32432610223939817 -0.48126511756280982 0 -0.33084452825993638 -0.5 0 -0.34549427121565418 -0.49021639272179091 0 -0.33899225252001758 -0.46689272652791192 0 -0.32432610223939817 -0.48126511756280982 0 -0.34549427121565418 -0.49021639272179091 0 -0.33899225252001758 -0.46689272652791192 0 -0.34549427121565418 -0.49021639272179091 0 -0.33899225252001758 -0.46689272652791192 0 -0.35853785311191899 -0.48268020984293158 0 -0.35587875066913183 -0.46151430506907648 0 -0.33899225252001758 -0.46689272652791192 0 -0.35853785311191899 -0.48268020984293158 0 -0.34549427121565418 -0.49021639272179091 0 -0.33084452825993638 -0.5 0 -0.35821370066859809 -0.5 0 -0.34549427121565418 -0.49021639272179091 0 -0.35853785311191899 -0.48268020984293158 0 -0.35821370066859809 -0.5 0 -0.34549427121565418 -0.49021639272179091 0 -0.38558287307726008 -0.5 0 -0.37755231736467509 -0.48541577312370232 0 -0.35821370066859809 -0.5 0 -0.37755231736467509 -0.48541577312370232 0 -0.35853785311191899 -0.48268020984293158 0 -0.35821370066859809 -0.5 0 -0.37755231736467509 -0.48541577312370232 0 -0.35853785311191899 -0.48268020984293158 0 -0.36973774519324598 -0.47387341846705711 0 -0.35853785311191899 -0.48268020984293158 0 -0.36973774519324598 -0.47387341846705711 0 -0.35587875066913183 -0.46151430506907648 0 -0.33249023382438092 -0.44356906033403282 0 -0.36570596008021639 -0.44676618002486829 0 -0.34467651665219973 -0.42777410222905737 0 -0.38065733364769899 -0.45604709096406332 0 -0.35587875066913183 -0.46151430506907648 0 -0.36570596008021639 -0.44676618002486829 0 -0.38065733364769899 -0.45604709096406332 0 -0.36973774519324598 -0.47387341846705711 0 -0.35587875066913183 -0.46151430506907648 0 -0.33249023382438092 -0.44356906033403282 0 -0.35587875066913183 -0.46151430506907648 0 -0.36570596008021639 -0.44676618002486829 0 -0.37954144464962081 -0.43842240063410431 0 -0.36570596008021639 -0.44676618002486829 0 -0.36025109705412228 -0.42011982671734949 0 -0.36570596008021639 -0.44676618002486829 0 -0.36025109705412228 -0.42011982671734949 0 -0.36025109705412228 -0.42011982671734949 0 -0.35479623402802829 -0.39347347340983091 0 -0.34240823868234987 -0.4100457209941249 0 -0.36025109705412228 -0.42011982671734949 0 -0.34467651665219973 -0.42777410222905737 0 -0.34240823868234987 -0.4100457209941249 0 -0.36025109705412228 -0.42011982671734949 0 -0.35479623402802829 -0.39347347340983091 0 -0.36570596008021639 -0.44676618002486829 0 -0.36025109705412228 -0.42011982671734949 0 -0.34467651665219973 -0.42777410222905737 0 -0.38118384196418342 -0.39997126713680942 0 -0.36668040290695292 -0.37643445035084472 0 -0.35479623402802829 -0.39347347340983091 0 -0.38118384196418342 -0.39997126713680942 0 -0.36025109705412228 -0.42011982671734949 0 -0.35479623402802829 -0.39347347340983091 0 -0.35479623402802829 -0.39347347340983091 0 -0.33884426586226118 -0.38317151531500721 0 -0.33863991768752449 -0.39602583622522097 0 -0.35479623402802829 -0.39347347340983091 0 -0.33863991768752449 -0.39602583622522097 0 -0.34240823868234987 -0.4100457209941249 0 -0.34934137100193419 -0.36682712010231211 0 -0.36668040290695292 -0.37643445035084472 0 -0.35479623402802829 -0.39347347340983091 0 -0.34934137100193419 -0.36682712010231211 0 -0.35479623402802829 -0.39347347340983091 0 -0.33884426586226118 -0.38317151531500721 0 -0.34934137100193419 -0.36682712010231211 0 -0.35479623402802829 -0.39347347340983091 0 -0.32355414973539692 -0.37164912537360922 0 -0.33884426586226118 -0.38317151531500721 0 -0.3231796687542659 -0.39390538816656168 0 -0.33884426586226118 -0.38317151531500721 0 -0.33863991768752449 -0.39602583622522097 0 -0.3231796687542659 -0.39390538816656168 0 -0.33863991768752449 -0.39602583622522097 0 -0.33009745154348069 -0.40263569324313669 0 -0.3231796687542659 -0.39390538816656168 0 -0.33863991768752449 -0.39602583622522097 0 -0.33009745154348069 -0.40263569324313669 0 -0.34240823868234987 -0.4100457209941249 0 -0.31948619643310761 -0.39692172794627489 0 -0.3231796687542659 -0.39390538816656168 0 -0.30644147678965611 -0.3907964785366333 0 -0.33009745154348069 -0.40263569324313669 0 -0.31948619643310761 -0.39692172794627489 0 -0.3231796687542659 -0.39390538816656168 0 -0.3231796687542659 -0.39390538816656168 0 -0.30225217803993998 -0.37700760015975998 0 -0.32355414973539692 -0.37164912537360922 0 -0.3231796687542659 -0.39390538816656168 0 -0.30225217803993998 -0.37700760015975998 0 -0.33249023382438092 -0.44356906033403282 0 -0.34467651665219973 -0.42777410222905737 0 -0.32598821512874421 -0.42024539414015383 0 -0.33249023382438092 -0.44356906033403282 0 -0.32598821512874421 -0.42024539414015383 0 -0.33009745154348069 -0.40263569324313669 0 -0.34240823868234987 -0.4100457209941249 0 -0.32598821512874421 -0.42024539414015383 0 -0.34467651665219973 -0.42777410222905737 0 -0.34240823868234987 -0.4100457209941249 0 -0.32598821512874421 -0.42024539414015383 0 -0.31948619643310761 -0.39692172794627489 0 -0.32598821512874421 -0.42024539414015383 0 -0.30941000779755612 -0.41229882989194488 0 -0.33009745154348069 -0.40263569324313669 0 -0.31948619643310761 -0.39692172794627489 0 -0.32598821512874421 -0.42024539414015383 0 -0.31948619643310761 -0.39692172794627489 0 -0.32598821512874421 -0.42024539414015383 0 -0.31527143737595209 -0.44052567221646721 0 -0.32598821512874421 -0.42024539414015383 0 -0.30053092424397693 -0.42884276229915719 0 -0.33249023382438092 -0.44356906033403282 0 -0.31527143737595209 -0.44052567221646721 0 -0.32598821512874421 -0.42024539414015383 0 -0.30053092424397693 -0.42884276229915719 0 -0.30941000779755612 -0.41229882989194488 0 -0.29513779772264298 -0.41469295887015439 0 -0.32598821512874421 -0.42024539414015383 0 -0.30053092424397693 -0.42884276229915719 0 -0.30941000779755612 -0.41229882989194488 0 -0.30941000779755612 -0.41229882989194488 0 -0.29513779772264298 -0.41469295887015439 0 -0.29554433307326311 -0.40022704849453428 0 -0.30053092424397693 -0.42884276229915719 0 -0.29513779772264298 -0.41469295887015439 0 -0.28168535934279271 -0.42002772555887641 0 -0.29513779772264298 -0.41469295887015439 0 -0.29554433307326311 -0.40022704849453428 0 -0.28017513974514707 -0.40456520051372458 0 -0.29513779772264298 -0.41469295887015439 0 -0.28168535934279271 -0.42002772555887641 0 -0.28017513974514707 -0.40456520051372458 0 -0.30053092424397693 -0.42884276229915719 0 -0.28168535934279271 -0.42002772555887641 0 -0.27617078123235689 -0.44291071808615301 0 -0.3231796687542659 -0.39390538816656168 0 -0.30225217803993998 -0.37700760015975998 0 -0.30644147678965611 -0.3907964785366333 0 -0.30225217803993998 -0.37700760015975998 0 -0.30644147678965611 -0.3907964785366333 0 -0.28424193418845989 -0.38607186638249419 0 -0.30644147678965611 -0.3907964785366333 0 -0.30772050352339569 -0.40006102121734688 0 -0.29554433307326311 -0.40022704849453428 0 -0.31948619643310761 -0.39692172794627489 0 -0.30644147678965611 -0.3907964785366333 0 -0.30772050352339569 -0.40006102121734688 0 -0.31948619643310761 -0.39692172794627489 0 -0.30941000779755612 -0.41229882989194488 0 -0.30772050352339569 -0.40006102121734688 0 -0.30941000779755612 -0.41229882989194488 0 -0.30772050352339569 -0.40006102121734688 0 -0.29554433307326311 -0.40022704849453428 0 -0.30644147678965611 -0.3907964785366333 0 -0.29554433307326311 -0.40022704849453428 0 -0.28424193418845989 -0.38607186638249419 0 -0.29554433307326311 -0.40022704849453428 0 -0.28424193418845989 -0.38607186638249419 0 -0.28017513974514707 -0.40456520051372458 0 -0.26232858768149592 -0.37202517619912112 0 -0.28424193418845989 -0.38607186638249419 0 -0.26043243019609907 -0.39767550855124578 0 -0.28017513974514707 -0.40456520051372458 0 -0.26043243019609907 -0.39767550855124578 0 -0.26741103167100633 -0.41405875027902761 0 -0.28424193418845989 -0.38607186638249419 0 -0.28017513974514707 -0.40456520051372458 0 -0.26043243019609907 -0.39767550855124578 0 -0.26232858768149592 -0.37202517619912112 0 -0.26043243019609907 -0.39767550855124578 0 -0.23807159754405099 -0.3836349875288762 0 -0.28168535934279271 -0.42002772555887641 0 -0.26432082225353332 -0.42827546234403813 0 -0.27617078123235689 -0.44291071808615301 0 -0.28168535934279271 -0.42002772555887641 0 -0.26741103167100633 -0.41405875027902761 0 -0.26432082225353332 -0.42827546234403813 0 -0.28168535934279271 -0.42002772555887641 0 -0.28017513974514707 -0.40456520051372458 0 -0.26741103167100633 -0.41405875027902761 0 -0.26741103167100633 -0.41405875027902761 0 -0.25044140681745908 -0.4197498544272531 0 -0.26432082225353332 -0.42827546234403813 0 -0.26043243019609907 -0.39767550855124578 0 -0.26741103167100633 -0.41405875027902761 0 -0.25044140681745908 -0.4197498544272531 0 -0.25044140681745908 -0.4197498544272531 0 -0.26432082225353332 -0.42827546234403813 0 -0.24517126741409759 -0.445117793335287 0 -0.26460596355982807 -0.46341186222350972 0 -0.24437906374843271 -0.47675002197203042 0 -0.24517126741409759 -0.445117793335287 0 -0.26460596355982807 -0.46341186222350972 0 -0.27617078123235689 -0.44291071808615301 0 -0.24517126741409759 -0.445117793335287 0 -0.26432082225353332 -0.42827546234403813 0 -0.27617078123235689 -0.44291071808615301 0 -0.24517126741409759 -0.445117793335287 0 -0.26460596355982807 -0.46341186222350972 0 -0.24517126741409759 -0.445117793335287 0 -0.26460596355982807 -0.46341186222350972 0 -0.27617078123235689 -0.44291071808615301 0 -0.28467120661708101 -0.46128680708985598 0 -0.30053092424397693 -0.42884276229915719 0 -0.27617078123235689 -0.44291071808615301 0 -0.30102611538893831 -0.45094657120229009 0 -0.27617078123235689 -0.44291071808615301 0 -0.28467120661708101 -0.46128680708985598 0 -0.30102611538893831 -0.45094657120229009 0 -0.31971051268249417 -0.45931053304645092 0 -0.30102611538893831 -0.45094657120229009 0 -0.30615693474627842 -0.47266405043519361 0 -0.28467120661708101 -0.46128680708985598 0 -0.30102611538893831 -0.45094657120229009 0 -0.30615693474627842 -0.47266405043519361 0 -0.31527143737595209 -0.44052567221646721 0 -0.31971051268249417 -0.45931053304645092 0 -0.30102611538893831 -0.45094657120229009 0 -0.31527143737595209 -0.44052567221646721 0 -0.30053092424397693 -0.42884276229915719 0 -0.30102611538893831 -0.45094657120229009 0 -0.30347535585127478 -0.49999999999997091 0 -0.30615693474627842 -0.47266405043519361 0 -0.28404065970555858 -0.48170593111173238 0 -0.32432610223939817 -0.48126511756280982 0 -0.30347535585127478 -0.49999999999997091 0 -0.30615693474627842 -0.47266405043519361 0 -0.28467120661708101 -0.46128680708985598 0 -0.30615693474627842 -0.47266405043519361 0 -0.28404065970555858 -0.48170593111173238 0 -0.30347535585127478 -0.49999999999997091 0 -0.28404065970555858 -0.48170593111173238 0 -0.30347535585127478 -0.49999999999997091 0 -0.28404065970555858 -0.48170593111173238 0 -0.27614136668765932 -0.5 0 -0.28404065970555858 -0.48170593111173238 0 -0.27614136668765932 -0.5 0 -0.26369222118332741 -0.48358140120694881 0 -0.26460596355982807 -0.46341186222350972 0 -0.28404065970555858 -0.48170593111173238 0 -0.26369222118332741 -0.48358140120694881 0 -0.26460596355982807 -0.46341186222350972 0 -0.28404065970555858 -0.48170593111173238 0 -0.26460596355982807 -0.46341186222350972 0 -0.28467120661708101 -0.46128680708985598 0 -0.28404065970555858 -0.48170593111173238 0 -0.26460596355982807 -0.46341186222350972 0 -0.26369222118332741 -0.48358140120694881 0 -0.24437906374843271 -0.47675002197203042 0 -0.26369222118332741 -0.48358140120694881 0 -0.24880737752404389 -0.5 0 -0.24437906374843271 -0.47675002197203042 0 -0.27614136668765932 -0.5 0 -0.26369222118332741 -0.48358140120694881 0 -0.24880737752404389 -0.5 0 -0.24437906374843271 -0.47675002197203042 0 -0.22147338836042829 -0.5 0 -0.22252416444887069 -0.46838907506643712 0 -0.24880737752404389 -0.5 0 -0.24437906374843271 -0.47675002197203042 0 -0.22147338836042829 -0.5 0 -0.24517126741409759 -0.445117793335287 0 -0.22252416444887069 -0.46838907506643712 0 -0.21150614307936011 -0.44576645126639108 0 -0.24517126741409759 -0.445117793335287 0 -0.21150614307936011 -0.44576645126639108 0 -0.2257365712683671 -0.42682372444706429 0 -0.24437906374843271 -0.47675002197203042 0 -0.24517126741409759 -0.445117793335287 0 -0.22252416444887069 -0.46838907506643712 0 -0.22252416444887069 -0.46838907506643712 0 -0.21150614307936011 -0.44576645126639108 0 -0.19212934321272451 -0.46322495946041542 0 -0.21150614307936011 -0.44576645126639108 0 -0.19212934321272451 -0.46322495946041542 0 -0.18630844490828971 -0.44491681766816288 0 -0.21150614307936011 -0.44576645126639108 0 -0.18630844490828971 -0.44491681766816288 0 -0.19698596076280669 -0.42666367509086878 0 -0.22147338836042829 -0.5 0 -0.22252416444887069 -0.46838907506643712 0 -0.2036141047325267 -0.481901224588765 0 -0.22147338836042829 -0.5 0 -0.2036141047325267 -0.481901224588765 0 -0.1941393991968127 -0.5 0 -0.22252416444887069 -0.46838907506643712 0 -0.19212934321272451 -0.46322495946041542 0 -0.2036141047325267 -0.481901224588765 0 -0.19212934321272451 -0.46322495946041542 0 -0.2036141047325267 -0.481901224588765 0 -0.18183227055347501 -0.48235393403655041 0 -0.2036141047325267 -0.481901224588765 0 -0.1941393991968127 -0.5 0 -0.18183227055347501 -0.48235393403655041 0 -0.1941393991968127 -0.5 0 -0.16680541003319721 -0.5 0 -0.18183227055347501 -0.48235393403655041 0 -0.16680541003319721 -0.5 0 -0.16228276348363499 -0.48480331922714348 0 -0.18183227055347501 -0.48235393403655041 0 -0.16228276348363499 -0.48480331922714348 0 -0.18183227055347501 -0.48235393403655041 0 -0.17077844476813661 -0.46512365211372431 0 -0.16228276348363499 -0.48480331922714348 0 -0.17077844476813661 -0.46512365211372431 0 -0.15122718316411071 -0.46839314331946019 0 -0.19212934321272451 -0.46322495946041542 0 -0.18183227055347501 -0.48235393403655041 0 -0.17077844476813661 -0.46512365211372431 0 -0.19212934321272451 -0.46322495946041542 0 -0.18630844490828971 -0.44491681766816288 0 -0.17077844476813661 -0.46512365211372431 0 -0.18630844490828971 -0.44491681766816288 0 -0.16882698648287031 -0.4470147121277831 0 -0.17077844476813661 -0.46512365211372431 0 -0.18630844490828971 -0.44491681766816288 0 -0.16882698648287031 -0.4470147121277831 0 -0.17453599842629619 -0.43086884487641242 0 -0.16882698648287031 -0.4470147121277831 0 -0.15903261120784121 -0.43476464971124867 0 -0.17453599842629619 -0.43086884487641242 0 -0.16882698648287031 -0.4470147121277831 0 -0.15313247788931969 -0.45151451480525678 0 -0.15903261120784121 -0.43476464971124867 0 -0.17077844476813661 -0.46512365211372431 0 -0.15122718316411071 -0.46839314331946019 0 -0.15313247788931969 -0.45151451480525678 0 -0.16882698648287031 -0.4470147121277831 0 -0.17077844476813661 -0.46512365211372431 0 -0.15313247788931969 -0.45151451480525678 0 -0.15122718316411071 -0.46839314331946019 0 -0.15313247788931969 -0.45151451480525678 0 -0.13699377427043799 -0.46037260357166138 0 -0.15313247788931969 -0.45151451480525678 0 -0.13864488212268469 -0.44575176939852851 0 -0.13699377427043799 -0.46037260357166138 0 -0.15313247788931969 -0.45151451480525678 0 -0.13864488212268469 -0.44575176939852851 0 -0.1442638714374363 -0.43132458993997153 0 -0.15313247788931969 -0.45151451480525678 0 -0.1442638714374363 -0.43132458993997153 0 -0.15903261120784121 -0.43476464971124867 0 -0.13864488212268469 -0.44575176939852851 0 -0.13072156305471919 -0.43672987890865811 0 -0.1442638714374363 -0.43132458993997153 0 -0.13864488212268469 -0.44575176939852851 0 -0.12518479727169601 -0.44946644896922477 0 -0.13699377427043799 -0.46037260357166138 0 -0.13864488212268469 -0.44575176939852851 0 -0.12518479727169601 -0.44946644896922477 0 -0.13072156305471919 -0.43672987890865811 0 -0.12518479727169601 -0.44946644896922477 0 -0.13699377427043799 -0.46037260357166138 0 -0.1209249250887733 -0.46331442550643942 0 -0.13699377427043799 -0.46037260357166138 0 -0.13273863594572649 -0.47971718078478892 0 -0.1209249250887733 -0.46331442550643942 0 -0.15122718316411071 -0.46839314331946019 0 -0.13699377427043799 -0.46037260357166138 0 -0.13273863594572649 -0.47971718078478892 0 -0.13273863594572649 -0.47971718078478892 0 -0.13947142086958161 -0.5 0 -0.112137431705966 -0.5 0 -0.16680541003319721 -0.5 0 -0.16228276348363499 -0.48480331922714348 0 -0.13947142086958161 -0.5 0 -0.16228276348363499 -0.48480331922714348 0 -0.13273863594572649 -0.47971718078478892 0 -0.13947142086958161 -0.5 0 -0.16228276348363499 -0.48480331922714348 0 -0.15122718316411071 -0.46839314331946019 0 -0.13273863594572649 -0.47971718078478892 0 -0.16228276348363499 -0.48480331922714348 0 -0.13273863594572649 -0.47971718078478892 0 -0.13427144518027079 -0.39533232873722668 0 -0.15440372180328349 -0.41310058680681949 0 -0.1505255855116448 -0.39242181352474342 0 -0.14308341947687131 -0.38945491624176559 0 -0.13427144518027079 -0.39533232873722668 0 -0.1505255855116448 -0.39242181352474342 0 -0.13427144518027079 -0.39533232873722668 0 -0.15440372180328349 -0.41310058680681949 0 -0.1505255855116448 -0.39242181352474342 0 -0.15440372180328349 -0.41310058680681949 0 -0.15862166910717029 -0.39845989799475112 0 -0.1505255855116448 -0.39242181352474342 0 -0.15862166910717029 -0.39845989799475112 0 -0.15692213051646689 -0.38850416586539932 0 -0.1679260508762381 -0.37966210575014092 0 -0.14381239493649511 -0.37363900434741182 0 -0.13630184745337709 -0.38165415441776268 0 -0.15692213051646689 -0.38850416586539932 0 -0.14308341947687131 -0.38945491624176559 0 -0.13630184745337709 -0.38165415441776268 0 -0.15692213051646689 -0.38850416586539932 0 -0.1505255855116448 -0.39242181352474342 0 -0.15692213051646689 -0.38850416586539932 0 -0.1505255855116448 -0.39242181352474342 0 -0.14308341947687131 -0.38945491624176559 0 -0.15692213051646689 -0.38850416586539932 0 -0.1679260508762381 -0.37966210575014092 0 -0.15692213051646689 -0.38850416586539932 0 -0.14381239493649511 -0.37363900434741182 0 -0.13630184745337709 -0.38165415441776268 0 -0.15692213051646689 -0.38850416586539932 0 -0.14381239493649511 -0.37363900434741182 0 -0.13630184745337709 -0.38165415441776268 0 -0.13427144518027079 -0.39533232873722668 0 -0.1141391685572577 -0.37756407066763398 0 -0.14308341947687131 -0.38945491624176559 0 -0.13630184745337709 -0.38165415441776268 0 -0.13427144518027079 -0.39533232873722668 0 -0.13630184745337709 -0.38165415441776268 0 -0.1156815643902874 -0.37480414297012588 0 -0.13427144518027079 -0.39533232873722668 0 -0.13707376895961179 -0.41289434462857222 0 -0.122681383444978 -0.40721601930392298 0 -0.13707376895961179 -0.41289434462857222 0 -0.12723615496932619 -0.4219768663263504 0 -0.122681383444978 -0.40721601930392298 0 -0.13707376895961179 -0.41289434462857222 0 -0.12723615496932619 -0.4219768663263504 0 -0.1442638714374363 -0.43132458993997153 0 -0.13072156305471919 -0.43672987890865811 0 -0.12723615496932619 -0.4219768663263504 0 -0.1442638714374363 -0.43132458993997153 0 -0.13072156305471919 -0.43672987890865811 0 -0.12723615496932619 -0.4219768663263504 0 -0.1182781094724531 -0.43512971990921517 0 -0.1442638714374363 -0.43132458993997153 0 -0.15440372180328349 -0.41310058680681949 0 -0.15903261120784121 -0.43476464971124867 0 -0.13707376895961179 -0.41289434462857222 0 -0.1442638714374363 -0.43132458993997153 0 -0.15440372180328349 -0.41310058680681949 0 -0.13427144518027079 -0.39533232873722668 0 -0.13707376895961179 -0.41289434462857222 0 -0.15440372180328349 -0.41310058680681949 0 -0.15440372180328349 -0.41310058680681949 0 -0.17453599842629619 -0.43086884487641242 0 -0.18133769387346491 -0.41397194589222969 0 -0.15440372180328349 -0.41310058680681949 0 -0.18133769387346491 -0.41397194589222969 0 -0.16805376881219081 -0.40207106523087188 0 -0.15440372180328349 -0.41310058680681949 0 -0.15903261120784121 -0.43476464971124867 0 -0.17453599842629619 -0.43086884487641242 0 -0.15440372180328349 -0.41310058680681949 0 -0.17453599842629619 -0.43086884487641242 0 -0.18630844490828971 -0.44491681766816288 0 -0.17453599842629619 -0.43086884487641242 0 -0.19698596076280669 -0.42666367509086878 0 -0.17453599842629619 -0.43086884487641242 0 -0.18133769387346491 -0.41397194589222969 0 -0.19698596076280669 -0.42666367509086878 0 -0.18133769387346491 -0.41397194589222969 0 -0.18509064750430759 -0.39786168356965812 0 -0.16805376881219081 -0.40207106523087188 0 -0.18133769387346491 -0.41397194589222969 0 -0.18509064750430759 -0.39786168356965812 0 -0.18133769387346491 -0.41397194589222969 0 -0.18509064750430759 -0.39786168356965812 0 -0.1912877957777826 -0.39992036222533572 0 -0.18509064750430759 -0.39786168356965812 0 -0.1868671789768824 -0.39023558667064401 0 -0.18509064750430759 -0.39786168356965812 0 -0.15692213051646689 -0.38850416586539932 0 -0.18509064750430759 -0.39786168356965812 0 -0.16805376881219081 -0.40207106523087188 0 -0.15692213051646689 -0.38850416586539932 0 -0.16805376881219081 -0.40207106523087188 0 -0.15862166910717029 -0.39845989799475112 0 -0.15692213051646689 -0.38850416586539932 0 -0.15440372180328349 -0.41310058680681949 0 -0.16805376881219081 -0.40207106523087188 0 -0.15862166910717029 -0.39845989799475112 0 -0.1679260508762381 -0.37966210575014092 0 -0.17394916606374869 -0.37807573521935411 0 -0.1566711542484954 -0.37066786057582529 0 -0.1679260508762381 -0.37966210575014092 0 -0.15692213051646689 -0.38850416586539932 0 -0.17394916606374869 -0.37807573521935411 0 -0.15692213051646689 -0.38850416586539932 0 -0.17394916606374869 -0.37807573521935411 0 -0.17394916606374869 -0.37807573521935411 0 -0.1868671789768824 -0.39023558667064401 0 -0.19232109906882641 -0.3668236045330121 0 -0.18509064750430759 -0.39786168356965812 0 -0.15692213051646689 -0.38850416586539932 0 -0.17394916606374869 -0.37807573521935411 0 -0.18509064750430759 -0.39786168356965812 0 -0.17394916606374869 -0.37807573521935411 0 -0.1868671789768824 -0.39023558667064401 0 -0.17394916606374869 -0.37807573521935411 0 -0.1868671789768824 -0.39023558667064401 0 -0.1868671789768824 -0.39023558667064401 0 -0.21362349526135069 -0.38466616446508678 0 -0.20520163060828009 -0.37206350978589858 0 -0.1868671789768824 -0.39023558667064401 0 -0.19232109906882641 -0.3668236045330121 0 -0.20520163060828009 -0.37206350978589858 0 -0.1868671789768824 -0.39023558667064401 0 -0.19232109906882641 -0.3668236045330121 0 -0.18509064750430759 -0.39786168356965812 0 -0.1868671789768824 -0.39023558667064401 0 -0.1912877957777826 -0.39992036222533572 0 -0.1868671789768824 -0.39023558667064401 0 -0.1912877957777826 -0.39992036222533572 0 -0.2063018751226367 -0.40852965555884152 0 -0.1868671789768824 -0.39023558667064401 0 -0.21362349526135069 -0.38466616446508678 0 -0.2063018751226367 -0.40852965555884152 0 -0.1868671789768824 -0.39023558667064401 0 -0.2063018751226367 -0.40852965555884152 0 -0.18509064750430759 -0.39786168356965812 0 -0.1912877957777826 -0.39992036222533572 0 -0.21362349526135069 -0.38466616446508678 0 -0.2063018751226367 -0.40852965555884152 0 -0.22180519741866081 -0.39900449882135253 0 -0.19698596076280669 -0.42666367509086878 0 -0.1939783313841727 -0.41227140969181891 0 -0.2063018751226367 -0.40852965555884152 0 -0.18133769387346491 -0.41397194589222969 0 -0.19698596076280669 -0.42666367509086878 0 -0.1939783313841727 -0.41227140969181891 0 -0.18133769387346491 -0.41397194589222969 0 -0.1912877957777826 -0.39992036222533572 0 -0.1939783313841727 -0.41227140969181891 0 -0.1912877957777826 -0.39992036222533572 0 -0.1939783313841727 -0.41227140969181891 0 -0.2063018751226367 -0.40852965555884152 0 -0.2063018751226367 -0.40852965555884152 0 -0.2257365712683671 -0.42682372444706429 0 -0.19698596076280669 -0.42666367509086878 0 -0.2063018751226367 -0.40852965555884152 0 -0.2257365712683671 -0.42682372444706429 0 -0.2063018751226367 -0.40852965555884152 0 -0.2257365712683671 -0.42682372444706429 0 -0.22180519741866081 -0.39900449882135253 0 -0.21150614307936011 -0.44576645126639108 0 -0.19698596076280669 -0.42666367509086878 0 -0.2257365712683671 -0.42682372444706429 0 -0.2257365712683671 -0.42682372444706429 0 -0.22180519741866081 -0.39900449882135253 0 -0.23898342735852321 -0.40506359474062342 0 -0.25044140681745908 -0.4197498544272531 0 -0.2257365712683671 -0.42682372444706429 0 -0.23898342735852321 -0.40506359474062342 0 -0.26043243019609907 -0.39767550855124578 0 -0.25044140681745908 -0.4197498544272531 0 -0.23898342735852321 -0.40506359474062342 0 -0.24517126741409759 -0.445117793335287 0 -0.2257365712683671 -0.42682372444706429 0 -0.25044140681745908 -0.4197498544272531 0 -0.24517126741409759 -0.445117793335287 0 -0.2257365712683671 -0.42682372444706429 0 -0.21362349526135069 -0.38466616446508678 0 -0.23807159754405099 -0.3836349875288762 0 -0.22325298488233949 -0.36680719212661939 0 -0.21362349526135069 -0.38466616446508678 0 -0.22180519741866081 -0.39900449882135253 0 -0.23807159754405099 -0.3836349875288762 0 -0.22180519741866081 -0.39900449882135253 0 -0.23898342735852321 -0.40506359474062342 0 -0.23807159754405099 -0.3836349875288762 0 -0.26043243019609907 -0.39767550855124578 0 -0.23898342735852321 -0.40506359474062342 0 -0.23807159754405099 -0.3836349875288762 0 -0.26232858768149592 -0.37202517619912112 0 -0.23807159754405099 -0.3836349875288762 0 -0.24491708781969621 -0.35918458014641302 0 -0.23807159754405099 -0.3836349875288762 0 -0.22325298488233949 -0.36680719212661939 0 -0.24491708781969621 -0.35918458014641302 0 -0.22325298488233949 -0.36680719212661939 0 -0.2259005340057616 -0.34625744036412809 0 -0.2091108165372943 -0.3565405224485706 0 -0.22325298488233949 -0.36680719212661939 0 -0.2259005340057616 -0.34625744036412809 0 -0.24491708781969621 -0.35918458014641302 0 -0.26039719661128807 -0.34321202414615648 0 -0.24491708781969621 -0.35918458014641302 0 -0.24452814586989999 -0.33719548257584009 0 -0.2259005340057616 -0.34625744036412809 0 -0.24491708781969621 -0.35918458014641302 0 -0.24452814586989999 -0.33719548257584009 0 -0.24452814586989999 -0.33719548257584009 0 -0.23897910489075941 -0.32131852478768108 0 -0.2319663957822159 -0.33180220534195431 0 -0.25016174613383219 -0.32256751083050078 0 -0.24452814586989999 -0.33719548257584009 0 -0.23897910489075941 -0.32131852478768108 0 -0.25016174613383219 -0.32256751083050078 0 -0.2431168412254637 -0.31335558404905922 0 -0.23897910489075941 -0.32131852478768108 0 -0.25016174613383219 -0.32256751083050078 0 -0.25011512965390431 -0.30968423449200072 0 -0.2431168412254637 -0.31335558404905922 0 -0.23897910489075941 -0.32131852478768108 0 -0.23725578041420281 -0.31149817810743918 0 -0.2321544869067825 -0.3101328615887175 0 -0.2431168412254637 -0.31335558404905922 0 -0.23897910489075941 -0.32131852478768108 0 -0.23725578041420281 -0.31149817810743918 0 -0.23897910489075941 -0.32131852478768108 0 -0.22624400493647639 -0.32161187749262909 0 -0.2214402258010483 -0.30793665662188469 0 -0.23897910489075941 -0.32131852478768108 0 -0.2321544869067825 -0.3101328615887175 0 -0.2214402258010483 -0.30793665662188469 0 -0.23897910489075941 -0.32131852478768108 0 -0.2214402258010483 -0.30793665662188469 0 -0.23897910489075941 -0.32131852478768108 0 -0.22624400493647639 -0.32161187749262909 0 -0.2319663957822159 -0.33180220534195431 0 -0.22624400493647639 -0.32161187749262909 0 -0.2319663957822159 -0.33180220534195431 0 -0.22066738085581011 -0.32979695256469183 0 -0.22624400493647639 -0.32161187749262909 0 -0.22066738085581011 -0.32979695256469183 0 -0.21752427626766199 -0.31837971056796549 0 -0.22624400493647639 -0.32161187749262909 0 -0.21752427626766199 -0.31837971056796549 0 -0.2214402258010483 -0.30793665662188469 0 -0.2259005340057616 -0.34625744036412809 0 -0.24452814586989999 -0.33719548257584009 0 -0.2319663957822159 -0.33180220534195431 0 -0.2259005340057616 -0.34625744036412809 0 -0.22066738085581011 -0.32979695256469183 0 -0.2115369753771793 -0.34218169752469668 0 -0.2259005340057616 -0.34625744036412809 0 -0.2319663957822159 -0.33180220534195431 0 -0.22066738085581011 -0.32979695256469183 0 -0.22066738085581011 -0.32979695256469183 0 -0.2115369753771793 -0.34218169752469668 0 -0.2075407389726634 -0.32839475265560691 0 -0.2115369753771793 -0.34218169752469668 0 -0.2075407389726634 -0.32839475265560691 0 -0.19966168168271109 -0.33531276716527159 0 -0.21752427626766199 -0.31837971056796549 0 -0.20687604785701169 -0.31601858960318641 0 -0.2214402258010483 -0.30793665662188469 0 -0.22066738085581011 -0.32979695256469183 0 -0.2075407389726634 -0.32839475265560691 0 -0.21752427626766199 -0.31837971056796549 0 -0.2075407389726634 -0.32839475265560691 0 -0.21752427626766199 -0.31837971056796549 0 -0.20687604785701169 -0.31601858960318641 0 -0.20687604785701169 -0.31601858960318641 0 -0.19272049443141059 -0.32751518237323562 0 -0.1924958167031855 -0.31357861972082929 0 -0.2075407389726634 -0.32839475265560691 0 -0.20687604785701169 -0.31601858960318641 0 -0.19272049443141059 -0.32751518237323562 0 -0.19272049443141059 -0.32751518237323562 0 -0.1924958167031855 -0.31357861972082929 0 -0.17866773110616019 -0.32143041758381879 0 -0.19966168168271109 -0.33531276716527159 0 -0.1877235272187007 -0.34118567269219002 0 -0.1959913903757684 -0.35106818584914179 0 -0.19966168168271109 -0.33531276716527159 0 -0.1959913903757684 -0.35106818584914179 0 -0.2115369753771793 -0.34218169752469668 0 -0.19966168168271109 -0.33531276716527159 0 -0.1959913903757684 -0.35106818584914179 0 -0.2075407389726634 -0.32839475265560691 0 -0.19272049443141059 -0.32751518237323562 0 -0.19966168168271109 -0.33531276716527159 0 -0.19272049443141059 -0.32751518237323562 0 -0.19966168168271109 -0.33531276716527159 0 -0.1877235272187007 -0.34118567269219002 0 -0.1959913903757684 -0.35106818584914179 0 -0.19232109906882641 -0.3668236045330121 0 -0.2091108165372943 -0.3565405224485706 0 -0.1959913903757684 -0.35106818584914179 0 -0.19232109906882641 -0.3668236045330121 0 -0.1779085747599756 -0.35418315474696049 0 -0.1959913903757684 -0.35106818584914179 0 -0.19232109906882641 -0.3668236045330121 0 -0.19232109906882641 -0.3668236045330121 0 -0.2091108165372943 -0.3565405224485706 0 -0.19232109906882641 -0.3668236045330121 0 -0.20520163060828009 -0.37206350978589858 0 -0.2091108165372943 -0.3565405224485706 0 -0.22325298488233949 -0.36680719212661939 0 -0.20520163060828009 -0.37206350978589858 0 -0.2091108165372943 -0.3565405224485706 0 -0.21362349526135069 -0.38466616446508678 0 -0.22325298488233949 -0.36680719212661939 0 -0.20520163060828009 -0.37206350978589858 0 -0.2259005340057616 -0.34625744036412809 0 -0.2091108165372943 -0.3565405224485706 0 -0.2259005340057616 -0.34625744036412809 0 -0.2115369753771793 -0.34218169752469668 0 -0.2091108165372943 -0.3565405224485706 0 -0.2115369753771793 -0.34218169752469668 0 -0.1959913903757684 -0.35106818584914179 0 -0.2091108165372943 -0.3565405224485706 0 -0.25165102228839947 -0.25635749640148803 0 -0.25856417317950658 -0.26227520928920067 0 -0.23925366622052119 -0.2652292052380823 0 -0.25165102228839947 -0.25635749640148803 0 -0.24181875001741471 -0.25216764242131462 0 -0.25426167453643861 -0.24375500549720949 0 -0.25165102228839947 -0.25635749640148803 0 -0.24181875001741471 -0.25216764242131462 0 -0.23925366622052119 -0.2652292052380823 0 -0.2263512241589529 -0.25710955967913479 0 -0.24181875001741471 -0.25216764242131462 0 -0.23925366622052119 -0.2652292052380823 0 -0.25856417317950658 -0.26227520928920067 0 -0.23925366622052119 -0.2652292052380823 0 -0.23977097481667911 -0.28046515112179471 0 -0.25856417317950658 -0.26227520928920067 0 -0.23977097481667911 -0.28046515112179471 0 -0.23925366622052119 -0.2652292052380823 0 -0.23977097481667911 -0.28046515112179471 0 -0.21512628543514431 -0.27583217406761129 0 -0.2263512241589529 -0.25710955967913479 0 -0.23925366622052119 -0.2652292052380823 0 -0.21512628543514431 -0.27583217406761129 0 -0.2263512241589529 -0.25710955967913479 0 -0.21512628543514431 -0.27583217406761129 0 -0.23977097481667911 -0.28046515112179471 0 -0.22097777645385219 -0.29865509295438941 0 -0.21512628543514431 -0.27583217406761129 0 -0.23977097481667911 -0.28046515112179471 0 -0.22097777645385219 -0.29865509295438941 0 -0.23977097481667911 -0.28046515112179471 0 -0.23442385538672539 -0.29844295596830361 0 -0.22097777645385219 -0.29865509295438941 0 -0.23977097481667911 -0.28046515112179471 0 -0.24299893709418499 -0.29525258500623891 0 -0.23442385538672539 -0.29844295596830361 0 -0.25185047229710672 -0.29011282615452061 0 -0.25400494646361033 -0.27880320636125011 0 -0.23977097481667911 -0.28046515112179471 0 -0.25185047229710672 -0.29011282615452061 0 -0.23977097481667911 -0.28046515112179471 0 -0.24299893709418499 -0.29525258500623891 0 -0.25185047229710672 -0.29011282615452061 0 -0.24299893709418499 -0.29525258500623891 0 -0.24832331915911529 -0.29744915229777108 0 -0.24299893709418499 -0.29525258500623891 0 -0.23442385538672539 -0.29844295596830361 0 -0.2394992982400927 -0.30238456972545857 0 -0.23442385538672539 -0.29844295596830361 0 -0.2394992982400927 -0.30238456972545857 0 -0.23481052158472651 -0.30566994623717159 0 -0.24299893709418499 -0.29525258500623891 0 -0.2394992982400927 -0.30238456972545857 0 -0.2447383698842755 -0.30108990310410738 0 -0.24299893709418499 -0.29525258500623891 0 -0.2447383698842755 -0.30108990310410738 0 -0.24832331915911529 -0.29744915229777108 0 -0.2394992982400927 -0.30238456972545857 0 -0.2447383698842755 -0.30108990310410738 0 -0.24488027801728629 -0.30587654575129769 0 -0.2447383698842755 -0.30108990310410738 0 -0.24935238857308789 -0.30411189337587452 0 -0.24488027801728629 -0.30587654575129769 0 -0.2447383698842755 -0.30108990310410738 0 -0.24935238857308789 -0.30411189337587452 0 -0.24832331915911529 -0.29744915229777108 0 -0.25011512965390431 -0.30968423449200072 0 -0.24935238857308789 -0.30411189337587452 0 -0.24488027801728629 -0.30587654575129769 0 -0.2431168412254637 -0.31335558404905922 0 -0.24488027801728629 -0.30587654575129769 0 -0.23990640192073939 -0.30774031840597749 0 -0.25011512965390431 -0.30968423449200072 0 -0.2431168412254637 -0.31335558404905922 0 -0.24488027801728629 -0.30587654575129769 0 -0.2431168412254637 -0.31335558404905922 0 -0.23990640192073939 -0.30774031840597749 0 -0.23725578041420281 -0.31149817810743918 0 -0.2394992982400927 -0.30238456972545857 0 -0.24488027801728629 -0.30587654575129769 0 -0.23990640192073939 -0.30774031840597749 0 -0.23990640192073939 -0.30774031840597749 0 -0.23481052158472651 -0.30566994623717159 0 -0.23725578041420281 -0.31149817810743918 0 -0.2394992982400927 -0.30238456972545857 0 -0.23990640192073939 -0.30774031840597749 0 -0.23481052158472651 -0.30566994623717159 0 -0.23481052158472651 -0.30566994623717159 0 -0.23725578041420281 -0.31149817810743918 0 -0.2321544869067825 -0.3101328615887175 0 -0.2321544869067825 -0.3101328615887175 0 -0.22828680184317551 -0.30424100218941058 0 -0.2214402258010483 -0.30793665662188469 0 -0.23481052158472651 -0.30566994623717159 0 -0.2321544869067825 -0.3101328615887175 0 -0.22828680184317551 -0.30424100218941058 0 -0.23442385538672539 -0.29844295596830361 0 -0.22828680184317551 -0.30424100218941058 0 -0.22097777645385219 -0.29865509295438941 0 -0.23442385538672539 -0.29844295596830361 0 -0.23481052158472651 -0.30566994623717159 0 -0.22828680184317551 -0.30424100218941058 0 -0.22828680184317551 -0.30424100218941058 0 -0.22097777645385219 -0.29865509295438941 0 -0.2214402258010483 -0.30793665662188469 0 -0.2214402258010483 -0.30793665662188469 0 -0.20390134671133689 -0.29455478845608851 0 -0.20687604785701169 -0.31601858960318641 0 -0.2214402258010483 -0.30793665662188469 0 -0.20390134671133689 -0.29455478845608851 0 -0.22097777645385219 -0.29865509295438941 0 -0.2214402258010483 -0.30793665662188469 0 -0.20390134671133689 -0.29455478845608851 0 -0.20687604785701169 -0.31601858960318641 0 -0.1924958167031855 -0.31357861972082929 0 -0.20390134671133689 -0.29455478845608851 0 -0.1924958167031855 -0.31357861972082929 0 -0.18787939050424149 -0.29604154136691552 0 -0.20390134671133689 -0.29455478845608851 0 -0.1924958167031855 -0.31357861972082929 0 -0.20390134671133689 -0.29455478845608851 0 -0.19056250897287161 -0.2843774808192619 0 -0.20390134671133689 -0.29455478845608851 0 -0.19056250897287161 -0.2843774808192619 0 -0.20390134671133689 -0.29455478845608851 0 -0.19997529405357919 -0.27583027464221299 0 -0.18787939050424149 -0.29604154136691552 0 -0.19056250897287161 -0.2843774808192619 0 -0.20390134671133689 -0.29455478845608851 0 -0.20390134671133689 -0.29455478845608851 0 -0.21512628543514431 -0.27583217406761129 0 -0.19997529405357919 -0.27583027464221299 0 -0.22097777645385219 -0.29865509295438941 0 -0.20390134671133689 -0.29455478845608851 0 -0.21512628543514431 -0.27583217406761129 0 -0.20390134671133689 -0.29455478845608851 0 -0.21512628543514431 -0.27583217406761129 0 -0.21512628543514431 -0.27583217406761129 0 -0.19997529405357919 -0.27583027464221299 0 -0.20847416510608671 -0.25738674523273097 0 -0.19997529405357919 -0.27583027464221299 0 -0.19448679833554611 -0.26371566756488241 0 -0.20847416510608671 -0.25738674523273097 0 -0.19056250897287161 -0.2843774808192619 0 -0.19997529405357919 -0.27583027464221299 0 -0.18890191813504789 -0.27246735324598059 0 -0.18890191813504789 -0.27246735324598059 0 -0.19448679833554611 -0.26371566756488241 0 -0.18241434353512059 -0.26357790258354152 0 -0.19997529405357919 -0.27583027464221299 0 -0.18890191813504789 -0.27246735324598059 0 -0.19448679833554611 -0.26371566756488241 0 -0.19448679833554611 -0.26371566756488241 0 -0.18241434353512059 -0.26357790258354152 0 -0.1932299274470719 -0.24790458824061951 0 -0.19448679833554611 -0.26371566756488241 0 -0.20847416510608671 -0.25738674523273097 0 -0.1932299274470719 -0.24790458824061951 0 -0.2263512241589529 -0.25710955967913479 0 -0.21512628543514431 -0.27583217406761129 0 -0.20847416510608671 -0.25738674523273097 0 -0.15669609111023741 -0.26097091875401801 0 -0.1646178431615046 -0.25445503348253817 0 -0.1511073566547699 -0.25297673056549691 0 -0.15669609111023741 -0.26097091875401801 0 -0.1646178431615046 -0.25445503348253817 0 -0.16955287009082859 -0.26582935774062588 0 -0.1646178431615046 -0.25445503348253817 0 -0.17528032545495581 -0.25191732758079383 0 -0.16955287009082859 -0.26582935774062588 0 -0.17528032545495581 -0.25191732758079383 0 -0.18241434353512059 -0.26357790258354152 0 -0.1932299274470719 -0.24790458824061951 0 -0.17528032545495581 -0.25191732758079383 0 -0.18241434353512059 -0.26357790258354152 0 -0.16955287009082859 -0.26582935774062588 0 -0.18241434353512059 -0.26357790258354152 0 -0.17722367123440619 -0.27420017318243539 0 -0.16955287009082859 -0.26582935774062588 0 -0.18890191813504789 -0.27246735324598059 0 -0.18241434353512059 -0.26357790258354152 0 -0.17722367123440619 -0.27420017318243539 0 -0.19056250897287161 -0.2843774808192619 0 -0.17722367123440619 -0.27420017318243539 0 -0.19056250897287161 -0.2843774808192619 0 -0.17722367123440619 -0.27420017318243539 0 -0.17869752132669359 -0.28362979011635392 0 -0.19056250897287161 -0.2843774808192619 0 -0.18890191813504789 -0.27246735324598059 0 -0.17722367123440619 -0.27420017318243539 0 -0.17722367123440619 -0.27420017318243539 0 -0.16844286352636301 -0.27822381916915712 0 -0.17869752132669359 -0.28362979011635392 0 -0.17722367123440619 -0.27420017318243539 0 -0.16844286352636301 -0.27822381916915712 0 -0.16955287009082859 -0.26582935774062588 0 -0.16844286352636301 -0.27822381916915712 0 -0.16955287009082859 -0.26582935774062588 0 -0.16014962895862289 -0.27556514762181328 0 -0.15669609111023741 -0.26097091875401801 0 -0.16955287009082859 -0.26582935774062588 0 -0.16014962895862289 -0.27556514762181328 0 -0.16844286352636301 -0.27822381916915712 0 -0.16014962895862289 -0.27556514762181328 0 -0.15659062602126361 -0.29189462718455689 0 -0.15659062602126361 -0.29189462718455689 0 -0.17869752132669359 -0.28362979011635392 0 -0.17373975880711959 -0.30406702772204419 0 -0.16844286352636301 -0.27822381916915712 0 -0.15659062602126361 -0.29189462718455689 0 -0.17869752132669359 -0.28362979011635392 0 -0.15659062602126361 -0.29189462718455689 0 -0.17869752132669359 -0.28362979011635392 0 -0.18787939050424149 -0.29604154136691552 0 -0.17869752132669359 -0.28362979011635392 0 -0.17373975880711959 -0.30406702772204419 0 -0.18787939050424149 -0.29604154136691552 0 -0.19056250897287161 -0.2843774808192619 0 -0.17869752132669359 -0.28362979011635392 0 -0.1924958167031855 -0.31357861972082929 0 -0.18787939050424149 -0.29604154136691552 0 -0.17373975880711959 -0.30406702772204419 0 -0.17373975880711959 -0.30406702772204419 0 -0.15304978221273879 -0.30884136897930897 0 -0.1620470907454474 -0.32414218477664419 0 -0.15659062602126361 -0.29189462718455689 0 -0.17373975880711959 -0.30406702772204419 0 -0.15304978221273879 -0.30884136897930897 0 -0.15304978221273879 -0.30884136897930897 0 -0.13448373071583369 -0.30015946425276002 0 -0.14023926164989631 -0.32219272276889621 0 -0.15659062602126361 -0.29189462718455689 0 -0.15304978221273879 -0.30884136897930897 0 -0.13448373071583369 -0.30015946425276002 0 -0.13448373071583369 -0.30015946425276002 0 -0.1258033543668978 -0.29130647440549989 0 -0.1389295162284247 -0.27772632192597718 0 -0.1258033543668978 -0.29130647440549989 0 -0.1389295162284247 -0.27772632192597718 0 -0.1174233351129297 -0.27891581012230021 0 -0.15659062602126361 -0.29189462718455689 0 -0.13448373071583369 -0.30015946425276002 0 -0.1389295162284247 -0.27772632192597718 0 -0.16014962895862289 -0.27556514762181328 0 -0.15659062602126361 -0.29189462718455689 0 -0.1506791741680337 -0.27834568085290462 0 -0.15659062602126361 -0.29189462718455689 0 -0.13448373071583369 -0.30015946425276002 0 -0.15659062602126361 -0.29189462718455689 0 -0.1506791741680337 -0.27834568085290462 0 -0.1389295162284247 -0.27772632192597718 0 -0.16014962895862289 -0.27556514762181328 0 -0.1506791741680337 -0.27834568085290462 0 -0.14704692546382361 -0.26819662667927102 0 -0.15669609111023741 -0.26097091875401801 0 -0.16014962895862289 -0.27556514762181328 0 -0.14704692546382361 -0.26819662667927102 0 -0.1506791741680337 -0.27834568085290462 0 -0.14704692546382361 -0.26819662667927102 0 -0.1389295162284247 -0.27772632192597718 0 -0.1389295162284247 -0.27772632192597718 0 -0.12316809163260251 -0.27232777508904532 0 -0.1174233351129297 -0.27891581012230021 0 -0.1389295162284247 -0.27772632192597718 0 -0.1174233351129297 -0.27891581012230021 0 -0.1389295162284247 -0.27772632192597718 0 -0.13442470076927271 -0.27098989528689532 0 -0.12316809163260251 -0.27232777508904532 0 -0.13442470076927271 -0.27098989528689532 0 -0.13750682929684041 -0.26253289990405593 0 -0.1190927251675846 -0.26915435472971461 0 -0.13442470076927271 -0.27098989528689532 0 -0.1190927251675846 -0.26915435472971461 0 -0.13442470076927271 -0.27098989528689532 0 -0.1190927251675846 -0.26915435472971461 0 -0.12316809163260251 -0.27232777508904532 0 -0.14704692546382361 -0.26819662667927102 0 -0.1389295162284247 -0.27772632192597718 0 -0.13442470076927271 -0.27098989528689532 0 -0.14704692546382361 -0.26819662667927102 0 -0.13442470076927271 -0.27098989528689532 0 -0.13750682929684041 -0.26253289990405593 0 -0.1358624384287514 -0.25134689225890172 0 -0.1190927251675846 -0.26915435472971461 0 -0.12359158294165171 -0.24284810032462831 0 -0.13750682929684041 -0.26253289990405593 0 -0.1358624384287514 -0.25134689225890172 0 -0.1190927251675846 -0.26915435472971461 0 -0.13750682929684041 -0.26253289990405593 0 -0.1358624384287514 -0.25134689225890172 0 -0.1511073566547699 -0.25297673056549691 0 -0.14704692546382361 -0.26819662667927102 0 -0.13750682929684041 -0.26253289990405593 0 -0.1511073566547699 -0.25297673056549691 0 -0.15669609111023741 -0.26097091875401801 0 -0.14704692546382361 -0.26819662667927102 0 -0.1511073566547699 -0.25297673056549691 0 -0.16353476878086101 -0.34500480964621211 0 -0.1779085747599756 -0.35418315474696049 0 -0.15425771305938579 -0.3595399785978205 0 -0.17394916606374869 -0.37807573521935411 0 -0.1779085747599756 -0.35418315474696049 0 -0.15425771305938579 -0.3595399785978205 0 -0.17394916606374869 -0.37807573521935411 0 -0.1566711542484954 -0.37066786057582529 0 -0.15425771305938579 -0.3595399785978205 0 -0.17394916606374869 -0.37807573521935411 0 -0.15425771305938579 -0.3595399785978205 0 -0.17394916606374869 -0.37807573521935411 0 -0.19232109906882641 -0.3668236045330121 0 -0.1779085747599756 -0.35418315474696049 0 -0.17394916606374869 -0.37807573521935411 0 -0.19232109906882641 -0.3668236045330121 0 -0.1877235272187007 -0.34118567269219002 0 -0.1779085747599756 -0.35418315474696049 0 -0.1760779174794421 -0.33668545719174647 0 -0.1877235272187007 -0.34118567269219002 0 -0.1959913903757684 -0.35106818584914179 0 -0.1779085747599756 -0.35418315474696049 0 -0.16353476878086101 -0.34500480964621211 0 -0.1779085747599756 -0.35418315474696049 0 -0.1760779174794421 -0.33668545719174647 0 -0.19272049443141059 -0.32751518237323562 0 -0.1760779174794421 -0.33668545719174647 0 -0.17866773110616019 -0.32143041758381879 0 -0.19272049443141059 -0.32751518237323562 0 -0.1877235272187007 -0.34118567269219002 0 -0.1760779174794421 -0.33668545719174647 0 -0.1924958167031855 -0.31357861972082929 0 -0.17373975880711959 -0.30406702772204419 0 -0.17866773110616019 -0.32143041758381879 0 -0.1760779174794421 -0.33668545719174647 0 -0.17866773110616019 -0.32143041758381879 0 -0.1620470907454474 -0.32414218477664419 0 -0.17373975880711959 -0.30406702772204419 0 -0.17866773110616019 -0.32143041758381879 0 -0.1620470907454474 -0.32414218477664419 0 -0.16353476878086101 -0.34500480964621211 0 -0.1760779174794421 -0.33668545719174647 0 -0.1620470907454474 -0.32414218477664419 0 -0.16353476878086101 -0.34500480964621211 0 -0.1620470907454474 -0.32414218477664419 0 -0.15087978966603549 -0.33854469706461848 0 -0.1620470907454474 -0.32414218477664419 0 -0.15087978966603549 -0.33854469706461848 0 -0.14023926164989631 -0.32219272276889621 0 -0.15087978966603549 -0.33854469706461848 0 -0.14023926164989631 -0.32219272276889621 0 -0.1345773739056548 -0.34099241518189077 0 -0.15304978221273879 -0.30884136897930897 0 -0.1620470907454474 -0.32414218477664419 0 -0.14023926164989631 -0.32219272276889621 0 -0.13448373071583369 -0.30015946425276002 0 -0.14023926164989631 -0.32219272276889621 0 -0.12456820621969091 -0.31569227301272529 0 -0.14023926164989631 -0.32219272276889621 0 -0.12261034289742891 -0.3297500006361061 0 -0.12456820621969091 -0.31569227301272529 0 -0.14023926164989631 -0.32219272276889621 0 -0.1345773739056548 -0.34099241518189077 0 -0.12261034289742891 -0.3297500006361061 0 -0.1345773739056548 -0.34099241518189077 0 -0.12261034289742891 -0.3297500006361061 0 -0.1345773739056548 -0.34099241518189077 0 -0.1198718104492579 -0.34302024935083281 0 -0.12261034289742891 -0.3297500006361061 0 -0.1345773739056548 -0.34099241518189077 0 -0.12713805645120349 -0.35430415906328661 0 -0.1345773739056548 -0.34099241518189077 0 -0.12713805645120349 -0.35430415906328661 0 -0.1416600813205629 -0.36060843514842761 0 -0.1345773739056548 -0.34099241518189077 0 -0.12713805645120349 -0.35430415906328661 0 -0.1198718104492579 -0.34302024935083281 0 -0.16353476878086101 -0.34500480964621211 0 -0.15087978966603549 -0.33854469706461848 0 -0.15425771305938579 -0.3595399785978205 0 -0.1345773739056548 -0.34099241518189077 0 -0.15425771305938579 -0.3595399785978205 0 -0.1416600813205629 -0.36060843514842761 0 -0.1345773739056548 -0.34099241518189077 0 -0.15425771305938579 -0.3595399785978205 0 -0.15087978966603549 -0.33854469706461848 0 -0.1345773739056548 -0.34099241518189077 0 -0.15425771305938579 -0.3595399785978205 0 -0.1679260508762381 -0.37966210575014092 0 -0.1566711542484954 -0.37066786057582529 0 -0.14381239493649511 -0.37363900434741182 0 -0.1566711542484954 -0.37066786057582529 0 -0.15425771305938579 -0.3595399785978205 0 -0.1416600813205629 -0.36060843514842761 0 -0.1566711542484954 -0.37066786057582529 0 -0.1416600813205629 -0.36060843514842761 0 -0.14381239493649511 -0.37363900434741182 0 -0.13630184745337709 -0.38165415441776268 0 -0.14381239493649511 -0.37363900434741182 0 -0.1196987389967521 -0.36761590294468249 0 -0.14381239493649511 -0.37363900434741182 0 -0.1335149091727669 -0.36449538632994299 0 -0.1196987389967521 -0.36761590294468249 0 -0.14381239493649511 -0.37363900434741182 0 -0.1196987389967521 -0.36761590294468249 0 -0.12713805645120349 -0.35430415906328661 0 -0.1416600813205629 -0.36060843514842761 0 -0.1335149091727669 -0.36449538632994299 0 -0.1416600813205629 -0.36060843514842761 0 -0.14381239493649511 -0.37363900434741182 0 -0.1335149091727669 -0.36449538632994299 0 -0.12713805645120349 -0.35430415906328661 0 -0.1335149091727669 -0.36449538632994299 0 -0.1196987389967521 -0.36761590294468249 0 -0.1196987389967521 -0.36761590294468249 0 -0.10282010807523741 -0.36339996381734291 0 -0.1196987389967521 -0.36761590294468249 0 -0.11297200000800781 -0.3739040318038559 0 -0.1037066447648303 -0.36835657871169891 0 -0.13630184745337709 -0.38165415441776268 0 -0.1196987389967521 -0.36761590294468249 0 -0.1156815643902874 -0.37480414297012588 0 -0.1196987389967521 -0.36761590294468249 0 -0.10282010807523741 -0.36339996381734291 0 -0.1151959147913626 -0.35428312847729121 0 -0.1196987389967521 -0.36761590294468249 0 -0.1156815643902874 -0.37480414297012588 0 -0.12713805645120349 -0.35430415906328661 0 -0.1196987389967521 -0.36761590294468249 0 -0.11297200000800781 -0.3739040318038559 0 -0.1037066447648303 -0.36835657871169891 0 -0.1141391685572577 -0.37756407066763398 0 -0.1196987389967521 -0.36761590294468249 0 -0.1156815643902874 -0.37480414297012588 0 -0.11297200000800781 -0.3739040318038559 0 -0.1156815643902874 -0.37480414297012588 0 -0.11297200000800781 -0.3739040318038559 0 -0.1196987389967521 -0.36761590294468249 0 -0.1037066447648303 -0.36835657871169891 0 -0.10282010807523741 -0.36339996381734291 0 -0.1037066447648303 -0.36835657871169891 0 -0.1141391685572577 -0.37756407066763398 0 -0.1037066447648303 -0.36835657871169891 0 -0.10282010807523741 -0.36339996381734291 0 -0.1037066447648303 -0.36835657871169891 0 -0.10282010807523741 -0.36339996381734291 0 -0.096223702464996397 -0.36175231569698851 0 -0.096223702464996397 -0.36175231569698851 0 -0.095906001065034496 -0.37377866575327728 0 -0.089584675751427811 -0.36009402169083887 0 -0.1037066447648303 -0.36835657871169891 0 -0.096223702464996397 -0.36175231569698851 0 -0.10282010807523741 -0.36339996381734291 0 -0.096223702464996397 -0.36175231569698851 0 -0.1037066447648303 -0.36835657871169891 0 -0.096223702464996397 -0.36175231569698851 0 -0.095906001065034496 -0.37377866575327728 0 -0.10282010807523741 -0.36339996381734291 0 -0.1151959147913626 -0.35428312847729121 0 -0.10645085998436241 -0.34307536721030962 0 -0.10282010807523741 -0.36339996381734291 0 -0.094535887043070768 -0.35223527668239729 0 -0.098701017700290508 -0.34037018406503933 0 -0.10282010807523741 -0.36339996381734291 0 -0.098701017700290508 -0.34037018406503933 0 -0.10282010807523741 -0.36339996381734291 0 -0.10645085998436241 -0.34307536721030962 0 -0.098701017700290508 -0.34037018406503933 0 -0.094535887043070768 -0.35223527668239729 0 -0.098701017700290508 -0.34037018406503933 0 -0.09032820502763525 -0.34178263584750368 0 -0.10282010807523741 -0.36339996381734291 0 -0.096223702464996397 -0.36175231569698851 0 -0.094535887043070768 -0.35223527668239729 0 -0.1151959147913626 -0.35428312847729121 0 -0.1198718104492579 -0.34302024935083281 0 -0.10645085998436241 -0.34307536721030962 0 -0.12713805645120349 -0.35430415906328661 0 -0.1196987389967521 -0.36761590294468249 0 -0.1151959147913626 -0.35428312847729121 0 -0.12713805645120349 -0.35430415906328661 0 -0.1151959147913626 -0.35428312847729121 0 -0.1198718104492579 -0.34302024935083281 0 -0.11489685976771891 -0.33358534912329529 0 -0.1106544257398267 -0.31849577929593259 0 -0.10645085998436241 -0.34307536721030962 0 -0.1198718104492579 -0.34302024935083281 0 -0.12261034289742891 -0.3297500006361061 0 -0.11489685976771891 -0.33358534912329529 0 -0.1198718104492579 -0.34302024935083281 0 -0.11489685976771891 -0.33358534912329529 0 -0.10645085998436241 -0.34307536721030962 0 -0.12261034289742891 -0.3297500006361061 0 -0.12456820621969091 -0.31569227301272529 0 -0.1106544257398267 -0.31849577929593259 0 -0.12261034289742891 -0.3297500006361061 0 -0.11489685976771891 -0.33358534912329529 0 -0.1106544257398267 -0.31849577929593259 0 -0.12261034289742891 -0.3297500006361061 0 -0.1106544257398267 -0.31849577929593259 0 -0.1106544257398267 -0.31849577929593259 0 -0.1123768354104035 -0.30842430132096238 0 -0.12456820621969091 -0.31569227301272529 0 -0.1106544257398267 -0.31849577929593259 0 -0.1123768354104035 -0.30842430132096238 0 -0.1106544257398267 -0.31849577929593259 0 -0.1018995583960762 -0.32791483660808007 0 -0.094581927325342943 -0.31734040431273591 0 -0.1106544257398267 -0.31849577929593259 0 -0.094581927325342943 -0.31734040431273591 0 -0.098663902921762303 -0.30720898331030799 0 -0.1106544257398267 -0.31849577929593259 0 -0.1123768354104035 -0.30842430132096238 0 -0.1041310486649199 -0.31150705369342452 0 -0.1106544257398267 -0.31849577929593259 0 -0.098663902921762303 -0.30720898331030799 0 -0.094581927325342943 -0.31734040431273591 0 -0.098701017700290508 -0.34037018406503933 0 -0.1106544257398267 -0.31849577929593259 0 -0.10645085998436241 -0.34307536721030962 0 -0.1018995583960762 -0.32791483660808007 0 -0.094581927325342943 -0.31734040431273591 0 -0.098701017700290508 -0.34037018406503933 0 -0.094581927325342943 -0.31734040431273591 0 -0.098701017700290508 -0.34037018406503933 0 -0.091775914280740251 -0.33112018888814998 0 -0.1106544257398267 -0.31849577929593259 0 -0.1018995583960762 -0.32791483660808007 0 -0.10645085998436241 -0.34307536721030962 0 -0.1018995583960762 -0.32791483660808007 0 -0.10645085998436241 -0.34307536721030962 0 -0.098701017700290508 -0.34037018406503933 0 -0.09032820502763525 -0.34178263584750368 0 -0.08517493098071291 -0.32277288432745088 0 -0.085159457702311231 -0.351987282165519 0 -0.09032820502763525 -0.34178263584750368 0 -0.091775914280740251 -0.33112018888814998 0 -0.08517493098071291 -0.32277288432745088 0 -0.08517493098071291 -0.32277288432745088 0 -0.070194042500214979 -0.33877917041498229 0 -0.085159457702311231 -0.351987282165519 0 -0.098701017700290508 -0.34037018406503933 0 -0.09032820502763525 -0.34178263584750368 0 -0.091775914280740251 -0.33112018888814998 0 -0.08517493098071291 -0.32277288432745088 0 -0.085159457702311231 -0.351987282165519 0 -0.094581927325342943 -0.31734040431273591 0 -0.08517493098071291 -0.32277288432745088 0 -0.085126744134888438 -0.31259675385545982 0 -0.094581927325342943 -0.31734040431273591 0 -0.091775914280740251 -0.33112018888814998 0 -0.08517493098071291 -0.32277288432745088 0 -0.08517493098071291 -0.32277288432745088 0 -0.085126744134888438 -0.31259675385545982 0 -0.073629663821267705 -0.31426922757755987 0 -0.073629663821267705 -0.31426922757755987 0 -0.062203016191800339 -0.3042791079035152 0 -0.057834122960960577 -0.32682985750149057 0 -0.073629663821267705 -0.31426922757755987 0 -0.072039206352232446 -0.32583539571473857 0 -0.057834122960960577 -0.32682985750149057 0 -0.08517493098071291 -0.32277288432745088 0 -0.073629663821267705 -0.31426922757755987 0 -0.072039206352232446 -0.32583539571473857 0 -0.08517493098071291 -0.32277288432745088 0 -0.072039206352232446 -0.32583539571473857 0 -0.070194042500214979 -0.33877917041498229 0 -0.072039206352232446 -0.32583539571473857 0 -0.070194042500214979 -0.33877917041498229 0 -0.057834122960960577 -0.32682985750149057 0 -0.070194042500214979 -0.33877917041498229 0 -0.070205078340186661 -0.35228339567160172 0 -0.058964715001618789 -0.342239435739432 0 -0.070194042500214979 -0.33877917041498229 0 -0.070205078340186661 -0.35228339567160172 0 -0.085159457702311231 -0.351987282165519 0 -0.070194042500214979 -0.33877917041498229 0 -0.085159457702311231 -0.351987282165519 0 -0.070205078340186661 -0.35228339567160172 0 -0.077279224346321423 -0.36378646829830369 0 -0.085159457702311231 -0.351987282165519 0 -0.070205078340186661 -0.35228339567160172 0 -0.063090558102532196 -0.36376154113850018 0 -0.056641076130791793 -0.35414459370178619 0 -0.069941325429430351 -0.36974860705157447 0 -0.085146954509669748 -0.37559399527128579 0 -0.068552601192120102 -0.37953987735633171 0 -0.070205078340186661 -0.35228339567160172 0 -0.063090558102532196 -0.36376154113850018 0 -0.077279224346321423 -0.36378646829830369 0 -0.063090558102532196 -0.36376154113850018 0 -0.069941325429430351 -0.36974860705157447 0 -0.077279224346321423 -0.36378646829830369 0 -0.063090558102532196 -0.36376154113850018 0 -0.069941325429430351 -0.36974860705157447 0 -0.055166830475662378 -0.36851996203337711 0 -0.069941325429430351 -0.36974860705157447 0 -0.055166830475662378 -0.36851996203337711 0 -0.068552601192120102 -0.37953987735633171 0 -0.069941325429430351 -0.36974860705157447 0 -0.077279224346321423 -0.36378646829830369 0 -0.085146954509669748 -0.37559399527128579 0 -0.085159457702311231 -0.351987282165519 0 -0.085146954509669748 -0.37559399527128579 0 -0.077279224346321423 -0.36378646829830369 0 -0.085159457702311231 -0.351987282165519 0 -0.085146954509669748 -0.37559399527128579 0 -0.089584675751427811 -0.36009402169083887 0 -0.085159457702311231 -0.351987282165519 0 -0.085146954509669748 -0.37559399527128579 0 -0.095906001065034496 -0.37377866575327728 0 -0.089584675751427811 -0.36009402169083887 0 -0.085146954509669748 -0.37559399527128579 0 -0.096223702464996397 -0.36175231569698851 0 -0.089584675751427811 -0.36009402169083887 0 -0.096223702464996397 -0.36175231569698851 0 -0.089584675751427811 -0.36009402169083887 0 -0.085159457702311231 -0.351987282165519 0 -0.096223702464996397 -0.36175231569698851 0 -0.085159457702311231 -0.351987282165519 0 -0.096223702464996397 -0.36175231569698851 0 -0.094535887043070768 -0.35223527668239729 0 -0.085159457702311231 -0.351987282165519 0 -0.094535887043070768 -0.35223527668239729 0 -0.09032820502763525 -0.34178263584750368 0 -0.085159457702311231 -0.351987282165519 0 -0.095899482694015714 -0.25482491414349911 0 -0.1190927251675846 -0.26915435472971461 0 -0.101563553080084 -0.26705576631969508 0 -0.095899482694015714 -0.25482491414349911 0 -0.09337383650879906 -0.26607529535437757 0 -0.095899482694015714 -0.25482491414349911 0 -0.101563553080084 -0.26705576631969508 0 -0.09337383650879906 -0.26607529535437757 0 -0.095899482694015714 -0.25482491414349911 0 -0.1190927251675846 -0.26915435472971461 0 -0.12359158294165171 -0.24284810032462831 0 -0.1190927251675846 -0.26915435472971461 0 -0.12359158294165171 -0.24284810032462831 0 -0.11873501475443431 -0.27124600145523031 0 -0.101563553080084 -0.26705576631969508 0 -0.1190927251675846 -0.26915435472971461 0 -0.11873501475443431 -0.27124600145523031 0 -0.101563553080084 -0.26705576631969508 0 -0.1190927251675846 -0.26915435472971461 0 -0.101563553080084 -0.26705576631969508 0 -0.1190927251675846 -0.26915435472971461 0 -0.11873501475443431 -0.27124600145523031 0 -0.11873501475443431 -0.27124600145523031 0 -0.12316809163260251 -0.27232777508904532 0 -0.1190927251675846 -0.26915435472971461 0 -0.11873501475443431 -0.27124600145523031 0 -0.12316809163260251 -0.27232777508904532 0 -0.11873501475443431 -0.27124600145523031 0 -0.1174233351129297 -0.27891581012230021 0 -0.11873501475443431 -0.27124600145523031 0 -0.12316809163260251 -0.27232777508904532 0 -0.1174233351129297 -0.27891581012230021 0 -0.11873501475443431 -0.27124600145523031 0 -0.1174233351129297 -0.27891581012230021 0 -0.1062172126334668 -0.27634574298220632 0 -0.1062172126334668 -0.27634574298220632 0 -0.090152605148827808 -0.2804241305081081 0 -0.091523988056071676 -0.27431536492447972 0 -0.1174233351129297 -0.27891581012230021 0 -0.1062172126334668 -0.27634574298220632 0 -0.090152605148827808 -0.2804241305081081 0 -0.11873501475443431 -0.27124600145523031 0 -0.1062172126334668 -0.27634574298220632 0 -0.101563553080084 -0.26705576631969508 0 -0.1174233351129297 -0.27891581012230021 0 -0.090152605148827808 -0.2804241305081081 0 -0.1062172126334668 -0.27634574298220632 0 -0.101563553080084 -0.26705576631969508 0 -0.098169647569605417 -0.27094804239518971 0 -0.101563553080084 -0.26705576631969508 0 -0.09337383650879906 -0.26607529535437757 0 -0.098169647569605417 -0.27094804239518971 0 -0.091523988056071676 -0.27431536492447972 0 -0.09337383650879906 -0.26607529535437757 0 -0.101563553080084 -0.26705576631969508 0 -0.098169647569605417 -0.27094804239518971 0 -0.09337383650879906 -0.26607529535437757 0 -0.1062172126334668 -0.27634574298220632 0 -0.098169647569605417 -0.27094804239518971 0 -0.091523988056071676 -0.27431536492447972 0 -0.1062172126334668 -0.27634574298220632 0 -0.091523988056071676 -0.27431536492447972 0 -0.1174233351129297 -0.27891581012230021 0 -0.1014224134120726 -0.29335597740994601 0 -0.090152605148827808 -0.2804241305081081 0 -0.1258033543668978 -0.29130647440549989 0 -0.1174233351129297 -0.27891581012230021 0 -0.1123768354104035 -0.30842430132096238 0 -0.1174233351129297 -0.27891581012230021 0 -0.1123768354104035 -0.30842430132096238 0 -0.1174233351129297 -0.27891581012230021 0 -0.1014224134120726 -0.29335597740994601 0 -0.1123768354104035 -0.30842430132096238 0 -0.13448373071583369 -0.30015946425276002 0 -0.12456820621969091 -0.31569227301272529 0 -0.1123768354104035 -0.30842430132096238 0 -0.13448373071583369 -0.30015946425276002 0 -0.1123768354104035 -0.30842430132096238 0 -0.13448373071583369 -0.30015946425276002 0 -0.1258033543668978 -0.29130647440549989 0 -0.1123768354104035 -0.30842430132096238 0 -0.1123768354104035 -0.30842430132096238 0 -0.1041310486649199 -0.31150705369342452 0 -0.1123768354104035 -0.30842430132096238 0 -0.1041310486649199 -0.31150705369342452 0 -0.098663902921762303 -0.30720898331030799 0 -0.1106544257398267 -0.31849577929593259 0 -0.1041310486649199 -0.31150705369342452 0 -0.098663902921762303 -0.30720898331030799 0 -0.1014224134120726 -0.29335597740994601 0 -0.1123768354104035 -0.30842430132096238 0 -0.098663902921762303 -0.30720898331030799 0 -0.1014224134120726 -0.29335597740994601 0 -0.098663902921762303 -0.30720898331030799 0 -0.086673380103681169 -0.29592218732470049 0 -0.094581927325342943 -0.31734040431273591 0 -0.098663902921762303 -0.30720898331030799 0 -0.09033325731949611 -0.30754329995840118 0 -0.085126744134888438 -0.31259675385545982 0 -0.09033325731949611 -0.30754329995840118 0 -0.084886489397760514 -0.30388181434649503 0 -0.094581927325342943 -0.31734040431273591 0 -0.085126744134888438 -0.31259675385545982 0 -0.09033325731949611 -0.30754329995840118 0 -0.098663902921762303 -0.30720898331030799 0 -0.086673380103681169 -0.29592218732470049 0 -0.09033325731949611 -0.30754329995840118 0 -0.084886489397760514 -0.30388181434649503 0 -0.086673380103681169 -0.29592218732470049 0 -0.098663902921762303 -0.30720898331030799 0 -0.09033325731949611 -0.30754329995840118 0 -0.086673380103681169 -0.29592218732470049 0 -0.084886489397760514 -0.30388181434649503 0 -0.074666780701564073 -0.29542379317351092 0 -0.086673380103681169 -0.29592218732470049 0 -0.084886489397760514 -0.30388181434649503 0 -0.076350058653573888 -0.30526531500595011 0 -0.074666780701564073 -0.29542379317351092 0 -0.084886489397760514 -0.30388181434649503 0 -0.086673380103681169 -0.29592218732470049 0 -0.085126744134888438 -0.31259675385545982 0 -0.073629663821267705 -0.31426922757755987 0 -0.076350058653573888 -0.30526531500595011 0 -0.085126744134888438 -0.31259675385545982 0 -0.084886489397760514 -0.30388181434649503 0 -0.076350058653573888 -0.30526531500595011 0 -0.073629663821267705 -0.31426922757755987 0 -0.076350058653573888 -0.30526531500595011 0 -0.062203016191800339 -0.3042791079035152 0 -0.076350058653573888 -0.30526531500595011 0 -0.074666780701564073 -0.29542379317351092 0 -0.062203016191800339 -0.3042791079035152 0 -0.074666780701564073 -0.29542379317351092 0 -0.07131583043992254 -0.2814659761548689 0 -0.086673380103681169 -0.29592218732470049 0 -0.074666780701564073 -0.29542379317351092 0 -0.066571909422640435 -0.28172835830553999 0 -0.062203016191800339 -0.3042791079035152 0 -0.066571909422640435 -0.28172835830553999 0 -0.062203016191800339 -0.3042791079035152 0 -0.066571909422640435 -0.28172835830553999 0 -0.07131583043992254 -0.2814659761548689 0 -0.07131583043992254 -0.2814659761548689 0 -0.075117391816494058 -0.28125571509730579 0 -0.079979778774021598 -0.28543710213748891 0 -0.074666780701564073 -0.29542379317351092 0 -0.066571909422640435 -0.28172835830553999 0 -0.07131583043992254 -0.2814659761548689 0 -0.07131583043992254 -0.2814659761548689 0 -0.075117391816494058 -0.28125571509730579 0 -0.075117391816494058 -0.28125571509730579 0 -0.079979778774021598 -0.28543710213748891 0 -0.07131583043992254 -0.2814659761548689 0 -0.079979778774021598 -0.28543710213748891 0 -0.086673380103681169 -0.29592218732470049 0 -0.07131583043992254 -0.2814659761548689 0 -0.086673380103681169 -0.29592218732470049 0 -0.075117391816494058 -0.28125571509730579 0 -0.079979778774021598 -0.28543710213748891 0 -0.090152605148827808 -0.2804241305081081 0 -0.079979778774021598 -0.28543710213748891 0 -0.086673380103681169 -0.29592218732470049 0 -0.090152605148827808 -0.2804241305081081 0 -0.1014224134120726 -0.29335597740994601 0 -0.086673380103681169 -0.29592218732470049 0 -0.090152605148827808 -0.2804241305081081 0 -0.086673380103681169 -0.29592218732470049 0 -0.090152605148827808 -0.2804241305081081 0 -0.075117391816494058 -0.28125571509730579 0 -0.091523988056071676 -0.27431536492447972 0 -0.068621211706485302 -0.27115055284960998 0 -0.091523988056071676 -0.27431536492447972 0 -0.068621211706485302 -0.27115055284960998 0 -0.07497888835448463 -0.26387305643477599 0 -0.091523988056071676 -0.27431536492447972 0 -0.09337383650879906 -0.26607529535437757 0 -0.07497888835448463 -0.26387305643477599 0 -0.075117391816494058 -0.28125571509730579 0 -0.090152605148827808 -0.2804241305081081 0 -0.091523988056071676 -0.27431536492447972 0 -0.091523988056071676 -0.27431536492447972 0 -0.068621211706485302 -0.27115055284960998 0 -0.090152605148827808 -0.2804241305081081 0 -0.091523988056071676 -0.27431536492447972 0 -0.091523988056071676 -0.27431536492447972 0 -0.09337383650879906 -0.26607529535437757 0 -0.075117391816494058 -0.28125571509730579 0 -0.090152605148827808 -0.2804241305081081 0 -0.075117391816494058 -0.28125571509730579 0 -0.067870780430272046 -0.27502402535310189 0 -0.068621211706485302 -0.27115055284960998 0 -0.075117391816494058 -0.28125571509730579 0 -0.067870780430272046 -0.27502402535310189 0 -0.07131583043992254 -0.2814659761548689 0 -0.075117391816494058 -0.28125571509730579 0 -0.067870780430272046 -0.27502402535310189 0 -0.07131583043992254 -0.2814659761548689 0 -0.06734659453276301 -0.27772969571215628 0 -0.067870780430272046 -0.27502402535310189 0 -0.066571909422640435 -0.28172835830553999 0 -0.06734659453276301 -0.27772969571215628 0 -0.059663083014475732 -0.27049713143822818 0 -0.06734659453276301 -0.27772969571215628 0 -0.067870780430272046 -0.27502402535310189 0 -0.061621601938386047 -0.26965007338547831 0 -0.066571909422640435 -0.28172835830553999 0 -0.07131583043992254 -0.2814659761548689 0 -0.06734659453276301 -0.27772969571215628 0 -0.07131583043992254 -0.2814659761548689 0 -0.06734659453276301 -0.27772969571215628 0 -0.066571909422640435 -0.28172835830553999 0 -0.06734659453276301 -0.27772969571215628 0 -0.06734659453276301 -0.27772969571215628 0 -0.067870780430272046 -0.27502402535310189 0 -0.06734659453276301 -0.27772969571215628 0 -0.059663083014475732 -0.27049713143822818 0 -0.06734659453276301 -0.27772969571215628 0 -0.059663083014475732 -0.27049713143822818 0 -0.061621601938386047 -0.26965007338547831 0 -0.068621211706485302 -0.27115055284960998 0 -0.069578634015220048 -0.26620866262635312 0 -0.061621601938386047 -0.26965007338547831 0 -0.069578634015220048 -0.26620866262635312 0 -0.070143282357617423 -0.26329413880821279 0 -0.061621601938386047 -0.26965007338547831 0 -0.069578634015220048 -0.26620866262635312 0 -0.061621601938386047 -0.26965007338547831 0 -0.067870780430272046 -0.27502402535310189 0 -0.061621601938386047 -0.26965007338547831 0 -0.067870780430272046 -0.27502402535310189 0 -0.068621211706485302 -0.27115055284960998 0 -0.061621601938386047 -0.26965007338547831 0 -0.068621211706485302 -0.27115055284960998 0 -0.061621601938386047 -0.26965007338547831 0 -0.067870780430272046 -0.27502402535310189 0 -0.068621211706485302 -0.27115055284960998 0 -0.068621211706485302 -0.27115055284960998 0 -0.069578634015220048 -0.26620866262635312 0 -0.068621211706485302 -0.27115055284960998 0 -0.069578634015220048 -0.26620866262635312 0 -0.07497888835448463 -0.26387305643477599 0 -0.070865789799406609 -0.25956479969609503 0 -0.079863522993144032 -0.26176045539993009 0 -0.07497888835448463 -0.26387305643477599 0 -0.079863522993144032 -0.26176045539993009 0 -0.07497888835448463 -0.26387305643477599 0 -0.070865789799406609 -0.25956479969609503 0 -0.079863522993144032 -0.26176045539993009 0 -0.070865789799406609 -0.25956479969609503 0 -0.070143282357617423 -0.26329413880821279 0 -0.069578634015220048 -0.26620866262635312 0 -0.07497888835448463 -0.26387305643477599 0 -0.07497888835448463 -0.26387305643477599 0 -0.070143282357617423 -0.26329413880821279 0 -0.069578634015220048 -0.26620866262635312 0 -0.07497888835448463 -0.26387305643477599 0 -0.070143282357617423 -0.26329413880821279 0 -0.07497888835448463 -0.26387305643477599 0 -0.070865789799406609 -0.25956479969609503 0 -0.070143282357617423 -0.26329413880821279 0 -0.070865789799406609 -0.25956479969609503 0 -0.070143282357617423 -0.26329413880821279 0 -0.061327468219556792 -0.25983404442691949 0 -0.069578634015220048 -0.26620866262635312 0 -0.070143282357617423 -0.26329413880821279 0 -0.070865789799406609 -0.25956479969609503 0 -0.05965132653339137 -0.2479407821529602 0 -0.07280841458628183 -0.2495376274085182 0 -0.082638524663706275 -0.25928216968588308 0 -0.07280841458628183 -0.2495376274085182 0 -0.070865789799406609 -0.25956479969609503 0 -0.07280841458628183 -0.2495376274085182 0 -0.070865789799406609 -0.25956479969609503 0 -0.079863522993144032 -0.26176045539993009 0 -0.07280841458628183 -0.2495376274085182 0 -0.09337383650879906 -0.26607529535437757 0 -0.07497888835448463 -0.26387305643477599 0 -0.079863522993144032 -0.26176045539993009 0 -0.095899482694015714 -0.25482491414349911 0 -0.09337383650879906 -0.26607529535437757 0 -0.079863522993144032 -0.26176045539993009 0 -0.082638524663706275 -0.25928216968588308 0 -0.079863522993144032 -0.26176045539993009 0 -0.07280841458628183 -0.2495376274085182 0 -0.095899482694015714 -0.25482491414349911 0 -0.082638524663706275 -0.25928216968588308 0 -0.086529348547165166 -0.24249916987868519 0 -0.09337383650879906 -0.26607529535437757 0 -0.07497888835448463 -0.26387305643477599 0 -0.082638524663706275 -0.25928216968588308 0 -0.086529348547165166 -0.24249916987868519 0 -0.07280841458628183 -0.2495376274085182 0 -0.095899482694015714 -0.25482491414349911 0 -0.079863522993144032 -0.26176045539993009 0 -0.095899482694015714 -0.25482491414349911 0 -0.082638524663706275 -0.25928216968588308 0 -0.079863522993144032 -0.26176045539993009 0 -0.09337383650879906 -0.26607529535437757 0 -0.079863522993144032 -0.26176045539993009 0 -0.043403205702332123 -0.25519155045918102 0 -0.041237961398105247 -0.26736660806046109 0 -0.023540565069517089 -0.26492109958849652 0 -0.044829220638993209 -0.2552095432194591 0 -0.043403205702332123 -0.25519155045918102 0 -0.028552703887756301 -0.2412126283713783 0 -0.044829220638993209 -0.2552095432194591 0 -0.043403205702332123 -0.25519155045918102 0 -0.070865789799406609 -0.25956479969609503 0 -0.051908538980487078 -0.25493879056763641 0 -0.05965132653339137 -0.2479407821529602 0 -0.043403205702332123 -0.25519155045918102 0 -0.059663083014475732 -0.27049713143822818 0 -0.043403205702332123 -0.25519155045918102 0 -0.059663083014475732 -0.27049713143822818 0 -0.041237961398105247 -0.26736660806046109 0 -0.044829220638993209 -0.2552095432194591 0 -0.043403205702332123 -0.25519155045918102 0 -0.059663083014475732 -0.27049713143822818 0 -0.070143282357617423 -0.26329413880821279 0 -0.05217869561510647 -0.26152969002917947 0 -0.061621601938386047 -0.26965007338547831 0 -0.070143282357617423 -0.26329413880821279 0 -0.05217869561510647 -0.26152969002917947 0 -0.046185993924848588 -0.25354235677466358 0 -0.051908538980487078 -0.25493879056763641 0 -0.05965132653339137 -0.2479407821529602 0 -0.070143282357617423 -0.26329413880821279 0 -0.061327468219556792 -0.25983404442691949 0 -0.05217869561510647 -0.26152969002917947 0 -0.070865789799406609 -0.25956479969609503 0 -0.051908538980487078 -0.25493879056763641 0 -0.070865789799406609 -0.25956479969609503 0 -0.051908538980487078 -0.25493879056763641 0 -0.061327468219556792 -0.25983404442691949 0 -0.044829220638993209 -0.2552095432194591 0 -0.051908538980487078 -0.25493879056763641 0 -0.044829220638993209 -0.2552095432194591 0 -0.051908538980487078 -0.25493879056763641 0 -0.05217869561510647 -0.26152969002917947 0 -0.044829220638993209 -0.2552095432194591 0 -0.046185993924848588 -0.25354235677466358 0 -0.051908538980487078 -0.25493879056763641 0 -0.046185993924848588 -0.25354235677466358 0 -0.051908538980487078 -0.25493879056763641 0 -0.05217869561510647 -0.26152969002917947 0 -0.061621601938386047 -0.26965007338547831 0 -0.051908538980487078 -0.25493879056763641 0 -0.061327468219556792 -0.25983404442691949 0 -0.05217869561510647 -0.26152969002917947 0 -0.044829220638993209 -0.2552095432194591 0 -0.05217869561510647 -0.26152969002917947 0 -0.059663083014475732 -0.27049713143822818 0 -0.044829220638993209 -0.2552095432194591 0 -0.05217869561510647 -0.26152969002917947 0 -0.059663083014475732 -0.27049713143822818 0 -0.044268529827411043 -0.27715526482997183 0 -0.041237961398105247 -0.26736660806046109 0 -0.059663083014475732 -0.27049713143822818 0 -0.041237961398105247 -0.26736660806046109 0 -0.066571909422640435 -0.28172835830553999 0 -0.059663083014475732 -0.27049713143822818 0 -0.047722943031493673 -0.28277087826363001 0 -0.05217869561510647 -0.26152969002917947 0 -0.059663083014475732 -0.27049713143822818 0 -0.061621601938386047 -0.26965007338547831 0 -0.059663083014475732 -0.27049713143822818 0 -0.061621601938386047 -0.26965007338547831 0 -0.059663083014475732 -0.27049713143822818 0 -0.044268529827411043 -0.27715526482997183 0 -0.059663083014475732 -0.27049713143822818 0 -0.044268529827411043 -0.27715526482997183 0 -0.047722943031493673 -0.28277087826363001 0 -0.041237961398105247 -0.26736660806046109 0 -0.03109664230614197 -0.27401283641591151 0 -0.023540565069517089 -0.26492109958849652 0 -0.041237961398105247 -0.26736660806046109 0 -0.023540565069517089 -0.26492109958849652 0 -0.044268529827411043 -0.27715526482997183 0 -0.047722943031493673 -0.28277087826363001 0 -0.028873976640346619 -0.28381339822171592 0 -0.044268529827411043 -0.27715526482997183 0 -0.041237961398105247 -0.26736660806046109 0 -0.03109664230614197 -0.27401283641591151 0 -0.044268529827411043 -0.27715526482997183 0 -0.028873976640346619 -0.28381339822171592 0 -0.03109664230614197 -0.27401283641591151 0 -0.044268529827411043 -0.27715526482997183 0 -0.028873976640346619 -0.28381339822171592 0 -0.047722943031493673 -0.28277087826363001 0 -0.028873976640346619 -0.28381339822171592 0 -0.03824646607524098 -0.2958096572441708 0 -0.054612357709650047 -0.29458135865340301 0 -0.047722943031493673 -0.28277087826363001 0 -0.03824646607524098 -0.2958096572441708 0 -0.047722943031493673 -0.28277087826363001 0 -0.028873976640346619 -0.28381339822171592 0 -0.066571909422640435 -0.28172835830553999 0 -0.047722943031493673 -0.28277087826363001 0 -0.066571909422640435 -0.28172835830553999 0 -0.054612357709650047 -0.29458135865340301 0 -0.047722943031493673 -0.28277087826363001 0 -0.066571909422640435 -0.28172835830553999 0 -0.054612357709650047 -0.29458135865340301 0 -0.062203016191800339 -0.3042791079035152 0 -0.054612357709650047 -0.29458135865340301 0 -0.052864350117759223 -0.31229470201877058 0 -0.038727577569429857 -0.31666519238479329 0 -0.054612357709650047 -0.29458135865340301 0 -0.052864350117759223 -0.31229470201877058 0 -0.062203016191800339 -0.3042791079035152 0 -0.03824646607524098 -0.2958096572441708 0 -0.054612357709650047 -0.29458135865340301 0 -0.038727577569429857 -0.31666519238479329 0 -0.054612357709650047 -0.29458135865340301 0 -0.038727577569429857 -0.31666519238479329 0 -0.03824646607524098 -0.2958096572441708 0 -0.021295475425284569 -0.30121745869730893 0 -0.038727577569429857 -0.31666519238479329 0 -0.021295475425284569 -0.30121745869730893 0 -0.0042876670432264166 -0.29444695977553792 0 -0.0051617510024175878 -0.31389466242030678 0 -0.0042876670432264166 -0.29444695977553792 0 -0.0070919597642525173 -0.28501814265435832 0 -0.028873976640346619 -0.28381339822171592 0 -0.0070919597642525173 -0.28501814265435832 0 -0.028873976640346619 -0.28381339822171592 0 -0.0070919597642525173 -0.28501814265435832 0 -0.028873976640346619 -0.28381339822171592 0 -0.018215415372332209 -0.27569769702776697 0 -0.03824646607524098 -0.2958096572441708 0 -0.021295475425284569 -0.30121745869730893 0 -0.028873976640346619 -0.28381339822171592 0 -0.021295475425284569 -0.30121745869730893 0 -0.0042876670432264166 -0.29444695977553792 0 -0.028873976640346619 -0.28381339822171592 0 -0.0042876670432264166 -0.29444695977553792 0 -0.028873976640346619 -0.28381339822171592 0 -0.028873976640346619 -0.28381339822171592 0 -0.03109664230614197 -0.27401283641591151 0 -0.018215415372332209 -0.27569769702776697 0 -0.03109664230614197 -0.27401283641591151 0 -0.018215415372332209 -0.27569769702776697 0 -0.023540565069517089 -0.26492109958849652 0 -0.018215415372332209 -0.27569769702776697 0 -0.0036094696110104958 -0.2653944593728465 0 -0.023540565069517089 -0.26492109958849652 0 -0.0070919597642525173 -0.28501814265435832 0 -0.018215415372332209 -0.27569769702776697 0 -0.0036094696110104958 -0.2653944593728465 0 -0.0070919597642525173 -0.28501814265435832 0 -0.0036094696110104958 -0.2653944593728465 0 0.0042085222182574418 -0.27821715245273931 0 -0.0036094696110104958 -0.2653944593728465 0 -0.016107058134154511 -0.25484714099628603 0 0.011189089434022539 -0.25450273153334613 0 -0.016107058134154511 -0.25484714099628603 0 0.011189089434022539 -0.25450273153334613 0 -0.016107058134154511 -0.25484714099628603 0 -0.0026118230880910788 -0.24256171291824011 0 0.011189089434022539 -0.25450273153334613 0 -0.0036094696110104958 -0.2653944593728465 0 -0.016107058134154511 -0.25484714099628603 0 -0.023540565069517089 -0.26492109958849652 0 -0.043403205702332123 -0.25519155045918102 0 -0.016107058134154511 -0.25484714099628603 0 -0.043403205702332123 -0.25519155045918102 0 -0.016107058134154511 -0.25484714099628603 0 -0.023540565069517089 -0.26492109958849652 0 -0.043403205702332123 -0.25519155045918102 0 -0.016107058134154511 -0.25484714099628603 0 -0.028552703887756301 -0.2412126283713783 0 -0.033869900207071563 -0.36186464240881328 0 -0.047582636472667868 -0.35681208610473758 0 -0.044652739077146147 -0.34271914627497468 0 -0.033869900207071563 -0.36186464240881328 0 -0.044652739077146147 -0.34271914627497468 0 -0.022842797429209669 -0.33874902611618363 0 -0.033869900207071563 -0.36186464240881328 0 -0.055166830475662378 -0.36851996203337711 0 -0.047582636472667868 -0.35681208610473758 0 -0.033869900207071563 -0.36186464240881328 0 -0.055166830475662378 -0.36851996203337711 0 -0.029737178721974421 -0.38379118183702399 0 -0.055166830475662378 -0.36851996203337711 0 -0.056641076130791793 -0.35414459370178619 0 -0.047582636472667868 -0.35681208610473758 0 -0.063090558102532196 -0.36376154113850018 0 -0.055166830475662378 -0.36851996203337711 0 -0.056641076130791793 -0.35414459370178619 0 -0.055166830475662378 -0.36851996203337711 0 -0.056641076130791793 -0.35414459370178619 0 -0.063090558102532196 -0.36376154113850018 0 -0.055166830475662378 -0.36851996203337711 0 -0.056641076130791793 -0.35414459370178619 0 -0.047582636472667868 -0.35681208610473758 0 -0.044652739077146147 -0.34271914627497468 0 -0.056641076130791793 -0.35414459370178619 0 -0.058964715001618789 -0.342239435739432 0 -0.044652739077146147 -0.34271914627497468 0 -0.070205078340186661 -0.35228339567160172 0 -0.056641076130791793 -0.35414459370178619 0 -0.058964715001618789 -0.342239435739432 0 -0.058964715001618789 -0.342239435739432 0 -0.057834122960960577 -0.32682985750149057 0 -0.044652739077146147 -0.34271914627497468 0 -0.057834122960960577 -0.32682985750149057 0 -0.038727577569429857 -0.31666519238479329 0 -0.044652739077146147 -0.34271914627497468 0 -0.070194042500214979 -0.33877917041498229 0 -0.058964715001618789 -0.342239435739432 0 -0.057834122960960577 -0.32682985750149057 0 -0.052864350117759223 -0.31229470201877058 0 -0.062203016191800339 -0.3042791079035152 0 -0.057834122960960577 -0.32682985750149057 0 -0.062203016191800339 -0.3042791079035152 0 -0.057834122960960577 -0.32682985750149057 0 -0.052864350117759223 -0.31229470201877058 0 -0.057834122960960577 -0.32682985750149057 0 -0.038727577569429857 -0.31666519238479329 0 -0.038727577569429857 -0.31666519238479329 0 -0.044652739077146147 -0.34271914627497468 0 -0.022842797429209669 -0.33874902611618363 0 -0.038727577569429857 -0.31666519238479329 0 -0.022842797429209669 -0.33874902611618363 0 -0.01497853438807646 -0.32435780231781342 0 -0.021295475425284569 -0.30121745869730893 0 -0.038727577569429857 -0.31666519238479329 0 -0.01497853438807646 -0.32435780231781342 0 -0.038727577569429857 -0.31666519238479329 0 -0.022842797429209669 -0.33874902611618363 0 -0.01497853438807646 -0.32435780231781342 0 -0.0051617510024175878 -0.31389466242030678 0 0.0049385955257191493 -0.33755976517825093 0 -0.021295475425284569 -0.30121745869730893 0 -0.01497853438807646 -0.32435780231781342 0 -0.0051617510024175878 -0.31389466242030678 0 -0.022842797429209669 -0.33874902611618363 0 -0.01497853438807646 -0.32435780231781342 0 -0.0079555777695786856 -0.34494553153674068 0 -0.01497853438807646 -0.32435780231781342 0 -0.0079555777695786856 -0.34494553153674068 0 0.0049385955257191493 -0.33755976517825093 0 -0.0079555777695786856 -0.34494553153674068 0 -0.0069580172889895549 -0.36083285984757391 0 6.2864732661596824e-05 -0.3632282042238793 0 -0.0079555777695786856 -0.34494553153674068 0 6.2864732661596824e-05 -0.3632282042238793 0 0.0049385955257191493 -0.33755976517825093 0 -0.022842797429209669 -0.33874902611618363 0 -0.0079555777695786856 -0.34494553153674068 0 -0.0069580172889895549 -0.36083285984757391 0 -0.022842797429209669 -0.33874902611618363 0 -0.0069580172889895549 -0.36083285984757391 0 -0.022842797429209669 -0.33874902611618363 0 -0.020862183243091789 -0.36128203841006479 0 -0.0069580172889895549 -0.36083285984757391 0 -0.033869900207071563 -0.36186464240881328 0 -0.022842797429209669 -0.33874902611618363 0 -0.020862183243091789 -0.36128203841006479 0 -0.033869900207071563 -0.36186464240881328 0 -0.02482660479169848 -0.37011188892158858 0 -0.029737178721974421 -0.38379118183702399 0 -0.033869900207071563 -0.36186464240881328 0 -0.02482660479169848 -0.37011188892158858 0 -0.020862183243091789 -0.36128203841006479 0 -0.02482660479169848 -0.37011188892158858 0 -0.020862183243091789 -0.36128203841006479 0 -0.014837156994655961 -0.37350969303045228 0 -0.020862183243091789 -0.36128203841006479 0 -0.014837156994655961 -0.37350969303045228 0 -0.0069580172889895549 -0.36083285984757391 0 -0.014837156994655961 -0.37350969303045228 0 -0.0069580172889895549 -0.36083285984757391 0 6.2864732661596824e-05 -0.3632282042238793 0 -0.014837156994655961 -0.37350969303045228 0 6.2864732661596824e-05 -0.3632282042238793 0 -0.014837156994655961 -0.37350969303045228 0 -0.0026119814658056191 -0.37723872008098658 0 6.2864732661596824e-05 -0.3632282042238793 0 -0.014837156994655961 -0.37350969303045228 0 -0.0026119814658056191 -0.37723872008098658 0 -0.01036310106800961 -0.3954258593863833 0 -0.0026119814658056191 -0.37723872008098658 0 -0.01036310106800961 -0.3954258593863833 0 0.0060011257705238318 -0.38562899480587859 0 -0.01036310106800961 -0.3954258593863833 0 0.0090109765859554859 -0.40706053693574229 0 -0.01036310106800961 -0.3954258593863833 0 -0.010460829196554529 -0.41206728191238062 0 0.0090109765859554859 -0.40706053693574229 0 -0.01036310106800961 -0.3954258593863833 0 -0.030330790870234041 -0.40689374277481383 0 -0.010460829196554529 -0.41206728191238062 0 -0.01036310106800961 -0.3954258593863833 0 -0.029737178721974421 -0.38379118183702399 0 -0.030330790870234041 -0.40689374277481383 0 -0.014837156994655961 -0.37350969303045228 0 -0.01036310106800961 -0.3954258593863833 0 -0.029737178721974421 -0.38379118183702399 0 -0.01036310106800961 -0.3954258593863833 0 -0.029737178721974421 -0.38379118183702399 0 -0.02482660479169848 -0.37011188892158858 0 -0.014837156994655961 -0.37350969303045228 0 -0.029737178721974421 -0.38379118183702399 0 -0.014837156994655961 -0.37350969303045228 0 -0.029737178721974421 -0.38379118183702399 0 -0.055166830475662378 -0.36851996203337711 0 -0.029737178721974421 -0.38379118183702399 0 -0.055166830475662378 -0.36851996203337711 0 -0.029737178721974421 -0.38379118183702399 0 -0.053595219018177688 -0.38384474423430948 0 -0.029737178721974421 -0.38379118183702399 0 -0.052023607560689002 -0.3991695264352414 0 -0.053595219018177688 -0.38384474423430948 0 -0.029737178721974421 -0.38379118183702399 0 -0.052023607560689002 -0.3991695264352414 0 -0.030330790870234041 -0.40689374277481383 0 -0.029737178721974421 -0.38379118183702399 0 -0.052023607560689002 -0.3991695264352414 0 -0.052023607560689002 -0.3991695264352414 0 -0.053595219018177688 -0.38384474423430948 0 -0.052023607560689002 -0.3991695264352414 0 -0.070080876212598189 -0.41162961601896808 0 -0.052023607560689002 -0.3991695264352414 0 -0.053595219018177688 -0.38384474423430948 0 -0.068583671674674371 -0.39425571481463467 0 -0.055166830475662378 -0.36851996203337711 0 -0.053595219018177688 -0.38384474423430948 0 -0.068552601192120102 -0.37953987735633171 0 -0.055166830475662378 -0.36851996203337711 0 -0.053595219018177688 -0.38384474423430948 0 -0.048448607657125817 -0.43402934794490439 0 -0.05023610760890878 -0.41659943719007309 0 -0.048448607657125817 -0.43402934794490439 0 -0.061682044644240548 -0.42657987179155582 0 -0.05023610760890878 -0.41659943719007309 0 -0.048448607657125817 -0.43402934794490439 0 -0.061682044644240548 -0.42657987179155582 0 -0.061440756046654547 -0.43780462557810967 0 -0.052023607560689002 -0.3991695264352414 0 -0.05023610760890878 -0.41659943719007309 0 -0.070080876212598189 -0.41162961601896808 0 -0.061682044644240548 -0.42657987179155582 0 -0.05023610760890878 -0.41659943719007309 0 -0.070080876212598189 -0.41162961601896808 0 -0.052023607560689002 -0.3991695264352414 0 -0.05023610760890878 -0.41659943719007309 0 -0.05023610760890878 -0.41659943719007309 0 -0.035984593998448812 -0.42491121743565491 0 -0.030330790870234041 -0.40689374277481383 0 -0.052023607560689002 -0.3991695264352414 0 -0.05023610760890878 -0.41659943719007309 0 -0.030330790870234041 -0.40689374277481383 0 -0.048448607657125817 -0.43402934794490439 0 -0.05023610760890878 -0.41659943719007309 0 -0.035984593998448812 -0.42491121743565491 0 -0.048448607657125817 -0.43402934794490439 0 -0.035984593998448812 -0.42491121743565491 0 -0.028683064093567631 -0.44492549149539112 0 -0.020554469188397061 -0.42387023340802082 0 -0.013447590074464069 -0.43702444017701819 0 -0.028683064093567631 -0.44492549149539112 0 -0.035984593998448812 -0.42491121743565491 0 -0.020554469188397061 -0.42387023340802082 0 -0.028683064093567631 -0.44492549149539112 0 -0.035984593998448812 -0.42491121743565491 0 -0.020554469188397061 -0.42387023340802082 0 -0.030330790870234041 -0.40689374277481383 0 -0.020554469188397061 -0.42387023340802082 0 -0.030330790870234041 -0.40689374277481383 0 -0.010460829196554529 -0.41206728191238062 0 -0.010460829196554529 -0.41206728191238062 0 -6.676144208739281e-05 -0.42708603705694259 0 0.0090109765859554859 -0.40706053693574229 0 -0.020554469188397061 -0.42387023340802082 0 -0.010460829196554529 -0.41206728191238062 0 -6.676144208739281e-05 -0.42708603705694259 0 -0.020554469188397061 -0.42387023340802082 0 -0.013447590074464069 -0.43702444017701819 0 -6.676144208739281e-05 -0.42708603705694259 0 -0.013447590074464069 -0.43702444017701819 0 -6.676144208739281e-05 -0.42708603705694259 0 -0.0024379289626495228 -0.45531466813626392 0 -0.013447590074464069 -0.43702444017701819 0 -0.0024379289626495228 -0.45531466813626392 0 -0.028683064093567631 -0.44492549149539112 0 -0.0024379289626495228 -0.45531466813626392 0 -0.02273756463067856 -0.47081553379131508 0 -0.0024379289626495228 -0.45531466813626392 0 -0.001035836599869533 -0.47823557756006913 0 -0.02273756463067856 -0.47081553379131508 0 -0.0024379289626495228 -0.45531466813626392 0 -0.028683064093567631 -0.44492549149539112 0 -0.02273756463067856 -0.47081553379131508 0 -0.028683064093567631 -0.44492549149539112 0 -0.02273756463067856 -0.47081553379131508 0 -0.038433689348054551 -0.46119570355143003 0 -0.001035836599869533 -0.47823557756006913 0 -0.02357825179188594 -0.49999999999999972 0 0.0048040599103887924 -0.5 0 -0.02273756463067856 -0.47081553379131508 0 -0.02357825179188594 -0.49999999999999972 0 -0.03954022273163578 -0.48129409737390733 0 -0.001035836599869533 -0.47823557756006913 0 -0.02273756463067856 -0.47081553379131508 0 -0.02357825179188594 -0.49999999999999972 0 -0.02357825179188594 -0.49999999999999972 0 -0.03954022273163578 -0.48129409737390733 0 -0.040523852585310383 -0.5 0 -0.03954022273163578 -0.48129409737390733 0 -0.047443346269572181 -0.48963539777797987 0 -0.02357825179188594 -0.49999999999999972 0 -0.040523852585310383 -0.5 0 -0.03954022273163578 -0.48129409737390733 0 -0.02273756463067856 -0.47081553379131508 0 -0.03954022273163578 -0.48129409737390733 0 -0.038433689348054551 -0.46119570355143003 0 -0.03954022273163578 -0.48129409737390733 0 -0.052884405009252837 -0.48109176719211288 0 -0.047443346269572181 -0.48963539777797987 0 -0.052884405009252837 -0.48109176719211288 0 -0.05746945337873488 -0.50000000000000033 0 -0.064466808994935509 -0.47194114606086179 0 -0.052884405009252837 -0.48109176719211288 0 -0.055502193671385758 -0.4625881947478151 0 -0.064466808994935509 -0.47194114606086179 0 -0.03954022273163578 -0.48129409737390733 0 -0.055502193671385758 -0.4625881947478151 0 -0.03954022273163578 -0.48129409737390733 0 -0.052884405009252837 -0.48109176719211288 0 -0.055502193671385758 -0.4625881947478151 0 -0.040523852585310383 -0.5 0 -0.05746945337873488 -0.50000000000000033 0 -0.047443346269572181 -0.48963539777797987 0 -0.052884405009252837 -0.48109176719211288 0 -0.05746945337873488 -0.50000000000000033 0 -0.047443346269572181 -0.48963539777797987 0 -0.05746945337873488 -0.50000000000000033 0 -0.064466808994935509 -0.47194114606086179 0 -0.048448607657125817 -0.43402934794490439 0 -0.028683064093567631 -0.44492549149539112 0 -0.052251692910597287 -0.44824053150677201 0 -0.028683064093567631 -0.44492549149539112 0 -0.038433689348054551 -0.46119570355143003 0 -0.052251692910597287 -0.44824053150677201 0 -0.03954022273163578 -0.48129409737390733 0 -0.038433689348054551 -0.46119570355143003 0 -0.055502193671385758 -0.4625881947478151 0 -0.038433689348054551 -0.46119570355143003 0 -0.055502193671385758 -0.4625881947478151 0 -0.052251692910597287 -0.44824053150677201 0 -0.052251692910597287 -0.44824053150677201 0 -0.061440756046654547 -0.43780462557810967 0 -0.071464164611135889 -0.44388229212172309 0 -0.055502193671385758 -0.4625881947478151 0 -0.052251692910597287 -0.44824053150677201 0 -0.071464164611135889 -0.44388229212172309 0 -0.048448607657125817 -0.43402934794490439 0 -0.052251692910597287 -0.44824053150677201 0 -0.061440756046654547 -0.43780462557810967 0 -0.061440756046654547 -0.43780462557810967 0 -0.071464164611135889 -0.44388229212172309 0 -0.073357270410173397 -0.43629108452559329 0 -0.071464164611135889 -0.44388229212172309 0 -0.073338239446343989 -0.45057231662203279 0 -0.08827363668062882 -0.42418319926440268 0 -0.071464164611135889 -0.44388229212172309 0 -0.073357270410173397 -0.43629108452559329 0 -0.071464164611135889 -0.44388229212172309 0 -0.064466808994935509 -0.47194114606086179 0 -0.055502193671385758 -0.4625881947478151 0 -0.071464164611135889 -0.44388229212172309 0 -0.071464164611135889 -0.44388229212172309 0 -0.073338239446343989 -0.45057231662203279 0 -0.064466808994935509 -0.47194114606086179 0 -0.073338239446343989 -0.45057231662203279 0 -0.064466808994935509 -0.47194114606086179 0 -0.073650380869909632 -0.46954490390007958 0 -0.073338239446343989 -0.45057231662203279 0 -0.079929845752918394 -0.45775333177818761 0 -0.073650380869909632 -0.46954490390007958 0 -0.055502193671385758 -0.4625881947478151 0 -0.071464164611135889 -0.44388229212172309 0 -0.064466808994935509 -0.47194114606086179 0 -0.079929845752918394 -0.45775333177818761 0 -0.089130393981012537 -0.45980136176922232 0 -0.085107129420982405 -0.45206905937657399 0 -0.073338239446343989 -0.45057231662203279 0 -0.079929845752918394 -0.45775333177818761 0 -0.085107129420982405 -0.45206905937657399 0 -0.089130393981012537 -0.45980136176922232 0 -0.073650380869909632 -0.46954490390007958 0 -0.1031945084078181 -0.47463104234243431 0 -0.079929845752918394 -0.45775333177818761 0 -0.089130393981012537 -0.45980136176922232 0 -0.073650380869909632 -0.46954490390007958 0 -0.089130393981012537 -0.45980136176922232 0 -0.085107129420982405 -0.45206905937657399 0 -0.094768073670772376 -0.45011106636542297 0 -0.088369094253864744 -0.44210722034800432 0 -0.085107129420982405 -0.45206905937657399 0 -0.094768073670772376 -0.45011106636542297 0 -0.073338239446343989 -0.45057231662203279 0 -0.088369094253864744 -0.44210722034800432 0 -0.08827363668062882 -0.42418319926440268 0 -0.073338239446343989 -0.45057231662203279 0 -0.088369094253864744 -0.44210722034800432 0 -0.085107129420982405 -0.45206905937657399 0 -0.05746945337873488 -0.50000000000000033 0 -0.073286853655404258 -0.48694778029444119 0 -0.064466808994935509 -0.47194114606086179 0 -0.05746945337873488 -0.50000000000000033 0 -0.073286853655404258 -0.48694778029444119 0 -0.084803442542350449 -0.5 0 -0.073286853655404258 -0.48694778029444119 0 -0.064466808994935509 -0.47194114606086179 0 -0.073650380869909632 -0.46954490390007958 0 -0.073286853655404258 -0.48694778029444119 0 -0.073650380869909632 -0.46954490390007958 0 -0.1031945084078181 -0.47463104234243431 0 -0.073650380869909632 -0.46954490390007958 0 -0.1031945084078181 -0.47463104234243431 0 -0.073286853655404258 -0.48694778029444119 0 -0.084803442542350449 -0.5 0 -0.1031945084078181 -0.47463104234243431 0 -0.084803442542350449 -0.5 0 -0.1031945084078181 -0.47463104234243431 0 -0.112137431705966 -0.5 0 -0.13273863594572649 -0.47971718078478892 0 -0.1031945084078181 -0.47463104234243431 0 -0.13273863594572649 -0.47971718078478892 0 -0.1031945084078181 -0.47463104234243431 0 -0.1209249250887733 -0.46331442550643942 0 -0.13273863594572649 -0.47971718078478892 0 -0.1031945084078181 -0.47463104234243431 0 -0.112137431705966 -0.5 0 -0.1065129095481878 -0.45238485186408772 0 -0.094768073670772376 -0.45011106636542297 0 -0.1024092085368616 -0.43393719335072428 0 -0.088369094253864744 -0.44210722034800432 0 -0.094768073670772376 -0.45011106636542297 0 -0.1024092085368616 -0.43393719335072428 0 -0.1065129095481878 -0.45238485186408772 0 -0.1182781094724531 -0.43512971990921517 0 -0.1024092085368616 -0.43393719335072428 0 -0.089130393981012537 -0.45980136176922232 0 -0.1065129095481878 -0.45238485186408772 0 -0.094768073670772376 -0.45011106636542297 0 -0.089130393981012537 -0.45980136176922232 0 -0.1031945084078181 -0.47463104234243431 0 -0.1065129095481878 -0.45238485186408772 0 -0.12518479727169601 -0.44946644896922477 0 -0.1065129095481878 -0.45238485186408772 0 -0.1209249250887733 -0.46331442550643942 0 -0.1031945084078181 -0.47463104234243431 0 -0.1065129095481878 -0.45238485186408772 0 -0.1209249250887733 -0.46331442550643942 0 -0.12518479727169601 -0.44946644896922477 0 -0.1065129095481878 -0.45238485186408772 0 -0.1182781094724531 -0.43512971990921517 0 -0.12518479727169601 -0.44946644896922477 0 -0.13072156305471919 -0.43672987890865811 0 -0.1182781094724531 -0.43512971990921517 0 -0.12723615496932619 -0.4219768663263504 0 -0.1182781094724531 -0.43512971990921517 0 -0.1088314653486193 -0.41855455630830379 0 -0.1182781094724531 -0.43512971990921517 0 -0.1024092085368616 -0.43393719335072428 0 -0.1088314653486193 -0.41855455630830379 0 -0.1024092085368616 -0.43393719335072428 0 -0.098602803980964354 -0.42327407776081738 0 -0.1088314653486193 -0.41855455630830379 0 -0.1024092085368616 -0.43393719335072428 0 -0.08827363668062882 -0.42418319926440268 0 -0.1024092085368616 -0.43393719335072428 0 -0.098602803980964354 -0.42327407776081738 0 -0.08827363668062882 -0.42418319926440268 0 -0.097810866120672996 -0.40678156022693429 0 -0.1088314653486193 -0.41855455630830379 0 -0.10952147671379669 -0.40086722715384138 0 -0.097810866120672996 -0.40678156022693429 0 -0.094896905357747613 -0.41642136211983882 0 -0.1088314653486193 -0.41855455630830379 0 -0.098602803980964354 -0.42327407776081738 0 -0.094896905357747613 -0.41642136211983882 0 -0.08827363668062882 -0.42418319926440268 0 -0.098602803980964354 -0.42327407776081738 0 -0.094896905357747613 -0.41642136211983882 0 -0.1088314653486193 -0.41855455630830379 0 -0.1088314653486193 -0.41855455630830379 0 -0.122681383444978 -0.40721601930392298 0 -0.10952147671379669 -0.40086722715384138 0 -0.12723615496932619 -0.4219768663263504 0 -0.1088314653486193 -0.41855455630830379 0 -0.122681383444978 -0.40721601930392298 0 -0.13427144518027079 -0.39533232873722668 0 -0.11789785551686099 -0.39591012665495851 0 -0.1184480141578044 -0.38956998522774738 0 -0.13427144518027079 -0.39533232873722668 0 -0.122681383444978 -0.40721601930392298 0 -0.11789785551686099 -0.39591012665495851 0 -0.11789785551686099 -0.39591012665495851 0 -0.10952147671379669 -0.40086722715384138 0 -0.1074835873768306 -0.38947341485117148 0 -0.11789785551686099 -0.39591012665495851 0 -0.1184480141578044 -0.38956998522774738 0 -0.1074835873768306 -0.38947341485117148 0 -0.122681383444978 -0.40721601930392298 0 -0.11789785551686099 -0.39591012665495851 0 -0.10952147671379669 -0.40086722715384138 0 -0.13630184745337709 -0.38165415441776268 0 -0.1156815643902874 -0.37480414297012588 0 -0.1141391685572577 -0.37756407066763398 0 -0.13427144518027079 -0.39533232873722668 0 -0.1141391685572577 -0.37756407066763398 0 -0.13427144518027079 -0.39533232873722668 0 -0.1184480141578044 -0.38956998522774738 0 -0.1141391685572577 -0.37756407066763398 0 -0.1184480141578044 -0.38956998522774738 0 -0.1141391685572577 -0.37756407066763398 0 -0.1074835873768306 -0.38947341485117148 0 -0.1141391685572577 -0.37756407066763398 0 -0.1074835873768306 -0.38947341485117148 0 -0.1156815643902874 -0.37480414297012588 0 -0.1141391685572577 -0.37756407066763398 0 -0.1156815643902874 -0.37480414297012588 0 -0.11297200000800781 -0.3739040318038559 0 -0.1141391685572577 -0.37756407066763398 0 -0.1037066447648303 -0.36835657871169891 0 -0.095906001065034496 -0.37377866575327728 0 -0.1074835873768306 -0.38947341485117148 0 -0.1037066447648303 -0.36835657871169891 0 -0.1074835873768306 -0.38947341485117148 0 -0.1037066447648303 -0.36835657871169891 0 -0.1141391685572577 -0.37756407066763398 0 -0.1074835873768306 -0.38947341485117148 0 -0.095906001065034496 -0.37377866575327728 0 -0.1074835873768306 -0.38947341485117148 0 -0.093290441522451695 -0.38740166829768041 0 -0.097810866120672996 -0.40678156022693429 0 -0.1074835873768306 -0.38947341485117148 0 -0.097810866120672996 -0.40678156022693429 0 -0.1074835873768306 -0.38947341485117148 0 -0.093290441522451695 -0.38740166829768041 0 -0.097810866120672996 -0.40678156022693429 0 -0.10952147671379669 -0.40086722715384138 0 -0.1074835873768306 -0.38947341485117148 0 -0.10952147671379669 -0.40086722715384138 0 -0.1074835873768306 -0.38947341485117148 0 -0.097810866120672996 -0.40678156022693429 0 -0.085134451317029042 -0.39920070837705252 0 -0.085770998831760245 -0.41104445348065649 0 -0.097810866120672996 -0.40678156022693429 0 -0.085134451317029042 -0.39920070837705252 0 -0.093290441522451695 -0.38740166829768041 0 -0.085134451317029042 -0.39920070837705252 0 -0.093290441522451695 -0.38740166829768041 0 -0.085146954509669748 -0.37559399527128579 0 -0.085134451317029042 -0.39920070837705252 0 -0.085146954509669748 -0.37559399527128579 0 -0.076854419673373309 -0.38714757395482607 0 -0.085134451317029042 -0.39920070837705252 0 -0.085146954509669748 -0.37559399527128579 0 -0.095906001065034496 -0.37377866575327728 0 -0.093290441522451695 -0.38740166829768041 0 -0.085146954509669748 -0.37559399527128579 0 -0.085146954509669748 -0.37559399527128579 0 -0.076854419673373309 -0.38714757395482607 0 -0.068552601192120102 -0.37953987735633171 0 -0.076854419673373309 -0.38714757395482607 0 -0.068552601192120102 -0.37953987735633171 0 -0.068583671674674371 -0.39425571481463467 0 -0.053595219018177688 -0.38384474423430948 0 -0.068552601192120102 -0.37953987735633171 0 -0.068583671674674371 -0.39425571481463467 0 -0.085134451317029042 -0.39920070837705252 0 -0.068583671674674371 -0.39425571481463467 0 -0.070080876212598189 -0.41162961601896808 0 -0.052023607560689002 -0.3991695264352414 0 -0.068583671674674371 -0.39425571481463467 0 -0.070080876212598189 -0.41162961601896808 0 -0.085134451317029042 -0.39920070837705252 0 -0.076854419673373309 -0.38714757395482607 0 -0.068583671674674371 -0.39425571481463467 0 -0.061682044644240548 -0.42657987179155582 0 -0.070080876212598189 -0.41162961601896808 0 -0.076197583406491728 -0.42468221170384729 0 -0.071464164611135889 -0.44388229212172309 0 -0.073357270410173397 -0.43629108452559329 0 -0.08827363668062882 -0.42418319926440268 0 -0.061682044644240548 -0.42657987179155582 0 -0.061440756046654547 -0.43780462557810967 0 -0.073357270410173397 -0.43629108452559329 0 -0.061682044644240548 -0.42657987179155582 0 -0.073357270410173397 -0.43629108452559329 0 -0.076197583406491728 -0.42468221170384729 0 -0.073357270410173397 -0.43629108452559329 0 -0.076197583406491728 -0.42468221170384729 0 -0.08827363668062882 -0.42418319926440268 0 -0.088369094253864744 -0.44210722034800432 0 -0.1024092085368616 -0.43393719335072428 0 -0.08827363668062882 -0.42418319926440268 0 -0.071464164611135889 -0.44388229212172309 0 -0.08827363668062882 -0.42418319926440268 0 -0.073338239446343989 -0.45057231662203279 0 -0.08827363668062882 -0.42418319926440268 0 -0.094896905357747613 -0.41642136211983882 0 -0.08827363668062882 -0.42418319926440268 0 -0.085134451317029042 -0.39920070837705252 0 -0.070080876212598189 -0.41162961601896808 0 -0.085770998831760245 -0.41104445348065649 0 -0.097810866120672996 -0.40678156022693429 0 -0.08827363668062882 -0.42418319926440268 0 -0.097810866120672996 -0.40678156022693429 0 -0.094896905357747613 -0.41642136211983882 0 -0.08827363668062882 -0.42418319926440268 0 -0.070080876212598189 -0.41162961601896808 0 -0.08827363668062882 -0.42418319926440268 0 -0.070080876212598189 -0.41162961601896808 0 -0.076197583406491728 -0.42468221170384729 0 -0.08827363668062882 -0.42418319926440268 0 -0.070080876212598189 -0.41162961601896808 0 -0.08827363668062882 -0.42418319926440268 0 -0.085770998831760245 -0.41104445348065649 0 -0.097810866120672996 -0.40678156022693429 0 -0.08827363668062882 -0.42418319926440268 0 -0.085770998831760245 -0.41104445348065649 0 -0.090447063637144248 -0.081324133226011716 0 -0.075897319877277852 -0.092826169230526723 0 -0.093703704008590974 -0.1037330192742421 0 -0.090447063637144248 -0.081324133226011716 0 -0.077593572776957942 -0.081912579140856812 0 -0.075897319877277852 -0.092826169230526723 0 -0.090447063637144248 -0.081324133226011716 0 -0.073234656209089172 -0.070395022782976546 0 -0.087061875687677814 -0.061218091171638768 0 -0.090447063637144248 -0.081324133226011716 0 -0.073234656209089172 -0.070395022782976546 0 -0.077593572776957942 -0.081912579140856812 0 -0.087061875687677814 -0.061218091171638768 0 -0.067584680622492968 -0.056132281505311181 0 -0.060563786549855912 -0.073258716029761833 0 -0.087061875687677814 -0.061218091171638768 0 -0.060563786549855912 -0.073258716029761833 0 -0.073234656209089172 -0.070395022782976546 0 -0.087061875687677814 -0.061218091171638768 0 -0.060563786549855912 -0.073258716029761833 0 -0.073234656209089172 -0.070395022782976546 0 -0.052221841830315183 -0.086097013572024705 0 -0.073234656209089172 -0.070395022782976546 0 -0.068169175760402434 -0.084798170940406092 0 -0.052221841830315183 -0.086097013572024705 0 -0.073234656209089172 -0.070395022782976546 0 -0.068169175760402434 -0.084798170940406092 0 -0.077593572776957942 -0.081912579140856812 0 -0.068169175760402434 -0.084798170940406092 0 -0.077593572776957942 -0.081912579140856812 0 -0.075897319877277852 -0.092826169230526723 0 -0.068169175760402434 -0.084798170940406092 0 -0.075897319877277852 -0.092826169230526723 0 -0.064897196556070222 -0.095172001566875122 0 -0.064897196556070222 -0.095172001566875122 0 -0.0712743253237548 -0.10712922981033671 0 -0.056923319988600833 -0.1050094242810814 0 -0.075897319877277852 -0.092826169230526723 0 -0.064897196556070222 -0.095172001566875122 0 -0.0712743253237548 -0.10712922981033671 0 -0.0712743253237548 -0.10712922981033671 0 -0.062592928368235462 -0.1177336942373295 0 -0.078890841949931581 -0.1203169894605135 0 -0.062592928368235462 -0.1177336942373295 0 -0.078890841949931581 -0.1203169894605135 0 -0.063791290931146952 -0.13252384607184789 0 -0.0712743253237548 -0.10712922981033671 0 -0.062592928368235462 -0.1177336942373295 0 -0.056923319988600833 -0.1050094242810814 0 -0.0712743253237548 -0.10712922981033671 0 -0.078890841949931581 -0.1203169894605135 0 -0.093703704008590974 -0.1037330192742421 0 -0.078890841949931581 -0.1203169894605135 0 -0.093703704008590974 -0.1037330192742421 0 -0.099219192141687035 -0.12525861429733851 0 -0.075897319877277852 -0.092826169230526723 0 -0.0712743253237548 -0.10712922981033671 0 -0.093703704008590974 -0.1037330192742421 0 -0.093703704008590974 -0.1037330192742421 0 -0.1244243354619162 -0.1112530480806426 0 -0.099219192141687035 -0.12525861429733851 0 -0.1244243354619162 -0.1112530480806426 0 -0.099219192141687035 -0.12525861429733851 0 -0.1184141132293574 -0.13050021526910521 0 -0.093703704008590974 -0.1037330192742421 0 -0.1244243354619162 -0.1112530480806426 0 -0.1140478584057709 -0.093964180565138181 0 -0.090447063637144248 -0.081324133226011716 0 -0.1140478584057709 -0.093964180565138181 0 -0.10622541094217 -0.06904270183238069 0 -0.090447063637144248 -0.081324133226011716 0 -0.093703704008590974 -0.1037330192742421 0 -0.1140478584057709 -0.093964180565138181 0 -0.090447063637144248 -0.081324133226011716 0 -0.10622541094217 -0.06904270183238069 0 -0.087061875687677814 -0.061218091171638768 0 -0.10622541094217 -0.06904270183238069 0 -0.1135599648255 -0.049177466313515598 0 -0.12581382665831831 -0.070872335529786681 0 -0.1140478584057709 -0.093964180565138181 0 -0.10622541094217 -0.06904270183238069 0 -0.12581382665831831 -0.070872335529786681 0 -0.1135599648255 -0.049177466313515598 0 -0.1259026570143254 -0.040360331226294288 0 -0.13222960936365061 -0.053901193637760907 0 -0.1135599648255 -0.049177466313515598 0 -0.12581382665831831 -0.070872335529786681 0 -0.13222960936365061 -0.053901193637760907 0 -0.1135599648255 -0.049177466313515598 0 -0.1098884237297557 -0.035557179637796879 0 -0.1259026570143254 -0.040360331226294288 0 -0.1098884237297557 -0.035557179637796879 0 -0.12970315635882029 -0.025210515849699081 0 -0.1259026570143254 -0.040360331226294288 0 -0.1135599648255 -0.049177466313515598 0 -0.1098884237297557 -0.035557179637796879 0 -0.096593149927999028 -0.048567921555527908 0 -0.1098884237297557 -0.035557179637796879 0 -0.096593149927999028 -0.048567921555527908 0 -0.091212870843982427 -0.03503034354659245 0 -0.10622541094217 -0.06904270183238069 0 -0.1135599648255 -0.049177466313515598 0 -0.087061875687677814 -0.061218091171638768 0 -0.1135599648255 -0.049177466313515598 0 -0.087061875687677814 -0.061218091171638768 0 -0.1135599648255 -0.049177466313515598 0 -0.096593149927999028 -0.048567921555527908 0 -0.087061875687677814 -0.061218091171638768 0 -0.118532798400574 -0.00069274467401118911 0 -0.1032736713123741 -0.015902256879599841 0 -0.12970315635882029 -0.025210515849699081 0 -0.1098884237297557 -0.035557179637796879 0 -0.1032736713123741 -0.015902256879599841 0 -0.12970315635882029 -0.025210515849699081 0 -0.1098884237297557 -0.035557179637796879 0 -0.1032736713123741 -0.015902256879599841 0 -0.091212870843982427 -0.03503034354659245 0 -0.1032736713123741 -0.015902256879599841 0 -0.1038705681539047 -0.00042274594182551881 0 -0.091564775452932151 -0.00067738949726625826 0 -0.118532798400574 -0.00069274467401118911 0 -0.1032736713123741 -0.015902256879599841 0 -0.1038705681539047 -0.00042274594182551881 0 -0.1032736713123741 -0.015902256879599841 0 -0.091564775452932151 -0.00067738949726625826 0 -0.083111672838753967 -0.019439996154929549 0 -0.091564775452932151 -0.00067738949726625826 0 -0.083111672838753967 -0.019439996154929549 0 -0.071002387778944728 -0.0046658216922618387 0 -0.1032736713123741 -0.015902256879599841 0 -0.083111672838753967 -0.019439996154929549 0 -0.091212870843982427 -0.03503034354659245 0 -0.083111672838753967 -0.019439996154929549 0 -0.091212870843982427 -0.03503034354659245 0 -0.076885542226792045 -0.03239575134570917 0 -0.083111672838753967 -0.019439996154929549 0 -0.069628900660890614 -0.025021752601190411 0 -0.071002387778944728 -0.0046658216922618387 0 -0.069628900660890614 -0.025021752601190411 0 -0.071002387778944728 -0.0046658216922618387 0 -0.051795127136501813 -0.027879119725011319 0 -0.083111672838753967 -0.019439996154929549 0 -0.069628900660890614 -0.025021752601190411 0 -0.076885542226792045 -0.03239575134570917 0 -0.096593149927999028 -0.048567921555527908 0 -0.067584680622492968 -0.056132281505311181 0 -0.096593149927999028 -0.048567921555527908 0 -0.079525203388944865 -0.042570874408236252 0 -0.067584680622492968 -0.056132281505311181 0 -0.096593149927999028 -0.048567921555527908 0 -0.087061875687677814 -0.061218091171638768 0 -0.067584680622492968 -0.056132281505311181 0 -0.096593149927999028 -0.048567921555527908 0 -0.091212870843982427 -0.03503034354659245 0 -0.079525203388944865 -0.042570874408236252 0 -0.091212870843982427 -0.03503034354659245 0 -0.079525203388944865 -0.042570874408236252 0 -0.076885542226792045 -0.03239575134570917 0 -0.079525203388944865 -0.042570874408236252 0 -0.065349773323457816 -0.040728074088040522 0 -0.067584680622492968 -0.056132281505311181 0 -0.069628900660890614 -0.025021752601190411 0 -0.076885542226792045 -0.03239575134570917 0 -0.065349773323457816 -0.040728074088040522 0 -0.079525203388944865 -0.042570874408236252 0 -0.076885542226792045 -0.03239575134570917 0 -0.065349773323457816 -0.040728074088040522 0 -0.065349773323457816 -0.040728074088040522 0 -0.067584680622492968 -0.056132281505311181 0 -0.055151081168054367 -0.054272672905840993 0 -0.067584680622492968 -0.056132281505311181 0 -0.055151081168054367 -0.054272672905840993 0 -0.038576211316986887 -0.06369664145509446 0 -0.067584680622492968 -0.056132281505311181 0 -0.038576211316986887 -0.06369664145509446 0 -0.055151081168054367 -0.054272672905840993 0 -0.051795127136501813 -0.027879119725011319 0 -0.055151081168054367 -0.054272672905840993 0 -0.040336801887762307 -0.041727295365801137 0 -0.051795127136501813 -0.027879119725011319 0 -0.065349773323457816 -0.040728074088040522 0 -0.055151081168054367 -0.054272672905840993 0 -0.051795127136501813 -0.027879119725011319 0 -0.040336801887762307 -0.041727295365801137 0 -0.051795127136501813 -0.027879119725011319 0 -0.030521939476791361 -0.02468862298685465 0 -0.040336801887762307 -0.041727295365801137 0 -0.030521939476791361 -0.02468862298685465 0 -0.023067732607362279 -0.041205300013679599 0 -0.040336801887762307 -0.041727295365801137 0 -0.051795127136501813 -0.027879119725011319 0 -0.055151081168054367 -0.054272672905840993 0 -0.042766019115500722 -0.053238418460917369 0 -0.038576211316986887 -0.06369664145509446 0 -0.040336801887762307 -0.041727295365801137 0 -0.028878476639025871 -0.055575471006593442 0 -0.040336801887762307 -0.041727295365801137 0 -0.042766019115500722 -0.053238418460917369 0 -0.028878476639025871 -0.055575471006593442 0 -0.042766019115500722 -0.053238418460917369 0 -0.028878476639025871 -0.055575471006593442 0 -0.038576211316986887 -0.06369664145509446 0 -0.055151081168054367 -0.054272672905840993 0 -0.040336801887762307 -0.041727295365801137 0 -0.042766019115500722 -0.053238418460917369 0 -0.071002387778944728 -0.0046658216922618387 0 -0.049077805081034383 -0.0065082119276327266 0 -0.051795127136501813 -0.027879119725011319 0 -0.071002387778944728 -0.0046658216922618387 0 -0.049077805081034383 -0.0065082119276327266 0 -0.063049528480829523 0.0106102806403259 0 -0.069628900660890614 -0.025021752601190411 0 -0.065349773323457816 -0.040728074088040522 0 -0.051795127136501813 -0.027879119725011319 0 -0.049077805081034383 -0.0065082119276327266 0 -0.051795127136501813 -0.027879119725011319 0 -0.071002387778944728 -0.0046658216922618387 0 -0.051795127136501813 -0.027879119725011319 0 -0.049077805081034383 -0.0065082119276327266 0 -0.051795127136501813 -0.027879119725011319 0 -0.030521939476791361 -0.02468862298685465 0 -0.049077805081034383 -0.0065082119276327266 0 -0.021599706429861011 -0.0052748255593804043 0 -0.030521939476791361 -0.02468862298685465 0 -0.049077805081034383 -0.0065082119276327266 0 -0.021599706429861011 -0.0052748255593804043 0 -0.032517231880014243 0.0091048488657586614 0 -0.021599706429861011 -0.0052748255593804043 0 -0.030521939476791361 -0.02468862298685465 0 -0.010147514260560779 -0.01824090709990208 0 -0.030521939476791361 -0.02468862298685465 0 -0.010147514260560779 -0.01824090709990208 0 -0.014501137167528299 -0.031499044403627677 0 -0.010147514260560779 -0.01824090709990208 0 0.0049020234952574099 -0.015337253642260429 0 0.0010347331164476069 -0.031904739026293323 0 -0.010147514260560779 -0.01824090709990208 0 -0.014501137167528299 -0.031499044403627677 0 0.0010347331164476069 -0.031904739026293323 0 -0.021599706429861011 -0.0052748255593804043 0 -0.010147514260560779 -0.01824090709990208 0 -0.0063794060058670974 -0.003062831159869018 0 -0.010147514260560779 -0.01824090709990208 0 -0.0063794060058670974 -0.003062831159869018 0 0.0049020234952574099 -0.015337253642260429 0 -0.021797749220870691 -0.060714886164287517 0 -0.028878476639025871 -0.055575471006593442 0 -0.038576211316986887 -0.06369664145509446 0 -0.028878476639025871 -0.055575471006593442 0 -0.023067732607362279 -0.041205300013679599 0 -0.01016856691598917 -0.052326430790584487 0 -0.021797749220870691 -0.060714886164287517 0 -0.028878476639025871 -0.055575471006593442 0 -0.01016856691598917 -0.052326430790584487 0 -0.030521939476791361 -0.02468862298685465 0 -0.023067732607362279 -0.041205300013679599 0 -0.014501137167528299 -0.031499044403627677 0 -0.040336801887762307 -0.041727295365801137 0 -0.028878476639025871 -0.055575471006593442 0 -0.023067732607362279 -0.041205300013679599 0 -0.023067732607362279 -0.041205300013679599 0 -0.0078588529474588054 -0.040248772100206963 0 -0.01016856691598917 -0.052326430790584487 0 -0.023067732607362279 -0.041205300013679599 0 -0.0078588529474588054 -0.040248772100206963 0 -0.014501137167528299 -0.031499044403627677 0 -0.0078588529474588054 -0.040248772100206963 0 -0.014501137167528299 -0.031499044403627677 0 0.0010347331164476069 -0.031904739026293323 0 -0.0078588529474588054 -0.040248772100206963 0 0.0010347331164476069 -0.031904739026293323 0 0.00085171740831566783 -0.044305528295645429 0 -0.0078588529474588054 -0.040248772100206963 0 -0.01016856691598917 -0.052326430790584487 0 0.00085171740831566783 -0.044305528295645429 0 -0.01016856691598917 -0.052326430790584487 0 -0.0095677420114808325 -0.071261001404877719 0 0.0083879583699601259 -0.059253289665681982 0 -0.01016856691598917 -0.052326430790584487 0 0.00085171740831566783 -0.044305528295645429 0 0.0083879583699601259 -0.059253289665681982 0 -0.021797749220870691 -0.060714886164287517 0 -0.01016856691598917 -0.052326430790584487 0 -0.0095677420114808325 -0.071261001404877719 0 -0.0095677420114808325 -0.071261001404877719 0 -0.01098021163216497 -0.095789292540518864 0 0.0030643400514457032 -0.085216519505962013 0 -0.0095677420114808325 -0.071261001404877719 0 -0.02405254027884119 -0.077812551548693112 0 -0.01098021163216497 -0.095789292540518864 0 -0.034065697412034052 -0.085299340887885267 0 -0.01098021163216497 -0.095789292540518864 0 -0.02405254027884119 -0.077812551548693112 0 -0.034065697412034052 -0.085299340887885267 0 -0.01098021163216497 -0.095789292540518864 0 -0.034065697412034052 -0.085299340887885267 0 -0.017591919137830651 -0.10120074984796849 0 -0.02405254027884119 -0.077812551548693112 0 -0.035494541521691791 -0.074803442881966345 0 -0.034065697412034052 -0.085299340887885267 0 -0.0095677420114808325 -0.071261001404877719 0 -0.038576211316986887 -0.06369664145509446 0 -0.0095677420114808325 -0.071261001404877719 0 -0.02405254027884119 -0.077812551548693112 0 -0.038576211316986887 -0.06369664145509446 0 -0.021797749220870691 -0.060714886164287517 0 -0.0095677420114808325 -0.071261001404877719 0 -0.038576211316986887 -0.06369664145509446 0 -0.038576211316986887 -0.06369664145509446 0 -0.035494541521691791 -0.074803442881966345 0 -0.047038238433103327 -0.072777521266791739 0 -0.035494541521691791 -0.074803442881966345 0 -0.034065697412034052 -0.085299340887885267 0 -0.047038238433103327 -0.072777521266791739 0 -0.02405254027884119 -0.077812551548693112 0 -0.038576211316986887 -0.06369664145509446 0 -0.035494541521691791 -0.074803442881966345 0 -0.034065697412034052 -0.085299340887885267 0 -0.052221841830315183 -0.086097013572024705 0 -0.031209027451541169 -0.10179900436107291 0 -0.034065697412034052 -0.085299340887885267 0 -0.047038238433103327 -0.072777521266791739 0 -0.034065697412034052 -0.085299340887885267 0 -0.052221841830315183 -0.086097013572024705 0 -0.060563786549855912 -0.073258716029761833 0 -0.068169175760402434 -0.084798170940406092 0 -0.064897196556070222 -0.095172001566875122 0 -0.052221841830315183 -0.086097013572024705 0 -0.034065697412034052 -0.085299340887885267 0 -0.060563786549855912 -0.073258716029761833 0 -0.067584680622492968 -0.056132281505311181 0 -0.038576211316986887 -0.06369664145509446 0 -0.047038238433103327 -0.072777521266791739 0 -0.034065697412034052 -0.085299340887885267 0 -0.060563786549855912 -0.073258716029761833 0 -0.047038238433103327 -0.072777521266791739 0 -0.067584680622492968 -0.056132281505311181 0 -0.060563786549855912 -0.073258716029761833 0 -0.047038238433103327 -0.072777521266791739 0 -0.073234656209089172 -0.070395022782976546 0 -0.052221841830315183 -0.086097013572024705 0 -0.060563786549855912 -0.073258716029761833 0 -0.062592928368235462 -0.1177336942373295 0 -0.047471583485349217 -0.1208206701802898 0 -0.056923319988600833 -0.1050094242810814 0 -0.062592928368235462 -0.1177336942373295 0 -0.047471583485349217 -0.1208206701802898 0 -0.063791290931146952 -0.13252384607184789 0 -0.047471583485349217 -0.1208206701802898 0 -0.056923319988600833 -0.1050094242810814 0 -0.044485468247278108 -0.1061920246447996 0 -0.064897196556070222 -0.095172001566875122 0 -0.052221841830315183 -0.086097013572024705 0 -0.056923319988600833 -0.1050094242810814 0 -0.052221841830315183 -0.086097013572024705 0 -0.056923319988600833 -0.1050094242810814 0 -0.044485468247278108 -0.1061920246447996 0 -0.052221841830315183 -0.086097013572024705 0 -0.044485468247278108 -0.1061920246447996 0 -0.031209027451541169 -0.10179900436107291 0 -0.052221841830315183 -0.086097013572024705 0 -0.031209027451541169 -0.10179900436107291 0 -0.044485468247278108 -0.1061920246447996 0 -0.034873797174122208 -0.1117470720415563 0 -0.031209027451541169 -0.10179900436107291 0 -0.034873797174122208 -0.1117470720415563 0 -0.034656441658990178 -0.1222656254263154 0 -0.024850513046408541 -0.1152008182670551 0 -0.047471583485349217 -0.1208206701802898 0 -0.044485468247278108 -0.1061920246447996 0 -0.034873797174122208 -0.1117470720415563 0 -0.047471583485349217 -0.1208206701802898 0 -0.034873797174122208 -0.1117470720415563 0 -0.034656441658990178 -0.1222656254263154 0 -0.024850513046408541 -0.1152008182670551 0 -0.031209027451541169 -0.10179900436107291 0 -0.010196213072767151 -0.11750099515012109 0 -0.034656441658990178 -0.1222656254263154 0 -0.024850513046408541 -0.1152008182670551 0 -0.025046332068917449 -0.1285841531875816 0 -0.031209027451541169 -0.10179900436107291 0 -0.010196213072767151 -0.11750099515012109 0 -0.034873797174122208 -0.1117470720415563 0 -0.024850513046408541 -0.1152008182670551 0 -0.031209027451541169 -0.10179900436107291 0 -0.024850513046408541 -0.1152008182670551 0 -0.018706437600759001 -0.12216075150603931 0 -0.025046332068917449 -0.1285841531875816 0 -0.024850513046408541 -0.1152008182670551 0 -0.018706437600759001 -0.12216075150603931 0 -0.010196213072767151 -0.11750099515012109 0 -0.017591919137830651 -0.10120074984796849 0 -0.031209027451541169 -0.10179900436107291 0 -0.010196213072767151 -0.11750099515012109 0 -0.034065697412034052 -0.085299340887885267 0 -0.017591919137830651 -0.10120074984796849 0 -0.01098021163216497 -0.095789292540518864 0 -0.034065697412034052 -0.085299340887885267 0 -0.017591919137830651 -0.10120074984796849 0 -0.031209027451541169 -0.10179900436107291 0 -0.017591919137830651 -0.10120074984796849 0 -0.01098021163216497 -0.095789292540518864 0 -0.001118140863626934 -0.1171021588080516 0 -0.017591919137830651 -0.10120074984796849 0 -0.001118140863626934 -0.1171021588080516 0 -0.001118140863626934 -0.1171021588080516 0 -0.010196213072767151 -0.11750099515012109 0 0.010816601306006869 -0.13320298593916929 0 -0.017591919137830651 -0.10120074984796849 0 -0.001118140863626934 -0.1171021588080516 0 -0.010196213072767151 -0.11750099515012109 0 -0.018706437600759001 -0.12216075150603931 0 -0.010196213072767151 -0.11750099515012109 0 -0.014732692214942869 -0.12735703941939941 0 -0.010196213072767151 -0.11750099515012109 0 -0.0047685961597620109 -0.12836904162366991 0 -0.014732692214942869 -0.12735703941939941 0 -0.010196213072767151 -0.11750099515012109 0 -0.0047685961597620109 -0.12836904162366991 0 0.010816601306006869 -0.13320298593916929 0 -0.0049620806573448997 -0.13541514598598969 0 -0.01543625336053279 -0.13736143067706941 0 -0.007258390820607712 -0.14412263621784849 0 -0.0049620806573448997 -0.13541514598598969 0 -0.01543625336053279 -0.13736143067706941 0 -0.014732692214942869 -0.12735703941939941 0 -0.0047685961597620109 -0.12836904162366991 0 -0.0049620806573448997 -0.13541514598598969 0 -0.014732692214942869 -0.12735703941939941 0 -0.01543625336053279 -0.13736143067706941 0 -0.014732692214942869 -0.12735703941939941 0 -0.025046332068917449 -0.1285841531875816 0 -0.01543625336053279 -0.13736143067706941 0 -0.025046332068917449 -0.1285841531875816 0 -0.028042811712082821 -0.14526252929087191 0 -0.018706437600759001 -0.12216075150603931 0 -0.014732692214942869 -0.12735703941939941 0 -0.025046332068917449 -0.1285841531875816 0 -0.025046332068917449 -0.1285841531875816 0 -0.028042811712082821 -0.14526252929087191 0 -0.036124269908542242 -0.13380612827312779 0 -0.01543625336053279 -0.13736143067706941 0 -0.028042811712082821 -0.14526252929087191 0 -0.015339717178471469 -0.14877964831939569 0 -0.028042811712082821 -0.14526252929087191 0 -0.015339717178471469 -0.14877964831939569 0 -0.020878248870767641 -0.1599967414262152 0 -0.015339717178471469 -0.14877964831939569 0 -0.0041379743032920026 -0.15251985355978531 0 -0.0086602940786612501 -0.16281953278316419 0 -0.015339717178471469 -0.14877964831939569 0 -0.007258390820607712 -0.14412263621784849 0 -0.0041379743032920026 -0.15251985355978531 0 -0.01543625336053279 -0.13736143067706941 0 -0.015339717178471469 -0.14877964831939569 0 -0.007258390820607712 -0.14412263621784849 0 -0.007258390820607712 -0.14412263621784849 0 -0.0041379743032920026 -0.15251985355978531 0 0.0032099065919579798 -0.14524097043461731 0 -0.0049620806573448997 -0.13541514598598969 0 -0.007258390820607712 -0.14412263621784849 0 0.0032099065919579798 -0.14524097043461731 0 -0.0086602940786612501 -0.16281953278316419 0 -0.01697626746082077 -0.17796342355080819 0 -0.020878248870767641 -0.1599967414262152 0 -0.0041379743032920026 -0.15251985355978531 0 -0.0086602940786612501 -0.16281953278316419 0 0.0066102943600331986 -0.1590442158191312 0 -0.015339717178471469 -0.14877964831939569 0 -0.0086602940786612501 -0.16281953278316419 0 -0.020878248870767641 -0.1599967414262152 0 -0.01697626746082077 -0.17796342355080819 0 -0.0065132069942217697 -0.19429053895817441 0 -0.01697626746082077 -0.17796342355080819 0 -0.0065132069942217697 -0.19429053895817441 0 0.0075630239393570491 -0.17765119721925679 0 -0.0086602940786612501 -0.16281953278316419 0 -0.01697626746082077 -0.17796342355080819 0 0.0075630239393570491 -0.17765119721925679 0 -0.01697626746082077 -0.17796342355080819 0 -0.035372153923801913 -0.1651585731868358 0 -0.031839653794126462 -0.18537516527966019 0 -0.01697626746082077 -0.17796342355080819 0 -0.020878248870767641 -0.1599967414262152 0 -0.035372153923801913 -0.1651585731868358 0 -0.028042811712082821 -0.14526252929087191 0 -0.020878248870767641 -0.1599967414262152 0 -0.035372153923801913 -0.1651585731868358 0 -0.035372153923801913 -0.1651585731868358 0 -0.046590427120238587 -0.18170302740635791 0 -0.052982481075972948 -0.16284611452284939 0 -0.035372153923801913 -0.1651585731868358 0 -0.052982481075972948 -0.16284611452284939 0 -0.047945756552063533 -0.14427835550214821 0 -0.035372153923801913 -0.1651585731868358 0 -0.031839653794126462 -0.18537516527966019 0 -0.046590427120238587 -0.18170302740635791 0 -0.046590427120238587 -0.18170302740635791 0 -0.06139586112520095 -0.17620988935790091 0 -0.062489561467665669 -0.19841071444875349 0 -0.046590427120238587 -0.18170302740635791 0 -0.06139586112520095 -0.17620988935790091 0 -0.052982481075972948 -0.16284611452284939 0 -0.06139586112520095 -0.17620988935790091 0 -0.052982481075972948 -0.16284611452284939 0 -0.069773701651810724 -0.15279612173989091 0 -0.052982481075972948 -0.16284611452284939 0 -0.047945756552063533 -0.14427835550214821 0 -0.069773701651810724 -0.15279612173989091 0 -0.047945756552063533 -0.14427835550214821 0 -0.063791290931146952 -0.13252384607184789 0 -0.069773701651810724 -0.15279612173989091 0 -0.047471583485349217 -0.1208206701802898 0 -0.047945756552063533 -0.14427835550214821 0 -0.063791290931146952 -0.13252384607184789 0 -0.047471583485349217 -0.1208206701802898 0 -0.047945756552063533 -0.14427835550214821 0 -0.036124269908542242 -0.13380612827312779 0 -0.047471583485349217 -0.1208206701802898 0 -0.034656441658990178 -0.1222656254263154 0 -0.036124269908542242 -0.13380612827312779 0 -0.034656441658990178 -0.1222656254263154 0 -0.025046332068917449 -0.1285841531875816 0 -0.036124269908542242 -0.13380612827312779 0 -0.028042811712082821 -0.14526252929087191 0 -0.047945756552063533 -0.14427835550214821 0 -0.036124269908542242 -0.13380612827312779 0 -0.028042811712082821 -0.14526252929087191 0 -0.035372153923801913 -0.1651585731868358 0 -0.047945756552063533 -0.14427835550214821 0 -0.016107058134154511 -0.25484714099628603 0 -0.028552703887756301 -0.2412126283713783 0 -0.0026118230880910788 -0.24256171291824011 0 -0.028552703887756301 -0.2412126283713783 0 -0.0026118230880910788 -0.24256171291824011 0 -0.01230142520768329 -0.22591514136845459 0 -0.01230142520768329 -0.22591514136845459 0 0.0028322544969735701 -0.22731326800038831 0 0.0050424632485473724 -0.21232262070571431 0 -0.01230142520768329 -0.22591514136845459 0 0.0050424632485473724 -0.21232262070571431 0 -0.0026118230880910788 -0.24256171291824011 0 -0.01230142520768329 -0.22591514136845459 0 0.0028322544969735701 -0.22731326800038831 0 -0.028552703887756301 -0.2412126283713783 0 -0.01230142520768329 -0.22591514136845459 0 -0.024049782130786679 -0.2169269577652215 0 -0.028552703887756301 -0.2412126283713783 0 -0.024049782130786679 -0.2169269577652215 0 -0.040056822954601327 -0.21707112735997569 0 -0.028552703887756301 -0.2412126283713783 0 -0.01230142520768329 -0.22591514136845459 0 -0.01230142520768329 -0.22591514136845459 0 -0.024049782130786679 -0.2169269577652215 0 -0.012562674149858051 -0.2095771617269685 0 -0.024049782130786679 -0.2169269577652215 0 -0.012562674149858051 -0.2095771617269685 0 -0.02368102713876127 -0.20083787733570449 0 -0.024049782130786679 -0.2169269577652215 0 -0.02368102713876127 -0.20083787733570449 0 -0.040056822954601327 -0.21707112735997569 0 -0.01230142520768329 -0.22591514136845459 0 0.0039498534723909871 -0.21061765436553179 0 0.0050424632485473724 -0.21232262070571431 0 -0.012562674149858051 -0.2095771617269685 0 -0.0065132069942217697 -0.19429053895817441 0 0.0039498534723909871 -0.21061765436553179 0 -0.01230142520768329 -0.22591514136845459 0 -0.012562674149858051 -0.2095771617269685 0 0.0039498534723909871 -0.21061765436553179 0 -0.01230142520768329 -0.22591514136845459 0 0.0039498534723909871 -0.21061765436553179 0 -0.012562674149858051 -0.2095771617269685 0 -0.0065132069942217697 -0.19429053895817441 0 -0.02368102713876127 -0.20083787733570449 0 -0.0065132069942217697 -0.19429053895817441 0 0.0039498534723909871 -0.21061765436553179 0 -0.01697626746082077 -0.17796342355080819 0 -0.031839653794126462 -0.18537516527966019 0 -0.02368102713876127 -0.20083787733570449 0 -0.01697626746082077 -0.17796342355080819 0 -0.0065132069942217697 -0.19429053895817441 0 -0.02368102713876127 -0.20083787733570449 0 -0.031839653794126462 -0.18537516527966019 0 -0.02368102713876127 -0.20083787733570449 0 -0.040757374288355908 -0.19686091606819059 0 -0.031839653794126462 -0.18537516527966019 0 -0.046590427120238587 -0.18170302740635791 0 -0.040757374288355908 -0.19686091606819059 0 -0.046590427120238587 -0.18170302740635791 0 -0.040757374288355908 -0.19686091606819059 0 -0.062489561467665669 -0.19841071444875349 0 -0.040757374288355908 -0.19686091606819059 0 -0.062489561467665669 -0.19841071444875349 0 -0.040056822954601327 -0.21707112735997569 0 -0.062489561467665669 -0.19841071444875349 0 -0.040056822954601327 -0.21707112735997569 0 -0.063937218079175878 -0.21799085113721031 0 -0.02368102713876127 -0.20083787733570449 0 -0.040757374288355908 -0.19686091606819059 0 -0.040056822954601327 -0.21707112735997569 0 -0.02368102713876127 -0.20083787733570449 0 -0.040056822954601327 -0.21707112735997569 0 -0.028552703887756301 -0.2412126283713783 0 -0.040056822954601327 -0.21707112735997569 0 -0.056432618770441437 -0.23330437738424711 0 -0.040056822954601327 -0.21707112735997569 0 -0.056432618770441437 -0.23330437738424711 0 -0.040056822954601327 -0.21707112735997569 0 -0.056432618770441437 -0.23330437738424711 0 -0.063937218079175878 -0.21799085113721031 0 -0.056432618770441437 -0.23330437738424711 0 -0.05965132653339137 -0.2479407821529602 0 -0.047705660779110183 -0.2440000361708114 0 -0.046185993924848588 -0.25354235677466358 0 -0.05965132653339137 -0.2479407821529602 0 -0.047705660779110183 -0.2440000361708114 0 -0.044829220638993209 -0.2552095432194591 0 -0.028552703887756301 -0.2412126283713783 0 -0.028552703887756301 -0.2412126283713783 0 -0.056432618770441437 -0.23330437738424711 0 -0.047705660779110183 -0.2440000361708114 0 -0.046185993924848588 -0.25354235677466358 0 -0.028552703887756301 -0.2412126283713783 0 -0.047705660779110183 -0.2440000361708114 0 -0.044829220638993209 -0.2552095432194591 0 -0.046185993924848588 -0.25354235677466358 0 -0.028552703887756301 -0.2412126283713783 0 -0.043403205702332123 -0.25519155045918102 0 -0.028552703887756301 -0.2412126283713783 0 -0.086529348547165166 -0.24249916987868519 0 -0.07280841458628183 -0.2495376274085182 0 -0.076929449471693112 -0.22826623878097979 0 -0.086529348547165166 -0.24249916987868519 0 -0.090638750320264333 -0.22682894147722479 0 -0.099863105947244707 -0.23716912655276279 0 -0.056432618770441437 -0.23330437738424711 0 -0.07280841458628183 -0.2495376274085182 0 -0.076929449471693112 -0.22826623878097979 0 -0.056432618770441437 -0.23330437738424711 0 -0.05965132653339137 -0.2479407821529602 0 -0.07280841458628183 -0.2495376274085182 0 -0.056432618770441437 -0.23330437738424711 0 -0.07280841458628183 -0.2495376274085182 0 -0.07280841458628183 -0.2495376274085182 0 -0.076929449471693112 -0.22826623878097979 0 -0.076929449471693112 -0.22826623878097979 0 -0.084132973155778529 -0.2110840273401349 0 -0.063937218079175878 -0.21799085113721031 0 -0.056432618770441437 -0.23330437738424711 0 -0.076929449471693112 -0.22826623878097979 0 -0.063937218079175878 -0.21799085113721031 0 -0.086529348547165166 -0.24249916987868519 0 -0.076929449471693112 -0.22826623878097979 0 -0.090638750320264333 -0.22682894147722479 0 -0.090638750320264333 -0.22682894147722479 0 -0.084132973155778529 -0.2110840273401349 0 -0.1038267292004873 -0.2195133389620296 0 -0.076929449471693112 -0.22826623878097979 0 -0.090638750320264333 -0.22682894147722479 0 -0.084132973155778529 -0.2110840273401349 0 -0.084132973155778529 -0.2110840273401349 0 -0.087192162575991411 -0.19391643599320199 0 -0.1011574589047968 -0.20557682120644369 0 -0.062489561467665669 -0.19841071444875349 0 -0.084132973155778529 -0.2110840273401349 0 -0.063937218079175878 -0.21799085113721031 0 -0.062489561467665669 -0.19841071444875349 0 -0.084132973155778529 -0.2110840273401349 0 -0.087192162575991411 -0.19391643599320199 0 -0.062489561467665669 -0.19841071444875349 0 -0.087192162575991411 -0.19391643599320199 0 -0.076432289797361719 -0.18103495458872679 0 -0.1026438446607847 -0.19201201372187029 0 -0.1156427050270826 -0.2082484421904566 0 -0.1011574589047968 -0.20557682120644369 0 -0.087192162575991411 -0.19391643599320199 0 -0.1026438446607847 -0.19201201372187029 0 -0.1011574589047968 -0.20557682120644369 0 -0.1026438446607847 -0.19201201372187029 0 -0.12038784895129689 -0.19159063125776871 0 -0.1156427050270826 -0.2082484421904566 0 -0.1026438446607847 -0.19201201372187029 0 -0.12038784895129689 -0.19159063125776871 0 -0.11086137670421389 -0.17996954803766349 0 -0.12038784895129689 -0.19159063125776871 0 -0.1156427050270826 -0.2082484421904566 0 -0.13333594044445651 -0.20183349176478249 0 -0.1156427050270826 -0.2082484421904566 0 -0.1143955401832553 -0.21916654179463699 0 -0.12331570576894479 -0.22234907663378681 0 -0.1156427050270826 -0.2082484421904566 0 -0.12331570576894479 -0.22234907663378681 0 -0.12996019483971541 -0.2146873362848592 0 -0.1156427050270826 -0.2082484421904566 0 -0.1038267292004873 -0.2195133389620296 0 -0.1143955401832553 -0.21916654179463699 0 -0.1156427050270826 -0.2082484421904566 0 -0.1011574589047968 -0.20557682120644369 0 -0.1038267292004873 -0.2195133389620296 0 -0.084132973155778529 -0.2110840273401349 0 -0.1011574589047968 -0.20557682120644369 0 -0.1038267292004873 -0.2195133389620296 0 -0.1038267292004873 -0.2195133389620296 0 -0.1133116839515836 -0.23272651089718099 0 -0.099863105947244707 -0.23716912655276279 0 -0.090638750320264333 -0.22682894147722479 0 -0.1038267292004873 -0.2195133389620296 0 -0.099863105947244707 -0.23716912655276279 0 -0.1038267292004873 -0.2195133389620296 0 -0.099863105947244707 -0.23716912655276279 0 -0.1038267292004873 -0.2195133389620296 0 -0.1143955401832553 -0.21916654179463699 0 -0.1133116839515836 -0.23272651089718099 0 -0.1143955401832553 -0.21916654179463699 0 -0.1184482345282864 -0.22610932289029129 0 -0.1133116839515836 -0.23272651089718099 0 -0.12331570576894479 -0.22234907663378681 0 -0.1184482345282864 -0.22610932289029129 0 -0.1229507062358333 -0.23111816213706379 0 -0.1143955401832553 -0.21916654179463699 0 -0.12331570576894479 -0.22234907663378681 0 -0.1184482345282864 -0.22610932289029129 0 -0.1184482345282864 -0.22610932289029129 0 -0.1229507062358333 -0.23111816213706379 0 -0.1133116839515836 -0.23272651089718099 0 -0.1133116839515836 -0.23272651089718099 0 -0.12359158294165171 -0.24284810032462831 0 -0.099863105947244707 -0.23716912655276279 0 -0.095899482694015714 -0.25482491414349911 0 -0.12359158294165171 -0.24284810032462831 0 -0.1229507062358333 -0.23111816213706379 0 -0.1133116839515836 -0.23272651089718099 0 -0.12359158294165171 -0.24284810032462831 0 -0.095899482694015714 -0.25482491414349911 0 -0.099863105947244707 -0.23716912655276279 0 -0.095899482694015714 -0.25482491414349911 0 -0.12359158294165171 -0.24284810032462831 0 -0.099863105947244707 -0.23716912655276279 0 -0.095899482694015714 -0.25482491414349911 0 -0.086529348547165166 -0.24249916987868519 0 -0.099863105947244707 -0.23716912655276279 0 -0.082278889790766224 -0.1363946079829855 0 -0.069773701651810724 -0.15279612173989091 0 -0.097603268409559893 -0.1493538057165423 0 -0.069773701651810724 -0.15279612173989091 0 -0.081125118915016184 -0.16637429006039811 0 -0.097603268409559893 -0.1493538057165423 0 -0.082278889790766224 -0.1363946079829855 0 -0.097603268409559893 -0.1493538057165423 0 -0.099219192141687035 -0.12525861429733851 0 -0.078890841949931581 -0.1203169894605135 0 -0.082278889790766224 -0.1363946079829855 0 -0.099219192141687035 -0.12525861429733851 0 -0.082278889790766224 -0.1363946079829855 0 -0.063791290931146952 -0.13252384607184789 0 -0.069773701651810724 -0.15279612173989091 0 -0.078890841949931581 -0.1203169894605135 0 -0.082278889790766224 -0.1363946079829855 0 -0.063791290931146952 -0.13252384607184789 0 -0.06139586112520095 -0.17620988935790091 0 -0.069773701651810724 -0.15279612173989091 0 -0.081125118915016184 -0.16637429006039811 0 -0.06139586112520095 -0.17620988935790091 0 -0.062489561467665669 -0.19841071444875349 0 -0.076432289797361719 -0.18103495458872679 0 -0.06139586112520095 -0.17620988935790091 0 -0.076432289797361719 -0.18103495458872679 0 -0.081125118915016184 -0.16637429006039811 0 -0.076432289797361719 -0.18103495458872679 0 -0.081125118915016184 -0.16637429006039811 0 -0.095427697701553016 -0.17516120459806589 0 -0.087192162575991411 -0.19391643599320199 0 -0.076432289797361719 -0.18103495458872679 0 -0.095427697701553016 -0.17516120459806589 0 -0.081125118915016184 -0.16637429006039811 0 -0.095427697701553016 -0.17516120459806589 0 -0.097603268409559893 -0.1493538057165423 0 -0.095427697701553016 -0.17516120459806589 0 -0.1125870122408678 -0.16403624460979391 0 -0.097603268409559893 -0.1493538057165423 0 -0.087192162575991411 -0.19391643599320199 0 -0.1026438446607847 -0.19201201372187029 0 -0.095427697701553016 -0.17516120459806589 0 -0.095427697701553016 -0.17516120459806589 0 -0.11086137670421389 -0.17996954803766349 0 -0.1125870122408678 -0.16403624460979391 0 -0.1026438446607847 -0.19201201372187029 0 -0.095427697701553016 -0.17516120459806589 0 -0.11086137670421389 -0.17996954803766349 0 -0.11086137670421389 -0.17996954803766349 0 -0.1232122173109193 -0.1745019800734344 0 -0.1125870122408678 -0.16403624460979391 0 -0.12038784895129689 -0.19159063125776871 0 -0.11086137670421389 -0.17996954803766349 0 -0.1232122173109193 -0.1745019800734344 0 -0.1232122173109193 -0.1745019800734344 0 -0.1125870122408678 -0.16403624460979391 0 -0.12977314391368161 -0.15864827325867931 0 -0.1125870122408678 -0.16403624460979391 0 -0.11820628556463759 -0.14935017326809871 0 -0.12977314391368161 -0.15864827325867931 0 -0.11820628556463759 -0.14935017326809871 0 -0.097603268409559893 -0.1493538057165423 0 -0.1184141132293574 -0.13050021526910521 0 -0.1125870122408678 -0.16403624460979391 0 -0.11820628556463759 -0.14935017326809871 0 -0.097603268409559893 -0.1493538057165423 0 -0.11820628556463759 -0.14935017326809871 0 -0.1184141132293574 -0.13050021526910521 0 -0.1326538900297215 -0.1442123274863728 0 -0.097603268409559893 -0.1493538057165423 0 -0.099219192141687035 -0.12525861429733851 0 -0.1184141132293574 -0.13050021526910521 0 -0.1184141132293574 -0.13050021526910521 0 -0.14633617170610119 -0.13593485783969589 0 -0.1326538900297215 -0.1442123274863728 0 -0.1184141132293574 -0.13050021526910521 0 -0.14633617170610119 -0.13593485783969589 0 -0.14305423113275181 -0.1189668800310521 0 -0.14633617170610119 -0.13593485783969589 0 -0.1602829728352908 -0.1251145565988703 0 -0.14305423113275181 -0.1189668800310521 0 -0.14633617170610119 -0.13593485783969589 0 -0.14921278560749809 -0.1494760808599486 0 -0.1326538900297215 -0.1442123274863728 0 -0.14921278560749809 -0.1494760808599486 0 -0.12977314391368161 -0.15864827325867931 0 -0.15067149536401589 -0.15634273547953631 0 -0.14633617170610119 -0.13593485783969589 0 -0.14921278560749809 -0.1494760808599486 0 -0.16987741456760591 -0.13972590358529249 0 -0.14921278560749809 -0.1494760808599486 0 -0.15067149536401589 -0.15634273547953631 0 -0.14633617170610119 -0.13593485783969589 0 -0.14921278560749809 -0.1494760808599486 0 -0.14921278560749809 -0.1494760808599486 0 -0.1326538900297215 -0.1442123274863728 0 -0.12977314391368161 -0.15864827325867931 0 -0.14921278560749809 -0.1494760808599486 0 -0.12977314391368161 -0.15864827325867931 0 -0.11820628556463759 -0.14935017326809871 0 -0.1326538900297215 -0.1442123274863728 0 -0.12977314391368161 -0.15864827325867931 0 -0.12977314391368161 -0.15864827325867931 0 -0.13694185633746769 -0.16542235777648551 0 -0.15067149536401589 -0.15634273547953631 0 -0.1232122173109193 -0.1745019800734344 0 -0.12977314391368161 -0.15864827325867931 0 -0.13694185633746769 -0.16542235777648551 0 -0.1232122173109193 -0.1745019800734344 0 -0.13694185633746769 -0.16542235777648551 0 -0.1232122173109193 -0.1745019800734344 0 -0.13694185633746769 -0.16542235777648551 0 -0.13612768588987739 -0.18580208336424089 0 -0.12038784895129689 -0.19159063125776871 0 -0.1232122173109193 -0.1745019800734344 0 -0.13612768588987739 -0.18580208336424089 0 -0.13694185633746769 -0.16542235777648551 0 -0.13612768588987739 -0.18580208336424089 0 -0.1565095186436268 -0.18382434334780609 0 -0.15067149536401589 -0.15634273547953631 0 -0.1565095186436268 -0.18382434334780609 0 -0.13694185633746769 -0.16542235777648551 0 -0.15067149536401589 -0.15634273547953631 0 -0.1565095186436268 -0.18382434334780609 0 -0.13694185633746769 -0.16542235777648551 0 -0.15067149536401589 -0.15634273547953631 0 -0.15067149536401589 -0.15634273547953631 0 -0.17104744572700811 -0.16548978598258099 0 -0.1565095186436268 -0.18382434334780609 0 -0.17104744572700811 -0.16548978598258099 0 -0.1565095186436268 -0.18382434334780609 0 -0.17448126239782441 -0.1814003430836367 0 -0.17104744572700811 -0.16548978598258099 0 -0.17448126239782441 -0.1814003430836367 0 -0.18993137771372409 -0.17741643676230359 0 -0.17448126239782441 -0.1814003430836367 0 -0.1804367075069386 -0.1988708062418563 0 -0.18993137771372409 -0.17741643676230359 0 -0.17104744572700811 -0.16548978598258099 0 -0.18907548949526731 -0.14942228656996651 0 -0.18993137771372409 -0.17741643676230359 0 -0.17060676944586509 -0.14315923089508681 0 -0.19054204352771409 -0.12997572631063681 0 -0.18907548949526731 -0.14942228656996651 0 -0.17104744572700811 -0.16548978598258099 0 -0.17060676944586509 -0.14315923089508681 0 -0.18907548949526731 -0.14942228656996651 0 -0.17060676944586509 -0.14315923089508681 0 -0.19054204352771409 -0.12997572631063681 0 -0.16987741456760591 -0.13972590358529249 0 -0.17060676944586509 -0.14315923089508681 0 -0.19054204352771409 -0.12997572631063681 0 -0.16987741456760591 -0.13972590358529249 0 -0.19054204352771409 -0.12997572631063681 0 -0.16987741456760591 -0.13972590358529249 0 -0.19054204352771409 -0.12997572631063681 0 -0.17445269773384919 -0.1235115967453122 0 -0.14633617170610119 -0.13593485783969589 0 -0.16987741456760591 -0.13972590358529249 0 -0.1602829728352908 -0.1251145565988703 0 -0.16987741456760591 -0.13972590358529249 0 -0.1602829728352908 -0.1251145565988703 0 -0.17445269773384919 -0.1235115967453122 0 -0.14921278560749809 -0.1494760808599486 0 -0.16987741456760591 -0.13972590358529249 0 -0.17060676944586509 -0.14315923089508681 0 -0.14921278560749809 -0.1494760808599486 0 -0.15067149536401589 -0.15634273547953631 0 -0.17060676944586509 -0.14315923089508681 0 -0.14921278560749809 -0.1494760808599486 0 -0.16987741456760591 -0.13972590358529249 0 -0.15067149536401589 -0.15634273547953631 0 -0.17104744572700811 -0.16548978598258099 0 -0.17060676944586509 -0.14315923089508681 0 -0.15067149536401589 -0.15634273547953631 0 -0.17060676944586509 -0.14315923089508681 0 -0.1511073566547699 -0.25297673056549691 0 -0.14876566306183581 -0.23196032843428641 0 -0.16548138356170289 -0.24104320359541179 0 -0.1358624384287514 -0.25134689225890172 0 -0.1511073566547699 -0.25297673056549691 0 -0.14876566306183581 -0.23196032843428641 0 -0.1358624384287514 -0.25134689225890172 0 -0.12359158294165171 -0.24284810032462831 0 -0.14876566306183581 -0.23196032843428641 0 -0.12359158294165171 -0.24284810032462831 0 -0.14876566306183581 -0.23196032843428641 0 -0.1229507062358333 -0.23111816213706379 0 -0.12359158294165171 -0.24284810032462831 0 -0.1337657363526277 -0.2267674155082986 0 -0.12359158294165171 -0.24284810032462831 0 -0.1337657363526277 -0.2267674155082986 0 -0.14876566306183581 -0.23196032843428641 0 -0.12331570576894479 -0.22234907663378681 0 -0.1229507062358333 -0.23111816213706379 0 -0.1337657363526277 -0.2267674155082986 0 -0.12331570576894479 -0.22234907663378681 0 -0.1337657363526277 -0.2267674155082986 0 -0.12996019483971541 -0.2146873362848592 0 -0.1337657363526277 -0.2267674155082986 0 -0.14876566306183581 -0.23196032843428641 0 -0.143740886605465 -0.21423825532697119 0 -0.14876566306183581 -0.23196032843428641 0 -0.143740886605465 -0.21423825532697119 0 -0.1623475419232378 -0.21130595121607579 0 -0.143740886605465 -0.21423825532697119 0 -0.1464123147013327 -0.1994008250039753 0 -0.1623475419232378 -0.21130595121607579 0 -0.143740886605465 -0.21423825532697119 0 -0.13333594044445651 -0.20183349176478249 0 -0.1464123147013327 -0.1994008250039753 0 -0.1156427050270826 -0.2082484421904566 0 -0.12996019483971541 -0.2146873362848592 0 -0.13333594044445651 -0.20183349176478249 0 -0.1337657363526277 -0.2267674155082986 0 -0.143740886605465 -0.21423825532697119 0 -0.12996019483971541 -0.2146873362848592 0 -0.143740886605465 -0.21423825532697119 0 -0.12996019483971541 -0.2146873362848592 0 -0.13333594044445651 -0.20183349176478249 0 -0.12038784895129689 -0.19159063125776871 0 -0.13612768588987739 -0.18580208336424089 0 -0.13333594044445651 -0.20183349176478249 0 -0.13612768588987739 -0.18580208336424089 0 -0.13333594044445651 -0.20183349176478249 0 -0.1464123147013327 -0.1994008250039753 0 -0.1565095186436268 -0.18382434334780609 0 -0.1464123147013327 -0.1994008250039753 0 -0.1623475419232378 -0.21130595121607579 0 -0.13612768588987739 -0.18580208336424089 0 -0.1565095186436268 -0.18382434334780609 0 -0.1464123147013327 -0.1994008250039753 0 -0.1565095186436268 -0.18382434334780609 0 -0.1804367075069386 -0.1988708062418563 0 -0.1623475419232378 -0.21130595121607579 0 -0.1565095186436268 -0.18382434334780609 0 -0.17448126239782441 -0.1814003430836367 0 -0.1804367075069386 -0.1988708062418563 0 -0.1565095186436268 -0.18382434334780609 0 -0.1623475419232378 -0.21130595121607579 0 -0.1804367075069386 -0.1988708062418563 0 -0.1623475419232378 -0.21130595121607579 0 -0.1739397431820181 -0.22107255654394031 0 -0.1739397431820181 -0.22107255654394031 0 -0.19911382330220029 -0.21018478465359411 0 -0.1804367075069386 -0.1988708062418563 0 -0.1739397431820181 -0.22107255654394031 0 -0.19911382330220029 -0.21018478465359411 0 -0.14876566306183581 -0.23196032843428641 0 -0.1623475419232378 -0.21130595121607579 0 -0.1739397431820181 -0.22107255654394031 0 -0.14876566306183581 -0.23196032843428641 0 -0.1739397431820181 -0.22107255654394031 0 -0.14876566306183581 -0.23196032843428641 0 -0.1739397431820181 -0.22107255654394031 0 -0.16548138356170289 -0.24104320359541179 0 -0.1739397431820181 -0.22107255654394031 0 -0.18056347638435219 -0.23705245683313891 0 -0.1948829478739921 -0.22900278904538079 0 -0.1739397431820181 -0.22107255654394031 0 -0.18056347638435219 -0.23705245683313891 0 -0.16548138356170289 -0.24104320359541179 0 -0.17528032545495581 -0.25191732758079383 0 -0.18056347638435219 -0.23705245683313891 0 -0.1932299274470719 -0.24790458824061951 0 -0.17528032545495581 -0.25191732758079383 0 -0.18056347638435219 -0.23705245683313891 0 -0.16548138356170289 -0.24104320359541179 0 -0.1646178431615046 -0.25445503348253817 0 -0.17528032545495581 -0.25191732758079383 0 -0.16548138356170289 -0.24104320359541179 0 -0.1646178431615046 -0.25445503348253817 0 -0.1511073566547699 -0.25297673056549691 0 -0.16548138356170289 -0.24104320359541179 0 -0.20847416510608671 -0.25738674523273097 0 -0.1932299274470719 -0.24790458824061951 0 -0.21543850620499641 -0.23183580041135571 0 -0.2263512241589529 -0.25710955967913479 0 -0.20847416510608671 -0.25738674523273097 0 -0.21543850620499641 -0.23183580041135571 0 -0.18056347638435219 -0.23705245683313891 0 -0.1932299274470719 -0.24790458824061951 0 -0.1948829478739921 -0.22900278904538079 0 -0.1932299274470719 -0.24790458824061951 0 -0.1948829478739921 -0.22900278904538079 0 -0.21543850620499641 -0.23183580041135571 0 -0.1739397431820181 -0.22107255654394031 0 -0.1948829478739921 -0.22900278904538079 0 -0.19911382330220029 -0.21018478465359411 0 -0.1948829478739921 -0.22900278904538079 0 -0.21543850620499641 -0.23183580041135571 0 -0.19911382330220029 -0.21018478465359411 0 -0.21543850620499641 -0.23183580041135571 0 -0.19911382330220029 -0.21018478465359411 0 -0.22428790342238261 -0.19929701276324799 0 -0.19911382330220029 -0.21018478465359411 0 -0.22428790342238261 -0.19929701276324799 0 -0.1804367075069386 -0.1988708062418563 0 -0.20755249671864481 -0.1876613592147037 0 -0.18993137771372409 -0.17741643676230359 0 -0.1804367075069386 -0.1988708062418563 0 -0.19911382330220029 -0.21018478465359411 0 -0.20755249671864481 -0.1876613592147037 0 -0.19911382330220029 -0.21018478465359411 0 -0.20755249671864481 -0.1876613592147037 0 -0.22428790342238261 -0.19929701276324799 0 -0.21543850620499641 -0.23183580041135571 0 -0.22428790342238261 -0.19929701276324799 0 -0.23995261405442531 -0.2151849346684338 0 -0.20755249671864481 -0.1876613592147037 0 -0.22428790342238261 -0.19929701276324799 0 -0.22639230662851401 -0.1778410470798569 0 -0.22428790342238261 -0.19929701276324799 0 -0.24946198354256491 -0.18840924087290181 0 -0.22639230662851401 -0.1778410470798569 0 -0.22428790342238261 -0.19929701276324799 0 -0.24946198354256491 -0.18840924087290181 0 -0.23995261405442531 -0.2151849346684338 0 -0.22428790342238261 -0.19929701276324799 0 -0.24946198354256491 -0.18840924087290181 0 -0.24946198354256491 -0.18840924087290181 0 -0.23995261405442531 -0.2151849346684338 0 -0.25830865049927842 -0.20759217678007391 0 -0.21543850620499641 -0.23183580041135571 0 -0.23995261405442531 -0.2151849346684338 0 -0.2375761628827614 -0.23838694529065829 0 -0.23995261405442531 -0.2151849346684338 0 -0.2375761628827614 -0.23838694529065829 0 -0.25516998130317209 -0.22637942349201251 0 -0.2263512241589529 -0.25710955967913479 0 -0.24181875001741471 -0.25216764242131462 0 -0.2375761628827614 -0.23838694529065829 0 -0.2375761628827614 -0.23838694529065829 0 -0.25426167453643861 -0.24375500549720949 0 -0.25516998130317209 -0.22637942349201251 0 -0.24181875001741471 -0.25216764242131462 0 -0.2375761628827614 -0.23838694529065829 0 -0.25426167453643861 -0.24375500549720949 0 -0.2263512241589529 -0.25710955967913479 0 -0.21543850620499641 -0.23183580041135571 0 -0.2375761628827614 -0.23838694529065829 0 -0.2263512241589529 -0.25710955967913479 0 -0.2375761628827614 -0.23838694529065829 0 -0.2093275821213274 -0.1477590150924247 0 -0.21339045217147221 -0.13366477533605101 0 -0.22269106029148469 -0.14288848717583699 0 -0.21339045217147221 -0.13366477533605101 0 -0.21788321062648269 -0.1257663644842959 0 -0.22425874238712659 -0.13035583872512571 0 -0.21339045217147221 -0.13366477533605101 0 -0.21788321062648269 -0.1257663644842959 0 -0.21142289841082429 -0.1243663729550166 0 -0.21339045217147221 -0.13366477533605101 0 -0.20812325212995861 -0.1289437416088775 0 -0.21142289841082429 -0.1243663729550166 0 -0.21339045217147221 -0.13366477533605101 0 -0.20812325212995861 -0.1289437416088775 0 -0.20206771951019931 -0.13487850969155801 0 -0.20812325212995861 -0.1289437416088775 0 -0.20206771951019931 -0.13487850969155801 0 -0.20561193842733869 -0.1228653084528846 0 -0.20812325212995861 -0.1289437416088775 0 -0.20561193842733869 -0.1228653084528846 0 -0.21142289841082429 -0.1243663729550166 0 -0.2093275821213274 -0.1477590150924247 0 -0.21339045217147221 -0.13366477533605101 0 -0.20206771951019931 -0.13487850969155801 0 -0.20206771951019931 -0.13487850969155801 0 -0.19054204352771409 -0.12997572631063681 0 -0.18907548949526731 -0.14942228656996651 0 -0.19054204352771409 -0.12997572631063681 0 -0.20501264219971721 -0.1204060959584871 0 -0.20206771951019931 -0.13487850969155801 0 -0.19054204352771409 -0.12997572631063681 0 -0.20561193842733869 -0.1228653084528846 0 -0.19054204352771409 -0.12997572631063681 0 -0.20561193842733869 -0.1228653084528846 0 -0.2093275821213274 -0.1477590150924247 0 -0.20206771951019931 -0.13487850969155801 0 -0.18907548949526731 -0.14942228656996651 0 -0.2093275821213274 -0.1477590150924247 0 -0.18907548949526731 -0.14942228656996651 0 -0.2079422421064705 -0.16631639837218559 0 -0.18907548949526731 -0.14942228656996651 0 -0.18993137771372409 -0.17741643676230359 0 -0.2079422421064705 -0.16631639837218559 0 -0.20755249671864481 -0.1876613592147037 0 -0.18993137771372409 -0.17741643676230359 0 -0.2079422421064705 -0.16631639837218559 0 -0.20755249671864481 -0.1876613592147037 0 -0.2079422421064705 -0.16631639837218559 0 -0.22639230662851401 -0.1778410470798569 0 -0.2093275821213274 -0.1477590150924247 0 -0.2079422421064705 -0.16631639837218559 0 -0.22686045256124709 -0.15765379644339761 0 -0.22686045256124709 -0.15765379644339761 0 -0.22639230662851401 -0.1778410470798569 0 -0.24173871058713201 -0.16902638958261079 0 -0.2079422421064705 -0.16631639837218559 0 -0.22686045256124709 -0.15765379644339761 0 -0.22639230662851401 -0.1778410470798569 0 -0.24946198354256491 -0.18840924087290181 0 -0.24173871058713201 -0.16902638958261079 0 -0.2583790964533409 -0.1655659697492724 0 -0.24946198354256491 -0.18840924087290181 0 -0.22639230662851401 -0.1778410470798569 0 -0.24173871058713201 -0.16902638958261079 0 -0.22686045256124709 -0.15765379644339761 0 -0.24173871058713201 -0.16902638958261079 0 -0.2437046992377499 -0.15402165604372889 0 -0.24173871058713201 -0.16902638958261079 0 -0.2437046992377499 -0.15402165604372889 0 -0.2583790964533409 -0.1655659697492724 0 -0.22686045256124709 -0.15765379644339761 0 -0.2437046992377499 -0.15402165604372889 0 -0.23450903841355999 -0.14635395988787481 0 -0.2437046992377499 -0.15402165604372889 0 -0.243414544293451 -0.14155519239039779 0 -0.25732635311776858 -0.14397462820881979 0 -0.2437046992377499 -0.15402165604372889 0 -0.243414544293451 -0.14155519239039779 0 -0.23450903841355999 -0.14635395988787481 0 -0.243414544293451 -0.14155519239039779 0 -0.23450903841355999 -0.14635395988787481 0 -0.23434001953351 -0.13536099729535589 0 -0.2093275821213274 -0.1477590150924247 0 -0.22686045256124709 -0.15765379644339761 0 -0.22269106029148469 -0.14288848717583699 0 -0.22686045256124709 -0.15765379644339761 0 -0.23450903841355999 -0.14635395988787481 0 -0.22269106029148469 -0.14288848717583699 0 -0.23450903841355999 -0.14635395988787481 0 -0.22269106029148469 -0.14288848717583699 0 -0.23434001953351 -0.13536099729535589 0 -0.21788321062648269 -0.1257663644842959 0 -0.22425874238712659 -0.13035583872512571 0 -0.22465142843382499 -0.12022675454111641 0 -0.21339045217147221 -0.13366477533605101 0 -0.22269106029148469 -0.14288848717583699 0 -0.22425874238712659 -0.13035583872512571 0 -0.22269106029148469 -0.14288848717583699 0 -0.22425874238712659 -0.13035583872512571 0 -0.23434001953351 -0.13536099729535589 0 -0.22425874238712659 -0.13035583872512571 0 -0.23434001953351 -0.13536099729535589 0 -0.23431407469681181 -0.12246283728452111 0 -0.23434001953351 -0.13536099729535589 0 -0.2454750826221756 -0.12869509864694409 0 -0.23431407469681181 -0.12246283728452111 0 -0.243414544293451 -0.14155519239039779 0 -0.23434001953351 -0.13536099729535589 0 -0.2454750826221756 -0.12869509864694409 0 -0.243414544293451 -0.14155519239039779 0 -0.2454750826221756 -0.12869509864694409 0 -0.25732635311776858 -0.14397462820881979 0 -0.2454750826221756 -0.12869509864694409 0 -0.23727503288938601 -0.1090571166997986 0 -0.23431407469681181 -0.12246283728452111 0 -0.2454750826221756 -0.12869509864694409 0 -0.23727503288938601 -0.1090571166997986 0 -0.25426896935010579 -0.1095090082815445 0 -0.23727503288938601 -0.1090571166997986 0 -0.25500330198796328 -0.092524932268713861 0 -0.24016239298153 -0.094987213035503296 0 -0.23727503288938601 -0.1090571166997986 0 -0.25500330198796328 -0.092524932268713861 0 -0.23727503288938601 -0.1090571166997986 0 -0.25500330198796328 -0.092524932268713861 0 -0.25426896935010579 -0.1095090082815445 0 -0.24016239298153 -0.094987213035503296 0 -0.23727503288938601 -0.1090571166997986 0 -0.23149866632102981 -0.095855297922254515 0 -0.23727503288938601 -0.1090571166997986 0 -0.23149866632102981 -0.095855297922254515 0 -0.22141066689477021 -0.1001418268634155 0 -0.23727503288938601 -0.1090571166997986 0 -0.22141066689477021 -0.1001418268634155 0 -0.21948324087172011 -0.11083646560633741 0 -0.22141066689477021 -0.1001418268634155 0 -0.2222667515139177 -0.091924304825843212 0 -0.21380138995394801 -0.09802128853081353 0 -0.23149866632102981 -0.095855297922254515 0 -0.22141066689477021 -0.1001418268634155 0 -0.2222667515139177 -0.091924304825843212 0 -0.23727503288938601 -0.1090571166997986 0 -0.21948324087172011 -0.11083646560633741 0 -0.22465142843382499 -0.12022675454111641 0 -0.21948324087172011 -0.11083646560633741 0 -0.22465142843382499 -0.12022675454111641 0 -0.21569253172916569 -0.1202180808641696 0 -0.21788321062648269 -0.1257663644842959 0 -0.22465142843382499 -0.12022675454111641 0 -0.21569253172916569 -0.1202180808641696 0 -0.22425874238712659 -0.13035583872512571 0 -0.22465142843382499 -0.12022675454111641 0 -0.23431407469681181 -0.12246283728452111 0 -0.23727503288938601 -0.1090571166997986 0 -0.22465142843382499 -0.12022675454111641 0 -0.23431407469681181 -0.12246283728452111 0 -0.24451217379254889 -0.068352632537003327 0 -0.2341818771808836 -0.070674963497634608 0 -0.23885962817419079 -0.060889772083944062 0 -0.24451217379254889 -0.068352632537003327 0 -0.248432681159725 -0.060829668616038217 0 -0.23885962817419079 -0.060889772083944062 0 -0.24451217379254889 -0.068352632537003327 0 -0.248432681159725 -0.060829668616038217 0 -0.2560104122500777 -0.069048886366462683 0 -0.24451217379254889 -0.068352632537003327 0 -0.2485414283457287 -0.075142290085078015 0 -0.23687257072774101 -0.082511505251246203 0 -0.24451217379254889 -0.068352632537003327 0 -0.2485414283457287 -0.075142290085078015 0 -0.2560104122500777 -0.069048886366462683 0 -0.24451217379254889 -0.068352632537003327 0 -0.23687257072774101 -0.082511505251246203 0 -0.2341818771808836 -0.070674963497634608 0 -0.24016239298153 -0.094987213035503296 0 -0.23687257072774101 -0.082511505251246203 0 -0.25500330198796328 -0.092524932268713861 0 -0.23687257072774101 -0.082511505251246203 0 -0.25677055661254711 -0.0806561361855999 0 -0.23687257072774101 -0.082511505251246203 0 -0.25677055661254711 -0.0806561361855999 0 -0.25500330198796328 -0.092524932268713861 0 -0.2485414283457287 -0.075142290085078015 0 -0.23687257072774101 -0.082511505251246203 0 -0.25677055661254711 -0.0806561361855999 0 -0.24016239298153 -0.094987213035503296 0 -0.23149866632102981 -0.095855297922254515 0 -0.23687257072774101 -0.082511505251246203 0 -0.23687257072774101 -0.082511505251246203 0 -0.2232645520560701 -0.08142272036479424 0 -0.21697458484293489 -0.084366874316892604 0 -0.23687257072774101 -0.082511505251246203 0 -0.21697458484293489 -0.084366874316892604 0 -0.23687257072774101 -0.082511505251246203 0 -0.2222667515139177 -0.091924304825843212 0 -0.21697458484293489 -0.084366874316892604 0 -0.23149866632102981 -0.095855297922254515 0 -0.23687257072774101 -0.082511505251246203 0 -0.2222667515139177 -0.091924304825843212 0 -0.2232645520560701 -0.08142272036479424 0 -0.21697458484293489 -0.084366874316892604 0 -0.2232645520560701 -0.08142272036479424 0 -0.21749776456134659 -0.077436341355459681 0 -0.21697458484293489 -0.084366874316892604 0 -0.23687257072774101 -0.082511505251246203 0 -0.2232645520560701 -0.08142272036479424 0 -0.22968598137111801 -0.07675136763334664 0 -0.22968598137111801 -0.07675136763334664 0 -0.2341818771808836 -0.070674963497634608 0 -0.22442492551977711 -0.072396281419711481 0 -0.23687257072774101 -0.082511505251246203 0 -0.22968598137111801 -0.07675136763334664 0 -0.2341818771808836 -0.070674963497634608 0 -0.2232645520560701 -0.08142272036479424 0 -0.22968598137111801 -0.07675136763334664 0 -0.22442492551977711 -0.072396281419711481 0 -0.2232645520560701 -0.08142272036479424 0 -0.22442492551977711 -0.072396281419711481 0 -0.21749776456134659 -0.077436341355459681 0 -0.22442492551977711 -0.072396281419711481 0 -0.2151480204738378 -0.071032624553753643 0 -0.21749776456134659 -0.077436341355459681 0 -0.22442492551977711 -0.072396281419711481 0 -0.22991000808274689 -0.063661680765436462 0 -0.22018448092198109 -0.060892658717956211 0 -0.22442492551977711 -0.072396281419711481 0 -0.2151480204738378 -0.071032624553753643 0 -0.22018448092198109 -0.060892658717956211 0 -0.2341818771808836 -0.070674963497634608 0 -0.22442492551977711 -0.072396281419711481 0 -0.22991000808274689 -0.063661680765436462 0 -0.2341818771808836 -0.070674963497634608 0 -0.22991000808274689 -0.063661680765436462 0 -0.23885962817419079 -0.060889772083944062 0 -0.20680253117307221 -0.069577736518676339 0 -0.2151480204738378 -0.071032624553753643 0 -0.21002050022682589 -0.061318884858896541 0 -0.20680253117307221 -0.069577736518676339 0 -0.19884096789893341 -0.065185206912170099 0 -0.21002050022682589 -0.061318884858896541 0 -0.2151480204738378 -0.071032624553753643 0 -0.21002050022682589 -0.061318884858896541 0 -0.22018448092198109 -0.060892658717956211 0 -0.2151480204738378 -0.071032624553753643 0 -0.21749776456134659 -0.077436341355459681 0 -0.20767673991411309 -0.07796320612214637 0 -0.20680253117307221 -0.069577736518676339 0 -0.20767673991411309 -0.07796320612214637 0 -0.20056712087057599 -0.073286536495024854 0 -0.20680253117307221 -0.069577736518676339 0 -0.2151480204738378 -0.071032624553753643 0 -0.20767673991411309 -0.07796320612214637 0 -0.21697458484293489 -0.084366874316892604 0 -0.19233446693954051 -0.095900209554945826 0 -0.21697458484293489 -0.084366874316892604 0 -0.2032287759649388 -0.095332850539606828 0 -0.19233446693954051 -0.095900209554945826 0 -0.20767673991411309 -0.07796320612214637 0 -0.21697458484293489 -0.084366874316892604 0 -0.19124290323364379 -0.086766200878953939 0 -0.21697458484293489 -0.084366874316892604 0 -0.19124290323364379 -0.086766200878953939 0 -0.21749776456134659 -0.077436341355459681 0 -0.20767673991411309 -0.07796320612214637 0 -0.21697458484293489 -0.084366874316892604 0 -0.21697458484293489 -0.084366874316892604 0 -0.21406787556893489 -0.09241132955328904 0 -0.2032287759649388 -0.095332850539606828 0 -0.2222667515139177 -0.091924304825843212 0 -0.21697458484293489 -0.084366874316892604 0 -0.21406787556893489 -0.09241132955328904 0 -0.20767673991411309 -0.07796320612214637 0 -0.19124290323364379 -0.086766200878953939 0 -0.19741361155333939 -0.077890732236302385 0 -0.21697458484293489 -0.084366874316892604 0 -0.19124290323364379 -0.086766200878953939 0 -0.19233446693954051 -0.095900209554945826 0 -0.19124290323364379 -0.086766200878953939 0 -0.19741361155333939 -0.077890732236302385 0 -0.19016768219502481 -0.07354698544908439 0 -0.19741361155333939 -0.077890732236302385 0 -0.20056712087057599 -0.073286536495024854 0 -0.19016768219502481 -0.07354698544908439 0 -0.20767673991411309 -0.07796320612214637 0 -0.19741361155333939 -0.077890732236302385 0 -0.20056712087057599 -0.073286536495024854 0 -0.20056712087057599 -0.073286536495024854 0 -0.19016768219502481 -0.07354698544908439 0 -0.19884096789893341 -0.065185206912170099 0 -0.19016768219502481 -0.07354698544908439 0 -0.19884096789893341 -0.065185206912170099 0 -0.18366785298764041 -0.061551476936618582 0 -0.20680253117307221 -0.069577736518676339 0 -0.20056712087057599 -0.073286536495024854 0 -0.19884096789893341 -0.065185206912170099 0 -0.21948324087172011 -0.11083646560633741 0 -0.20699432100378021 -0.1117020628615215 0 -0.20501264219971721 -0.1204060959584871 0 -0.20501264219971721 -0.1204060959584871 0 -0.21142289841082429 -0.1243663729550166 0 -0.21569253172916569 -0.1202180808641696 0 -0.20501264219971721 -0.1204060959584871 0 -0.20561193842733869 -0.1228653084528846 0 -0.21142289841082429 -0.1243663729550166 0 -0.21788321062648269 -0.1257663644842959 0 -0.21142289841082429 -0.1243663729550166 0 -0.21569253172916569 -0.1202180808641696 0 -0.21948324087172011 -0.11083646560633741 0 -0.20501264219971721 -0.1204060959584871 0 -0.21948324087172011 -0.11083646560633741 0 -0.20501264219971721 -0.1204060959584871 0 -0.21569253172916569 -0.1202180808641696 0 -0.21948324087172011 -0.11083646560633741 0 -0.20699432100378021 -0.1117020628615215 0 -0.21104727587154201 -0.1051971377955217 0 -0.22141066689477021 -0.1001418268634155 0 -0.21948324087172011 -0.11083646560633741 0 -0.21104727587154201 -0.1051971377955217 0 -0.22141066689477021 -0.1001418268634155 0 -0.21104727587154201 -0.1051971377955217 0 -0.21380138995394801 -0.09802128853081353 0 -0.2222667515139177 -0.091924304825843212 0 -0.21406787556893489 -0.09241132955328904 0 -0.21380138995394801 -0.09802128853081353 0 -0.21406787556893489 -0.09241132955328904 0 -0.21380138995394801 -0.09802128853081353 0 -0.2032287759649388 -0.095332850539606828 0 -0.21104727587154201 -0.1051971377955217 0 -0.21380138995394801 -0.09802128853081353 0 -0.2032287759649388 -0.095332850539606828 0 -0.20699432100378021 -0.1117020628615215 0 -0.21104727587154201 -0.1051971377955217 0 -0.2024251050926007 -0.10621227968465451 0 -0.21104727587154201 -0.1051971377955217 0 -0.2032287759649388 -0.095332850539606828 0 -0.2024251050926007 -0.10621227968465451 0 -0.2024251050926007 -0.10621227968465451 0 -0.1913295618477085 -0.10593570016590199 0 -0.19710462582205429 -0.1150043546923868 0 -0.2032287759649388 -0.095332850539606828 0 -0.2024251050926007 -0.10621227968465451 0 -0.1913295618477085 -0.10593570016590199 0 -0.2032287759649388 -0.095332850539606828 0 -0.19233446693954051 -0.095900209554945826 0 -0.1913295618477085 -0.10593570016590199 0 -0.1913295618477085 -0.10593570016590199 0 -0.19710462582205429 -0.1150043546923868 0 -0.18519004823097049 -0.1157309617308193 0 -0.20699432100378021 -0.1117020628615215 0 -0.2024251050926007 -0.10621227968465451 0 -0.19710462582205429 -0.1150043546923868 0 -0.20699432100378021 -0.1117020628615215 0 -0.20501264219971721 -0.1204060959584871 0 -0.19710462582205429 -0.1150043546923868 0 -0.19054204352771409 -0.12997572631063681 0 -0.20501264219971721 -0.1204060959584871 0 -0.20561193842733869 -0.1228653084528846 0 -0.19054204352771409 -0.12997572631063681 0 -0.20501264219971721 -0.1204060959584871 0 -0.19710462582205429 -0.1150043546923868 0 -0.19054204352771409 -0.12997572631063681 0 -0.19710462582205429 -0.1150043546923868 0 -0.18519004823097049 -0.1157309617308193 0 -0.19054204352771409 -0.12997572631063681 0 -0.17445269773384919 -0.1235115967453122 0 -0.18519004823097049 -0.1157309617308193 0 -0.17445269773384919 -0.1235115967453122 0 -0.18519004823097049 -0.1157309617308193 0 -0.16769434903614619 -0.10743354479299901 0 -0.1913295618477085 -0.10593570016590199 0 -0.18519004823097049 -0.1157309617308193 0 -0.16769434903614619 -0.10743354479299901 0 -0.1602829728352908 -0.1251145565988703 0 -0.17445269773384919 -0.1235115967453122 0 -0.16769434903614619 -0.10743354479299901 0 -0.1602829728352908 -0.1251145565988703 0 -0.16769434903614619 -0.10743354479299901 0 -0.14305423113275181 -0.1189668800310521 0 -0.16769434903614619 -0.10743354479299901 0 -0.16551122162435269 -0.089165527441015358 0 -0.1511178083772281 -0.1041065539901736 0 -0.19233446693954051 -0.095900209554945826 0 -0.16769434903614619 -0.10743354479299901 0 -0.16551122162435269 -0.089165527441015358 0 -0.19233446693954051 -0.095900209554945826 0 -0.1913295618477085 -0.10593570016590199 0 -0.16769434903614619 -0.10743354479299901 0 -0.19233446693954051 -0.095900209554945826 0 -0.16769434903614619 -0.10743354479299901 0 -0.19124290323364379 -0.086766200878953939 0 -0.17722331158841159 -0.076386673877372482 0 -0.16551122162435269 -0.089165527441015358 0 -0.19124290323364379 -0.086766200878953939 0 -0.16551122162435269 -0.089165527441015358 0 -0.19124290323364379 -0.086766200878953939 0 -0.19233446693954051 -0.095900209554945826 0 -0.16551122162435269 -0.089165527441015358 0 -0.19124290323364379 -0.086766200878953939 0 -0.19016768219502481 -0.07354698544908439 0 -0.17722331158841159 -0.076386673877372482 0 -0.19016768219502481 -0.07354698544908439 0 -0.17722331158841159 -0.076386673877372482 0 -0.18366785298764041 -0.061551476936618582 0 -0.17722331158841159 -0.076386673877372482 0 -0.1715723850475136 -0.065800892572556044 0 -0.18366785298764041 -0.061551476936618582 0 -0.17722331158841159 -0.076386673877372482 0 -0.16066569543387499 -0.070498102825675854 0 -0.1715723850475136 -0.065800892572556044 0 -0.16066569543387499 -0.070498102825675854 0 -0.1715723850475136 -0.065800892572556044 0 -0.16567947270125019 -0.054466703126000132 0 -0.16066569543387499 -0.070498102825675854 0 -0.16551122162435269 -0.089165527441015358 0 -0.1429920927852571 -0.073353157795351592 0 -0.17722331158841159 -0.076386673877372482 0 -0.16066569543387499 -0.070498102825675854 0 -0.16551122162435269 -0.089165527441015358 0 -0.16551122162435269 -0.089165527441015358 0 -0.1429920927852571 -0.073353157795351592 0 -0.13977954001506179 -0.091564854003076762 0 -0.16551122162435269 -0.089165527441015358 0 -0.13977954001506179 -0.091564854003076762 0 -0.16066569543387499 -0.070498102825675854 0 -0.1429920927852571 -0.073353157795351592 0 -0.14773797142534201 -0.057338987561130053 0 -0.1429920927852571 -0.073353157795351592 0 -0.12581382665831831 -0.070872335529786681 0 -0.13222960936365061 -0.053901193637760907 0 -0.1429920927852571 -0.073353157795351592 0 -0.12581382665831831 -0.070872335529786681 0 -0.13977954001506179 -0.091564854003076762 0 -0.1140478584057709 -0.093964180565138181 0 -0.12581382665831831 -0.070872335529786681 0 -0.13977954001506179 -0.091564854003076762 0 -0.1140478584057709 -0.093964180565138181 0 -0.13977954001506179 -0.091564854003076762 0 -0.1244243354619162 -0.1112530480806426 0 -0.13977954001506179 -0.091564854003076762 0 -0.1511178083772281 -0.1041065539901736 0 -0.1244243354619162 -0.1112530480806426 0 -0.1140478584057709 -0.093964180565138181 0 -0.13977954001506179 -0.091564854003076762 0 -0.1184141132293574 -0.13050021526910521 0 -0.14305423113275181 -0.1189668800310521 0 -0.1244243354619162 -0.1112530480806426 0 -0.14305423113275181 -0.1189668800310521 0 -0.1511178083772281 -0.1041065539901736 0 -0.1244243354619162 -0.1112530480806426 0 -0.1184141132293574 -0.13050021526910521 0 -0.14305423113275181 -0.1189668800310521 0 -0.16769434903614619 -0.10743354479299901 0 -0.14305423113275181 -0.1189668800310521 0 -0.16769434903614619 -0.10743354479299901 0 -0.14305423113275181 -0.1189668800310521 0 -0.1511178083772281 -0.1041065539901736 0 -0.16551122162435269 -0.089165527441015358 0 -0.13977954001506179 -0.091564854003076762 0 -0.1511178083772281 -0.1041065539901736 0 -0.15093318550779439 -0.01906161754860573 0 -0.14596198660283499 -0.039766815781594682 0 -0.16750707841983761 -0.030278305404909209 0 -0.15093318550779439 -0.01906161754860573 0 -0.12970315635882029 -0.025210515849699081 0 -0.14596198660283499 -0.039766815781594682 0 -0.15093318550779439 -0.01906161754860573 0 -0.17049260380878831 -0.0019676634340025732 0 -0.14100110234869079 0.001915212727176877 0 -0.15093318550779439 -0.01906161754860573 0 -0.12970315635882029 -0.025210515849699081 0 -0.14100110234869079 0.001915212727176877 0 -0.12970315635882029 -0.025210515849699081 0 -0.14100110234869079 0.001915212727176877 0 -0.118532798400574 -0.00069274467401118911 0 -0.12970315635882029 -0.025210515849699081 0 -0.14100110234869079 0.001915212727176877 0 -0.12970315635882029 -0.025210515849699081 0 -0.1259026570143254 -0.040360331226294288 0 -0.14596198660283499 -0.039766815781594682 0 -0.1259026570143254 -0.040360331226294288 0 -0.13222960936365061 -0.053901193637760907 0 -0.14596198660283499 -0.039766815781594682 0 -0.14773797142534201 -0.057338987561130053 0 -0.14596198660283499 -0.039766815781594682 0 -0.16567947270125019 -0.054466703126000132 0 -0.13222960936365061 -0.053901193637760907 0 -0.14773797142534201 -0.057338987561130053 0 -0.14596198660283499 -0.039766815781594682 0 -0.1429920927852571 -0.073353157795351592 0 -0.13222960936365061 -0.053901193637760907 0 -0.14773797142534201 -0.057338987561130053 0 -0.14596198660283499 -0.039766815781594682 0 -0.16567947270125019 -0.054466703126000132 0 -0.16750707841983761 -0.030278305404909209 0 -0.16066569543387499 -0.070498102825675854 0 -0.14773797142534201 -0.057338987561130053 0 -0.16567947270125019 -0.054466703126000132 0 -0.16567947270125019 -0.054466703126000132 0 -0.18366785298764041 -0.061551476936618582 0 -0.1839901213958556 -0.043037345052044013 0 -0.1715723850475136 -0.065800892572556044 0 -0.16567947270125019 -0.054466703126000132 0 -0.18366785298764041 -0.061551476936618582 0 -0.16567947270125019 -0.054466703126000132 0 -0.1839901213958556 -0.043037345052044013 0 -0.16750707841983761 -0.030278305404909209 0 -0.1839901213958556 -0.043037345052044013 0 -0.18619718789474721 -0.022792408455712811 0 -0.16750707841983761 -0.030278305404909209 0 -0.18619718789474721 -0.022792408455712811 0 -0.16750707841983761 -0.030278305404909209 0 -0.17049260380878831 -0.0019676634340025732 0 -0.15093318550779439 -0.01906161754860573 0 -0.16750707841983761 -0.030278305404909209 0 -0.17049260380878831 -0.0019676634340025732 0 -0.18619718789474721 -0.022792408455712811 0 -0.17049260380878831 -0.0019676634340025732 0 -0.19070131606753921 -0.0086802952467905647 0 -0.17049260380878831 -0.0019676634340025732 0 -0.19070131606753921 -0.0086802952467905647 0 -0.19330140372524379 0.00671505836599234 0 -0.19070131606753921 -0.0086802952467905647 0 -0.20587528563915841 -0.016161857300575289 0 -0.19330140372524379 0.00671505836599234 0 -0.18619718789474721 -0.022792408455712811 0 -0.19070131606753921 -0.0086802952467905647 0 -0.20587528563915841 -0.016161857300575289 0 -0.18619718789474721 -0.022792408455712811 0 -0.20587528563915841 -0.016161857300575289 0 -0.1999486696717348 -0.036856666999998552 0 -0.20587528563915841 -0.016161857300575289 0 -0.21284572671051721 -0.036280714919044783 0 -0.22538518900790411 -0.03033450678078544 0 -0.20587528563915841 -0.016161857300575289 0 -0.22323795717346731 -0.013684542856123831 0 -0.22538518900790411 -0.03033450678078544 0 -0.20587528563915841 -0.016161857300575289 0 -0.1999486696717348 -0.036856666999998552 0 -0.21284572671051721 -0.036280714919044783 0 -0.20587528563915841 -0.016161857300575289 0 -0.19330140372524379 0.00671505836599234 0 -0.2179489807319919 0.0052495896145285537 0 -0.20587528563915841 -0.016161857300575289 0 -0.22323795717346731 -0.013684542856123831 0 -0.2179489807319919 0.0052495896145285537 0 -0.18366785298764041 -0.061551476936618582 0 -0.1839901213958556 -0.043037345052044013 0 -0.19795017539349721 -0.053161764409451452 0 -0.19884096789893341 -0.065185206912170099 0 -0.19795017539349721 -0.053161764409451452 0 -0.21002050022682589 -0.061318884858896541 0 -0.19884096789893341 -0.065185206912170099 0 -0.18366785298764041 -0.061551476936618582 0 -0.19795017539349721 -0.053161764409451452 0 -0.19795017539349721 -0.053161764409451452 0 -0.1999486696717348 -0.036856666999998552 0 -0.21092037754162021 -0.050377635203802153 0 -0.1839901213958556 -0.043037345052044013 0 -0.19795017539349721 -0.053161764409451452 0 -0.1999486696717348 -0.036856666999998552 0 -0.1839901213958556 -0.043037345052044013 0 -0.18619718789474721 -0.022792408455712811 0 -0.1999486696717348 -0.036856666999998552 0 -0.21284572671051721 -0.036280714919044783 0 -0.21092037754162021 -0.050377635203802153 0 -0.22130205687722879 -0.047022892476842049 0 -0.1999486696717348 -0.036856666999998552 0 -0.21284572671051721 -0.036280714919044783 0 -0.21092037754162021 -0.050377635203802153 0 -0.21092037754162021 -0.050377635203802153 0 -0.22018448092198109 -0.060892658717956211 0 -0.22130205687722879 -0.047022892476842049 0 -0.21092037754162021 -0.050377635203802153 0 -0.21002050022682589 -0.061318884858896541 0 -0.22018448092198109 -0.060892658717956211 0 -0.19795017539349721 -0.053161764409451452 0 -0.21092037754162021 -0.050377635203802153 0 -0.21002050022682589 -0.061318884858896541 0 -0.22991000808274689 -0.063661680765436462 0 -0.23119529865534411 -0.053164467566169438 0 -0.23885962817419079 -0.060889772083944062 0 -0.22991000808274689 -0.063661680765436462 0 -0.22018448092198109 -0.060892658717956211 0 -0.23119529865534411 -0.053164467566169438 0 -0.22018448092198109 -0.060892658717956211 0 -0.22130205687722879 -0.047022892476842049 0 -0.23119529865534411 -0.053164467566169438 0 -0.22130205687722879 -0.047022892476842049 0 -0.23119529865534411 -0.053164467566169438 0 -0.233318741591409 -0.041509581556527661 0 -0.21284572671051721 -0.036280714919044783 0 -0.22130205687722879 -0.047022892476842049 0 -0.22538518900790411 -0.03033450678078544 0 -0.22130205687722879 -0.047022892476842049 0 -0.233318741591409 -0.041509581556527661 0 -0.22538518900790411 -0.03033450678078544 0 -0.233318741591409 -0.041509581556527661 0 -0.22538518900790411 -0.03033450678078544 0 -0.23865037117635929 -0.024733040872260081 0 -0.233318741591409 -0.041509581556527661 0 -0.24521793102410799 -0.03782330952943562 0 -0.23865037117635929 -0.024733040872260081 0 -0.24521793102410799 -0.03782330952943562 0 -0.245062118764583 -0.050641478487966463 0 -0.25886891322706351 -0.042889667599800292 0 -0.233318741591409 -0.041509581556527661 0 -0.24521793102410799 -0.03782330952943562 0 -0.245062118764583 -0.050641478487966463 0 -0.23119529865534411 -0.053164467566169438 0 -0.233318741591409 -0.041509581556527661 0 -0.245062118764583 -0.050641478487966463 0 -0.245062118764583 -0.050641478487966463 0 -0.248432681159725 -0.060829668616038217 0 -0.23885962817419079 -0.060889772083944062 0 -0.23119529865534411 -0.053164467566169438 0 -0.245062118764583 -0.050641478487966463 0 -0.23885962817419079 -0.060889772083944062 0 -0.22323795717346731 -0.013684542856123831 0 -0.23865037117635929 -0.024733040872260081 0 -0.23823259426983059 -0.005860290151616732 0 -0.22323795717346731 -0.013684542856123831 0 -0.23823259426983059 -0.005860290151616732 0 -0.2179489807319919 0.0052495896145285537 0 -0.22323795717346731 -0.013684542856123831 0 -0.22538518900790411 -0.03033450678078544 0 -0.23865037117635929 -0.024733040872260081 0 -0.23865037117635929 -0.024733040872260081 0 -0.23823259426983059 -0.005860290151616732 0 -0.25376282636510361 -0.016491488097600929 0 -0.24521793102410799 -0.03782330952943562 0 -0.23865037117635929 -0.024733040872260081 0 -0.25299435343130328 -0.029986246858284819 0 -0.23865037117635929 -0.024733040872260081 0 -0.25299435343130328 -0.029986246858284819 0 -0.25376282636510361 -0.016491488097600929 0 -0.23823259426983059 -0.005860290151616732 0 -0.25376282636510361 -0.016491488097600929 0 -0.25720494356961171 0.001634888965453551 0 -0.25376282636510361 -0.016491488097600929 0 -0.27018630910626601 -0.01140625957636883 0 -0.25720494356961171 0.001634888965453551 0 -0.25376282636510361 -0.016491488097600929 0 -0.26465819632901671 -0.027473622677131691 0 -0.27018630910626601 -0.01140625957636883 0 -0.25299435343130328 -0.029986246858284819 0 -0.25376282636510361 -0.016491488097600929 0 -0.26465819632901671 -0.027473622677131691 0 -0.26465819632901671 -0.027473622677131691 0 -0.27679612666484837 -0.024068622062341661 0 -0.27534064917951551 -0.039999451868393682 0 -0.27679612666484837 -0.024068622062341661 0 -0.27018630910626601 -0.01140625957636883 0 -0.28806688287562821 -0.016318805818584709 0 -0.26465819632901671 -0.027473622677131691 0 -0.27679612666484837 -0.024068622062341661 0 -0.27018630910626601 -0.01140625957636883 0 -0.27018630910626601 -0.01140625957636883 0 -0.25720494356961171 0.001634888965453551 0 -0.27593966701060429 0.0039780935793694138 0 -0.27018630910626601 -0.01140625957636883 0 -0.2857910828920992 -0.0034281565469929639 0 -0.27593966701060429 0.0039780935793694138 0 -0.27018630910626601 -0.01140625957636883 0 -0.2857910828920992 -0.0034281565469929639 0 -0.28806688287562821 -0.016318805818584709 0 -0.2857910828920992 -0.0034281565469929639 0 -0.30127289935097229 -0.0050638700336834309 0 -0.29229138727235171 0.0072697876120097898 0 -0.2857910828920992 -0.0034281565469929639 0 -0.28806688287562821 -0.016318805818584709 0 -0.30127289935097229 -0.0050638700336834309 0 -0.27679612666484837 -0.024068622062341661 0 -0.28806688287562821 -0.016318805818584709 0 -0.28898427664561022 -0.030217341368145328 0 -0.28806688287562821 -0.016318805818584709 0 -0.28898427664561022 -0.030217341368145328 0 -0.30281326836799688 -0.018857298260798901 0 -0.30278451250880151 -0.032559446354381558 0 -0.3174648047407318 -0.01561846886439165 0 -0.30281326836799688 -0.018857298260798901 0 -0.30278451250880151 -0.032559446354381558 0 -0.3174648047407318 -0.01561846886439165 0 -0.28898427664561022 -0.030217341368145328 0 -0.30281326836799688 -0.018857298260798901 0 -0.30278451250880151 -0.032559446354381558 0 -0.30281326836799688 -0.018857298260798901 0 -0.30127289935097229 -0.0050638700336834309 0 -0.3174648047407318 -0.01561846886439165 0 -0.30127289935097229 -0.0050638700336834309 0 -0.3174648047407318 -0.01561846886439165 0 -0.31678979828314718 0.001639376443308806 0 -0.28806688287562821 -0.016318805818584709 0 -0.30281326836799688 -0.018857298260798901 0 -0.30127289935097229 -0.0050638700336834309 0 -0.30096842565975518 -0.049660967506318751 0 -0.29930953375335723 -0.062289337577544727 0 -0.31115944866466277 -0.059269849329045228 0 -0.30096842565975518 -0.049660967506318751 0 -0.31115944866466277 -0.059269849329045228 0 -0.3154693446943645 -0.046373176413122857 0 -0.30096842565975518 -0.049660967506318751 0 -0.30278451250880151 -0.032559446354381558 0 -0.28810422027687121 -0.049500423844371449 0 -0.30096842565975518 -0.049660967506318751 0 -0.30278451250880151 -0.032559446354381558 0 -0.3154693446943645 -0.046373176413122857 0 -0.28898427664561022 -0.030217341368145328 0 -0.28810422027687121 -0.049500423844371449 0 -0.27534064917951551 -0.039999451868393682 0 -0.30278451250880151 -0.032559446354381558 0 -0.28810422027687121 -0.049500423844371449 0 -0.28898427664561022 -0.030217341368145328 0 -0.30278451250880151 -0.032559446354381558 0 -0.28810422027687121 -0.049500423844371449 0 -0.28810422027687121 -0.049500423844371449 0 -0.27342392804494098 -0.066441401334361438 0 -0.28684999837314801 -0.062826857671973935 0 -0.30096842565975518 -0.049660967506318751 0 -0.28810422027687121 -0.049500423844371449 0 -0.28684999837314801 -0.062826857671973935 0 -0.30096842565975518 -0.049660967506318751 0 -0.28684999837314801 -0.062826857671973935 0 -0.30096842565975518 -0.049660967506318751 0 -0.29930953375335723 -0.062289337577544727 0 -0.28684999837314801 -0.062826857671973935 0 -0.27534064917951551 -0.039999451868393682 0 -0.27342392804494098 -0.066441401334361438 0 -0.28810422027687121 -0.049500423844371449 0 -0.27342392804494098 -0.066441401334361438 0 -0.2659478734369653 -0.054110475100658452 0 -0.27534064917951551 -0.039999451868393682 0 -0.27342392804494098 -0.066441401334361438 0 -0.28810422027687121 -0.049500423844371449 0 -0.27534064917951551 -0.039999451868393682 0 -0.27342392804494098 -0.066441401334361438 0 -0.2659478734369653 -0.054110475100658452 0 -0.26462279148473489 -0.063989061319579127 0 -0.27342392804494098 -0.066441401334361438 0 -0.2659478734369653 -0.054110475100658452 0 -0.27534064917951551 -0.039999451868393682 0 -0.25886891322706351 -0.042889667599800292 0 -0.26465819632901671 -0.027473622677131691 0 -0.27534064917951551 -0.039999451868393682 0 -0.25886891322706351 -0.042889667599800292 0 -0.27679612666484837 -0.024068622062341661 0 -0.28898427664561022 -0.030217341368145328 0 -0.27534064917951551 -0.039999451868393682 0 -0.25299435343130328 -0.029986246858284819 0 -0.26465819632901671 -0.027473622677131691 0 -0.25886891322706351 -0.042889667599800292 0 -0.24521793102410799 -0.03782330952943562 0 -0.25299435343130328 -0.029986246858284819 0 -0.25886891322706351 -0.042889667599800292 0 -0.2659478734369653 -0.054110475100658452 0 -0.25748308524857177 -0.057232793381157727 0 -0.26462279148473489 -0.063989061319579127 0 -0.2659478734369653 -0.054110475100658452 0 -0.25886891322706351 -0.042889667599800292 0 -0.25748308524857177 -0.057232793381157727 0 -0.245062118764583 -0.050641478487966463 0 -0.25886891322706351 -0.042889667599800292 0 -0.25748308524857177 -0.057232793381157727 0 -0.248432681159725 -0.060829668616038217 0 -0.25748308524857177 -0.057232793381157727 0 -0.2560104122500777 -0.069048886366462683 0 -0.245062118764583 -0.050641478487966463 0 -0.248432681159725 -0.060829668616038217 0 -0.25748308524857177 -0.057232793381157727 0 -0.25677055661254711 -0.0806561361855999 0 -0.26699246241582858 -0.073863277733623459 0 -0.27273157108654039 -0.075992747837628688 0 -0.2560104122500777 -0.069048886366462683 0 -0.26462279148473489 -0.063989061319579127 0 -0.26699246241582858 -0.073863277733623459 0 -0.25748308524857177 -0.057232793381157727 0 -0.2560104122500777 -0.069048886366462683 0 -0.26462279148473489 -0.063989061319579127 0 -0.2560104122500777 -0.069048886366462683 0 -0.25677055661254711 -0.0806561361855999 0 -0.26699246241582858 -0.073863277733623459 0 -0.2485414283457287 -0.075142290085078015 0 -0.2560104122500777 -0.069048886366462683 0 -0.25677055661254711 -0.0806561361855999 0 -0.25677055661254711 -0.0806561361855999 0 -0.25500330198796328 -0.092524932268713861 0 -0.27273157108654039 -0.075992747837628688 0 -0.25500330198796328 -0.092524932268713861 0 -0.27273157108654039 -0.075992747837628688 0 -0.27273157108654039 -0.075992747837628688 0 -0.27126636035635582 -0.096205927201944305 0 -0.28154721123398019 -0.08725690351757831 0 -0.25500330198796328 -0.092524932268713861 0 -0.27273157108654039 -0.075992747837628688 0 -0.27126636035635582 -0.096205927201944305 0 -0.27273157108654039 -0.075992747837628688 0 -0.27126636035635582 -0.096205927201944305 0 -0.27273157108654039 -0.075992747837628688 0 -0.2856989449231937 -0.076142858365583266 0 -0.28154721123398019 -0.08725690351757831 0 -0.27342392804494098 -0.066441401334361438 0 -0.27273157108654039 -0.075992747837628688 0 -0.28684999837314801 -0.062826857671973935 0 -0.27273157108654039 -0.075992747837628688 0 -0.28684999837314801 -0.062826857671973935 0 -0.26462279148473489 -0.063989061319579127 0 -0.27342392804494098 -0.066441401334361438 0 -0.26699246241582858 -0.073863277733623459 0 -0.27342392804494098 -0.066441401334361438 0 -0.26699246241582858 -0.073863277733623459 0 -0.27342392804494098 -0.066441401334361438 0 -0.26699246241582858 -0.073863277733623459 0 -0.27273157108654039 -0.075992747837628688 0 -0.27342392804494098 -0.066441401334361438 0 -0.27273157108654039 -0.075992747837628688 0 -0.2454750826221756 -0.12869509864694409 0 -0.25426896935010579 -0.1095090082815445 0 -0.25949946888454151 -0.12624555333784901 0 -0.25426896935010579 -0.1095090082815445 0 -0.26980114962617158 -0.11641910656625989 0 -0.25949946888454151 -0.12624555333784901 0 -0.25426896935010579 -0.1095090082815445 0 -0.26258494533014909 -0.1036647435796156 0 -0.26980114962617158 -0.11641910656625989 0 -0.25500330198796328 -0.092524932268713861 0 -0.25426896935010579 -0.1095090082815445 0 -0.26258494533014909 -0.1036647435796156 0 -0.25500330198796328 -0.092524932268713861 0 -0.26258494533014909 -0.1036647435796156 0 -0.27126636035635582 -0.096205927201944305 0 -0.27126636035635582 -0.096205927201944305 0 -0.26980114962617158 -0.11641910656625989 0 -0.27126636035635582 -0.096205927201944305 0 -0.26980114962617158 -0.11641910656625989 0 -0.28704952487499491 -0.1038757814382478 0 -0.27126636035635582 -0.096205927201944305 0 -0.28704952487499491 -0.1038757814382478 0 -0.28154721123398019 -0.08725690351757831 0 -0.26258494533014909 -0.1036647435796156 0 -0.27126636035635582 -0.096205927201944305 0 -0.26980114962617158 -0.11641910656625989 0 -0.26980114962617158 -0.11641910656625989 0 -0.2866232417314174 -0.1241710578487866 0 -0.28704952487499491 -0.1038757814382478 0 -0.2866232417314174 -0.1241710578487866 0 -0.28704952487499491 -0.1038757814382478 0 -0.30562715462571322 -0.1166531736049787 0 -0.28704952487499491 -0.1038757814382478 0 -0.30368551666949628 -0.099489404843010554 0 -0.29601445302676099 -0.085362307405574725 0 -0.28704952487499491 -0.1038757814382478 0 -0.30368551666949628 -0.099489404843010554 0 -0.30562715462571322 -0.1166531736049787 0 -0.30368551666949628 -0.099489404843010554 0 -0.31250417442685008 -0.085530560716268203 0 -0.31947391558730959 -0.1018879041076565 0 -0.30368551666949628 -0.099489404843010554 0 -0.30562715462571322 -0.1166531736049787 0 -0.31947391558730959 -0.1018879041076565 0 -0.29415757773602419 -0.070540265776658589 0 -0.2856989449231937 -0.076142858365583266 0 -0.29601445302676099 -0.085362307405574725 0 -0.29930953375335723 -0.062289337577544727 0 -0.29415757773602419 -0.070540265776658589 0 -0.28684999837314801 -0.062826857671973935 0 -0.29415757773602419 -0.070540265776658589 0 -0.28684999837314801 -0.062826857671973935 0 -0.2856989449231937 -0.076142858365583266 0 -0.27273157108654039 -0.075992747837628688 0 -0.28684999837314801 -0.062826857671973935 0 -0.2856989449231937 -0.076142858365583266 0 -0.28704952487499491 -0.1038757814382478 0 -0.28154721123398019 -0.08725690351757831 0 -0.29601445302676099 -0.085362307405574725 0 -0.2856989449231937 -0.076142858365583266 0 -0.28154721123398019 -0.08725690351757831 0 -0.29601445302676099 -0.085362307405574725 0 -0.29601445302676099 -0.085362307405574725 0 -0.30547591614565411 -0.071462283666938409 0 -0.31250417442685008 -0.085530560716268203 0 -0.30368551666949628 -0.099489404843010554 0 -0.29601445302676099 -0.085362307405574725 0 -0.31250417442685008 -0.085530560716268203 0 -0.29415757773602419 -0.070540265776658589 0 -0.29601445302676099 -0.085362307405574725 0 -0.30547591614565411 -0.071462283666938409 0 -0.29930953375335723 -0.062289337577544727 0 -0.29415757773602419 -0.070540265776658589 0 -0.30547591614565411 -0.071462283666938409 0 -0.29930953375335723 -0.062289337577544727 0 -0.31115944866466277 -0.059269849329045228 0 -0.30547591614565411 -0.071462283666938409 0 -0.31115944866466277 -0.059269849329045228 0 -0.30547591614565411 -0.071462283666938409 0 -0.31956236604208649 -0.069960149730431631 0 -0.31956236604208649 -0.069960149730431631 0 -0.33392157619815682 -0.069325848559610923 0 -0.32617110569275992 -0.055873181079915048 0 -0.31956236604208649 -0.069960149730431631 0 -0.33026216599608799 -0.082943457455940922 0 -0.33392157619815682 -0.069325848559610923 0 -0.30547591614565411 -0.071462283666938409 0 -0.31956236604208649 -0.069960149730431631 0 -0.31250417442685008 -0.085530560716268203 0 -0.31956236604208649 -0.069960149730431631 0 -0.31250417442685008 -0.085530560716268203 0 -0.33026216599608799 -0.082943457455940922 0 -0.31250417442685008 -0.085530560716268203 0 -0.33026216599608799 -0.082943457455940922 0 -0.31947391558730959 -0.1018879041076565 0 -0.33026216599608799 -0.082943457455940922 0 -0.34082602733673972 -0.101781327628279 0 -0.34925391351301133 -0.07930554053861423 0 -0.33392157619815682 -0.069325848559610923 0 -0.34925391351301133 -0.07930554053861423 0 -0.34435832974683828 -0.058546913993152837 0 -0.33026216599608799 -0.082943457455940922 0 -0.33392157619815682 -0.069325848559610923 0 -0.34925391351301133 -0.07930554053861423 0 -0.30562715462571322 -0.1166531736049787 0 -0.32653376104478921 -0.1247836192196843 0 -0.31947391558730959 -0.1018879041076565 0 -0.33026216599608799 -0.082943457455940922 0 -0.31947391558730959 -0.1018879041076565 0 -0.34082602733673972 -0.101781327628279 0 -0.32653376104478921 -0.1247836192196843 0 -0.35489140886139853 -0.1194948424224815 0 -0.32653376104478921 -0.1247836192196843 0 -0.31947391558730959 -0.1018879041076565 0 -0.34082602733673972 -0.101781327628279 0 -0.32653376104478921 -0.1247836192196843 0 -0.34082602733673972 -0.101781327628279 0 -0.35489140886139853 -0.1194948424224815 0 -0.34082602733673972 -0.101781327628279 0 -0.35489140886139853 -0.1194948424224815 0 -0.36475720452893923 -0.098587025190906688 0 -0.35489140886139853 -0.1194948424224815 0 -0.38324905667800779 -0.1142060656252787 0 -0.35489140886139853 -0.1194948424224815 0 -0.37668842857023532 -0.13338389316335819 0 -0.38324905667800779 -0.1142060656252787 0 -0.35489140886139853 -0.1194948424224815 0 -0.36475720452893923 -0.098587025190906688 0 -0.38324905667800779 -0.1142060656252787 0 -0.34925391351301133 -0.07930554053861423 0 -0.35952716082678671 -0.067622563055468918 0 -0.34435832974683828 -0.058546913993152837 0 -0.34082602733673972 -0.101781327628279 0 -0.36475720452893923 -0.098587025190906688 0 -0.34925391351301133 -0.07930554053861423 0 -0.36475720452893923 -0.098587025190906688 0 -0.34925391351301133 -0.07930554053861423 0 -0.37016461106774712 -0.079677490302151766 0 -0.36475720452893923 -0.098587025190906688 0 -0.37016461106774712 -0.079677490302151766 0 -0.38760041848821941 -0.092406221395431642 0 -0.34925391351301133 -0.07930554053861423 0 -0.37016461106774712 -0.079677490302151766 0 -0.35952716082678671 -0.067622563055468918 0 -0.37016461106774712 -0.079677490302151766 0 -0.35952716082678671 -0.067622563055468918 0 -0.37218613421699248 -0.064107353734708536 0 -0.35952716082678671 -0.067622563055468918 0 -0.37218613421699248 -0.064107353734708536 0 -0.36135095170421661 -0.049629875495058463 0 -0.37218613421699248 -0.064107353734708536 0 -0.36135095170421661 -0.049629875495058463 0 -0.38091461291318812 -0.047968459925422223 0 -0.35952716082678671 -0.067622563055468918 0 -0.36135095170421661 -0.049629875495058463 0 -0.34435832974683828 -0.058546913993152837 0 -0.36135095170421661 -0.049629875495058463 0 -0.34435832974683828 -0.058546913993152837 0 -0.34684103347305101 -0.041626865373477297 0 -0.34684103347305101 -0.041626865373477297 0 -0.35626289016366591 -0.036247204360235902 0 -0.34586499305728918 -0.02946908702948144 0 -0.36135095170421661 -0.049629875495058463 0 -0.34684103347305101 -0.041626865373477297 0 -0.35626289016366591 -0.036247204360235902 0 -0.36135095170421661 -0.049629875495058463 0 -0.36696044580770493 -0.034306356464731132 0 -0.38091461291318812 -0.047968459925422223 0 -0.36696044580770493 -0.034306356464731132 0 -0.37416639099383991 -0.019900681953064211 0 -0.38091461291318812 -0.047968459925422223 0 -0.35626289016366591 -0.036247204360235902 0 -0.36696044580770493 -0.034306356464731132 0 -0.35706183577611711 -0.025968757233518922 0 -0.36135095170421661 -0.049629875495058463 0 -0.35626289016366591 -0.036247204360235902 0 -0.36696044580770493 -0.034306356464731132 0 -0.37416639099383991 -0.019900681953064211 0 -0.3641666452414084 -0.023962113974484181 0 -0.35847790838797278 -0.015672660246621221 0 -0.36696044580770493 -0.034306356464731132 0 -0.37416639099383991 -0.019900681953064211 0 -0.3641666452414084 -0.023962113974484181 0 -0.3641666452414084 -0.023962113974484181 0 -0.35706183577611711 -0.025968757233518922 0 -0.35847790838797278 -0.015672660246621221 0 -0.36696044580770493 -0.034306356464731132 0 -0.3641666452414084 -0.023962113974484181 0 -0.35706183577611711 -0.025968757233518922 0 -0.37416639099383991 -0.019900681953064211 0 -0.36742911380120757 0.0081215737820304595 0 -0.37416639099383991 -0.019900681953064211 0 -0.3553820571636761 -0.00190414735726221 0 -0.36742911380120757 0.0081215737820304595 0 -0.37416639099383991 -0.019900681953064211 0 -0.3553820571636761 -0.00190414735726221 0 -0.37416639099383991 -0.019900681953064211 0 -0.3553820571636761 -0.00190414735726221 0 -0.35847790838797278 -0.015672660246621221 0 -0.37382937517290238 -0.01254032698068838 0 -0.37614130794978518 0.0010756032901526949 0 -0.36742911380120757 0.0081215737820304595 0 -0.37416639099383991 -0.019900681953064211 0 -0.37382937517290238 -0.01254032698068838 0 -0.36742911380120757 0.0081215737820304595 0 -0.3553820571636761 -0.00190414735726221 0 -0.35157202055904752 -0.0073258004954420766 0 -0.3553820571636761 -0.00190414735726221 0 -0.35157202055904752 -0.0073258004954420766 0 -0.35847790838797278 -0.015672660246621221 0 -0.35157202055904752 -0.0073258004954420766 0 -0.35847790838797278 -0.015672660246621221 0 -0.34787395770570467 -0.018237909273029911 0 -0.35157202055904752 -0.0073258004954420766 0 -0.34787395770570467 -0.018237909273029911 0 -0.34129661570085379 -0.0098397993653321237 0 -0.3553820571636761 -0.00190414735726221 0 -0.35157202055904752 -0.0073258004954420766 0 -0.34561396859512411 -0.0028267209496254252 0 -0.35157202055904752 -0.0073258004954420766 0 -0.34561396859512411 -0.0028267209496254252 0 -0.34129661570085379 -0.0098397993653321237 0 -0.34561396859512411 -0.0028267209496254252 0 -0.33858722498905958 -0.00030383088879644762 0 -0.35017763576908723 0.0030820049612377211 0 -0.3553820571636761 -0.00190414735726221 0 -0.34561396859512411 -0.0028267209496254252 0 -0.35017763576908723 0.0030820049612377211 0 -0.35626289016366591 -0.036247204360235902 0 -0.35706183577611711 -0.025968757233518922 0 -0.34586499305728918 -0.02946908702948144 0 -0.35706183577611711 -0.025968757233518922 0 -0.35847790838797278 -0.015672660246621221 0 -0.34787395770570467 -0.018237909273029911 0 -0.35706183577611711 -0.025968757233518922 0 -0.34787395770570467 -0.018237909273029911 0 -0.34586499305728918 -0.02946908702948144 0 -0.34586499305728918 -0.02946908702948144 0 -0.3340660526439328 -0.021453032709467319 0 -0.33485444558846122 -0.032846960655163508 0 -0.34787395770570467 -0.018237909273029911 0 -0.34586499305728918 -0.02946908702948144 0 -0.3340660526439328 -0.021453032709467319 0 -0.34787395770570467 -0.018237909273029911 0 -0.3340660526439328 -0.021453032709467319 0 -0.34129661570085379 -0.0098397993653321237 0 -0.3340660526439328 -0.021453032709467319 0 -0.32289180929957539 -0.032305059704059787 0 -0.33485444558846122 -0.032846960655163508 0 -0.34561396859512411 -0.0028267209496254252 0 -0.33858722498905958 -0.00030383088879644762 0 -0.34129661570085379 -0.0098397993653321237 0 -0.33858722498905958 -0.00030383088879644762 0 -0.34129661570085379 -0.0098397993653321237 0 -0.32925106857772313 -0.0075682474619246411 0 -0.3340660526439328 -0.021453032709467319 0 -0.34129661570085379 -0.0098397993653321237 0 -0.32925106857772313 -0.0075682474619246411 0 -0.32925106857772313 -0.0075682474619246411 0 -0.3174648047407318 -0.01561846886439165 0 -0.31678979828314718 0.001639376443308806 0 -0.3340660526439328 -0.021453032709467319 0 -0.32925106857772313 -0.0075682474619246411 0 -0.3174648047407318 -0.01561846886439165 0 -0.3340660526439328 -0.021453032709467319 0 -0.3174648047407318 -0.01561846886439165 0 -0.32289180929957539 -0.032305059704059787 0 -0.30278451250880151 -0.032559446354381558 0 -0.3174648047407318 -0.01561846886439165 0 -0.32289180929957539 -0.032305059704059787 0 -0.30278451250880151 -0.032559446354381558 0 -0.32289180929957539 -0.032305059704059787 0 -0.3154693446943645 -0.046373176413122857 0 -0.32289180929957539 -0.032305059704059787 0 -0.3154693446943645 -0.046373176413122857 0 -0.3339485647553162 -0.044286232561360682 0 -0.3154693446943645 -0.046373176413122857 0 -0.32617110569275992 -0.055873181079915048 0 -0.3339485647553162 -0.044286232561360682 0 -0.31115944866466277 -0.059269849329045228 0 -0.3154693446943645 -0.046373176413122857 0 -0.32617110569275992 -0.055873181079915048 0 -0.31115944866466277 -0.059269849329045228 0 -0.31956236604208649 -0.069960149730431631 0 -0.32617110569275992 -0.055873181079915048 0 -0.34435832974683828 -0.058546913993152837 0 -0.32617110569275992 -0.055873181079915048 0 -0.3339485647553162 -0.044286232561360682 0 -0.33392157619815682 -0.069325848559610923 0 -0.34435832974683828 -0.058546913993152837 0 -0.32617110569275992 -0.055873181079915048 0 -0.34435832974683828 -0.058546913993152837 0 -0.34684103347305101 -0.041626865373477297 0 -0.3339485647553162 -0.044286232561360682 0 -0.34684103347305101 -0.041626865373477297 0 -0.33485444558846122 -0.032846960655163508 0 -0.3339485647553162 -0.044286232561360682 0 -0.34684103347305101 -0.041626865373477297 0 -0.34586499305728918 -0.02946908702948144 0 -0.33485444558846122 -0.032846960655163508 0 -0.32289180929957539 -0.032305059704059787 0 -0.33485444558846122 -0.032846960655163508 0 -0.3339485647553162 -0.044286232561360682 0 -0.29855551544642739 -0.24631168070550441 0 -0.30521038168176878 -0.23916250529639729 0 -0.2954839514049008 -0.23885385711529791 0 -0.30521038168176878 -0.23916250529639729 0 -0.30477435508494022 -0.2315176161103889 0 -0.2954839514049008 -0.23885385711529791 0 -0.29855551544642739 -0.24631168070550441 0 -0.30820024449321343 -0.24624539745301249 0 -0.30521038168176878 -0.23916250529639729 0 -0.30820024449321343 -0.24624539745301249 0 -0.31411454580845388 -0.24689570174280651 0 -0.30820024449321343 -0.24624539745301249 0 -0.31279252699665511 -0.23942862059503639 0 -0.31411454580845388 -0.24689570174280651 0 -0.30820024449321343 -0.24624539745301249 0 -0.30521038168176878 -0.23916250529639729 0 -0.31279252699665511 -0.23942862059503639 0 -0.30521038168176878 -0.23916250529639729 0 -0.31220554862489852 -0.23298151336563319 0 -0.30477435508494022 -0.2315176161103889 0 -0.30521038168176878 -0.23916250529639729 0 -0.31220554862489852 -0.23298151336563319 0 -0.31279252699665511 -0.23942862059503639 0 -0.30477435508494022 -0.2315176161103889 0 -0.29670541788156468 -0.22535828811597741 0 -0.31576617975241172 -0.22195922379161781 0 -0.29670541788156468 -0.22535828811597741 0 -0.31359345569523311 -0.20901235169969931 0 -0.31576617975241172 -0.22195922379161781 0 -0.31220554862489852 -0.23298151336563319 0 -0.30477435508494022 -0.2315176161103889 0 -0.31576617975241172 -0.22195922379161781 0 -0.30477435508494022 -0.2315176161103889 0 -0.29670541788156468 -0.22535828811597741 0 -0.2954839514049008 -0.23885385711529791 0 -0.29670541788156468 -0.22535828811597741 0 -0.27981738006789608 -0.2417042245322551 0 -0.27809027459951108 -0.220309972682355 0 -0.29670541788156468 -0.22535828811597741 0 -0.27981738006789608 -0.2417042245322551 0 -0.29670541788156468 -0.22535828811597741 0 -0.2954839514049008 -0.23885385711529791 0 -0.27981738006789608 -0.2417042245322551 0 -0.2954839514049008 -0.23885385711529791 0 -0.28888472439963409 -0.24690099628062259 0 -0.27981738006789608 -0.2417042245322551 0 -0.29855551544642739 -0.24631168070550441 0 -0.2954839514049008 -0.23885385711529791 0 -0.28888472439963409 -0.24690099628062259 0 -0.28075914373749039 -0.25337017632224618 0 -0.28888472439963409 -0.24690099628062259 0 -0.27981738006789608 -0.2417042245322551 0 -0.28075914373749039 -0.25337017632224618 0 -0.27981738006789608 -0.2417042245322551 0 -0.27981738006789608 -0.2417042245322551 0 -0.2677855919582508 -0.23481338904931731 0 -0.2650454083007121 -0.24770687038500161 0 -0.25738056957626421 -0.25252364539322492 0 -0.2650454083007121 -0.24770687038500161 0 -0.25426167453643861 -0.24375500549720949 0 -0.2677855919582508 -0.23481338904931731 0 -0.25426167453643861 -0.24375500549720949 0 -0.25516998130317209 -0.22637942349201251 0 -0.2677855919582508 -0.23481338904931731 0 -0.2650454083007121 -0.24770687038500161 0 -0.25426167453643861 -0.24375500549720949 0 -0.27981738006789608 -0.2417042245322551 0 -0.2677855919582508 -0.23481338904931731 0 -0.27809027459951108 -0.220309972682355 0 -0.2677855919582508 -0.23481338904931731 0 -0.25516998130317209 -0.22637942349201251 0 -0.27809027459951108 -0.220309972682355 0 -0.27981738006789608 -0.2417042245322551 0 -0.27809027459951108 -0.220309972682355 0 -0.27809027459951108 -0.220309972682355 0 -0.25830865049927842 -0.20759217678007391 0 -0.27636316913112691 -0.19891572083245479 0 -0.27809027459951108 -0.220309972682355 0 -0.27636316913112691 -0.19891572083245479 0 -0.25516998130317209 -0.22637942349201251 0 -0.27809027459951108 -0.220309972682355 0 -0.25830865049927842 -0.20759217678007391 0 -0.23995261405442531 -0.2151849346684338 0 -0.25516998130317209 -0.22637942349201251 0 -0.25830865049927842 -0.20759217678007391 0 -0.24946198354256491 -0.18840924087290181 0 -0.25830865049927842 -0.20759217678007391 0 -0.27636316913112691 -0.19891572083245479 0 -0.27636316913112691 -0.19891572083245479 0 -0.29180546119900802 -0.18862696361398379 0 -0.27463606366274668 -0.17752146898255439 0 -0.24946198354256491 -0.18840924087290181 0 -0.27636316913112691 -0.19891572083245479 0 -0.27463606366274668 -0.17752146898255439 0 -0.27636316913112691 -0.19891572083245479 0 -0.27463606366274668 -0.17752146898255439 0 -0.27636316913112691 -0.19891572083245479 0 -0.29180546119900802 -0.18862696361398379 0 -0.29082137014471982 -0.2063300793018028 0 -0.29180546119900802 -0.18862696361398379 0 -0.29082137014471982 -0.2063300793018028 0 -0.2988496272451262 -0.19870979724979601 0 -0.29670541788156468 -0.22535828811597741 0 -0.27809027459951108 -0.220309972682355 0 -0.29082137014471982 -0.2063300793018028 0 -0.27809027459951108 -0.220309972682355 0 -0.27636316913112691 -0.19891572083245479 0 -0.29082137014471982 -0.2063300793018028 0 -0.29670541788156468 -0.22535828811597741 0 -0.29082137014471982 -0.2063300793018028 0 -0.30124198440956901 -0.2076645080112568 0 -0.29670541788156468 -0.22535828811597741 0 -0.31359345569523311 -0.20901235169969931 0 -0.29082137014471982 -0.2063300793018028 0 -0.30124198440956901 -0.2076645080112568 0 -0.2988496272451262 -0.19870979724979601 0 -0.29670541788156468 -0.22535828811597741 0 -0.30124198440956901 -0.2076645080112568 0 -0.31359345569523311 -0.20901235169969931 0 -0.30124198440956901 -0.2076645080112568 0 -0.30716398671141432 -0.19957996985430529 0 -0.31359345569523311 -0.20901235169969931 0 -0.31142386562504282 -0.19608415447287869 0 -0.308726974655393 -0.18001386597280619 0 -0.30716398671141432 -0.19957996985430529 0 -0.31142386562504282 -0.19608415447287869 0 -0.31359345569523311 -0.20901235169969931 0 -0.30716398671141432 -0.19957996985430529 0 -0.31142386562504282 -0.19608415447287869 0 -0.3032153337609198 -0.19134746546763129 0 -0.31142386562504282 -0.19608415447287869 0 -0.3032153337609198 -0.19134746546763129 0 -0.308726974655393 -0.18001386597280619 0 -0.30716398671141432 -0.19957996985430529 0 -0.31142386562504282 -0.19608415447287869 0 -0.29180546119900802 -0.18862696361398379 0 -0.3032153337609198 -0.19134746546763129 0 -0.2988496272451262 -0.19870979724979601 0 -0.30716398671141432 -0.19957996985430529 0 -0.3032153337609198 -0.19134746546763129 0 -0.2988496272451262 -0.19870979724979601 0 -0.30124198440956901 -0.2076645080112568 0 -0.30716398671141432 -0.19957996985430529 0 -0.2988496272451262 -0.19870979724979601 0 -0.308726974655393 -0.18001386597280619 0 -0.30603008368574791 -0.163943577472733 0 -0.29180546119900802 -0.18862696361398379 0 -0.3032153337609198 -0.19134746546763129 0 -0.308726974655393 -0.18001386597280619 0 -0.29180546119900802 -0.18862696361398379 0 -0.308726974655393 -0.18001386597280619 0 -0.29033307367424782 -0.17073252322764479 0 -0.308726974655393 -0.18001386597280619 0 -0.30603008368574791 -0.163943577472733 0 -0.29033307367424782 -0.17073252322764479 0 -0.308726974655393 -0.18001386597280619 0 -0.30603008368574791 -0.163943577472733 0 -0.32038768446681631 -0.16979554539454181 0 -0.30603008368574791 -0.163943577472733 0 -0.29033307367424782 -0.17073252322764479 0 -0.29033307367424782 -0.17073252322764479 0 -0.27289626746242301 -0.15597001265374341 0 -0.2914387048985102 -0.15174756530650849 0 -0.30603008368574791 -0.163943577472733 0 -0.29033307367424782 -0.17073252322764479 0 -0.2914387048985102 -0.15174756530650849 0 -0.29033307367424782 -0.17073252322764479 0 -0.27463606366274668 -0.17752146898255439 0 -0.29180546119900802 -0.18862696361398379 0 -0.29033307367424782 -0.17073252322764479 0 -0.27463606366274668 -0.17752146898255439 0 -0.24946198354256491 -0.18840924087290181 0 -0.27463606366274668 -0.17752146898255439 0 -0.2583790964533409 -0.1655659697492724 0 -0.24946198354256491 -0.18840924087290181 0 -0.27463606366274668 -0.17752146898255439 0 -0.27463606366274668 -0.17752146898255439 0 -0.2583790964533409 -0.1655659697492724 0 -0.27289626746242301 -0.15597001265374341 0 -0.29033307367424782 -0.17073252322764479 0 -0.27463606366274668 -0.17752146898255439 0 -0.27289626746242301 -0.15597001265374341 0 -0.27463606366274668 -0.17752146898255439 0 -0.27289626746242301 -0.15597001265374341 0 -0.27289626746242301 -0.15597001265374341 0 -0.2711564712621034 -0.1344185563249321 0 -0.28473941348760018 -0.1398240044785504 0 -0.27289626746242301 -0.15597001265374341 0 -0.25732635311776858 -0.14397462820881979 0 -0.2711564712621034 -0.1344185563249321 0 -0.27289626746242301 -0.15597001265374341 0 -0.2711564712621034 -0.1344185563249321 0 -0.2583790964533409 -0.1655659697492724 0 -0.27289626746242301 -0.15597001265374341 0 -0.25732635311776858 -0.14397462820881979 0 -0.2437046992377499 -0.15402165604372889 0 -0.2583790964533409 -0.1655659697492724 0 -0.25732635311776858 -0.14397462820881979 0 -0.2454750826221756 -0.12869509864694409 0 -0.25732635311776858 -0.14397462820881979 0 -0.25949946888454151 -0.12624555333784901 0 -0.25732635311776858 -0.14397462820881979 0 -0.25949946888454151 -0.12624555333784901 0 -0.2711564712621034 -0.1344185563249321 0 -0.26980114962617158 -0.11641910656625989 0 -0.25949946888454151 -0.12624555333784901 0 -0.2711564712621034 -0.1344185563249321 0 -0.26980114962617158 -0.11641910656625989 0 -0.2866232417314174 -0.1241710578487866 0 -0.2711564712621034 -0.1344185563249321 0 -0.2866232417314174 -0.1241710578487866 0 -0.2711564712621034 -0.1344185563249321 0 -0.28473941348760018 -0.1398240044785504 0 -0.2866232417314174 -0.1241710578487866 0 -0.28473941348760018 -0.1398240044785504 0 -0.30114909094029513 -0.13485861910071939 0 -0.28473941348760018 -0.1398240044785504 0 -0.2914387048985102 -0.15174756530650849 0 -0.30114909094029513 -0.13485861910071939 0 -0.27289626746242301 -0.15597001265374341 0 -0.28473941348760018 -0.1398240044785504 0 -0.2914387048985102 -0.15174756530650849 0 -0.30603008368574791 -0.163943577472733 0 -0.30114909094029513 -0.13485861910071939 0 -0.31502687873888718 -0.14533011082466171 0 -0.30603008368574791 -0.163943577472733 0 -0.30114909094029513 -0.13485861910071939 0 -0.30603008368574791 -0.163943577472733 0 -0.2914387048985102 -0.15174756530650849 0 -0.30114909094029513 -0.13485861910071939 0 -0.30562715462571322 -0.1166531736049787 0 -0.32653376104478921 -0.1247836192196843 0 -0.30114909094029513 -0.13485861910071939 0 -0.2866232417314174 -0.1241710578487866 0 -0.30562715462571322 -0.1166531736049787 0 -0.30114909094029513 -0.13485861910071939 0 -0.32653376104478921 -0.1247836192196843 0 -0.30114909094029513 -0.13485861910071939 0 -0.31502687873888718 -0.14533011082466171 0 -0.32653376104478921 -0.1247836192196843 0 -0.31502687873888718 -0.14533011082466171 0 -0.32958286531391062 -0.1537570160362754 0 -0.30603008368574791 -0.163943577472733 0 -0.31502687873888718 -0.14533011082466171 0 -0.32958286531391062 -0.1537570160362754 0 -0.32958286531391062 -0.1537570160362754 0 -0.353135646942073 -0.14357045459981679 0 -0.32653376104478921 -0.1247836192196843 0 -0.32958286531391062 -0.1537570160362754 0 -0.353135646942073 -0.14357045459981679 0 -0.32653376104478921 -0.1247836192196843 0 -0.35489140886139853 -0.1194948424224815 0 -0.353135646942073 -0.14357045459981679 0 -0.353135646942073 -0.14357045459981679 0 -0.37803687405506048 -0.1414190374133969 0 -0.37668842857023532 -0.13338389316335819 0 -0.353135646942073 -0.14357045459981679 0 -0.37668842857023532 -0.13338389316335819 0 -0.35489140886139853 -0.1194948424224815 0 -0.353135646942073 -0.14357045459981679 0 -0.37668842857023532 -0.13338389316335819 0 -0.353135646942073 -0.14357045459981679 0 -0.35583253791172131 -0.1596407430998909 0 -0.37803687405506048 -0.1414190374133969 0 -0.35583253791172131 -0.1596407430998909 0 -0.36965257305899241 -0.15839484226069969 0 -0.37803687405506048 -0.1414190374133969 0 -0.35583253791172131 -0.1596407430998909 0 -0.37803687405506048 -0.1414190374133969 0 -0.32958286531391062 -0.1537570160362754 0 -0.353135646942073 -0.14357045459981679 0 -0.35583253791172131 -0.1596407430998909 0 -0.35583253791172131 -0.1596407430998909 0 -0.3336282017683822 -0.17786244878638491 0 -0.35844038302365361 -0.16560499847938839 0 -0.35583253791172131 -0.1596407430998909 0 -0.34349140724751331 -0.1800741162194919 0 -0.35844038302365361 -0.16560499847938839 0 -0.35914716132059399 -0.172303280529914 0 -0.3535890431087288 -0.175549700166171 0 -0.35844038302365361 -0.16560499847938839 0 -0.35583253791172131 -0.1596407430998909 0 -0.36177984375981992 -0.16342417013987851 0 -0.36319388104491229 -0.17005609671953489 0 -0.38284904309739021 -0.15650997181100751 0 -0.36319388104491229 -0.17005609671953489 0 -0.36965257305899241 -0.15839484226069969 0 -0.38284904309739021 -0.15650997181100751 0 -0.36319388104491229 -0.17005609671953489 0 -0.37567727739625068 -0.16732748824676519 0 -0.38284904309739021 -0.15650997181100751 0 -0.36177984375981992 -0.16342417013987851 0 -0.36319388104491229 -0.17005609671953489 0 -0.36965257305899241 -0.15839484226069969 0 -0.35583253791172131 -0.1596407430998909 0 -0.36177984375981992 -0.16342417013987851 0 -0.36965257305899241 -0.15839484226069969 0 -0.35844038302365361 -0.16560499847938839 0 -0.36177984375981992 -0.16342417013987851 0 -0.36319388104491229 -0.17005609671953489 0 -0.35844038302365361 -0.16560499847938839 0 -0.36319388104491229 -0.17005609671953489 0 -0.35914716132059399 -0.172303280529914 0 -0.37071569200061882 -0.17253045299072481 0 -0.37854702314113597 -0.172934704771674 0 -0.37567727739625068 -0.16732748824676519 0 -0.36319388104491229 -0.17005609671953489 0 -0.37071569200061882 -0.17253045299072481 0 -0.37567727739625068 -0.16732748824676519 0 -0.36412414037659901 -0.1887067033569847 0 -0.38180743056070332 -0.18821132416220429 0 -0.37548022926797509 -0.18153852774280679 0 -0.36979346865051388 -0.17779197608480349 0 -0.36412414037659901 -0.1887067033569847 0 -0.37548022926797509 -0.18153852774280679 0 -0.36979346865051388 -0.17779197608480349 0 -0.37854702314113597 -0.172934704771674 0 -0.37548022926797509 -0.18153852774280679 0 -0.37071569200061882 -0.17253045299072481 0 -0.36979346865051388 -0.17779197608480349 0 -0.37854702314113597 -0.172934704771674 0 -0.37071569200061882 -0.17253045299072481 0 -0.36979346865051388 -0.17779197608480349 0 -0.36626709495028159 -0.1745952131374062 0 -0.36979346865051388 -0.17779197608480349 0 -0.36626709495028159 -0.1745952131374062 0 -0.36136533810508148 -0.17800232675456171 0 -0.36319388104491229 -0.17005609671953489 0 -0.36626709495028159 -0.1745952131374062 0 -0.36136533810508148 -0.17800232675456171 0 -0.36319388104491229 -0.17005609671953489 0 -0.36136533810508148 -0.17800232675456171 0 -0.35914716132059399 -0.172303280529914 0 -0.36319388104491229 -0.17005609671953489 0 -0.37071569200061882 -0.17253045299072481 0 -0.36626709495028159 -0.1745952131374062 0 -0.36136533810508148 -0.17800232675456171 0 -0.35503267762295809 -0.18316901071934849 0 -0.36412414037659901 -0.1887067033569847 0 -0.36979346865051388 -0.17779197608480349 0 -0.36136533810508148 -0.17800232675456171 0 -0.36412414037659901 -0.1887067033569847 0 -0.35503267762295809 -0.18316901071934849 0 -0.34644085019249471 -0.18920208255176391 0 -0.36412414037659901 -0.1887067033569847 0 -0.35583253791172131 -0.1596407430998909 0 -0.3336282017683822 -0.17786244878638491 0 -0.34349140724751331 -0.1800741162194919 0 -0.35503267762295809 -0.18316901071934849 0 -0.3535890431087288 -0.175549700166171 0 -0.34983340764509541 -0.18114986002537919 0 -0.35844038302365361 -0.16560499847938839 0 -0.3535890431087288 -0.175549700166171 0 -0.34349140724751331 -0.1800741162194919 0 -0.36136533810508148 -0.17800232675456171 0 -0.35914716132059399 -0.172303280529914 0 -0.3535890431087288 -0.175549700166171 0 -0.36136533810508148 -0.17800232675456171 0 -0.35503267762295809 -0.18316901071934849 0 -0.3535890431087288 -0.175549700166171 0 -0.3535890431087288 -0.175549700166171 0 -0.34983340764509541 -0.18114986002537919 0 -0.34349140724751331 -0.1800741162194919 0 -0.35844038302365361 -0.16560499847938839 0 -0.34349140724751331 -0.1800741162194919 0 -0.34983340764509541 -0.18114986002537919 0 -0.34349140724751331 -0.1800741162194919 0 -0.34644085019249471 -0.18920208255176391 0 -0.35503267762295809 -0.18316901071934849 0 -0.34983340764509541 -0.18114986002537919 0 -0.34644085019249471 -0.18920208255176391 0 -0.3336282017683822 -0.17786244878638491 0 -0.34349140724751331 -0.1800741162194919 0 -0.32854243147137291 -0.1945432339595953 0 -0.34349140724751331 -0.1800741162194919 0 -0.32854243147137291 -0.1945432339595953 0 -0.32958286531391062 -0.1537570160362754 0 -0.35583253791172131 -0.1596407430998909 0 -0.3336282017683822 -0.17786244878638491 0 -0.32958286531391062 -0.1537570160362754 0 -0.3336282017683822 -0.17786244878638491 0 -0.32038768446681631 -0.16979554539454181 0 -0.30603008368574791 -0.163943577472733 0 -0.32958286531391062 -0.1537570160362754 0 -0.30603008368574791 -0.163943577472733 0 -0.32958286531391062 -0.1537570160362754 0 -0.32038768446681631 -0.16979554539454181 0 -0.31142386562504282 -0.19608415447287869 0 -0.3336282017683822 -0.17786244878638491 0 -0.31142386562504282 -0.19608415447287869 0 -0.308726974655393 -0.18001386597280619 0 -0.3336282017683822 -0.17786244878638491 0 -0.308726974655393 -0.18001386597280619 0 -0.3336282017683822 -0.17786244878638491 0 -0.32038768446681631 -0.16979554539454181 0 -0.31142386562504282 -0.19608415447287869 0 -0.3336282017683822 -0.17786244878638491 0 -0.32854243147137291 -0.1945432339595953 0 -0.31142386562504282 -0.19608415447287869 0 -0.31359345569523311 -0.20901235169969931 0 -0.32854243147137291 -0.1945432339595953 0 -0.31359345569523311 -0.20901235169969931 0 -0.32854243147137291 -0.1945432339595953 0 -0.31142386562504282 -0.19608415447287869 0 -0.31359345569523311 -0.20901235169969931 0 -0.31359345569523311 -0.20901235169969931 0 -0.32891377122554899 -0.21168041492814799 0 -0.32854243147137291 -0.1945432339595953 0 -0.31359345569523311 -0.20901235169969931 0 -0.32891377122554899 -0.21168041492814799 0 -0.31576617975241172 -0.22195922379161781 0 -0.31359345569523311 -0.20901235169969931 0 -0.31576617975241172 -0.22195922379161781 0 -0.32891377122554899 -0.21168041492814799 0 -0.34236151981563018 -0.20819182364080349 0 -0.33838190758423109 -0.21960879654452689 0 -0.32891377122554899 -0.21168041492814799 0 -0.34236151981563018 -0.20819182364080349 0 -0.33949402001302958 -0.19848463111719869 0 -0.34349140724751331 -0.1800741162194919 0 -0.32854243147137291 -0.1945432339595953 0 -0.34644085019249471 -0.18920208255176391 0 -0.33949402001302958 -0.19848463111719869 0 -0.32854243147137291 -0.1945432339595953 0 -0.34644085019249471 -0.18920208255176391 0 -0.32891377122554899 -0.21168041492814799 0 -0.33949402001302958 -0.19848463111719869 0 -0.32854243147137291 -0.1945432339595953 0 -0.34644085019249471 -0.18920208255176391 0 -0.35546957217472502 -0.20168092983539249 0 -0.36412414037659901 -0.1887067033569847 0 -0.34236151981563018 -0.20819182364080349 0 -0.33949402001302958 -0.19848463111719869 0 -0.35546957217472502 -0.20168092983539249 0 -0.33949402001302958 -0.19848463111719869 0 -0.34644085019249471 -0.18920208255176391 0 -0.35546957217472502 -0.20168092983539249 0 -0.34644085019249471 -0.18920208255176391 0 -0.36412414037659901 -0.1887067033569847 0 -0.36412414037659901 -0.1887067033569847 0 -0.38180743056070332 -0.18821132416220429 0 -0.36412414037659901 -0.1887067033569847 0 -0.37483560197583138 -0.19150778934605109 0 -0.38180743056070332 -0.18821132416220429 0 -0.35546957217472502 -0.20168092983539249 0 -0.36412414037659901 -0.1887067033569847 0 -0.367784942105157 -0.19980657999106299 0 -0.367784942105157 -0.19980657999106299 0 -0.37483560197583138 -0.19150778934605109 0 -0.37692477242757838 -0.20527438569982789 0 -0.36412414037659901 -0.1887067033569847 0 -0.367784942105157 -0.19980657999106299 0 -0.37483560197583138 -0.19150778934605109 0 -0.36647450842762058 -0.2089751462204521 0 -0.37220799039556313 -0.22175777238746841 0 -0.37692477242757838 -0.20527438569982789 0 -0.37220799039556313 -0.22175777238746841 0 -0.37692477242757838 -0.20527438569982789 0 -0.367784942105157 -0.19980657999106299 0 -0.36647450842762058 -0.2089751462204521 0 -0.37692477242757838 -0.20527438569982789 0 -0.35546957217472502 -0.20168092983539249 0 -0.367784942105157 -0.19980657999106299 0 -0.36647450842762058 -0.2089751462204521 0 -0.35546957217472502 -0.20168092983539249 0 -0.36647450842762058 -0.2089751462204521 0 -0.35998526503507938 -0.21635606318850839 0 -0.36647450842762058 -0.2089751462204521 0 -0.35998526503507938 -0.21635606318850839 0 -0.37220799039556313 -0.22175777238746841 0 -0.34236151981563018 -0.20819182364080349 0 -0.35998526503507938 -0.21635606318850839 0 -0.33838190758423109 -0.21960879654452689 0 -0.34236151981563018 -0.20819182364080349 0 -0.35546957217472502 -0.20168092983539249 0 -0.35998526503507938 -0.21635606318850839 0 -0.35998526503507938 -0.21635606318850839 0 -0.33704990542176722 -0.23162588246565821 0 -0.35998526503507938 -0.21635606318850839 0 -0.33704990542176722 -0.23162588246565821 0 -0.33838190758423109 -0.21960879654452689 0 -0.35998526503507938 -0.21635606318850839 0 -0.35479714020507852 -0.23125273285403011 0 -0.33704990542176722 -0.23162588246565821 0 -0.35998526503507938 -0.21635606318850839 0 -0.35479714020507852 -0.23125273285403011 0 -0.36320826324273081 -0.22673640976794771 0 -0.37220799039556313 -0.22175777238746841 0 -0.36749120836354737 -0.23824115907510879 0 -0.38066944545755482 -0.2299499223643762 0 -0.35998526503507938 -0.21635606318850839 0 -0.36320826324273081 -0.22673640976794771 0 -0.37220799039556313 -0.22175777238746841 0 -0.36320826324273081 -0.22673640976794771 0 -0.37220799039556313 -0.22175777238746841 0 -0.36749120836354737 -0.23824115907510879 0 -0.37220799039556313 -0.22175777238746841 0 -0.36749120836354737 -0.23824115907510879 0 -0.35479714020507852 -0.23125273285403011 0 -0.36320826324273081 -0.22673640976794771 0 -0.36749120836354737 -0.23824115907510879 0 -0.38441411848753132 -0.25462545902892442 0 -0.36098092759450562 -0.25204887326688469 0 -0.36749120836354737 -0.23824115907510879 0 -0.36098092759450562 -0.25204887326688469 0 -0.36749120836354737 -0.23824115907510879 0 -0.35112243235317919 -0.24155296423313019 0 -0.35479714020507852 -0.23125273285403011 0 -0.35112243235317919 -0.24155296423313019 0 -0.33704990542176722 -0.23162588246565821 0 -0.36098092759450562 -0.25204887326688469 0 -0.35112243235317919 -0.24155296423313019 0 -0.33754773670147992 -0.24947228750484479 0 -0.35479714020507852 -0.23125273285403011 0 -0.36749120836354737 -0.23824115907510879 0 -0.35112243235317919 -0.24155296423313019 0 -0.35112243235317919 -0.24155296423313019 0 -0.33754773670147992 -0.24947228750484479 0 -0.33704990542176722 -0.23162588246565821 0 -0.33754773670147992 -0.24947228750484479 0 -0.33704990542176722 -0.23162588246565821 0 -0.31411454580845388 -0.24689570174280651 0 -0.32891377122554899 -0.21168041492814799 0 -0.33838190758423109 -0.21960879654452689 0 -0.32455657771643209 -0.2308690465398863 0 -0.33704990542176722 -0.23162588246565821 0 -0.33838190758423109 -0.21960879654452689 0 -0.32455657771643209 -0.2308690465398863 0 -0.32891377122554899 -0.21168041492814799 0 -0.32455657771643209 -0.2308690465398863 0 -0.31576617975241172 -0.22195922379161781 0 -0.31220554862489852 -0.23298151336563319 0 -0.32455657771643209 -0.2308690465398863 0 -0.31576617975241172 -0.22195922379161781 0 -0.32455657771643209 -0.2308690465398863 0 -0.31279252699665511 -0.23942862059503639 0 -0.31411454580845388 -0.24689570174280651 0 -0.33754773670147992 -0.24947228750484479 0 -0.31411454580845388 -0.24689570174280651 0 -0.33704990542176722 -0.23162588246565821 0 -0.31411454580845388 -0.24689570174280651 0 -0.33704990542176722 -0.23162588246565821 0 -0.32455657771643209 -0.2308690465398863 0 -0.31411454580845388 -0.24689570174280651 0 -0.31220554862489852 -0.23298151336563319 0 -0.32455657771643209 -0.2308690465398863 0 -0.31279252699665511 -0.23942862059503639 0 -0.44007830204345222 -0.25665972400536508 0 -0.4273253057712933 -0.25068678432711539 0 -0.43182730603306618 -0.23353060104230011 0 -0.4273253057712933 -0.25068678432711539 0 -0.43182730603306618 -0.23353060104230011 0 -0.41616874845812241 -0.24320704848411009 0 -0.44007830204345222 -0.25665972400536508 0 -0.43182730603306618 -0.23353060104230011 0 -0.43182730603306618 -0.23353060104230011 0 -0.42357631002268009 -0.21040147807923501 0 -0.44503711757711872 -0.21265907108326509 0 -0.43182730603306618 -0.23353060104230011 0 -0.42357631002268009 -0.21040147807923501 0 -0.43182730603306618 -0.23353060104230011 0 -0.41288783871336671 -0.22440096949812721 0 -0.42357631002268009 -0.21040147807923501 0 -0.43182730603306618 -0.23353060104230011 0 -0.41288783871336671 -0.22440096949812721 0 -0.41616874845812241 -0.24320704848411009 0 -0.41288783871336671 -0.22440096949812721 0 -0.41616874845812241 -0.24320704848411009 0 -0.40258036930483387 -0.2380285345412527 0 -0.40159941434613039 -0.25651506035670979 0 -0.41616874845812241 -0.24320704848411009 0 -0.40258036930483387 -0.2380285345412527 0 -0.40159941434613039 -0.25651506035670979 0 -0.40258036930483387 -0.2380285345412527 0 -0.39123935559103729 -0.24122246721121621 0 -0.40258036930483387 -0.2380285345412527 0 -0.39123935559103729 -0.24122246721121621 0 -0.39336124513628978 -0.22678351852414161 0 -0.38441411848753132 -0.25462545902892442 0 -0.36749120836354737 -0.23824115907510879 0 -0.38066944545755482 -0.2299499223643762 0 -0.38441411848753132 -0.25462545902892442 0 -0.39123935559103729 -0.24122246721121621 0 -0.38066944545755482 -0.2299499223643762 0 -0.38441411848753132 -0.25462545902892442 0 -0.38066944545755482 -0.2299499223643762 0 -0.37220799039556313 -0.22175777238746841 0 -0.38066944545755482 -0.2299499223643762 0 -0.37692477242757838 -0.20527438569982789 0 -0.39123935559103729 -0.24122246721121621 0 -0.38066944545755482 -0.2299499223643762 0 -0.39336124513628978 -0.22678351852414161 0 -0.38066944545755482 -0.2299499223643762 0 -0.39336124513628978 -0.22678351852414161 0 -0.38814110549669661 -0.21525800204719009 0 -0.41288783871336671 -0.22440096949812721 0 -0.40258036930483387 -0.2380285345412527 0 -0.39336124513628978 -0.22678351852414161 0 -0.41288783871336671 -0.22440096949812721 0 -0.39336124513628978 -0.22678351852414161 0 -0.39982330075651817 -0.21390729038246359 0 -0.39982330075651817 -0.21390729038246359 0 -0.39081675200452048 -0.20049607352155621 0 -0.40731847003229982 -0.2008085629422979 0 -0.39982330075651817 -0.21390729038246359 0 -0.40731847003229982 -0.2008085629422979 0 -0.41090147988121623 -0.21237957522553089 0 -0.39982330075651817 -0.21390729038246359 0 -0.38814110549669661 -0.21525800204719009 0 -0.39081675200452048 -0.20049607352155621 0 -0.39336124513628978 -0.22678351852414161 0 -0.39982330075651817 -0.21390729038246359 0 -0.38814110549669661 -0.21525800204719009 0 -0.38066944545755482 -0.2299499223643762 0 -0.37692477242757838 -0.20527438569982789 0 -0.38066944545755482 -0.2299499223643762 0 -0.38814110549669661 -0.21525800204719009 0 -0.37692477242757838 -0.20527438569982789 0 -0.38814110549669661 -0.21525800204719009 0 -0.37692477242757838 -0.20527438569982789 0 -0.39081675200452048 -0.20049607352155621 0 -0.38180743056070332 -0.18821132416220429 0 -0.39081675200452048 -0.20049607352155621 0 -0.39856637228649883 -0.18774183963918731 0 -0.37692477242757838 -0.20527438569982789 0 -0.38180743056070332 -0.18821132416220429 0 -0.37692477242757838 -0.20527438569982789 0 -0.38180743056070332 -0.18821132416220429 0 -0.39081675200452048 -0.20049607352155621 0 -0.37483560197583138 -0.19150778934605109 0 -0.37692477242757838 -0.20527438569982789 0 -0.38180743056070332 -0.18821132416220429 0 -0.38180743056070332 -0.18821132416220429 0 -0.39856637228649883 -0.18774183963918731 0 -0.37483560197583138 -0.19150778934605109 0 -0.37692477242757838 -0.20527438569982789 0 -0.39081675200452048 -0.20049607352155621 0 -0.39856637228649883 -0.18774183963918731 0 -0.40731847003229982 -0.2008085629422979 0 -0.39856637228649883 -0.18774183963918731 0 -0.41532531401229422 -0.1872723551161698 0 -0.42357631002268009 -0.21040147807923501 0 -0.42621033160007799 -0.19657577125925041 0 -0.41532531401229422 -0.1872723551161698 0 -0.42357631002268009 -0.21040147807923501 0 -0.41532531401229422 -0.1872723551161698 0 -0.40731847003229982 -0.2008085629422979 0 -0.42357631002268009 -0.21040147807923501 0 -0.41532531401229422 -0.1872723551161698 0 -0.39856637228649883 -0.18774183963918731 0 -0.40731847003229982 -0.2008085629422979 0 -0.41532531401229422 -0.1872723551161698 0 -0.40731847003229982 -0.2008085629422979 0 -0.41090147988121623 -0.21237957522553089 0 -0.42357631002268009 -0.21040147807923501 0 -0.41288783871336671 -0.22440096949812721 0 -0.39982330075651817 -0.21390729038246359 0 -0.41090147988121623 -0.21237957522553089 0 -0.41288783871336671 -0.22440096949812721 0 -0.41090147988121623 -0.21237957522553089 0 -0.42357631002268009 -0.21040147807923501 0 -0.42357631002268009 -0.21040147807923501 0 -0.43839300941333009 -0.20041566801800659 0 -0.44503711757711872 -0.21265907108326509 0 -0.42767883515200122 -0.19090924374143489 0 -0.43533573314826479 -0.1867117837962638 0 -0.41532531401229422 -0.1872723551161698 0 -0.43384396184736801 -0.1930770647940557 0 -0.42621033160007799 -0.19657577125925041 0 -0.43839300941333009 -0.20041566801800659 0 -0.43384396184736801 -0.1930770647940557 0 -0.43533573314826479 -0.1867117837962638 0 -0.44133217093270077 -0.19247465857850041 0 -0.43384396184736801 -0.1930770647940557 0 -0.42767883515200122 -0.19090924374143489 0 -0.43533573314826479 -0.1867117837962638 0 -0.43384396184736801 -0.1930770647940557 0 -0.42767883515200122 -0.19090924374143489 0 -0.42621033160007799 -0.19657577125925041 0 -0.42767883515200122 -0.19090924374143489 0 -0.42621033160007799 -0.19657577125925041 0 -0.41532531401229422 -0.1872723551161698 0 -0.42357631002268009 -0.21040147807923501 0 -0.42621033160007799 -0.19657577125925041 0 -0.43839300941333009 -0.20041566801800659 0 -0.42900868439352402 -0.18425730912564081 0 -0.43557872443490359 -0.182557142749004 0 -0.43704691100688609 -0.1686093314106267 0 -0.43533573314826479 -0.1867117837962638 0 -0.41532531401229422 -0.1872723551161698 0 -0.42222378138004008 -0.18411210943140369 0 -0.42900868439352402 -0.18425730912564081 0 -0.43704691100688609 -0.1686093314106267 0 -0.42900868439352402 -0.18425730912564081 0 -0.43533573314826479 -0.1867117837962638 0 -0.41532531401229422 -0.1872723551161698 0 -0.42283930251042467 -0.17609530294829609 0 -0.42222378138004008 -0.18411210943140369 0 -0.43147140817471508 -0.17014522801448601 0 -0.42283930251042467 -0.17609530294829609 0 -0.43147140817471508 -0.17014522801448601 0 -0.4262311556893657 -0.17134790481077469 0 -0.42222378138004008 -0.18411210943140369 0 -0.43704691100688609 -0.1686093314106267 0 -0.42283930251042467 -0.17609530294829609 0 -0.4262311556893657 -0.17134790481077469 0 -0.42126495092662508 -0.17272355476827861 0 -0.42222378138004008 -0.18411210943140369 0 -0.42900868439352402 -0.18425730912564081 0 -0.41532531401229422 -0.1872723551161698 0 -0.42900868439352402 -0.18425730912564081 0 -0.43533573314826479 -0.1867117837962638 0 -0.43557872443490359 -0.182557142749004 0 -0.43557872443490359 -0.182557142749004 0 -0.43704691100688609 -0.1686093314106267 0 -0.42222378138004008 -0.18411210943140369 0 -0.43704691100688609 -0.1686093314106267 0 -0.43147140817471508 -0.17014522801448601 0 -0.43704691100688609 -0.1686093314106267 0 -0.4330045723365723 -0.1678388951996187 0 -0.43147140817471508 -0.17014522801448601 0 -0.43735947646897227 -0.16563995123832781 0 -0.43355465558655359 -0.16620518962884789 0 -0.43065896843423668 -0.16218554684892361 0 -0.43704691100688609 -0.1686093314106267 0 -0.4330045723365723 -0.1678388951996187 0 -0.43355465558655359 -0.16620518962884789 0 -0.43704691100688609 -0.1686093314106267 0 -0.43735947646897227 -0.16563995123832781 0 -0.43355465558655359 -0.16620518962884789 0 -0.43704691100688609 -0.1686093314106267 0 -0.43735947646897227 -0.16563995123832781 0 -0.43704691100688609 -0.1686093314106267 0 -0.43355465558655359 -0.16620518962884789 0 -0.4330045723365723 -0.1678388951996187 0 -0.43355465558655359 -0.16620518962884789 0 -0.43143290088637698 -0.1672397208733743 0 -0.43113268239080499 -0.16553872903080841 0 -0.43065896843423668 -0.16218554684892361 0 -0.42888420465605298 -0.1665244587720881 0 -0.43355465558655359 -0.16620518962884789 0 -0.43113268239080499 -0.16553872903080841 0 -0.43065896843423668 -0.16218554684892361 0 -0.43355465558655359 -0.16620518962884789 0 -0.43113268239080499 -0.16553872903080841 0 -0.43143290088637698 -0.1672397208733743 0 -0.43113268239080499 -0.16553872903080841 0 -0.43143290088637698 -0.1672397208733743 0 -0.42888420465605298 -0.1665244587720881 0 -0.43143290088637698 -0.1672397208733743 0 -0.43147140817471508 -0.17014522801448601 0 -0.42888420465605298 -0.1665244587720881 0 -0.4330045723365723 -0.1678388951996187 0 -0.43143290088637698 -0.1672397208733743 0 -0.43147140817471508 -0.17014522801448601 0 -0.43735947646897227 -0.16563995123832781 0 -0.43065896843423668 -0.16218554684892361 0 -0.43249380976138391 -0.15731689227206841 0 -0.43735947646897227 -0.16563995123832781 0 -0.43249380976138391 -0.15731689227206841 0 -0.437742186232911 -0.1505828727193621 0 -0.43065896843423668 -0.16218554684892361 0 -0.43249380976138391 -0.15731689227206841 0 -0.42721083473003191 -0.1586915246358212 0 -0.43249380976138391 -0.15731689227206841 0 -0.42721083473003191 -0.1586915246358212 0 -0.42777142790189632 -0.15344043861915521 0 -0.43065896843423668 -0.16218554684892361 0 -0.42721083473003191 -0.1586915246358212 0 -0.42602915403138969 -0.16307663572878561 0 -0.43065896843423668 -0.16218554684892361 0 -0.42602915403138969 -0.16307663572878561 0 -0.42888420465605298 -0.1665244587720881 0 -0.42721083473003191 -0.1586915246358212 0 -0.42602915403138969 -0.16307663572878561 0 -0.42302769752299879 -0.1605526272562777 0 -0.42602915403138969 -0.16307663572878561 0 -0.42302769752299879 -0.1605526272562777 0 -0.421936951635911 -0.16386775055573849 0 -0.42721083473003191 -0.1586915246358212 0 -0.42302769752299879 -0.1605526272562777 0 -0.42245684672592138 -0.15596201615362279 0 -0.43147140817471508 -0.17014522801448601 0 -0.4262311556893657 -0.17134790481077469 0 -0.42888420465605298 -0.1665244587720881 0 -0.4262311556893657 -0.17134790481077469 0 -0.42888420465605298 -0.1665244587720881 0 -0.424008444105892 -0.16777555756102239 0 -0.42602915403138969 -0.16307663572878561 0 -0.42888420465605298 -0.1665244587720881 0 -0.424008444105892 -0.16777555756102239 0 -0.42602915403138969 -0.16307663572878561 0 -0.421936951635911 -0.16386775055573849 0 -0.424008444105892 -0.16777555756102239 0 -0.4262311556893657 -0.17134790481077469 0 -0.424008444105892 -0.16777555756102239 0 -0.42126495092662508 -0.17272355476827861 0 -0.41900008704641128 -0.16780518922736479 0 -0.41608778059938067 -0.17290154477509651 0 -0.42126495092662508 -0.17272355476827861 0 -0.424008444105892 -0.16777555756102239 0 -0.41900008704641128 -0.16780518922736479 0 -0.42126495092662508 -0.17272355476827861 0 -0.421936951635911 -0.16386775055573849 0 -0.41900008704641128 -0.16780518922736479 0 -0.41750470049173988 -0.16116520920742031 0 -0.421936951635911 -0.16386775055573849 0 -0.424008444105892 -0.16777555756102239 0 -0.41900008704641128 -0.16780518922736479 0 -0.41900008704641128 -0.16780518922736479 0 -0.41750470049173988 -0.16116520920742031 0 -0.41228793430134308 -0.16742522998982001 0 -0.41900008704641128 -0.16780518922736479 0 -0.41228793430134308 -0.16742522998982001 0 -0.41608778059938067 -0.17290154477509651 0 -0.41750470049173988 -0.16116520920742031 0 -0.41411007665962007 -0.1525102630212406 0 -0.42245684672592138 -0.15596201615362279 0 -0.42302769752299879 -0.1605526272562777 0 -0.41750470049173988 -0.16116520920742031 0 -0.42245684672592138 -0.15596201615362279 0 -0.42302769752299879 -0.1605526272562777 0 -0.421936951635911 -0.16386775055573849 0 -0.41750470049173988 -0.16116520920742031 0 -0.41750470049173988 -0.16116520920742031 0 -0.40909906678054708 -0.1599276450948014 0 -0.41228793430134308 -0.16742522998982001 0 -0.41750470049173988 -0.16116520920742031 0 -0.40909906678054708 -0.1599276450948014 0 -0.41411007665962007 -0.1525102630212406 0 -0.41228793430134308 -0.16742522998982001 0 -0.40743724976461682 -0.170825275343813 0 -0.41104128057933359 -0.17411600252413939 0 -0.41228793430134308 -0.16742522998982001 0 -0.41104128057933359 -0.17411600252413939 0 -0.41608778059938067 -0.17290154477509651 0 -0.40909906678054708 -0.1599276450948014 0 -0.41228793430134308 -0.16742522998982001 0 -0.40522556966151452 -0.16594983778868841 0 -0.41228793430134308 -0.16742522998982001 0 -0.40743724976461682 -0.170825275343813 0 -0.40522556966151452 -0.16594983778868841 0 -0.39856637228649883 -0.18774183963918731 0 -0.41532531401229422 -0.1872723551161698 0 -0.40669972077228228 -0.18146897725478961 0 -0.40743724976461682 -0.170825275343813 0 -0.41104128057933359 -0.17411600252413939 0 -0.40600087641299981 -0.17564615628866079 0 -0.41039565916465759 -0.17858038226149969 0 -0.40669972077228228 -0.18146897725478961 0 -0.40600087641299981 -0.17564615628866079 0 -0.41039565916465759 -0.17858038226149969 0 -0.41104128057933359 -0.17411600252413939 0 -0.40600087641299981 -0.17564615628866079 0 -0.41039565916465759 -0.17858038226149969 0 -0.41104128057933359 -0.17411600252413939 0 -0.41426050719216229 -0.1781810557287383 0 -0.41104128057933359 -0.17411600252413939 0 -0.41608778059938067 -0.17290154477509651 0 -0.41426050719216229 -0.1781810557287383 0 -0.41608778059938067 -0.17290154477509651 0 -0.41426050719216229 -0.1781810557287383 0 -0.41867192355040911 -0.1771582364122378 0 -0.41426050719216229 -0.1781810557287383 0 -0.41867192355040911 -0.1771582364122378 0 -0.41788278991863997 -0.18105146319133589 0 -0.42283930251042467 -0.17609530294829609 0 -0.41867192355040911 -0.1771582364122378 0 -0.41788278991863997 -0.18105146319133589 0 -0.42283930251042467 -0.17609530294829609 0 -0.41867192355040911 -0.1771582364122378 0 -0.42126495092662508 -0.17272355476827861 0 -0.41608778059938067 -0.17290154477509651 0 -0.41867192355040911 -0.1771582364122378 0 -0.42126495092662508 -0.17272355476827861 0 -0.42283930251042467 -0.17609530294829609 0 -0.42222378138004008 -0.18411210943140369 0 -0.41788278991863997 -0.18105146319133589 0 -0.42222378138004008 -0.18411210943140369 0 -0.41788278991863997 -0.18105146319133589 0 -0.41532531401229422 -0.1872723551161698 0 -0.41426050719216229 -0.1781810557287383 0 -0.41788278991863997 -0.18105146319133589 0 -0.41397591086650942 -0.1834897195111701 0 -0.41532531401229422 -0.1872723551161698 0 -0.41397591086650942 -0.1834897195111701 0 -0.41788278991863997 -0.18105146319133589 0 -0.41532531401229422 -0.1872723551161698 0 -0.41397591086650942 -0.1834897195111701 0 -0.41532531401229422 -0.1872723551161698 0 -0.41397591086650942 -0.1834897195111701 0 -0.40669972077228228 -0.18146897725478961 0 -0.41039565916465759 -0.17858038226149969 0 -0.41397591086650942 -0.1834897195111701 0 -0.40669972077228228 -0.18146897725478961 0 -0.41039565916465759 -0.17858038226149969 0 -0.41426050719216229 -0.1781810557287383 0 -0.41397591086650942 -0.1834897195111701 0 -0.38180743056070332 -0.18821132416220429 0 -0.39856637228649883 -0.18774183963918731 0 -0.39276426328686997 -0.18243711545666699 0 -0.39856637228649883 -0.18774183963918731 0 -0.40669972077228228 -0.18146897725478961 0 -0.39897249520906553 -0.1775518665231075 0 -0.39897249520906553 -0.1775518665231075 0 -0.39491593090913518 -0.1688831672623238 0 -0.40247951888826722 -0.17116060609314429 0 -0.40600087641299981 -0.17564615628866079 0 -0.39897249520906553 -0.1775518665231075 0 -0.40247951888826722 -0.17116060609314429 0 -0.40743724976461682 -0.170825275343813 0 -0.40600087641299981 -0.17564615628866079 0 -0.40247951888826722 -0.17116060609314429 0 -0.40669972077228228 -0.18146897725478961 0 -0.40600087641299981 -0.17564615628866079 0 -0.39897249520906553 -0.1775518665231075 0 -0.39897249520906553 -0.1775518665231075 0 -0.39106033458854211 -0.17550413432609929 0 -0.39276426328686997 -0.18243711545666699 0 -0.39897249520906553 -0.1775518665231075 0 -0.39106033458854211 -0.17550413432609929 0 -0.39491593090913518 -0.1688831672623238 0 -0.39856637228649883 -0.18774183963918731 0 -0.39897249520906553 -0.1775518665231075 0 -0.39276426328686997 -0.18243711545666699 0 -0.38180743056070332 -0.18821132416220429 0 -0.38939509494069963 -0.1616952788621267 0 -0.38180743056070332 -0.18821132416220429 0 -0.39106033458854211 -0.17550413432609929 0 -0.39276426328686997 -0.18243711545666699 0 -0.38180743056070332 -0.18821132416220429 0 -0.39106033458854211 -0.17550413432609929 0 -0.38939509494069963 -0.1616952788621267 0 -0.38180743056070332 -0.18821132416220429 0 -0.37854702314113597 -0.172934704771674 0 -0.38939509494069963 -0.1616952788621267 0 -0.38180743056070332 -0.18821132416220429 0 -0.37854702314113597 -0.172934704771674 0 -0.37548022926797509 -0.18153852774280679 0 -0.38939509494069963 -0.1616952788621267 0 -0.38284904309739021 -0.15650997181100751 0 -0.39961208296672962 -0.15585480808407459 0 -0.37567727739625068 -0.16732748824676519 0 -0.38161710964386908 -0.16461686092289329 0 -0.38284904309739021 -0.15650997181100751 0 -0.37854702314113597 -0.172934704771674 0 -0.37567727739625068 -0.16732748824676519 0 -0.38161710964386908 -0.16461686092289329 0 -0.37854702314113597 -0.172934704771674 0 -0.38161710964386908 -0.16461686092289329 0 -0.38939509494069963 -0.1616952788621267 0 -0.38161710964386908 -0.16461686092289329 0 -0.38939509494069963 -0.1616952788621267 0 -0.38284904309739021 -0.15650997181100751 0 -0.38939509494069963 -0.1616952788621267 0 -0.39971501117225272 -0.1615218428127915 0 -0.39961208296672962 -0.15585480808407459 0 -0.38939509494069963 -0.1616952788621267 0 -0.39491593090913518 -0.1688831672623238 0 -0.39971501117225272 -0.1615218428127915 0 -0.39106033458854211 -0.17550413432609929 0 -0.38939509494069963 -0.1616952788621267 0 -0.39491593090913518 -0.1688831672623238 0 -0.39491593090913518 -0.1688831672623238 0 -0.40027171877046941 -0.16691099727709399 0 -0.39971501117225272 -0.1615218428127915 0 -0.39491593090913518 -0.1688831672623238 0 -0.40027171877046941 -0.16691099727709399 0 -0.40247951888826722 -0.17116060609314429 0 -0.40027171877046941 -0.16691099727709399 0 -0.40522556966151452 -0.16594983778868841 0 -0.39971501117225272 -0.1615218428127915 0 -0.40027171877046941 -0.16691099727709399 0 -0.40522556966151452 -0.16594983778868841 0 -0.40247951888826722 -0.17116060609314429 0 -0.40743724976461682 -0.170825275343813 0 -0.40522556966151452 -0.16594983778868841 0 -0.40247951888826722 -0.17116060609314429 0 -0.40909906678054708 -0.1599276450948014 0 -0.40522556966151452 -0.16594983778868841 0 -0.39971501117225272 -0.1615218428127915 0 -0.40909906678054708 -0.1599276450948014 0 -0.39971501117225272 -0.1615218428127915 0 -0.39961208296672962 -0.15585480808407459 0 -0.39961208296672962 -0.15585480808407459 0 -0.40250420514986818 -0.14296384690248001 0 -0.41411007665962007 -0.1525102630212406 0 -0.38284904309739021 -0.15650997181100751 0 -0.40250420514986818 -0.14296384690248001 0 -0.38284904309739021 -0.15650997181100751 0 -0.39961208296672962 -0.15585480808407459 0 -0.40250420514986818 -0.14296384690248001 0 -0.38284904309739021 -0.15650997181100751 0 -0.40250420514986818 -0.14296384690248001 0 -0.37803687405506048 -0.1414190374133969 0 -0.36965257305899241 -0.15839484226069969 0 -0.38284904309739021 -0.15650997181100751 0 -0.37803687405506048 -0.1414190374133969 0 -0.37668842857023532 -0.13338389316335819 0 -0.40024121019839842 -0.12319733172690139 0 -0.37803687405506048 -0.1414190374133969 0 -0.37668842857023532 -0.13338389316335819 0 -0.40024121019839842 -0.12319733172690139 0 -0.37803687405506048 -0.1414190374133969 0 -0.40024121019839842 -0.12319733172690139 0 -0.40250420514986818 -0.14296384690248001 0 -0.37803687405506048 -0.1414190374133969 0 -0.40024121019839842 -0.12319733172690139 0 -0.40250420514986818 -0.14296384690248001 0 -0.42215936720234609 -0.12941772199395249 0 -0.40024121019839842 -0.12319733172690139 0 -0.40250420514986818 -0.14296384690248001 0 -0.41782742117186678 -0.14294904289549229 0 -0.42215936720234609 -0.12941772199395249 0 -0.40250420514986818 -0.14296384690248001 0 -0.42215936720234609 -0.12941772199395249 0 -0.40250420514986818 -0.14296384690248001 0 -0.41411007665962007 -0.1525102630212406 0 -0.41782742117186678 -0.14294904289549229 0 -0.40909906678054708 -0.1599276450948014 0 -0.39961208296672962 -0.15585480808407459 0 -0.41411007665962007 -0.1525102630212406 0 -0.41411007665962007 -0.1525102630212406 0 -0.42263787445779721 -0.14839862527724981 0 -0.42245684672592138 -0.15596201615362279 0 -0.41411007665962007 -0.1525102630212406 0 -0.41782742117186678 -0.14294904289549229 0 -0.42263787445779721 -0.14839862527724981 0 -0.41782742117186678 -0.14294904289549229 0 -0.42263787445779721 -0.14839862527724981 0 -0.42654054216637349 -0.14048510044323989 0 -0.42263787445779721 -0.14839862527724981 0 -0.42894391913227808 -0.1481988198143481 0 -0.42654054216637349 -0.14048510044323989 0 -0.42263787445779721 -0.14839862527724981 0 -0.42245684672592138 -0.15596201615362279 0 -0.42777142790189632 -0.15344043861915521 0 -0.42894391913227808 -0.1481988198143481 0 -0.42777142790189632 -0.15344043861915521 0 -0.43226525869501209 -0.15106436292921741 0 -0.42263787445779721 -0.14839862527724981 0 -0.42894391913227808 -0.1481988198143481 0 -0.42777142790189632 -0.15344043861915521 0 -0.42721083473003191 -0.1586915246358212 0 -0.42245684672592138 -0.15596201615362279 0 -0.42777142790189632 -0.15344043861915521 0 -0.43249380976138391 -0.15731689227206841 0 -0.42777142790189632 -0.15344043861915521 0 -0.43226525869501209 -0.15106436292921741 0 -0.43437495044659108 -0.1457827912211534 0 -0.437742186232911 -0.1505828727193621 0 -0.43910020681184381 -0.14910296685456331 0 -0.43226525869501209 -0.15106436292921741 0 -0.43437495044659108 -0.1457827912211534 0 -0.437742186232911 -0.1505828727193621 0 -0.43249380976138391 -0.15731689227206841 0 -0.43226525869501209 -0.15106436292921741 0 -0.437742186232911 -0.1505828727193621 0 -0.42894391913227808 -0.1481988198143481 0 -0.43437495044659108 -0.1457827912211534 0 -0.42654054216637349 -0.14048510044323989 0 -0.42894391913227808 -0.1481988198143481 0 -0.43226525869501209 -0.15106436292921741 0 -0.43437495044659108 -0.1457827912211534 0 -0.42215936720234609 -0.12941772199395249 0 -0.42654054216637349 -0.14048510044323989 0 -0.44072107493162388 -0.13370467676629391 0 -0.42215936720234609 -0.12941772199395249 0 -0.44072107493162388 -0.13370467676629391 0 -0.44234194305140462 -0.1183063866780245 0 -0.43437495044659108 -0.1457827912211534 0 -0.42654054216637349 -0.14048510044323989 0 -0.44072107493162388 -0.13370467676629391 0 -0.41782742117186678 -0.14294904289549229 0 -0.42215936720234609 -0.12941772199395249 0 -0.42654054216637349 -0.14048510044323989 0 -0.43910020681184381 -0.14910296685456331 0 -0.45574218444187797 -0.13096733571716521 0 -0.44647346994120812 -0.13737945366648829 0 -0.43910020681184381 -0.14910296685456331 0 -0.45574218444187797 -0.13096733571716521 0 -0.44647346994120812 -0.13737945366648829 0 -0.44234194305140462 -0.1183063866780245 0 -0.44647346994120812 -0.13737945366648829 0 -0.44072107493162388 -0.13370467676629391 0 -0.44234194305140462 -0.1183063866780245 0 -0.44647346994120812 -0.13737945366648829 0 -0.44950436050638432 -0.1260971177546294 0 -0.44234194305140462 -0.1183063866780245 0 -0.44647346994120812 -0.13737945366648829 0 -0.44950436050638432 -0.1260971177546294 0 -0.45574218444187797 -0.13096733571716521 0 -0.44072107493162388 -0.13370467676629391 0 -0.44234194305140462 -0.1183063866780245 0 -0.44647346994120812 -0.13737945366648829 0 -0.44072107493162388 -0.13370467676629391 0 -0.43910020681184381 -0.14910296685456331 0 -0.43735947646897227 -0.16563995123832781 0 -0.43910020681184381 -0.14910296685456331 0 -0.45409717962383112 -0.1452126435627506 0 -0.44072107493162388 -0.13370467676629391 0 -0.43910020681184381 -0.14910296685456331 0 -0.43437495044659108 -0.1457827912211534 0 -0.44072107493162388 -0.13370467676629391 0 -0.43910020681184381 -0.14910296685456331 0 -0.43910020681184381 -0.14910296685456331 0 -0.45409717962383112 -0.1452126435627506 0 -0.45574218444187797 -0.13096733571716521 0 -0.43735947646897227 -0.16563995123832781 0 -0.437742186232911 -0.1505828727193621 0 -0.43910020681184381 -0.14910296685456331 0 -0.43735947646897227 -0.16563995123832781 0 -0.45409717962383112 -0.1452126435627506 0 -0.437742186232911 -0.1505828727193621 0 -0.43910020681184381 -0.14910296685456331 0 -0.45409717962383112 -0.1452126435627506 0 -0.47557931504171241 -0.13732447425716521 0 -0.47083488277869051 -0.124785335887174 0 -0.45409717962383112 -0.1452126435627506 0 -0.45574218444187797 -0.13096733571716521 0 -0.47083488277869051 -0.124785335887174 0 -0.45409717962383112 -0.1452126435627506 0 -0.47083488277869051 -0.124785335887174 0 -0.48416247106706001 -0.12702549075369579 0 -0.48075235620056861 -0.14969295329579341 0 -0.47557931504171241 -0.13732447425716521 0 -0.48416247106706001 -0.12702549075369579 0 -0.48075235620056861 -0.14969295329579341 0 -0.47557931504171241 -0.13732447425716521 0 -0.48416247106706001 -0.12702549075369579 0 -0.47083488277869051 -0.124785335887174 0 -0.48416247106706001 -0.12702549075369579 0 -0.5 -0.14137145491189099 0 -0.5 -0.11205437017290761 0 -0.48416247106706001 -0.12702549075369579 0 -0.5 -0.14137145491189099 0 -0.48075235620056861 -0.14969295329579341 0 -0.5 -0.14137145491189099 0 -0.48075235620056861 -0.14969295329579341 0 -0.5 -0.17068853965087419 0 -0.45409717962383112 -0.1452126435627506 0 -0.48075235620056861 -0.14969295329579341 0 -0.47269466357521828 -0.16812084622196269 0 -0.45409717962383112 -0.1452126435627506 0 -0.47557931504171241 -0.13732447425716521 0 -0.48075235620056861 -0.14969295329579341 0 -0.48075235620056861 -0.14969295329579341 0 -0.47269466357521828 -0.16812084622196269 0 -0.5 -0.17068853965087419 0 -0.5 -0.17068853965087419 0 -0.48575073037104449 -0.18112112889159901 0 -0.5 -0.2000056243898575 0 -0.47269466357521828 -0.16812084622196269 0 -0.5 -0.17068853965087419 0 -0.48575073037104449 -0.18112112889159901 0 -0.48575073037104449 -0.18112112889159901 0 -0.45792896485556561 -0.18298497468536459 0 -0.47881101870424497 -0.19736061796010229 0 -0.47269466357521828 -0.16812084622196269 0 -0.48575073037104449 -0.18112112889159901 0 -0.45792896485556561 -0.18298497468536459 0 -0.47269466357521828 -0.16812084622196269 0 -0.45792896485556561 -0.18298497468536459 0 -0.4518928413797032 -0.16626324898578559 0 -0.45409717962383112 -0.1452126435627506 0 -0.47269466357521828 -0.16812084622196269 0 -0.4518928413797032 -0.16626324898578559 0 -0.43735947646897227 -0.16563995123832781 0 -0.43910020681184381 -0.14910296685456331 0 -0.43735947646897227 -0.16563995123832781 0 -0.45409717962383112 -0.1452126435627506 0 -0.4518928413797032 -0.16626324898578559 0 -0.43704691100688609 -0.1686093314106267 0 -0.43735947646897227 -0.16563995123832781 0 -0.4518928413797032 -0.16626324898578559 0 -0.43704691100688609 -0.1686093314106267 0 -0.45792896485556561 -0.18298497468536459 0 -0.4437387004796865 -0.1848794368928677 0 -0.43704691100688609 -0.1686093314106267 0 -0.45792896485556561 -0.18298497468536459 0 -0.4518928413797032 -0.16626324898578559 0 -0.43704691100688609 -0.1686093314106267 0 -0.45792896485556561 -0.18298497468536459 0 -0.43557872443490359 -0.182557142749004 0 -0.43704691100688609 -0.1686093314106267 0 -0.4437387004796865 -0.1848794368928677 0 -0.43533573314826479 -0.1867117837962638 0 -0.43557872443490359 -0.182557142749004 0 -0.4437387004796865 -0.1848794368928677 0 -0.45792896485556561 -0.18298497468536459 0 -0.4437387004796865 -0.1848794368928677 0 -0.45366650808223952 -0.19701493495955119 0 -0.4437387004796865 -0.1848794368928677 0 -0.44133217093270077 -0.19247465857850041 0 -0.45366650808223952 -0.19701493495955119 0 -0.43533573314826479 -0.1867117837962638 0 -0.4437387004796865 -0.1848794368928677 0 -0.44133217093270077 -0.19247465857850041 0 -0.44133217093270077 -0.19247465857850041 0 -0.43839300941333009 -0.20041566801800659 0 -0.45366650808223952 -0.19701493495955119 0 -0.43384396184736801 -0.1930770647940557 0 -0.44133217093270077 -0.19247465857850041 0 -0.43839300941333009 -0.20041566801800659 0 -0.43839300941333009 -0.20041566801800659 0 -0.44503711757711872 -0.21265907108326509 0 -0.45366650808223952 -0.19701493495955119 0 -0.44503711757711872 -0.21265907108326509 0 -0.46319142289420312 -0.21396279763593271 0 -0.45366650808223952 -0.19701493495955119 0 -0.44503711757711872 -0.21265907108326509 0 -0.46319142289420312 -0.21396279763593271 0 -0.45131728179942759 -0.2275065459548124 0 -0.46319142289420312 -0.21396279763593271 0 -0.45366650808223952 -0.19701493495955119 0 -0.47881101870424497 -0.19736061796010229 0 -0.45792896485556561 -0.18298497468536459 0 -0.47881101870424497 -0.19736061796010229 0 -0.45792896485556561 -0.18298497468536459 0 -0.45366650808223952 -0.19701493495955119 0 -0.47881101870424497 -0.19736061796010229 0 -0.48575073037104449 -0.18112112889159901 0 -0.47881101870424497 -0.19736061796010229 0 -0.5 -0.2000056243898575 0 -0.47881101870424497 -0.19736061796010229 0 -0.5 -0.2000056243898575 0 -0.5 -0.2117362612348401 0 -0.47881101870424497 -0.19736061796010229 0 -0.5 -0.2117362612348401 0 -0.47881101870424497 -0.19736061796010229 0 -0.5 -0.2117362612348401 0 -0.48152961183549697 -0.21889321963888231 0 -0.5 -0.2117362612348401 0 -0.48152961183549697 -0.21889321963888231 0 -0.49222774497111871 -0.22218110822764089 0 -0.46319142289420312 -0.21396279763593271 0 -0.47881101870424497 -0.19736061796010229 0 -0.48152961183549697 -0.21889321963888231 0 -0.48152961183549697 -0.21889321963888231 0 -0.48417132913366079 -0.23942776774926991 0 -0.46603283888515712 -0.23369989031515559 0 -0.46319142289420312 -0.21396279763593271 0 -0.48152961183549697 -0.21889321963888231 0 -0.46603283888515712 -0.23369989031515559 0 -0.5 -0.2117362612348401 0 -0.5 -0.22932270912884081 0 -0.49222774497111871 -0.22218110822764089 0 -0.5 -0.22932270912884081 0 -0.49222774497111871 -0.22218110822764089 0 -0.48417132913366079 -0.23942776774926991 0 -0.48152961183549697 -0.21889321963888231 0 -0.49222774497111871 -0.22218110822764089 0 -0.48417132913366079 -0.23942776774926991 0 -0.5 -0.25863979386782399 0 -0.5 -0.22932270912884081 0 -0.48417132913366079 -0.23942776774926991 0 -0.46246297125660107 -0.25261878061046122 0 -0.48417132913366079 -0.23942776774926991 0 -0.46603283888515712 -0.23369989031515559 0 -0.46603283888515712 -0.23369989031515559 0 -0.45131728179942759 -0.2275065459548124 0 -0.45049772360759321 -0.24368036969740839 0 -0.46246297125660107 -0.25261878061046122 0 -0.46603283888515712 -0.23369989031515559 0 -0.45049772360759321 -0.24368036969740839 0 -0.46319142289420312 -0.21396279763593271 0 -0.46603283888515712 -0.23369989031515559 0 -0.45131728179942759 -0.2275065459548124 0 -0.43182730603306618 -0.23353060104230011 0 -0.44503711757711872 -0.21265907108326509 0 -0.45131728179942759 -0.2275065459548124 0 -0.44007830204345222 -0.25665972400536508 0 -0.43182730603306618 -0.23353060104230011 0 -0.45049772360759321 -0.24368036969740839 0 -0.43182730603306618 -0.23353060104230011 0 -0.45131728179942759 -0.2275065459548124 0 -0.45049772360759321 -0.24368036969740839 0 -0.42029091458499918 -0.041571040743098503 0 -0.41370769496420379 -0.02932089038233171 0 -0.40174278425160193 -0.046320544364892302 0 -0.41853908624250291 -0.054098458380670733 0 -0.40025457457554159 -0.0622534605221923 0 -0.41256864021237649 -0.06799405117727593 0 -0.41853908624250291 -0.054098458380670733 0 -0.40174278425160193 -0.046320544364892302 0 -0.40025457457554159 -0.0622534605221923 0 -0.42029091458499918 -0.041571040743098503 0 -0.41853908624250291 -0.054098458380670733 0 -0.40174278425160193 -0.046320544364892302 0 -0.41853908624250291 -0.054098458380670733 0 -0.41256864021237649 -0.06799405117727593 0 -0.42200907549192918 -0.065368252547849934 0 -0.42029091458499918 -0.041571040743098503 0 -0.41853908624250291 -0.054098458380670733 0 -0.42956910699631667 -0.050808770344260047 0 -0.41853908624250291 -0.054098458380670733 0 -0.42956910699631667 -0.050808770344260047 0 -0.42931165875309069 -0.058152479435205087 0 -0.42956910699631667 -0.050808770344260047 0 -0.43504741038282868 -0.062023281232669453 0 -0.43928249288152449 -0.04008261555485032 0 -0.43504741038282868 -0.062023281232669453 0 -0.43928249288152449 -0.04008261555485032 0 -0.41853908624250291 -0.054098458380670733 0 -0.42931165875309069 -0.058152479435205087 0 -0.42200907549192918 -0.065368252547849934 0 -0.42931165875309069 -0.058152479435205087 0 -0.43504741038282868 -0.062023281232669453 0 -0.43109364961289892 -0.066378985506327468 0 -0.42931165875309069 -0.058152479435205087 0 -0.43109364961289892 -0.066378985506327468 0 -0.42956910699631667 -0.050808770344260047 0 -0.42931165875309069 -0.058152479435205087 0 -0.43504741038282868 -0.062023281232669453 0 -0.43364685485985421 -0.037711172083154151 0 -0.41370769496420379 -0.02932089038233171 0 -0.42956910699631667 -0.050808770344260047 0 -0.43364685485985421 -0.037711172083154151 0 -0.42029091458499918 -0.041571040743098503 0 -0.43364685485985421 -0.037711172083154151 0 -0.41370769496420379 -0.02932089038233171 0 -0.42956910699631667 -0.050808770344260047 0 -0.43364685485985421 -0.037711172083154151 0 -0.43928249288152449 -0.04008261555485032 0 -0.42029091458499918 -0.041571040743098503 0 -0.42956910699631667 -0.050808770344260047 0 -0.43364685485985421 -0.037711172083154151 0 -0.43364685485985421 -0.037711172083154151 0 -0.43928249288152449 -0.04008261555485032 0 -0.43364685485985421 -0.037711172083154151 0 -0.42706459701248722 -0.02121930121426999 0 -0.41370769496420379 -0.02932089038233171 0 -0.43364685485985421 -0.037711172083154151 0 -0.42706459701248722 -0.02121930121426999 0 -0.44166421527993532 -0.01195966183513668 0 -0.42706459701248722 -0.02121930121426999 0 -0.42951348913761739 -0.0092092631160944627 0 -0.41676812697885562 -0.016733509495266839 0 -0.42951348913761739 -0.0092092631160944627 0 -0.44166421527993532 -0.01195966183513668 0 -0.43807557340770248 0.00054450224480292802 0 -0.42706459701248722 -0.02121930121426999 0 -0.42951348913761739 -0.0092092631160944627 0 -0.44166421527993532 -0.01195966183513668 0 -0.42951348913761739 -0.0092092631160944627 0 -0.41911810110279452 -0.0061642997083569337 0 -0.42322790464251969 0.003612863579327177 0 -0.41911810110279452 -0.0061642997083569337 0 -0.42322790464251969 0.003612863579327177 0 -0.41469187376774441 0.0011076618702792981 0 -0.41911810110279452 -0.0061642997083569337 0 -0.41035955997814982 -0.0082172892088320515 0 -0.41469187376774441 0.0011076618702792981 0 -0.41911810110279452 -0.0061642997083569337 0 -0.41035955997814982 -0.0082172892088320515 0 -0.41676812697885562 -0.016733509495266839 0 -0.42951348913761739 -0.0092092631160944627 0 -0.41911810110279452 -0.0061642997083569337 0 -0.41676812697885562 -0.016733509495266839 0 -0.41035955997814982 -0.0082172892088320515 0 -0.41676812697885562 -0.016733509495266839 0 -0.4050955314523691 -0.01417395844950315 0 -0.41035955997814982 -0.0082172892088320515 0 -0.40289798198808241 -0.0021757899610419492 0 -0.41469187376774441 0.0011076618702792981 0 -0.42706459701248722 -0.02121930121426999 0 -0.41676812697885562 -0.016733509495266839 0 -0.41370769496420379 -0.02932089038233171 0 -0.41676812697885562 -0.016733509495266839 0 -0.41370769496420379 -0.02932089038233171 0 -0.4050955314523691 -0.01417395844950315 0 -0.41370769496420379 -0.02932089038233171 0 -0.39376853506855308 -0.02093060868151005 0 -0.4050955314523691 -0.01417395844950315 0 -0.41370769496420379 -0.02932089038233171 0 -0.39376853506855308 -0.02093060868151005 0 -0.41370769496420379 -0.02932089038233171 0 -0.39376853506855308 -0.02093060868151005 0 -0.39929340047676981 -0.032420664146928242 0 -0.39376853506855308 -0.02093060868151005 0 -0.38795458762272028 -0.033110613158978869 0 -0.39929340047676981 -0.032420664146928242 0 -0.40289798198808241 -0.0021757899610419492 0 -0.4050955314523691 -0.01417395844950315 0 -0.39307128973637012 -0.007665662968036337 0 -0.41035955997814982 -0.0082172892088320515 0 -0.40289798198808241 -0.0021757899610419492 0 -0.4050955314523691 -0.01417395844950315 0 -0.39376853506855308 -0.02093060868151005 0 -0.4050955314523691 -0.01417395844950315 0 -0.39307128973637012 -0.007665662968036337 0 -0.40289798198808241 -0.0021757899610419492 0 -0.39307128973637012 -0.007665662968036337 0 -0.3947034698430063 0.003827809065041037 0 -0.37382937517290238 -0.01254032698068838 0 -0.39376853506855308 -0.02093060868151005 0 -0.38443131974331629 -0.0099655483963229617 0 -0.39307128973637012 -0.007665662968036337 0 -0.38339230307301442 -0.0014879422237282589 0 -0.38443131974331629 -0.0099655483963229617 0 -0.39307128973637012 -0.007665662968036337 0 -0.38339230307301442 -0.0014879422237282589 0 -0.3947034698430063 0.003827809065041037 0 -0.39376853506855308 -0.02093060868151005 0 -0.39307128973637012 -0.007665662968036337 0 -0.38443131974331629 -0.0099655483963229617 0 -0.37382937517290238 -0.01254032698068838 0 -0.38443131974331629 -0.0099655483963229617 0 -0.37917978230533822 -0.0051179012381079303 0 -0.37382937517290238 -0.01254032698068838 0 -0.37917978230533822 -0.0051179012381079303 0 -0.37614130794978518 0.0010756032901526949 0 -0.38339230307301442 -0.0014879422237282589 0 -0.38443131974331629 -0.0099655483963229617 0 -0.37917978230533822 -0.0051179012381079303 0 -0.38339230307301442 -0.0014879422237282589 0 -0.37917978230533822 -0.0051179012381079303 0 -0.37614130794978518 0.0010756032901526949 0 -0.37382937517290238 -0.01254032698068838 0 -0.39376853506855308 -0.02093060868151005 0 -0.37416639099383991 -0.019900681953064211 0 -0.39376853506855308 -0.02093060868151005 0 -0.38795458762272028 -0.033110613158978869 0 -0.37416639099383991 -0.019900681953064211 0 -0.37382937517290238 -0.01254032698068838 0 -0.39376853506855308 -0.02093060868151005 0 -0.37416639099383991 -0.019900681953064211 0 -0.38795458762272028 -0.033110613158978869 0 -0.38795458762272028 -0.033110613158978869 0 -0.40174278425160193 -0.046320544364892302 0 -0.38091461291318812 -0.047968459925422223 0 -0.37416639099383991 -0.019900681953064211 0 -0.38795458762272028 -0.033110613158978869 0 -0.38091461291318812 -0.047968459925422223 0 -0.37416639099383991 -0.019900681953064211 0 -0.38091461291318812 -0.047968459925422223 0 -0.41370769496420379 -0.02932089038233171 0 -0.40174278425160193 -0.046320544364892302 0 -0.39929340047676981 -0.032420664146928242 0 -0.38795458762272028 -0.033110613158978869 0 -0.40174278425160193 -0.046320544364892302 0 -0.39929340047676981 -0.032420664146928242 0 -0.38795458762272028 -0.033110613158978869 0 -0.40174278425160193 -0.046320544364892302 0 -0.40174278425160193 -0.046320544364892302 0 -0.40025457457554159 -0.0622534605221923 0 -0.38091461291318812 -0.047968459925422223 0 -0.40025457457554159 -0.0622534605221923 0 -0.38091461291318812 -0.047968459925422223 0 -0.38766283483253428 -0.076036237897780634 0 -0.38091461291318812 -0.047968459925422223 0 -0.38766283483253428 -0.076036237897780634 0 -0.37016461106774712 -0.079677490302151766 0 -0.37218613421699248 -0.064107353734708536 0 -0.38766283483253428 -0.076036237897780634 0 -0.37218613421699248 -0.064107353734708536 0 -0.38091461291318812 -0.047968459925422223 0 -0.38766283483253428 -0.076036237897780634 0 -0.37016461106774712 -0.079677490302151766 0 -0.38766283483253428 -0.076036237897780634 0 -0.38760041848821941 -0.092406221395431642 0 -0.38766283483253428 -0.076036237897780634 0 -0.38760041848821941 -0.092406221395431642 0 -0.40254637954702238 -0.078789556211068965 0 -0.38760041848821941 -0.092406221395431642 0 -0.40254637954702238 -0.078789556211068965 0 -0.40597103566465642 -0.094055590973214975 0 -0.40025457457554159 -0.0622534605221923 0 -0.38766283483253428 -0.076036237897780634 0 -0.40254637954702238 -0.078789556211068965 0 -0.40025457457554159 -0.0622534605221923 0 -0.40254637954702238 -0.078789556211068965 0 -0.41256864021237649 -0.06799405117727593 0 -0.37668842857023532 -0.13338389316335819 0 -0.38324905667800779 -0.1142060656252787 0 -0.40024121019839842 -0.12319733172690139 0 -0.36475720452893923 -0.098587025190906688 0 -0.38760041848821941 -0.092406221395431642 0 -0.38324905667800779 -0.1142060656252787 0 -0.38760041848821941 -0.092406221395431642 0 -0.38324905667800779 -0.1142060656252787 0 -0.39710680383137531 -0.1023962917055003 0 -0.38760041848821941 -0.092406221395431642 0 -0.40597103566465642 -0.094055590973214975 0 -0.39710680383137531 -0.1023962917055003 0 -0.38324905667800779 -0.1142060656252787 0 -0.39710680383137531 -0.1023962917055003 0 -0.41160670449461739 -0.1089172888280758 0 -0.40597103566465642 -0.094055590973214975 0 -0.39710680383137531 -0.1023962917055003 0 -0.41160670449461739 -0.1089172888280758 0 -0.38324905667800779 -0.1142060656252787 0 -0.40024121019839842 -0.12319733172690139 0 -0.41160670449461739 -0.1089172888280758 0 -0.38324905667800779 -0.1142060656252787 0 -0.41160670449461739 -0.1089172888280758 0 -0.40024121019839842 -0.12319733172690139 0 -0.41110859822183848 -0.1184971940742732 0 -0.40024121019839842 -0.12319733172690139 0 -0.41110859822183848 -0.1184971940742732 0 -0.41856416224155502 -0.1081608344732673 0 -0.42215936720234609 -0.12941772199395249 0 -0.41110859822183848 -0.1184971940742732 0 -0.42779834355074697 -0.1162811858429382 0 -0.40024121019839842 -0.12319733172690139 0 -0.41856416224155502 -0.1081608344732673 0 -0.41160670449461739 -0.1089172888280758 0 -0.41110859822183848 -0.1184971940742732 0 -0.41856416224155502 -0.1081608344732673 0 -0.42779834355074697 -0.1162811858429382 0 -0.40024121019839842 -0.12319733172690139 0 -0.41856416224155502 -0.1081608344732673 0 -0.42215936720234609 -0.12941772199395249 0 -0.40024121019839842 -0.12319733172690139 0 -0.41110859822183848 -0.1184971940742732 0 -0.41856416224155502 -0.1081608344732673 0 -0.41160670449461739 -0.1089172888280758 0 -0.41684927926076631 -0.097017699854814121 0 -0.40597103566465642 -0.094055590973214975 0 -0.41160670449461739 -0.1089172888280758 0 -0.41684927926076631 -0.097017699854814121 0 -0.41856416224155502 -0.1081608344732673 0 -0.41684927926076631 -0.097017699854814121 0 -0.42805771735706771 -0.098234740611790133 0 -0.42779834355074697 -0.1162811858429382 0 -0.43688711428471072 -0.093124337219632369 0 -0.44181452925482401 -0.11587159708542449 0 -0.41856416224155502 -0.1081608344732673 0 -0.43688711428471072 -0.093124337219632369 0 -0.41856416224155502 -0.1081608344732673 0 -0.42779834355074697 -0.1162811858429382 0 -0.43688711428471072 -0.093124337219632369 0 -0.41856416224155502 -0.1081608344732673 0 -0.42805771735706771 -0.098234740611790133 0 -0.43688711428471072 -0.093124337219632369 0 -0.41684927926076631 -0.097017699854814121 0 -0.42805771735706771 -0.098234740611790133 0 -0.42404478266677231 -0.087362019315146672 0 -0.42215936720234609 -0.12941772199395249 0 -0.44181452925482401 -0.11587159708542449 0 -0.42215936720234609 -0.12941772199395249 0 -0.44234194305140462 -0.1183063866780245 0 -0.44181452925482401 -0.11587159708542449 0 -0.42215936720234609 -0.12941772199395249 0 -0.42779834355074697 -0.1162811858429382 0 -0.44181452925482401 -0.11587159708542449 0 -0.40254637954702238 -0.078789556211068965 0 -0.41256864021237649 -0.06799405117727593 0 -0.41853234263877742 -0.080217288239770951 0 -0.41256864021237649 -0.06799405117727593 0 -0.41853234263877742 -0.080217288239770951 0 -0.42200907549192918 -0.065368252547849934 0 -0.40597103566465642 -0.094055590973214975 0 -0.41684927926076631 -0.097017699854814121 0 -0.41853234263877742 -0.080217288239770951 0 -0.41684927926076631 -0.097017699854814121 0 -0.41853234263877742 -0.080217288239770951 0 -0.42404478266677231 -0.087362019315146672 0 -0.40254637954702238 -0.078789556211068965 0 -0.40597103566465642 -0.094055590973214975 0 -0.41853234263877742 -0.080217288239770951 0 -0.40597103566465642 -0.094055590973214975 0 -0.41853234263877742 -0.080217288239770951 0 -0.42805771735706771 -0.098234740611790133 0 -0.43273979141047642 -0.07397834855421187 0 -0.41853234263877742 -0.080217288239770951 0 -0.42404478266677231 -0.087362019315146672 0 -0.43273979141047642 -0.07397834855421187 0 -0.42805771735706771 -0.098234740611790133 0 -0.43688711428471072 -0.093124337219632369 0 -0.43273979141047642 -0.07397834855421187 0 -0.43688711428471072 -0.093124337219632369 0 -0.43273979141047642 -0.07397834855421187 0 -0.42805771735706771 -0.098234740611790133 0 -0.42404478266677231 -0.087362019315146672 0 -0.43273979141047642 -0.07397834855421187 0 -0.41853234263877742 -0.080217288239770951 0 -0.43273979141047642 -0.07397834855421187 0 -0.43109364961289892 -0.066378985506327468 0 -0.41853234263877742 -0.080217288239770951 0 -0.42200907549192918 -0.065368252547849934 0 -0.43109364961289892 -0.066378985506327468 0 -0.41853234263877742 -0.080217288239770951 0 -0.43109364961289892 -0.066378985506327468 0 -0.42931165875309069 -0.058152479435205087 0 -0.42200907549192918 -0.065368252547849934 0 -0.43109364961289892 -0.066378985506327468 0 -0.43504741038282868 -0.062023281232669453 0 -0.43109364961289892 -0.066378985506327468 0 -0.43504741038282868 -0.062023281232669453 0 -0.43273979141047642 -0.07397834855421187 0 -0.43109364961289892 -0.066378985506327468 0 -0.43504741038282868 -0.062023281232669453 0 -0.43273979141047642 -0.07397834855421187 0 -0.43504741038282868 -0.062023281232669453 0 -0.43273979141047642 -0.07397834855421187 0 -0.44092086546723253 -0.073203581271673243 0 -0.43273979141047642 -0.07397834855421187 0 -0.43109364961289892 -0.066378985506327468 0 -0.43504741038282868 -0.062023281232669453 0 -0.44429877350849573 -0.067831137165730998 0 -0.45241302733451288 -0.061261231097205812 0 -0.43504741038282868 -0.062023281232669453 0 -0.44429877350849573 -0.067831137165730998 0 -0.44092086546723253 -0.073203581271673243 0 -0.44429877350849573 -0.067831137165730998 0 -0.45173525933378172 -0.070082567702745874 0 -0.45241302733451288 -0.061261231097205812 0 -0.44429877350849573 -0.067831137165730998 0 -0.45173525933378172 -0.070082567702745874 0 -0.44675929236079021 -0.076341451186340795 0 -0.45173525933378172 -0.070082567702745874 0 -0.45191268012964209 -0.077831218391966675 0 -0.44675929236079021 -0.076341451186340795 0 -0.43273979141047642 -0.07397834855421187 0 -0.44092086546723253 -0.073203581271673243 0 -0.44575905967357371 -0.085843688219414363 0 -0.44429877350849573 -0.067831137165730998 0 -0.44675929236079021 -0.076341451186340795 0 -0.44092086546723253 -0.073203581271673243 0 -0.44675929236079021 -0.076341451186340795 0 -0.44092086546723253 -0.073203581271673243 0 -0.44575905967357371 -0.085843688219414363 0 -0.43688711428471072 -0.093124337219632369 0 -0.43273979141047642 -0.07397834855421187 0 -0.44575905967357371 -0.085843688219414363 0 -0.43688711428471072 -0.093124337219632369 0 -0.44575905967357371 -0.085843688219414363 0 -0.44575905967357371 -0.085843688219414363 0 -0.44956519568115411 -0.08272023117547446 0 -0.45462756597373688 -0.092769800296964341 0 -0.44675929236079021 -0.076341451186340795 0 -0.44575905967357371 -0.085843688219414363 0 -0.44956519568115411 -0.08272023117547446 0 -0.44675929236079021 -0.076341451186340795 0 -0.44575905967357371 -0.085843688219414363 0 -0.44575905967357371 -0.085843688219414363 0 -0.44956519568115411 -0.08272023117547446 0 -0.45191268012964209 -0.077831218391966675 0 -0.44956519568115411 -0.08272023117547446 0 -0.45625906511310788 -0.082887726464243652 0 -0.45191268012964209 -0.077831218391966675 0 -0.44675929236079021 -0.076341451186340795 0 -0.44956519568115411 -0.08272023117547446 0 -0.45625906511310788 -0.082887726464243652 0 -0.4632119937934841 -0.085494566176031961 0 -0.45666071873570319 -0.075792524690808591 0 -0.45191268012964209 -0.077831218391966675 0 -0.45625906511310788 -0.082887726464243652 0 -0.45666071873570319 -0.075792524690808591 0 -0.45625906511310788 -0.082887726464243652 0 -0.45462756597373688 -0.092769800296964341 0 -0.4632119937934841 -0.085494566176031961 0 -0.44956519568115411 -0.08272023117547446 0 -0.45625906511310788 -0.082887726464243652 0 -0.45462756597373688 -0.092769800296964341 0 -0.4632119937934841 -0.085494566176031961 0 -0.46512020471564319 -0.071559622112959478 0 -0.47141731904688328 -0.082527038342791334 0 -0.4632119937934841 -0.085494566176031961 0 -0.46512020471564319 -0.071559622112959478 0 -0.45666071873570319 -0.075792524690808591 0 -0.45173525933378172 -0.070082567702745874 0 -0.46512020471564319 -0.071559622112959478 0 -0.45241302733451288 -0.061261231097205812 0 -0.45173525933378172 -0.070082567702745874 0 -0.46512020471564319 -0.071559622112959478 0 -0.45666071873570319 -0.075792524690808591 0 -0.45173525933378172 -0.070082567702745874 0 -0.45191268012964209 -0.077831218391966675 0 -0.45666071873570319 -0.075792524690808591 0 -0.44181452925482401 -0.11587159708542449 0 -0.45877759154443698 -0.1041808381899897 0 -0.44181452925482401 -0.11587159708542449 0 -0.45877759154443698 -0.1041808381899897 0 -0.45345984459104649 -0.1177352949568395 0 -0.44950436050638432 -0.1260971177546294 0 -0.45574218444187797 -0.13096733571716521 0 -0.45345984459104649 -0.1177352949568395 0 -0.44950436050638432 -0.1260971177546294 0 -0.44234194305140462 -0.1183063866780245 0 -0.45345984459104649 -0.1177352949568395 0 -0.44234194305140462 -0.1183063866780245 0 -0.44181452925482401 -0.11587159708542449 0 -0.45345984459104649 -0.1177352949568395 0 -0.44234194305140462 -0.1183063866780245 0 -0.44181452925482401 -0.11587159708542449 0 -0.43688711428471072 -0.093124337219632369 0 -0.44575905967357371 -0.085843688219414363 0 -0.44181452925482401 -0.11587159708542449 0 -0.45462756597373688 -0.092769800296964341 0 -0.44181452925482401 -0.11587159708542449 0 -0.45877759154443698 -0.1041808381899897 0 -0.44575905967357371 -0.085843688219414363 0 -0.45462756597373688 -0.092769800296964341 0 -0.44181452925482401 -0.11587159708542449 0 -0.44575905967357371 -0.085843688219414363 0 -0.44181452925482401 -0.11587159708542449 0 -0.43688711428471072 -0.093124337219632369 0 -0.44181452925482401 -0.11587159708542449 0 -0.4632119937934841 -0.085494566176031961 0 -0.45877759154443698 -0.1041808381899897 0 -0.47489564508380128 -0.093072450177536931 0 -0.45877759154443698 -0.1041808381899897 0 -0.47238416207191181 -0.1128317045797666 0 -0.47489564508380128 -0.093072450177536931 0 -0.45462756597373688 -0.092769800296964341 0 -0.4632119937934841 -0.085494566176031961 0 -0.45877759154443698 -0.1041808381899897 0 -0.45877759154443698 -0.1041808381899897 0 -0.47489564508380128 -0.093072450177536931 0 -0.45574218444187797 -0.13096733571716521 0 -0.47238416207191181 -0.1128317045797666 0 -0.45574218444187797 -0.13096733571716521 0 -0.45345984459104649 -0.1177352949568395 0 -0.47238416207191181 -0.1128317045797666 0 -0.45877759154443698 -0.1041808381899897 0 -0.45345984459104649 -0.1177352949568395 0 -0.47238416207191181 -0.1128317045797666 0 -0.45574218444187797 -0.13096733571716521 0 -0.47238416207191181 -0.1128317045797666 0 -0.47083488277869051 -0.124785335887174 0 -0.47238416207191181 -0.1128317045797666 0 -0.47083488277869051 -0.124785335887174 0 -0.48757258593355057 -0.10435802821159811 0 -0.47083488277869051 -0.124785335887174 0 -0.48757258593355057 -0.10435802821159811 0 -0.48416247106706001 -0.12702549075369579 0 -0.47083488277869051 -0.124785335887174 0 -0.48757258593355057 -0.10435802821159811 0 -0.47238416207191181 -0.1128317045797666 0 -0.48902613970194408 -0.094696073442366566 0 -0.47238416207191181 -0.1128317045797666 0 -0.48902613970194408 -0.094696073442366566 0 -0.48757258593355057 -0.10435802821159811 0 -0.47238416207191181 -0.1128317045797666 0 -0.48902613970194408 -0.094696073442366566 0 -0.47489564508380128 -0.093072450177536931 0 -0.5 -0.11205437017290761 0 -0.49723068247534369 -0.092570932467677017 0 -0.49999999999999928 -0.082737285433924446 0 -0.48757258593355057 -0.10435802821159811 0 -0.5 -0.11205437017290761 0 -0.49723068247534369 -0.092570932467677017 0 -0.48902613970194408 -0.094696073442366566 0 -0.48757258593355057 -0.10435802821159811 0 -0.48902613970194408 -0.094696073442366566 0 -0.48757258593355057 -0.10435802821159811 0 -0.49723068247534369 -0.092570932467677017 0 -0.48757258593355057 -0.10435802821159811 0 -0.49723068247534369 -0.092570932467677017 0 -0.48416247106706001 -0.12702549075369579 0 -0.48757258593355057 -0.10435802821159811 0 -0.48416247106706001 -0.12702549075369579 0 -0.48757258593355057 -0.10435802821159811 0 -0.5 -0.11205437017290761 0 -0.48044843114798569 -0.078074495855989537 0 -0.47669907987552901 -0.066483619492128151 0 -0.49301490019722732 -0.068182280606600698 0 -0.46512020471564319 -0.071559622112959478 0 -0.47669907987552901 -0.066483619492128151 0 -0.46889010197468051 -0.052541324050065473 0 -0.46512020471564319 -0.071559622112959478 0 -0.48044843114798569 -0.078074495855989537 0 -0.47141731904688328 -0.082527038342791334 0 -0.46512020471564319 -0.071559622112959478 0 -0.48044843114798569 -0.078074495855989537 0 -0.47669907987552901 -0.066483619492128151 0 -0.48044843114798569 -0.078074495855989537 0 -0.47141731904688328 -0.082527038342791334 0 -0.47489564508380128 -0.093072450177536931 0 -0.48902613970194408 -0.094696073442366566 0 -0.48044843114798569 -0.078074495855989537 0 -0.47489564508380128 -0.093072450177536931 0 -0.4632119937934841 -0.085494566176031961 0 -0.47141731904688328 -0.082527038342791334 0 -0.47489564508380128 -0.093072450177536931 0 -0.48902613970194408 -0.094696073442366566 0 -0.49301490019722732 -0.068182280606600698 0 -0.48902613970194408 -0.094696073442366566 0 -0.49999999999999928 -0.082737285433924446 0 -0.49301490019722732 -0.068182280606600698 0 -0.48902613970194408 -0.094696073442366566 0 -0.48044843114798569 -0.078074495855989537 0 -0.49301490019722732 -0.068182280606600698 0 -0.48902613970194408 -0.094696073442366566 0 -0.49723068247534369 -0.092570932467677017 0 -0.49999999999999928 -0.082737285433924446 0 -0.48902613970194408 -0.094696073442366566 0 -0.49999999999999928 -0.082737285433924446 0 -0.49999999999999822 -0.077660410410368974 0 -0.49301490019722732 -0.068182280606600698 0 -0.50000000000000377 -0.065632186929060934 0 -0.47669907987552901 -0.066483619492128151 0 -0.49301490019722732 -0.068182280606600698 0 -0.48715088115983601 -0.060225352978154428 0 -0.49999999999999822 -0.077660410410368974 0 -0.49301490019722732 -0.068182280606600698 0 -0.49999999999999928 -0.082737285433924446 0 -0.49999999999999822 -0.077660410410368974 0 -0.49301490019722732 -0.068182280606600698 0 -0.49379156190249818 -0.063019712540326289 0 -0.49301490019722732 -0.068182280606600698 0 -0.48715088115983601 -0.060225352978154428 0 -0.49301490019722732 -0.068182280606600698 0 -0.48715088115983601 -0.060225352978154428 0 -0.49379156190249818 -0.063019712540326289 0 -0.49301490019722732 -0.068182280606600698 0 -0.49379156190249818 -0.063019712540326289 0 -0.49301490019722732 -0.068182280606600698 0 -0.50000000000000377 -0.065632186929060934 0 -0.49379156190249818 -0.063019712540326289 0 -0.50000000000000377 -0.065632186929060934 0 -0.49379156190249818 -0.063019712540326289 0 -0.49689578095124942 -0.042385577983323583 0 -0.49379156190249818 -0.063019712540326289 0 -0.5 -0.043691815177690829 0 -0.49689578095124942 -0.042385577983323583 0 -0.49379156190249818 -0.063019712540326289 0 -0.48715088115983601 -0.060225352978154428 0 -0.49689578095124942 -0.042385577983323583 0 -0.49379156190249818 -0.063019712540326289 0 -0.50000000000000377 -0.065632186929060934 0 -0.5 -0.043691815177690829 0 -0.48715088115983601 -0.060225352978154428 0 -0.49689578095124942 -0.042385577983323583 0 -0.4846966590799619 -0.042897898495096197 0 -0.49379156190249818 -0.063019712540326289 0 -0.48715088115983601 -0.060225352978154428 0 -0.49689578095124942 -0.042385577983323583 0 -0.48325334123343422 -0.030010235777428059 0 -0.5 -0.021751443426320731 0 -0.49689578095124942 -0.042385577983323583 0 -0.5 -0.021751443426320731 0 -0.5 -0.043691815177690829 0 -0.49689578095124942 -0.042385577983323583 0 -0.5 -0.021751443426320731 0 -0.49689578095124942 -0.042385577983323583 0 -0.4846966590799619 -0.042897898495096197 0 -0.48325334123343422 -0.030010235777428059 0 -0.47148663297532772 -0.038970427241479408 0 -0.46633234883484131 -0.02755788283200521 0 -0.48325334123343422 -0.030010235777428059 0 -0.4846966590799619 -0.042897898495096197 0 -0.47148663297532772 -0.038970427241479408 0 -0.48325334123343422 -0.030010235777428059 0 -0.47669907987552901 -0.066483619492128151 0 -0.48715088115983601 -0.060225352978154428 0 -0.46889010197468051 -0.052541324050065473 0 -0.48715088115983601 -0.060225352978154428 0 -0.46889010197468051 -0.052541324050065473 0 -0.48715088115983601 -0.060225352978154428 0 -0.47148663297532772 -0.038970427241479408 0 -0.48715088115983601 -0.060225352978154428 0 -0.47148663297532772 -0.038970427241479408 0 -0.46889010197468051 -0.052541324050065473 0 -0.48715088115983601 -0.060225352978154428 0 -0.4846966590799619 -0.042897898495096197 0 -0.47148663297532772 -0.038970427241479408 0 -0.46889010197468051 -0.052541324050065473 0 -0.45062932278952372 -0.044857295121979307 0 -0.46889010197468051 -0.052541324050065473 0 -0.45062932278952372 -0.044857295121979307 0 -0.45241302733451288 -0.061261231097205812 0 -0.46512020471564319 -0.071559622112959478 0 -0.46889010197468051 -0.052541324050065473 0 -0.45241302733451288 -0.061261231097205812 0 -0.45062932278952372 -0.044857295121979307 0 -0.45165658770341099 -0.028877487534976751 0 -0.46633234883484131 -0.02755788283200521 0 -0.45062932278952372 -0.044857295121979307 0 -0.46633234883484131 -0.02755788283200521 0 -0.47148663297532772 -0.038970427241479408 0 -0.46889010197468051 -0.052541324050065473 0 -0.45062932278952372 -0.044857295121979307 0 -0.47148663297532772 -0.038970427241479408 0 -0.45062932278952372 -0.044857295121979307 0 -0.46633234883484131 -0.02755788283200521 0 -0.45062932278952372 -0.044857295121979307 0 -0.43928249288152449 -0.04008261555485032 0 -0.45165658770341099 -0.028877487534976751 0 -0.45062932278952372 -0.044857295121979307 0 -0.43928249288152449 -0.04008261555485032 0 -0.43504741038282868 -0.062023281232669453 0 -0.45062932278952372 -0.044857295121979307 0 -0.45241302733451288 -0.061261231097205812 0 -0.43504741038282868 -0.062023281232669453 0 -0.45062932278952372 -0.044857295121979307 0 -0.43504741038282868 -0.062023281232669453 0 -0.45062932278952372 -0.044857295121979307 0 -0.43928249288152449 -0.04008261555485032 0 -0.44448203429077221 -0.013145383570985139 0 -0.44166421527993532 -0.01195966183513668 0 -0.44968157570001699 0.01379184841288048 0 -0.44448203429077221 -0.013145383570985139 0 -0.46398397302861599 -0.0033506724111937612 0 -0.44968157570001699 0.01379184841288048 0 -0.43364685485985421 -0.037711172083154151 0 -0.43928249288152449 -0.04008261555485032 0 -0.44448203429077221 -0.013145383570985139 0 -0.44448203429077221 -0.013145383570985139 0 -0.45165658770341099 -0.028877487534976751 0 -0.45868227885959167 -0.017830143728084689 0 -0.43364685485985421 -0.037711172083154151 0 -0.44166421527993532 -0.01195966183513668 0 -0.43928249288152449 -0.04008261555485032 0 -0.44448203429077221 -0.013145383570985139 0 -0.43364685485985421 -0.037711172083154151 0 -0.44448203429077221 -0.013145383570985139 0 -0.44166421527993532 -0.01195966183513668 0 -0.43928249288152449 -0.04008261555485032 0 -0.44448203429077221 -0.013145383570985139 0 -0.45165658770341099 -0.028877487534976751 0 -0.45165658770341099 -0.028877487534976751 0 -0.45868227885959167 -0.017830143728084689 0 -0.46633234883484131 -0.02755788283200521 0 -0.45868227885959167 -0.017830143728084689 0 -0.46633234883484131 -0.02755788283200521 0 -0.4692075287187164 -0.014391058557300969 0 -0.45868227885959167 -0.017830143728084689 0 -0.46398397302861599 -0.0033506724111937612 0 -0.4692075287187164 -0.014391058557300969 0 -0.44448203429077221 -0.013145383570985139 0 -0.45868227885959167 -0.017830143728084689 0 -0.46398397302861599 -0.0033506724111937612 0 -0.46398397302861599 -0.0033506724111937612 0 -0.4820353748801583 -0.01025847054203061 0 -0.4692075287187164 -0.014391058557300969 0 -0.46398397302861599 -0.0033506724111937612 0 -0.4820353748801583 -0.01025847054203061 0 -0.48406169933857518 0.0058650243130959224 0 -0.46633234883484131 -0.02755788283200521 0 -0.4820353748801583 -0.01025847054203061 0 -0.4692075287187164 -0.014391058557300969 0 -0.46633234883484131 -0.02755788283200521 0 -0.4820353748801583 -0.01025847054203061 0 -0.46633234883484131 -0.02755788283200521 0 -0.4820353748801583 -0.01025847054203061 0 -0.48325334123343422 -0.030010235777428059 0 -0.4820353748801583 -0.01025847054203061 0 -0.48325334123343422 -0.030010235777428059 0 -0.5 -0.021751443426320731 0 -0.4820353748801583 -0.01025847054203061 0 -0.5 -0.001194794614672978 0 -0.48406169933857518 0.0058650243130959224 0 -0.4820353748801583 -0.01025847054203061 0 -0.5 -0.021751443426320731 0 -0.5 -0.001194794614672978 0 -0.5 -0.001194794614672978 0 -0.499999999999999 0.019361854196974788 0 -0.48406169933857518 0.0058650243130959224 0 -0.499999999999999 0.019361854196974788 0 -0.47567224993306317 0.019247481441382469 0 -0.48406169933857518 0.0058650243130959224 0 -0.499999999999999 0.019361854196974788 0 -0.49261696592075671 0.030580095754623431 0 -0.48307828714700762 0.021165232678711739 0 -0.499999999999999 0.019361854196974788 0 -0.48307828714700762 0.021165232678711739 0 -0.47567224993306317 0.019247481441382469 0 -0.49261696592075671 0.030580095754623431 0 -0.48307828714700762 0.021165232678711739 0 -0.48738957653602011 0.037631580860093022 0 -0.499999999999999 0.019361854196974788 0 -0.47567224993306317 0.019247481441382469 0 -0.48307828714700762 0.021165232678711739 0 -0.47567224993306317 0.019247481441382469 0 -0.47113795926606572 0.031589785273910362 0 -0.46398397302861599 -0.0033506724111937612 0 -0.48406169933857518 0.0058650243130959224 0 -0.46372721978077031 0.011515995140434261 0 -0.47567224993306317 0.019247481441382469 0 -0.48406169933857518 0.0058650243130959224 0 -0.46372721978077031 0.011515995140434261 0 -0.4876523753113432 0.058451229143337079 0 -0.5 0.044161715282714183 0 -0.49999999999999911 0.068961576368453473 0 -0.4876523753113432 0.058451229143337079 0 -0.48758667561751268 0.047046351801091117 0 -0.5 0.044161715282714183 0 -0.499999999999999 0.019361854196974788 0 -0.49261696592075671 0.030580095754623431 0 -0.5 0.044161715282714183 0 -0.48758667561751268 0.047046351801091117 0 -0.5 0.044161715282714183 0 -0.48738957653602011 0.037631580860093022 0 -0.49261696592075671 0.030580095754623431 0 -0.5 0.044161715282714183 0 -0.48738957653602011 0.037631580860093022 0 -0.48307828714700762 0.021165232678711739 0 -0.4753047506226864 0.047940881918221559 0 -0.48307828714700762 0.021165232678711739 0 -0.48738957653602011 0.037631580860093022 0 -0.4753047506226864 0.047940881918221559 0 -0.48307828714700762 0.021165232678711739 0 -0.47113795926606572 0.031589785273910362 0 -0.4753047506226864 0.047940881918221559 0 -0.48758667561751268 0.047046351801091117 0 -0.48738957653602011 0.037631580860093022 0 -0.4753047506226864 0.047940881918221559 0 -0.4753047506226864 0.047940881918221559 0 -0.46807087330833302 0.072857695649619844 0 -0.47880629006758307 0.066575744490171271 0 -0.4753047506226864 0.047940881918221559 0 -0.46807087330833302 0.072857695649619844 0 -0.4876523753113432 0.058451229143337079 0 -0.4753047506226864 0.047940881918221559 0 -0.47880629006758307 0.066575744490171271 0 -0.4876523753113432 0.058451229143337079 0 -0.48758667561751268 0.047046351801091117 0 -0.4753047506226864 0.047940881918221559 0 -0.4876523753113432 0.058451229143337079 0 -0.4753047506226864 0.047940881918221559 0 -0.46148946362244969 0.051718414128994861 0 -0.46807087330833302 0.072857695649619844 0 -0.4753047506226864 0.047940881918221559 0 -0.46148946362244969 0.051718414128994861 0 -0.46807087330833302 0.072857695649619844 0 -0.46148946362244969 0.051718414128994861 0 -0.45182849999309849 0.061773260849820488 0 -0.46807087330833302 0.072857695649619844 0 -0.47113795926606572 0.031589785273910362 0 -0.4753047506226864 0.047940881918221559 0 -0.45490805393656569 0.030579132608370061 0 -0.46148946362244969 0.051718414128994861 0 -0.45490805393656569 0.030579132608370061 0 -0.4753047506226864 0.047940881918221559 0 -0.45490805393656569 0.030579132608370061 0 -0.4753047506226864 0.047940881918221559 0 -0.46148946362244969 0.051718414128994861 0 -0.45490805393656569 0.030579132608370061 0 -0.46148946362244969 0.051718414128994861 0 -0.45447969019430928 0.038649410464039441 0 -0.45490805393656569 0.030579132608370061 0 -0.46148946362244969 0.051718414128994861 0 -0.45447969019430928 0.038649410464039441 0 -0.44784907541414432 0.041130013264773599 0 -0.45447969019430928 0.038649410464039441 0 -0.45490805393656569 0.030579132608370061 0 -0.45253144615111579 0.02855615461278049 0 -0.45447969019430928 0.038649410464039441 0 -0.45253144615111579 0.02855615461278049 0 -0.45447969019430928 0.038649410464039441 0 -0.44877366410606317 0.034193132986109209 0 -0.45253144615111579 0.02855615461278049 0 -0.45447969019430928 0.038649410464039441 0 -0.44877366410606317 0.034193132986109209 0 -0.44784907541414432 0.041130013264773599 0 -0.44877366410606317 0.034193132986109209 0 -0.44279405160787128 0.035288012399447163 0 -0.44784907541414432 0.041130013264773599 0 -0.44877366410606317 0.034193132986109209 0 -0.44279405160787128 0.035288012399447163 0 -0.44418917135474822 0.027086882017161341 0 -0.44279405160787128 0.035288012399447163 0 -0.43880941526210537 0.026959508141194011 0 -0.43218723980144852 0.034287184094027132 0 -0.44279405160787128 0.035288012399447163 0 -0.44784907541414432 0.041130013264773599 0 -0.44522669150377109 0.048953567662455948 0 -0.44279405160787128 0.035288012399447163 0 -0.44522669150377109 0.048953567662455948 0 -0.43218723980144852 0.034287184094027132 0 -0.46148946362244969 0.051718414128994861 0 -0.44784907541414432 0.041130013264773599 0 -0.44522669150377109 0.048953567662455948 0 -0.45182849999309849 0.061773260849820488 0 -0.44522669150377109 0.048953567662455948 0 -0.43368224373554082 0.058607836194398362 0 -0.46148946362244969 0.051718414128994861 0 -0.45182849999309849 0.061773260849820488 0 -0.44522669150377109 0.048953567662455948 0 -0.46398397302861599 -0.0033506724111937612 0 -0.46372721978077031 0.011515995140434261 0 -0.44968157570001699 0.01379184841288048 0 -0.46372721978077031 0.011515995140434261 0 -0.45071199495600928 0.019130135072147499 0 -0.44968157570001699 0.01379184841288048 0 -0.47567224993306317 0.019247481441382469 0 -0.45490805393656569 0.030579132608370061 0 -0.45071199495600928 0.019130135072147499 0 -0.47567224993306317 0.019247481441382469 0 -0.47113795926606572 0.031589785273910362 0 -0.45490805393656569 0.030579132608370061 0 -0.47567224993306317 0.019247481441382469 0 -0.46372721978077031 0.011515995140434261 0 -0.45071199495600928 0.019130135072147499 0 -0.47567224993306317 0.019247481441382469 0 -0.45071199495600928 0.019130135072147499 0 -0.45490805393656569 0.030579132608370061 0 -0.45253144615111579 0.02855615461278049 0 -0.45071199495600928 0.019130135072147499 0 -0.44140629995285591 0.01908638593886235 0 -0.45071199495600928 0.019130135072147499 0 -0.44968157570001699 0.01379184841288048 0 -0.45071199495600928 0.019130135072147499 0 -0.44140629995285591 0.01908638593886235 0 -0.44968157570001699 0.01379184841288048 0 -0.45071199495600928 0.019130135072147499 0 -0.45253144615111579 0.02855615461278049 0 -0.44140629995285591 0.01908638593886235 0 -0.45071199495600928 0.019130135072147499 0 -0.45253144615111579 0.02855615461278049 0 -0.45490805393656569 0.030579132608370061 0 -0.45071199495600928 0.019130135072147499 0 -0.45253144615111579 0.02855615461278049 0 -0.45253144615111579 0.02855615461278049 0 -0.44418917135474822 0.027086882017161341 0 -0.44140629995285591 0.01908638593886235 0 -0.45490805393656569 0.030579132608370061 0 -0.45071199495600928 0.019130135072147499 0 -0.45253144615111579 0.02855615461278049 0 -0.44140629995285591 0.01908638593886235 0 -0.44877366410606317 0.034193132986109209 0 -0.45253144615111579 0.02855615461278049 0 -0.44418917135474822 0.027086882017161341 0 -0.44279405160787128 0.035288012399447163 0 -0.44418917135474822 0.027086882017161341 0 -0.43880941526210537 0.026959508141194011 0 -0.44418917135474822 0.027086882017161341 0 -0.43880941526210537 0.026959508141194011 0 -0.44140629995285591 0.01908638593886235 0 -0.43880941526210537 0.026959508141194011 0 -0.44140629995285591 0.01908638593886235 0 -0.43347031359360322 0.019049076256472411 0 -0.44448203429077221 -0.013145383570985139 0 -0.44968157570001699 0.01379184841288048 0 -0.44166421527993532 -0.01195966183513668 0 -0.44968157570001699 0.01379184841288048 0 -0.43996392123198258 0.01084731714755038 0 -0.44968157570001699 0.01379184841288048 0 -0.43807557340770248 0.00054450224480292802 0 -0.44166421527993532 -0.01195966183513668 0 -0.44968157570001699 0.01379184841288048 0 -0.43807557340770248 0.00054450224480292802 0 -0.44140629995285591 0.01908638593886235 0 -0.43996392123198258 0.01084731714755038 0 -0.44968157570001699 0.01379184841288048 0 -0.42951348913761739 -0.0092092631160944627 0 -0.43069223586735539 0.0099665319936559464 0 -0.43996392123198258 0.01084731714755038 0 -0.43807557340770248 0.00054450224480292802 0 -0.43069223586735539 0.0099665319936559464 0 -0.42951348913761739 -0.0092092631160944627 0 -0.43807557340770248 0.00054450224480292802 0 -0.43069223586735539 0.0099665319936559464 0 -0.42951348913761739 -0.0092092631160944627 0 -0.43069223586735539 0.0099665319936559464 0 -0.42322790464251969 0.003612863579327177 0 -0.44140629995285591 0.01908638593886235 0 -0.43069223586735539 0.0099665319936559464 0 -0.44140629995285591 0.01908638593886235 0 -0.43996392123198258 0.01084731714755038 0 -0.43069223586735539 0.0099665319936559464 0 -0.43069223586735539 0.0099665319936559464 0 -0.42322790464251969 0.003612863579327177 0 -0.4193724043816367 0.01168756355012596 0 -0.43069223586735539 0.0099665319936559464 0 -0.4193724043816367 0.01168756355012596 0 -0.4234543519441486 0.024118798045252791 0 -0.43069223586735539 0.0099665319936559464 0 -0.42322790464251969 0.003612863579327177 0 -0.42322790464251969 0.003612863579327177 0 -0.41469187376774441 0.0011076618702792981 0 -0.4193724043816367 0.01168756355012596 0 -0.4193724043816367 0.01168756355012596 0 -0.40737527483069969 0.0091698523186040208 0 -0.41394977172854158 0.02171136920575497 0 -0.40289798198808241 -0.0021757899610419492 0 -0.41469187376774441 0.0011076618702792981 0 -0.40737527483069969 0.0091698523186040208 0 -0.41469187376774441 0.0011076618702792981 0 -0.4193724043816367 0.01168756355012596 0 -0.40737527483069969 0.0091698523186040208 0 -0.41394977172854158 0.02171136920575497 0 -0.4234543519441486 0.024118798045252791 0 -0.41739797525836991 0.041624826783273478 0 -0.4193724043816367 0.01168756355012596 0 -0.41394977172854158 0.02171136920575497 0 -0.4234543519441486 0.024118798045252791 0 -0.43069223586735539 0.0099665319936559464 0 -0.4234543519441486 0.024118798045252791 0 -0.43218723980144852 0.034287184094027132 0 -0.43069223586735539 0.0099665319936559464 0 -0.43347031359360322 0.019049076256472411 0 -0.43218723980144852 0.034287184094027132 0 -0.43069223586735539 0.0099665319936559464 0 -0.43218723980144852 0.034287184094027132 0 -0.44140629995285591 0.01908638593886235 0 -0.43069223586735539 0.0099665319936559464 0 -0.43347031359360322 0.019049076256472411 0 -0.44140629995285591 0.01908638593886235 0 -0.43347031359360322 0.019049076256472411 0 -0.43880941526210537 0.026959508141194011 0 -0.43347031359360322 0.019049076256472411 0 -0.43218723980144852 0.034287184094027132 0 -0.43218723980144852 0.034287184094027132 0 -0.43368224373554082 0.058607836194398362 0 -0.41739797525836991 0.041624826783273478 0 -0.43218723980144852 0.034287184094027132 0 -0.43368224373554082 0.058607836194398362 0 -0.4234543519441486 0.024118798045252791 0 -0.43218723980144852 0.034287184094027132 0 -0.41739797525836991 0.041624826783273478 0 -0.44522669150377109 0.048953567662455948 0 -0.43218723980144852 0.034287184094027132 0 -0.43368224373554082 0.058607836194398362 0 -0.43368224373554082 0.058607836194398362 0 -0.41609142447491221 0.060054010682698743 0 -0.41739797525836991 0.041624826783273478 0 -0.41609142447491221 0.060054010682698743 0 -0.41739797525836991 0.041624826783273478 0 -0.39981001431520757 0.061316498087353143 0 -0.41394977172854158 0.02171136920575497 0 -0.41739797525836991 0.041624826783273478 0 -0.4015371291854975 0.031764361495013597 0 -0.4015371291854975 0.031764361495013597 0 -0.39981001431520757 0.061316498087353143 0 -0.38413006128795801 0.039004044072342967 0 -0.41739797525836991 0.041624826783273478 0 -0.4015371291854975 0.031764361495013597 0 -0.39981001431520757 0.061316498087353143 0 -0.39981001431520757 0.061316498087353143 0 -0.38413006128795801 0.039004044072342967 0 -0.38148098495877059 0.06120436788229805 0 -0.38413006128795801 0.039004044072342967 0 -0.36986912817618028 0.052455122431039433 0 -0.39981001431520757 0.061316498087353143 0 -0.38148098495877059 0.06120436788229805 0 -0.38413006128795801 0.039004044072342967 0 -0.4015371291854975 0.031764361495013597 0 -0.38413006128795801 0.039004044072342967 0 -0.38592633256922548 0.023115954363997399 0 -0.38592633256922548 0.023115954363997399 0 -0.37902631883179511 0.0115093943949471 0 -0.36845010826070851 0.016691590057332839 0 -0.38413006128795801 0.039004044072342967 0 -0.36845010826070851 0.016691590057332839 0 -0.38592633256922548 0.023115954363997399 0 -0.37902631883179511 0.0115093943949471 0 -0.39648804528016829 0.016610381800351091 0 -0.38413006128795801 0.039004044072342967 0 -0.38592633256922548 0.023115954363997399 0 -0.36845010826070851 0.016691590057332839 0 -0.38339230307301442 -0.0014879422237282589 0 -0.37902631883179511 0.0115093943949471 0 -0.3947034698430063 0.003827809065041037 0 -0.37902631883179511 0.0115093943949471 0 -0.3947034698430063 0.003827809065041037 0 -0.39648804528016829 0.016610381800351091 0 -0.37902631883179511 0.0115093943949471 0 -0.3947034698430063 0.003827809065041037 0 -0.37902631883179511 0.0115093943949471 0 -0.39648804528016829 0.016610381800351091 0 -0.38339230307301442 -0.0014879422237282589 0 -0.37902631883179511 0.0115093943949471 0 -0.37614130794978518 0.0010756032901526949 0 -0.40289798198808241 -0.0021757899610419492 0 -0.40737527483069969 0.0091698523186040208 0 -0.3947034698430063 0.003827809065041037 0 -0.40737527483069969 0.0091698523186040208 0 -0.3947034698430063 0.003827809065041037 0 -0.39648804528016829 0.016610381800351091 0 -0.40737527483069969 0.0091698523186040208 0 -0.41394977172854158 0.02171136920575497 0 -0.39648804528016829 0.016610381800351091 0 -0.41394977172854158 0.02171136920575497 0 -0.39648804528016829 0.016610381800351091 0 -0.41394977172854158 0.02171136920575497 0 -0.4015371291854975 0.031764361495013597 0 -0.39648804528016829 0.016610381800351091 0 -0.4015371291854975 0.031764361495013597 0 -0.38592633256922548 0.023115954363997399 0 -0.39648804528016829 0.016610381800351091 0 -0.38865995041056539 0.105186288855772 0 -0.40581980656998129 0.090936068818944227 0 -0.40964099875194282 0.1084398503648111 0 -0.38865995041056539 0.105186288855772 0 -0.39178846521513599 0.091496685978642023 0 -0.40581980656998129 0.090936068818944227 0 -0.40086802765116469 0.12406095327599651 0 -0.38865995041056539 0.105186288855772 0 -0.40964099875194282 0.1084398503648111 0 -0.40086802765116469 0.12406095327599651 0 -0.38865995041056539 0.105186288855772 0 -0.40086802765116469 0.12406095327599651 0 -0.38212846919526611 0.1215168923455906 0 -0.38865995041056539 0.105186288855772 0 -0.38212846919526611 0.1215168923455906 0 -0.37562534717357859 0.10602245132632671 0 -0.38865995041056539 0.105186288855772 0 -0.37562534717357859 0.10602245132632671 0 -0.38865995041056539 0.105186288855772 0 -0.37645187316996609 0.086311624435547504 0 -0.38865995041056539 0.105186288855772 0 -0.37645187316996609 0.086311624435547504 0 -0.39178846521513599 0.091496685978642023 0 -0.38865995041056539 0.105186288855772 0 -0.37645187316996609 0.086311624435547504 0 -0.37645187316996609 0.086311624435547504 0 -0.38503180124967462 0.079186514417133008 0 -0.39178846521513599 0.091496685978642023 0 -0.39981001431520757 0.061316498087353143 0 -0.38148098495877059 0.06120436788229805 0 -0.38503180124967462 0.079186514417133008 0 -0.37645187316996609 0.086311624435547504 0 -0.38503180124967462 0.079186514417133008 0 -0.36424379592936762 0.067436960015322567 0 -0.38148098495877059 0.06120436788229805 0 -0.38503180124967462 0.079186514417133008 0 -0.36424379592936762 0.067436960015322567 0 -0.39981001431520757 0.061316498087353143 0 -0.40067038991437742 0.077429342546641161 0 -0.41548996734245708 0.083628952102363319 0 -0.39981001431520757 0.061316498087353143 0 -0.38503180124967462 0.079186514417133008 0 -0.40067038991437742 0.077429342546641161 0 -0.38503180124967462 0.079186514417133008 0 -0.40067038991437742 0.077429342546641161 0 -0.40581980656998129 0.090936068818944227 0 -0.38503180124967462 0.079186514417133008 0 -0.40581980656998129 0.090936068818944227 0 -0.38503180124967462 0.079186514417133008 0 -0.39178846521513599 0.091496685978642023 0 -0.40581980656998129 0.090936068818944227 0 -0.41548996734245708 0.083628952102363319 0 -0.4249093100420564 0.071353388689501307 0 -0.42490606820586818 0.089546540376407011 0 -0.40581980656998129 0.090936068818944227 0 -0.41548996734245708 0.083628952102363319 0 -0.42490606820586818 0.089546540376407011 0 -0.40067038991437742 0.077429342546641161 0 -0.40581980656998129 0.090936068818944227 0 -0.41548996734245708 0.083628952102363319 0 -0.41609142447491221 0.060054010682698743 0 -0.39981001431520757 0.061316498087353143 0 -0.41548996734245708 0.083628952102363319 0 -0.39981001431520757 0.061316498087353143 0 -0.41548996734245708 0.083628952102363319 0 -0.41609142447491221 0.060054010682698743 0 -0.41548996734245708 0.083628952102363319 0 -0.4249093100420564 0.071353388689501307 0 -0.43368224373554082 0.058607836194398362 0 -0.4249093100420564 0.071353388689501307 0 -0.43517724766963312 0.082928488294769592 0 -0.43368224373554082 0.058607836194398362 0 -0.43517724766963312 0.082928488294769592 0 -0.43368224373554082 0.058607836194398362 0 -0.41609142447491221 0.060054010682698743 0 -0.4249093100420564 0.071353388689501307 0 -0.4249093100420564 0.071353388689501307 0 -0.42490606820586818 0.089546540376407011 0 -0.43517724766963312 0.082928488294769592 0 -0.42490606820586818 0.089546540376407011 0 -0.43517724766963312 0.082928488294769592 0 -0.43411832832715952 0.094941467473444674 0 -0.43411832832715952 0.094941467473444674 0 -0.42660781189028801 0.1026856232207554 0 -0.43958507999596241 0.1041334250566886 0 -0.42660781189028801 0.1026856232207554 0 -0.43432156741180589 0.1181928578695703 0 -0.43958507999596241 0.1041334250566886 0 -0.42490606820586818 0.089546540376407011 0 -0.43411832832715952 0.094941467473444674 0 -0.42660781189028801 0.1026856232207554 0 -0.40581980656998129 0.090936068818944227 0 -0.42660781189028801 0.1026856232207554 0 -0.40581980656998129 0.090936068818944227 0 -0.42660781189028801 0.1026856232207554 0 -0.40964099875194282 0.1084398503648111 0 -0.40581980656998129 0.090936068818944227 0 -0.42490606820586818 0.089546540376407011 0 -0.42660781189028801 0.1026856232207554 0 -0.40086802765116469 0.12406095327599651 0 -0.40964099875194282 0.1084398503648111 0 -0.4179580513052979 0.12243842736378539 0 -0.42660781189028801 0.1026856232207554 0 -0.40964099875194282 0.1084398503648111 0 -0.4179580513052979 0.12243842736378539 0 -0.42660781189028801 0.1026856232207554 0 -0.4179580513052979 0.12243842736378539 0 -0.43432156741180589 0.1181928578695703 0 -0.44917393038526948 0.113202908607587 0 -0.44158636342167079 0.13110769766925209 0 -0.44917393038526948 0.113202908607587 0 -0.4543733748635877 0.12003820514715929 0 -0.44158636342167079 0.13110769766925209 0 -0.43432156741180589 0.1181928578695703 0 -0.44917393038526948 0.113202908607587 0 -0.44158636342167079 0.13110769766925209 0 -0.43432156741180589 0.1181928578695703 0 -0.44917393038526948 0.113202908607587 0 -0.43958507999596241 0.1041334250566886 0 -0.45949992694703529 0.1023799925736411 0 -0.44360087867852882 0.09181392650755163 0 -0.44796495400169911 0.1028825631863671 0 -0.45949992694703529 0.1023799925736411 0 -0.44360087867852882 0.09181392650755163 0 -0.45949992694703529 0.1023799925736411 0 -0.44360087867852882 0.09181392650755163 0 -0.45402386098818898 0.088855328142016465 0 -0.43958507999596241 0.1041334250566886 0 -0.44796495400169911 0.1028825631863671 0 -0.44360087867852882 0.09181392650755163 0 -0.43411832832715952 0.094941467473444674 0 -0.43958507999596241 0.1041334250566886 0 -0.44360087867852882 0.09181392650755163 0 -0.44917393038526948 0.113202908607587 0 -0.43958507999596241 0.1041334250566886 0 -0.44796495400169911 0.1028825631863671 0 -0.44917393038526948 0.113202908607587 0 -0.44796495400169911 0.1028825631863671 0 -0.45949992694703529 0.1023799925736411 0 -0.45949992694703529 0.1023799925736411 0 -0.4645309839476458 0.092585379841403817 0 -0.47590372531807301 0.1067124447766921 0 -0.45949992694703529 0.1023799925736411 0 -0.46378540012768438 0.087618844111630567 0 -0.45949992694703529 0.1023799925736411 0 -0.4645309839476458 0.092585379841403817 0 -0.46378540012768438 0.087618844111630567 0 -0.45949992694703529 0.1023799925736411 0 -0.46255869084598938 0.11284129580282121 0 -0.47338819681776789 0.1116097511428107 0 -0.45949992694703529 0.1023799925736411 0 -0.47338819681776789 0.1116097511428107 0 -0.45949992694703529 0.1023799925736411 0 -0.46255869084598938 0.11284129580282121 0 -0.4543733748635877 0.12003820514715929 0 -0.45949992694703529 0.1023799925736411 0 -0.4543733748635877 0.12003820514715929 0 -0.44917393038526948 0.113202908607587 0 -0.45949992694703529 0.1023799925736411 0 -0.4543733748635877 0.12003820514715929 0 -0.46255869084598938 0.11284129580282121 0 -0.46361765506827768 0.1214435528417295 0 -0.47338819681776789 0.1116097511428107 0 -0.46255869084598938 0.11284129580282121 0 -0.46361765506827768 0.1214435528417295 0 -0.4543733748635877 0.12003820514715929 0 -0.43368224373554082 0.058607836194398362 0 -0.43517724766963312 0.082928488294769592 0 -0.45067322779539748 0.07672879061363333 0 -0.45182849999309849 0.061773260849820488 0 -0.43368224373554082 0.058607836194398362 0 -0.45067322779539748 0.07672879061363333 0 -0.45067322779539748 0.07672879061363333 0 -0.44360087867852882 0.09181392650755163 0 -0.45402386098818898 0.088855328142016465 0 -0.43517724766963312 0.082928488294769592 0 -0.45067322779539748 0.07672879061363333 0 -0.44360087867852882 0.09181392650755163 0 -0.43517724766963312 0.082928488294769592 0 -0.43411832832715952 0.094941467473444674 0 -0.44360087867852882 0.09181392650755163 0 -0.45067322779539748 0.07672879061363333 0 -0.46378540012768438 0.087618844111630567 0 -0.46807087330833302 0.072857695649619844 0 -0.45949992694703529 0.1023799925736411 0 -0.45402386098818898 0.088855328142016465 0 -0.46378540012768438 0.087618844111630567 0 -0.4645309839476458 0.092585379841403817 0 -0.46378540012768438 0.087618844111630567 0 -0.47041374130884128 0.092039439563547473 0 -0.46378540012768438 0.087618844111630567 0 -0.46807087330833302 0.072857695649619844 0 -0.46378540012768438 0.087618844111630567 0 -0.46807087330833302 0.072857695649619844 0 -0.47282095622739961 0.088114813024922897 0 -0.45067322779539748 0.07672879061363333 0 -0.45402386098818898 0.088855328142016465 0 -0.46378540012768438 0.087618844111630567 0 -0.45182849999309849 0.061773260849820488 0 -0.45067322779539748 0.07672879061363333 0 -0.46807087330833302 0.072857695649619844 0 -0.46807087330833302 0.072857695649619844 0 -0.47880629006758307 0.066575744490171271 0 -0.47819090053607072 0.077856091513133496 0 -0.47880629006758307 0.066575744490171271 0 -0.47819090053607072 0.077856091513133496 0 -0.48749508872397068 0.074718781274828006 0 -0.47819090053607072 0.077856091513133496 0 -0.48376129435306742 0.087013423126125422 0 -0.48749508872397068 0.074718781274828006 0 -0.47819090053607072 0.077856091513133496 0 -0.47282095622739961 0.088114813024922897 0 -0.48376129435306742 0.087013423126125422 0 -0.46807087330833302 0.072857695649619844 0 -0.47819090053607072 0.077856091513133496 0 -0.47282095622739961 0.088114813024922897 0 -0.46807087330833302 0.072857695649619844 0 -0.47282095622739961 0.088114813024922897 0 -0.47282095622739961 0.088114813024922897 0 -0.47041374130884128 0.092039439563547473 0 -0.47825344837033179 0.093011789991916061 0 -0.46378540012768438 0.087618844111630567 0 -0.47282095622739961 0.088114813024922897 0 -0.47041374130884128 0.092039439563547473 0 -0.47282095622739961 0.088114813024922897 0 -0.48376129435306742 0.087013423126125422 0 -0.47825344837033179 0.093011789991916061 0 -0.48376129435306742 0.087013423126125422 0 -0.47825344837033179 0.093011789991916061 0 -0.48806898739397309 0.097764202608314435 0 -0.48376129435306742 0.087013423126125422 0 -0.5 0.08907278981264849 0 -0.48806898739397309 0.097764202608314435 0 -0.48376129435306742 0.087013423126125422 0 -0.5 0.08907278981264849 0 -0.48749508872397068 0.074718781274828006 0 -0.4876523753113432 0.058451229143337079 0 -0.47880629006758307 0.066575744490171271 0 -0.48749508872397068 0.074718781274828006 0 -0.4876523753113432 0.058451229143337079 0 -0.48749508872397068 0.074718781274828006 0 -0.49999999999999911 0.068961576368453473 0 -0.5 0.08907278981264849 0 -0.48749508872397068 0.074718781274828006 0 -0.49999999999999911 0.068961576368453473 0 -0.4876523753113432 0.058451229143337079 0 -0.49999999999999911 0.068961576368453473 0 -0.46361765506827768 0.1214435528417295 0 -0.47338819681776789 0.1116097511428107 0 -0.47142783595227811 0.12810267960367391 0 -0.47338819681776789 0.1116097511428107 0 -0.48727646668850078 0.12083950971197981 0 -0.47142783595227811 0.12810267960367391 0 -0.47590372531807301 0.1067124447766921 0 -0.48738380588300478 0.1091118545593235 0 -0.48727646668850078 0.12083950971197981 0 -0.47590372531807301 0.1067124447766921 0 -0.48727646668850078 0.12083950971197981 0 -0.47338819681776789 0.1116097511428107 0 -0.47590372531807301 0.1067124447766921 0 -0.48727646668850078 0.12083950971197981 0 -0.47338819681776789 0.1116097511428107 0 -0.48727646668850078 0.12083950971197981 0 -0.45949992694703529 0.1023799925736411 0 -0.47338819681776789 0.1116097511428107 0 -0.47590372531807301 0.1067124447766921 0 -0.4645309839476458 0.092585379841403817 0 -0.47590372531807301 0.1067124447766921 0 -0.47345096343349918 0.097233696101549721 0 -0.47590372531807301 0.1067124447766921 0 -0.47345096343349918 0.097233696101549721 0 -0.48016299962825582 0.10007195771595941 0 -0.4645309839476458 0.092585379841403817 0 -0.47041374130884128 0.092039439563547473 0 -0.47345096343349918 0.097233696101549721 0 -0.4645309839476458 0.092585379841403817 0 -0.47590372531807301 0.1067124447766921 0 -0.47041374130884128 0.092039439563547473 0 -0.47825344837033179 0.093011789991916061 0 -0.47345096343349918 0.097233696101549721 0 -0.47825344837033179 0.093011789991916061 0 -0.48016299962825582 0.10007195771595941 0 -0.48806898739397309 0.097764202608314435 0 -0.47825344837033179 0.093011789991916061 0 -0.47345096343349918 0.097233696101549721 0 -0.48016299962825582 0.10007195771595941 0 -0.47590372531807301 0.1067124447766921 0 -0.48016299962825582 0.10007195771595941 0 -0.48738380588300478 0.1091118545593235 0 -0.48016299962825582 0.10007195771595941 0 -0.48738380588300478 0.1091118545593235 0 -0.48806898739397309 0.097764202608314435 0 -0.48738380588300478 0.1091118545593235 0 -0.48806898739397309 0.097764202608314435 0 -0.5 0.10918400325684351 0 -0.5 0.08907278981264849 0 -0.48806898739397309 0.097764202608314435 0 -0.5 0.10918400325684351 0 -0.5 0.10918400325684351 0 -0.48727646668850078 0.12083950971197981 0 -0.49999999999999978 0.12929521670103861 0 -0.48738380588300478 0.1091118545593235 0 -0.5 0.10918400325684351 0 -0.48727646668850078 0.12083950971197981 0 -0.48727646668850078 0.12083950971197981 0 -0.5 0.1366445100582698 0 -0.48727646668850078 0.12083950971197981 0 -0.5 0.1366445100582698 0 -0.4814178526193566 0.13988966102066311 0 -0.5 0.1366445100582698 0 -0.4814178526193566 0.13988966102066311 0 -0.49234497422807538 0.14512384871422959 0 -0.48727646668850078 0.12083950971197981 0 -0.49999999999999978 0.12929521670103861 0 -0.5 0.1366445100582698 0 -0.48727646668850078 0.12083950971197981 0 -0.49999999999999978 0.12929521670103861 0 -0.48727646668850078 0.12083950971197981 0 -0.4814178526193566 0.13988966102066311 0 -0.47142783595227811 0.12810267960367391 0 -0.4814178526193566 0.13988966102066311 0 -0.47142783595227811 0.12810267960367391 0 -0.46793877818492768 0.13884156493072591 0 -0.4814178526193566 0.13988966102066311 0 -0.46793877818492768 0.13884156493072591 0 -0.46256924730631138 0.15274808658638389 0 -0.49113969815455039 0.15648368644185071 0 -0.46256924730631138 0.15274808658638389 0 -0.4814178526193566 0.13988966102066311 0 -0.49113969815455039 0.15648368644185071 0 -0.46256924730631138 0.15274808658638389 0 -0.5 0.1366445100582698 0 -0.49234497422807538 0.14512384871422959 0 -0.50000000000000022 0.1536031873701891 0 -0.4814178526193566 0.13988966102066311 0 -0.49234497422807538 0.14512384871422959 0 -0.49113969815455039 0.15648368644185071 0 -0.49234497422807538 0.14512384871422959 0 -0.50000000000000022 0.1536031873701891 0 -0.49113969815455039 0.15648368644185071 0 -0.50000000000000022 0.1536031873701891 0 -0.48091481904705041 0.17214498444912771 0 -0.50000000000000022 0.1536031873701891 0 -0.5 0.1812138442181313 0 -0.48091481904705041 0.17214498444912771 0 -0.50000000000000022 0.1536031873701891 0 -0.49113969815455039 0.15648368644185071 0 -0.48091481904705041 0.17214498444912771 0 -0.5 0.1812138442181313 0 -0.48091481904705041 0.17214498444912771 0 -0.48354206027771263 0.19123258805898261 0 -0.48091481904705041 0.17214498444912771 0 -0.48354206027771263 0.19123258805898261 0 -0.46182963809410188 0.1906867815280677 0 -0.48091481904705041 0.17214498444912771 0 -0.46182963809410188 0.1906867815280677 0 -0.48091481904705041 0.17214498444912771 0 -0.46418646541429942 0.169075030132462 0 -0.46179449762780039 0.17695186174715091 0 -0.49113969815455039 0.15648368644185071 0 -0.48091481904705041 0.17214498444912771 0 -0.46256924730631138 0.15274808658638389 0 -0.48091481904705041 0.17214498444912771 0 -0.46418646541429942 0.169075030132462 0 -0.46256924730631138 0.15274808658638389 0 -0.46418646541429942 0.169075030132462 0 -0.44744109582923719 0.1652820251424508 0 -0.46256924730631138 0.15274808658638389 0 -0.46418646541429942 0.169075030132462 0 -0.45344003643315373 0.1760086615091653 0 -0.44744109582923719 0.1652820251424508 0 -0.48091481904705041 0.17214498444912771 0 -0.46179449762780039 0.17695186174715091 0 -0.46074292970597519 0.18511643099993999 0 -0.48091481904705041 0.17214498444912771 0 -0.46074292970597519 0.18511643099993999 0 -0.46182963809410188 0.1906867815280677 0 -0.46418646541429942 0.169075030132462 0 -0.46179449762780039 0.17695186174715091 0 -0.45344003643315373 0.1760086615091653 0 -0.46179449762780039 0.17695186174715091 0 -0.45344003643315373 0.1760086615091653 0 -0.4558576700397301 0.18228078079474461 0 -0.46179449762780039 0.17695186174715091 0 -0.4558576700397301 0.18228078079474461 0 -0.46074292970597519 0.18511643099993999 0 -0.4558576700397301 0.18228078079474461 0 -0.46074292970597519 0.18511643099993999 0 -0.45484709914637678 0.18897212853458109 0 -0.45344003643315373 0.1760086615091653 0 -0.4558576700397301 0.18228078079474461 0 -0.44846378728534408 0.18435482118288579 0 -0.4558576700397301 0.18228078079474461 0 -0.44846378728534408 0.18435482118288579 0 -0.45484709914637678 0.18897212853458109 0 -0.45344003643315373 0.1760086615091653 0 -0.44291869075892931 0.17637595509235399 0 -0.44744109582923719 0.1652820251424508 0 -0.45344003643315373 0.1760086615091653 0 -0.44846378728534408 0.18435482118288579 0 -0.44291869075892931 0.17637595509235399 0 -0.44846378728534408 0.18435482118288579 0 -0.44291869075892931 0.17637595509235399 0 -0.43513777935913928 0.1853337125657353 0 -0.44291869075892931 0.17637595509235399 0 -0.44744109582923719 0.1652820251424508 0 -0.42669310608425021 0.16625211647266011 0 -0.45634017686176492 0.13462583251218249 0 -0.46256924730631138 0.15274808658638389 0 -0.43399879645807221 0.1490124867309173 0 -0.44744109582923719 0.1652820251424508 0 -0.46256924730631138 0.15274808658638389 0 -0.43399879645807221 0.1490124867309173 0 -0.46256924730631138 0.15274808658638389 0 -0.43399879645807221 0.1490124867309173 0 -0.44158636342167079 0.13110769766925209 0 -0.45634017686176492 0.13462583251218249 0 -0.43399879645807221 0.1490124867309173 0 -0.44158636342167079 0.13110769766925209 0 -0.43399879645807221 0.1490124867309173 0 -0.4543733748635877 0.12003820514715929 0 -0.44158636342167079 0.13110769766925209 0 -0.45634017686176492 0.13462583251218249 0 -0.46361765506827768 0.1214435528417295 0 -0.4543733748635877 0.12003820514715929 0 -0.45634017686176492 0.13462583251218249 0 -0.46361765506827768 0.1214435528417295 0 -0.47142783595227811 0.12810267960367391 0 -0.45634017686176492 0.13462583251218249 0 -0.47142783595227811 0.12810267960367391 0 -0.45634017686176492 0.13462583251218249 0 -0.46793877818492768 0.13884156493072591 0 -0.45634017686176492 0.13462583251218249 0 -0.46793877818492768 0.13884156493072591 0 -0.46256924730631138 0.15274808658638389 0 -0.47102222716384989 0.23780700617981429 0 -0.48515404259462402 0.24836105536639891 0 -0.48420079880932099 0.22608069394911781 0 -0.47102222716384989 0.23780700617981429 0 -0.48515404259462402 0.24836105536639891 0 -0.47602543892940968 0.26345293254340169 0 -0.48515404259462402 0.24836105536639891 0 -0.5 0.23883773082503881 0 -0.48420079880932099 0.22608069394911781 0 -0.5 0.23883773082503881 0 -0.48420079880932099 0.22608069394911781 0 -0.50000000000001166 0.20882450106607339 0 -0.47102222716384989 0.23780700617981429 0 -0.48420079880932099 0.22608069394911781 0 -0.46601901539828983 0.21216107981622681 0 -0.48300950769915091 0.2104927904411516 0 -0.47346013227189621 0.2005912824118527 0 -0.46601901539828983 0.21216107981622681 0 -0.48420079880932099 0.22608069394911781 0 -0.48300950769915091 0.2104927904411516 0 -0.46601901539828983 0.21216107981622681 0 -0.48300950769915091 0.2104927904411516 0 -0.46601901539828983 0.21216107981622681 0 -0.48300950769915091 0.2104927904411516 0 -0.50000000000001166 0.20882450106607339 0 -0.48354206027771263 0.19123258805898261 0 -0.48300950769915091 0.2104927904411516 0 -0.50000000000001166 0.20882450106607339 0 -0.48420079880932099 0.22608069394911781 0 -0.48300950769915091 0.2104927904411516 0 -0.50000000000001166 0.20882450106607339 0 -0.5 0.1812138442181313 0 -0.50000000000001166 0.20882450106607339 0 -0.48354206027771263 0.19123258805898261 0 -0.47346013227189621 0.2005912824118527 0 -0.48354206027771263 0.19123258805898261 0 -0.46182963809410188 0.1906867815280677 0 -0.48300950769915091 0.2104927904411516 0 -0.47346013227189621 0.2005912824118527 0 -0.48354206027771263 0.19123258805898261 0 -0.46182963809410188 0.1906867815280677 0 -0.45630364459979073 0.1960554416567607 0 -0.46601901539828983 0.21216107981622681 0 -0.47346013227189621 0.2005912824118527 0 -0.46182963809410188 0.1906867815280677 0 -0.46601901539828983 0.21216107981622681 0 -0.46182963809410188 0.1906867815280677 0 -0.46601901539828983 0.21216107981622681 0 -0.46074292970597519 0.18511643099993999 0 -0.46182963809410188 0.1906867815280677 0 -0.46182963809410188 0.1906867815280677 0 -0.45630364459979073 0.1960554416567607 0 -0.46182963809410188 0.1906867815280677 0 -0.45630364459979073 0.1960554416567607 0 -0.45484709914637678 0.18897212853458109 0 -0.46074292970597519 0.18511643099993999 0 -0.46182963809410188 0.1906867815280677 0 -0.45484709914637678 0.18897212853458109 0 -0.44846378728534408 0.18435482118288579 0 -0.45484709914637678 0.18897212853458109 0 -0.44733852874969487 0.19334406807418861 0 -0.45630364459979073 0.1960554416567607 0 -0.45484709914637678 0.18897212853458109 0 -0.44733852874969487 0.19334406807418861 0 -0.44846378728534408 0.18435482118288579 0 -0.44733852874969487 0.19334406807418861 0 -0.43513777935913928 0.1853337125657353 0 -0.44733852874969487 0.19334406807418861 0 -0.43933764039998707 0.2001481450647962 0 -0.43513777935913928 0.1853337125657353 0 -0.44733852874969487 0.19334406807418861 0 -0.43933764039998707 0.2001481450647962 0 -0.45002429973240649 0.2042077536825718 0 -0.45630364459979073 0.1960554416567607 0 -0.44733852874969487 0.19334406807418861 0 -0.45002429973240649 0.2042077536825718 0 -0.45002429973240649 0.2042077536825718 0 -0.44152144403366922 0.2145664861634429 0 -0.46601901539828983 0.21216107981622681 0 -0.43933764039998707 0.2001481450647962 0 -0.45002429973240649 0.2042077536825718 0 -0.44152144403366922 0.2145664861634429 0 -0.44152144403366922 0.2145664861634429 0 -0.46601901539828983 0.21216107981622681 0 -0.45630364459979073 0.1960554416567607 0 -0.45002429973240649 0.2042077536825718 0 -0.46601901539828983 0.21216107981622681 0 -0.44152144403366922 0.2145664861634429 0 -0.46601901539828983 0.21216107981622681 0 -0.45218149111174771 0.228694217047338 0 -0.47102222716384989 0.23780700617981429 0 -0.46601901539828983 0.21216107981622681 0 -0.47102222716384989 0.23780700617981429 0 -0.46601901539828983 0.21216107981622681 0 -0.45218149111174771 0.228694217047338 0 -0.44152144403366922 0.2145664861634429 0 -0.45218149111174771 0.228694217047338 0 -0.4307320024834112 0.22554961382708491 0 -0.45218149111174771 0.228694217047338 0 -0.4376591049539556 0.23662703507221949 0 -0.4307320024834112 0.22554961382708491 0 -0.45218149111174771 0.228694217047338 0 -0.44154361281610521 0.25200707292449243 0 -0.45218149111174771 0.228694217047338 0 -0.4376591049539556 0.23662703507221949 0 -0.44154361281610521 0.25200707292449243 0 -0.45218149111174771 0.228694217047338 0 -0.45925987119813061 0.25150640183567857 0 -0.44154361281610521 0.25200707292449243 0 -0.47102222716384989 0.23780700617981429 0 -0.45218149111174771 0.228694217047338 0 -0.45925987119813061 0.25150640183567857 0 -0.40994365922488119 0.24501031921078101 0 -0.42617931340455828 0.24025723648996261 0 -0.41998562682326868 0.25342565943811102 0 -0.40994365922488119 0.24501031921078101 0 -0.42617931340455828 0.24025723648996261 0 -0.40183533175909869 0.2314220245318179 0 -0.4376591049539556 0.23662703507221949 0 -0.42617931340455828 0.24025723648996261 0 -0.44154361281610521 0.25200707292449243 0 -0.42617931340455828 0.24025723648996261 0 -0.4307320024834112 0.22554961382708491 0 -0.41702387266904822 0.21697189251065571 0 -0.44152144403366922 0.2145664861634429 0 -0.4307320024834112 0.22554961382708491 0 -0.41702387266904822 0.21697189251065571 0 -0.4376591049539556 0.23662703507221949 0 -0.42617931340455828 0.24025723648996261 0 -0.4307320024834112 0.22554961382708491 0 -0.42617931340455828 0.24025723648996261 0 -0.41702387266904822 0.21697189251065571 0 -0.40183533175909869 0.2314220245318179 0 -0.42617931340455828 0.24025723648996261 0 -0.41702387266904822 0.21697189251065571 0 -0.4097210743097513 0.2063019309030498 0 -0.41702387266904822 0.21697189251065571 0 -0.39824791906891271 0.20834250011636921 0 -0.4097210743097513 0.2063019309030498 0 -0.41702387266904822 0.21697189251065571 0 -0.41133301650619319 0.20249814437367311 0 -0.4097210743097513 0.2063019309030498 0 -0.41133301650619319 0.20249814437367311 0 -0.40227729815724061 0.2009040171333378 0 -0.4097210743097513 0.2063019309030498 0 -0.41133301650619319 0.20249814437367311 0 -0.41702387266904822 0.21697189251065571 0 -0.41133301650619319 0.20249814437367311 0 -0.42118078455825692 0.2067216079593811 0 -0.41702387266904822 0.21697189251065571 0 -0.41133301650619319 0.20249814437367311 0 -0.44152144403366922 0.2145664861634429 0 -0.41702387266904822 0.21697189251065571 0 -0.44152144403366922 0.2145664861634429 0 -0.41702387266904822 0.21697189251065571 0 -0.43051368151763891 0.206822569048077 0 -0.43933764039998707 0.2001481450647962 0 -0.44152144403366922 0.2145664861634429 0 -0.43051368151763891 0.206822569048077 0 -0.42118078455825692 0.2067216079593811 0 -0.43051368151763891 0.206822569048077 0 -0.42574430132839358 0.19739544069734499 0 -0.42118078455825692 0.2067216079593811 0 -0.41702387266904822 0.21697189251065571 0 -0.43051368151763891 0.206822569048077 0 -0.42574430132839358 0.19739544069734499 0 -0.43513777935913928 0.1853337125657353 0 -0.41938741571042548 0.18349174621440181 0 -0.43933764039998707 0.2001481450647962 0 -0.43051368151763891 0.206822569048077 0 -0.42574430132839358 0.19739544069734499 0 -0.43933764039998707 0.2001481450647962 0 -0.42574430132839358 0.19739544069734499 0 -0.43513777935913928 0.1853337125657353 0 -0.42574430132839358 0.19739544069734499 0 -0.41133301650619319 0.20249814437367311 0 -0.41938741571042548 0.18349174621440181 0 -0.41133301650619319 0.20249814437367311 0 -0.40311159733490298 0.18158832922309781 0 -0.41133301650619319 0.20249814437367311 0 -0.41938741571042548 0.18349174621440181 0 -0.40311159733490298 0.18158832922309781 0 -0.41133301650619319 0.20249814437367311 0 -0.41938741571042548 0.18349174621440181 0 -0.42118078455825692 0.2067216079593811 0 -0.42574430132839358 0.19739544069734499 0 -0.41133301650619319 0.20249814437367311 0 -0.40227729815724061 0.2009040171333378 0 -0.38943910730012832 0.19621057277341339 0 -0.40311159733490298 0.18158832922309781 0 -0.41133301650619319 0.20249814437367311 0 -0.40227729815724061 0.2009040171333378 0 -0.40311159733490298 0.18158832922309781 0 -0.40227729815724061 0.2009040171333378 0 -0.38943910730012832 0.19621057277341339 0 -0.39824791906891271 0.20834250011636921 0 -0.38943910730012832 0.19621057277341339 0 -0.37787270198427569 0.1786367023897403 0 -0.3701972788020918 0.19921844512841599 0 -0.38943910730012832 0.19621057277341339 0 -0.38388353874335618 0.206823605561752 0 -0.3701972788020918 0.19921844512841599 0 -0.38388353874335618 0.206823605561752 0 -0.38933519678650919 0.21969063208375661 0 -0.36164652090396998 0.22240937165685601 0 -0.38943910730012832 0.19621057277341339 0 -0.38388353874335618 0.206823605561752 0 -0.39824791906891271 0.20834250011636921 0 -0.38388353874335618 0.206823605561752 0 -0.39824791906891271 0.20834250011636921 0 -0.38933519678650919 0.21969063208375661 0 -0.41702387266904822 0.21697189251065571 0 -0.38933519678650919 0.21969063208375661 0 -0.41702387266904822 0.21697189251065571 0 -0.39824791906891271 0.20834250011636921 0 -0.38933519678650919 0.21969063208375661 0 -0.4097210743097513 0.2063019309030498 0 -0.40227729815724061 0.2009040171333378 0 -0.39824791906891271 0.20834250011636921 0 -0.41702387266904822 0.21697189251065571 0 -0.40183533175909869 0.2314220245318179 0 -0.38933519678650919 0.21969063208375661 0 -0.38933519678650919 0.21969063208375661 0 -0.37791100803724997 0.23590842844770679 0 -0.36164652090396998 0.22240937165685601 0 -0.38933519678650919 0.21969063208375661 0 -0.36164652090396998 0.22240937165685601 0 -0.40183533175909869 0.2314220245318179 0 -0.38933519678650919 0.21969063208375661 0 -0.37791100803724997 0.23590842844770679 0 -0.37791100803724997 0.23590842844770679 0 -0.38114343776269882 0.24801998263204589 0 -0.39454137741122453 0.2453554626325164 0 -0.37791100803724997 0.23590842844770679 0 -0.38114343776269882 0.24801998263204589 0 -0.37278941221433959 0.24816867233428569 0 -0.40183533175909869 0.2314220245318179 0 -0.37791100803724997 0.23590842844770679 0 -0.39454137741122453 0.2453554626325164 0 -0.40994365922488119 0.24501031921078101 0 -0.40183533175909869 0.2314220245318179 0 -0.39454137741122453 0.2453554626325164 0 -0.40994365922488119 0.24501031921078101 0 -0.39454137741122453 0.2453554626325164 0 -0.406549631445982 0.25707962180525479 0 -0.40690642819681982 0.1454701468673083 0 -0.43399879645807221 0.1490124867309173 0 -0.4179580513052979 0.12243842736378539 0 -0.40690642819681982 0.1454701468673083 0 -0.42759421456042218 0.13460423191661819 0 -0.40086802765116469 0.12406095327599651 0 -0.4179580513052979 0.12243842736378539 0 -0.40690642819681982 0.1454701468673083 0 -0.44158636342167079 0.13110769766925209 0 -0.42759421456042218 0.13460423191661819 0 -0.43399879645807221 0.1490124867309173 0 -0.43432156741180589 0.1181928578695703 0 -0.44158636342167079 0.13110769766925209 0 -0.42759421456042218 0.13460423191661819 0 -0.4179580513052979 0.12243842736378539 0 -0.43432156741180589 0.1181928578695703 0 -0.42759421456042218 0.13460423191661819 0 -0.40690642819681982 0.1454701468673083 0 -0.42759421456042218 0.13460423191661819 0 -0.43399879645807221 0.1490124867309173 0 -0.40690642819681982 0.1454701468673083 0 -0.43399879645807221 0.1490124867309173 0 -0.42669310608425021 0.16625211647266011 0 -0.44744109582923719 0.1652820251424508 0 -0.43399879645807221 0.1490124867309173 0 -0.42669310608425021 0.16625211647266011 0 -0.43399879645807221 0.1490124867309173 0 -0.42669310608425021 0.16625211647266011 0 -0.44291869075892931 0.17637595509235399 0 -0.42669310608425021 0.16625211647266011 0 -0.43513777935913928 0.1853337125657353 0 -0.43513777935913928 0.1853337125657353 0 -0.41938741571042548 0.18349174621440181 0 -0.42669310608425021 0.16625211647266011 0 -0.43513777935913928 0.1853337125657353 0 -0.41938741571042548 0.18349174621440181 0 -0.42669310608425021 0.16625211647266011 0 -0.41938741571042548 0.18349174621440181 0 -0.42669310608425021 0.16625211647266011 0 -0.41938741571042548 0.18349174621440181 0 -0.40985870182701012 0.17423971257959561 0 -0.41938741571042548 0.18349174621440181 0 -0.40311159733490298 0.18158832922309781 0 -0.41938741571042548 0.18349174621440181 0 -0.40985870182701012 0.17423971257959561 0 -0.40311159733490298 0.18158832922309781 0 -0.42669310608425021 0.16625211647266011 0 -0.40985870182701012 0.17423971257959561 0 -0.40783747177319912 0.1636061403110427 0 -0.40690642819681982 0.1454701468673083 0 -0.42669310608425021 0.16625211647266011 0 -0.40783747177319912 0.1636061403110427 0 -0.40690642819681982 0.1454701468673083 0 -0.40783747177319912 0.1636061403110427 0 -0.39122844265217582 0.16026563479004241 0 -0.40783747177319912 0.1636061403110427 0 -0.39122844265217582 0.16026563479004241 0 -0.39938260372992579 0.16985666864946389 0 -0.40985870182701012 0.17423971257959561 0 -0.40783747177319912 0.1636061403110427 0 -0.39938260372992579 0.16985666864946389 0 -0.39938260372992579 0.16985666864946389 0 -0.40311159733490298 0.18158832922309781 0 -0.37787270198427569 0.1786367023897403 0 -0.40985870182701012 0.17423971257959561 0 -0.39938260372992579 0.16985666864946389 0 -0.40311159733490298 0.18158832922309781 0 -0.40311159733490298 0.18158832922309781 0 -0.37787270198427569 0.1786367023897403 0 -0.38943910730012832 0.19621057277341339 0 -0.40311159733490298 0.18158832922309781 0 -0.37787270198427569 0.1786367023897403 0 -0.39122844265217582 0.16026563479004241 0 -0.37787270198427569 0.1786367023897403 0 -0.37421201012200878 0.16146526554316409 0 -0.39122844265217582 0.16026563479004241 0 -0.39938260372992579 0.16985666864946389 0 -0.37787270198427569 0.1786367023897403 0 -0.39122844265217582 0.16026563479004241 0 -0.37981405993556733 0.14192780700369961 0 -0.37421201012200878 0.16146526554316409 0 -0.40690642819681982 0.1454701468673083 0 -0.39122844265217582 0.16026563479004241 0 -0.37981405993556733 0.14192780700369961 0 -0.40690642819681982 0.1454701468673083 0 -0.37981405993556733 0.14192780700369961 0 -0.40086802765116469 0.12406095327599651 0 -0.40690642819681982 0.1454701468673083 0 -0.37981405993556733 0.14192780700369961 0 -0.40086802765116469 0.12406095327599651 0 -0.38212846919526611 0.1215168923455906 0 -0.37981405993556733 0.14192780700369961 0 -0.38212846919526611 0.1215168923455906 0 -0.37981405993556733 0.14192780700369961 0 -0.36897569561914978 0.12971624649538219 0 -0.37981405993556733 0.14192780700369961 0 -0.36897569561914978 0.12971624649538219 0 -0.35272169167431472 0.1383854671400909 0 -0.37981405993556733 0.14192780700369961 0 -0.35272169167431472 0.1383854671400909 0 -0.36897569561914978 0.12971624649538219 0 -0.35819343634065082 0.12692670565902461 0 -0.35272169167431472 0.1383854671400909 0 -0.35819343634065082 0.12692670565902461 0 -0.35272169167431472 0.1383854671400909 0 -0.34707175060915207 0.1330546180982918 0 -0.34707175060915207 0.1330546180982918 0 -0.35733578443158859 0.1566225478420753 0 -0.3402666832547333 0.14924936572824091 0 -0.34707175060915207 0.1330546180982918 0 -0.35733578443158859 0.1566225478420753 0 -0.35733578443158859 0.1566225478420753 0 -0.34270090319673152 0.16254916650783269 0 -0.3402666832547333 0.14924936572824091 0 -0.35272169167431472 0.1383854671400909 0 -0.34707175060915207 0.1330546180982918 0 -0.35733578443158859 0.1566225478420753 0 -0.37981405993556733 0.14192780700369961 0 -0.37421201012200878 0.16146526554316409 0 -0.35733578443158859 0.1566225478420753 0 -0.37981405993556733 0.14192780700369961 0 -0.35272169167431472 0.1383854671400909 0 -0.35733578443158859 0.1566225478420753 0 -0.37421201012200878 0.16146526554316409 0 -0.35263380663364852 0.17568507555638141 0 -0.35733578443158859 0.1566225478420753 0 -0.37787270198427569 0.1786367023897403 0 -0.35263380663364852 0.17568507555638141 0 -0.36091426874436322 0.18887545164007899 0 -0.37787270198427569 0.1786367023897403 0 -0.37421201012200878 0.16146526554316409 0 -0.35263380663364852 0.17568507555638141 0 -0.37787270198427569 0.1786367023897403 0 -0.35263380663364852 0.17568507555638141 0 -0.35263380663364852 0.17568507555638141 0 -0.33893812544845381 0.18341196507685409 0 -0.36091426874436322 0.18887545164007899 0 -0.35263380663364852 0.17568507555638141 0 -0.35733578443158859 0.1566225478420753 0 -0.34270090319673152 0.16254916650783269 0 -0.35263380663364852 0.17568507555638141 0 -0.34270090319673152 0.16254916650783269 0 -0.32739491128302151 0.17273344872302249 0 -0.34270090319673152 0.16254916650783269 0 -0.33110110576738783 0.15846200008552719 0 -0.3402666832547333 0.14924936572824091 0 -0.34270090319673152 0.16254916650783269 0 -0.33110110576738783 0.15846200008552719 0 -0.32739491128302151 0.17273344872302249 0 -0.35263380663364852 0.17568507555638141 0 -0.33893812544845381 0.18341196507685409 0 -0.32739491128302151 0.17273344872302249 0 -0.35263380663364852 0.17568507555638141 0 -0.32739491128302151 0.17273344872302249 0 -0.33893812544845381 0.18341196507685409 0 -0.32739491128302151 0.17273344872302249 0 -0.32666023079029233 0.19323692347631699 0 -0.31437453570777341 0.17610613740625691 0 -0.32666023079029233 0.19323692347631699 0 -0.30635693692302168 0.18831085831133279 0 -0.32739491128302151 0.17273344872302249 0 -0.31437453570777341 0.17610613740625691 0 -0.32666023079029233 0.19323692347631699 0 -0.31437453570777341 0.17610613740625691 0 -0.32666023079029233 0.19323692347631699 0 -0.33110110576738783 0.15846200008552719 0 -0.32739491128302151 0.17273344872302249 0 -0.318383692465253 0.16080315567482259 0 -0.32739491128302151 0.17273344872302249 0 -0.31437453570777341 0.17610613740625691 0 -0.318383692465253 0.16080315567482259 0 -0.32508314851745501 0.14575751959113939 0 -0.30886421182911578 0.13430968895424089 0 -0.30884460779596301 0.14833805616450729 0 -0.318383692465253 0.16080315567482259 0 -0.32508314851745501 0.14575751959113939 0 -0.30884460779596301 0.14833805616450729 0 -0.33110110576738783 0.15846200008552719 0 -0.318383692465253 0.16080315567482259 0 -0.32508314851745501 0.14575751959113939 0 -0.32508314851745501 0.14575751959113939 0 -0.32812060221672268 0.12728900250280439 0 -0.30886421182911578 0.13430968895424089 0 -0.34707175060915207 0.1330546180982918 0 -0.32812060221672268 0.12728900250280439 0 -0.33514055767929207 0.13853809695269689 0 -0.34707175060915207 0.1330546180982918 0 -0.33514055767929207 0.13853809695269689 0 -0.3402666832547333 0.14924936572824091 0 -0.32508314851745501 0.14575751959113939 0 -0.32812060221672268 0.12728900250280439 0 -0.33514055767929207 0.13853809695269689 0 -0.33110110576738783 0.15846200008552719 0 -0.32508314851745501 0.14575751959113939 0 -0.3402666832547333 0.14924936572824091 0 -0.32508314851745501 0.14575751959113939 0 -0.33514055767929207 0.13853809695269689 0 -0.3402666832547333 0.14924936572824091 0 -0.35124282571701998 0.23687258289128629 0 -0.32686086071775239 0.248281178694785 0 -0.35380467111880448 0.25242267467050927 0 -0.35124282571701998 0.23687258289128629 0 -0.35801805165507028 0.24347711021892379 0 -0.3627719761117153 0.2349360291034597 0 -0.35801805165507028 0.24347711021892379 0 -0.36146494472005519 0.24834746491546941 0 -0.35380467111880448 0.25242267467050927 0 -0.35124282571701998 0.23687258289128629 0 -0.35801805165507028 0.24347711021892379 0 -0.35380467111880448 0.25242267467050927 0 -0.3670498333840862 0.24372521572780889 0 -0.36611161386666069 0.25431435788476431 0 -0.36146494472005519 0.24834746491546941 0 -0.3670498333840862 0.24372521572780889 0 -0.36611161386666069 0.25431435788476431 0 -0.35801805165507028 0.24347711021892379 0 -0.36146494472005519 0.24834746491546941 0 -0.3670498333840862 0.24372521572780889 0 -0.3670498333840862 0.24372521572780889 0 -0.37278941221433959 0.24816867233428569 0 -0.36611161386666069 0.25431435788476431 0 -0.37791100803724997 0.23590842844770679 0 -0.3670498333840862 0.24372521572780889 0 -0.37278941221433959 0.24816867233428569 0 -0.37791100803724997 0.23590842844770679 0 -0.3670498333840862 0.24372521572780889 0 -0.3627719761117153 0.2349360291034597 0 -0.35801805165507028 0.24347711021892379 0 -0.3670498333840862 0.24372521572780889 0 -0.3627719761117153 0.2349360291034597 0 -0.37791100803724997 0.23590842844770679 0 -0.3627719761117153 0.2349360291034597 0 -0.36164652090396998 0.22240937165685601 0 -0.35124282571701998 0.23687258289128629 0 -0.36164652090396998 0.22240937165685601 0 -0.33395784502143078 0.22512811122995541 0 -0.36164652090396998 0.22240937165685601 0 -0.33395784502143078 0.22512811122995541 0 -0.35124282571701998 0.23687258289128629 0 -0.3627719761117153 0.2349360291034597 0 -0.36164652090396998 0.22240937165685601 0 -0.36164652090396998 0.22240937165685601 0 -0.34742753513645752 0.20235496674865561 0 -0.33395784502143078 0.22512811122995541 0 -0.36164652090396998 0.22240937165685601 0 -0.3701972788020918 0.19921844512841599 0 -0.34742753513645752 0.20235496674865561 0 -0.38388353874335618 0.206823605561752 0 -0.36164652090396998 0.22240937165685601 0 -0.3701972788020918 0.19921844512841599 0 -0.3701972788020918 0.19921844512841599 0 -0.36091426874436322 0.18887545164007899 0 -0.34742753513645752 0.20235496674865561 0 -0.37787270198427569 0.1786367023897403 0 -0.3701972788020918 0.19921844512841599 0 -0.36091426874436322 0.18887545164007899 0 -0.33893812544845381 0.18341196507685409 0 -0.36091426874436322 0.18887545164007899 0 -0.34742753513645752 0.20235496674865561 0 -0.33893812544845381 0.18341196507685409 0 -0.34742753513645752 0.20235496674865561 0 -0.32666023079029233 0.19323692347631699 0 -0.34742753513645752 0.20235496674865561 0 -0.32666023079029233 0.19323692347631699 0 -0.33102789980486769 0.20785230759839149 0 -0.32666023079029233 0.19323692347631699 0 -0.31606598827129029 0.21068922893863801 0 -0.31040343721765218 0.1984228122668312 0 -0.32666023079029233 0.19323692347631699 0 -0.31040343721765218 0.1984228122668312 0 -0.30635693692302168 0.18831085831133279 0 -0.31606598827129029 0.21068922893863801 0 -0.33102789980486769 0.20785230759839149 0 -0.33395784502143078 0.22512811122995541 0 -0.32666023079029233 0.19323692347631699 0 -0.31606598827129029 0.21068922893863801 0 -0.33102789980486769 0.20785230759839149 0 -0.34742753513645752 0.20235496674865561 0 -0.33102789980486769 0.20785230759839149 0 -0.33395784502143078 0.22512811122995541 0 -0.33395784502143078 0.22512811122995541 0 -0.30626916913889157 0.2278468508030547 0 -0.33395784502143078 0.22512811122995541 0 -0.32686086071775239 0.248281178694785 0 -0.30626916913889157 0.2278468508030547 0 -0.31606598827129029 0.21068922893863801 0 -0.33395784502143078 0.22512811122995541 0 -0.30626916913889157 0.2278468508030547 0 -0.32686086071775239 0.248281178694785 0 -0.29991705031670052 0.2441396827190607 0 -0.35124282571701998 0.23687258289128629 0 -0.33395784502143078 0.22512811122995541 0 -0.32686086071775239 0.248281178694785 0 -0.29991705031670052 0.2441396827190607 0 -0.27297323991564859 0.23999818674333601 0 -0.28016619222964279 0.25509744709522508 0 -0.29991705031670052 0.2441396827190607 0 -0.27858049325635192 0.2305655903761504 0 -0.27297323991564859 0.23999818674333601 0 -0.29991705031670052 0.2441396827190607 0 -0.27297323991564859 0.23999818674333601 0 -0.32686086071775239 0.248281178694785 0 -0.29991705031670052 0.2441396827190607 0 -0.30626916913889157 0.2278468508030547 0 -0.29101297561747219 0.20965150270625429 0 -0.27858049325635192 0.2305655903761504 0 -0.30626916913889157 0.2278468508030547 0 -0.27858049325635192 0.2305655903761504 0 -0.29991705031670052 0.2441396827190607 0 -0.30626916913889157 0.2278468508030547 0 -0.27858049325635192 0.2305655903761504 0 -0.30626916913889157 0.2278468508030547 0 -0.29332272719928448 0.21169891093992249 0 -0.27858049325635192 0.2305655903761504 0 -0.28629316929502019 0.2054677755894502 0 -0.29101297561747219 0.20965150270625429 0 -0.2739323882078204 0.2160377195071615 0 -0.29101297561747219 0.20965150270625429 0 -0.29332272719928448 0.21169891093992249 0 -0.27858049325635192 0.2305655903761504 0 -0.28629316929502019 0.2054677755894502 0 -0.29101297561747219 0.20965150270625429 0 -0.29101297561747219 0.20965150270625429 0 -0.29332272719928448 0.21169891093992249 0 -0.30244032042756103 0.20617416520245371 0 -0.29101297561747219 0.20965150270625429 0 -0.29332272719928448 0.21169891093992249 0 -0.30626916913889157 0.2278468508030547 0 -0.29332272719928448 0.21169891093992249 0 -0.30452455125925693 0.21410228897101721 0 -0.31606598827129029 0.21068922893863801 0 -0.30626916913889157 0.2278468508030547 0 -0.30452455125925693 0.21410228897101721 0 -0.31606598827129029 0.21068922893863801 0 -0.30452455125925693 0.21410228897101721 0 -0.30244032042756103 0.20617416520245371 0 -0.31606598827129029 0.21068922893863801 0 -0.30244032042756103 0.20617416520245371 0 -0.31040343721765218 0.1984228122668312 0 -0.29332272719928448 0.21169891093992249 0 -0.30452455125925693 0.21410228897101721 0 -0.30244032042756103 0.20617416520245371 0 -0.29101297561747219 0.20965150270625429 0 -0.30244032042756103 0.20617416520245371 0 -0.30030686902507392 0.19348438884540939 0 -0.30244032042756103 0.20617416520245371 0 -0.31040343721765218 0.1984228122668312 0 -0.30030686902507392 0.19348438884540939 0 -0.30635693692302168 0.18831085831133279 0 -0.30030686902507392 0.19348438884540939 0 -0.28914844091640379 0.1884967906559038 0 -0.31040343721765218 0.1984228122668312 0 -0.30635693692302168 0.18831085831133279 0 -0.30030686902507392 0.19348438884540939 0 -0.30635693692302168 0.18831085831133279 0 -0.30030686902507392 0.19348438884540939 0 -0.29101297561747219 0.20965150270625429 0 -0.30030686902507392 0.19348438884540939 0 -0.28629316929502019 0.2054677755894502 0 -0.28914844091640379 0.1884967906559038 0 -0.27264264650617992 0.19336768960106221 0 -0.28629316929502019 0.2054677755894502 0 -0.30030686902507392 0.19348438884540939 0 -0.28914844091640379 0.1884967906559038 0 -0.28629316929502019 0.2054677755894502 0 -0.29101297561747219 0.20965150270625429 0 -0.30030686902507392 0.19348438884540939 0 -0.28629316929502019 0.2054677755894502 0 -0.30030686902507392 0.19348438884540939 0 -0.26888740863550581 0.19003897451483909 0 -0.26809406941033431 0.2070244546378455 0 -0.27264264650617992 0.19336768960106221 0 -0.26888740863550581 0.19003897451483909 0 -0.26809406941033431 0.2070244546378455 0 -0.28629316929502019 0.2054677755894502 0 -0.27264264650617992 0.19336768960106221 0 -0.27602368392013149 0.20634795767087821 0 -0.28629316929502019 0.2054677755894502 0 -0.27264264650617992 0.19336768960106221 0 -0.27264264650617992 0.19336768960106221 0 -0.26809406941033431 0.2070244546378455 0 -0.27264264650617992 0.19336768960106221 0 -0.26809406941033431 0.2070244546378455 0 -0.27602368392013149 0.20634795767087821 0 -0.27264264650617992 0.19336768960106221 0 -0.26888740863550581 0.19003897451483909 0 -0.26888740863550581 0.19003897451483909 0 -0.25935898974200688 0.19843016651031681 0 -0.26809406941033431 0.2070244546378455 0 -0.26888740863550581 0.19003897451483909 0 -0.25935898974200688 0.19843016651031681 0 -0.25346052599854813 0.18102869322593659 0 -0.25346052599854813 0.18102869322593659 0 -0.2478069925614465 0.20758551946932891 0 -0.25935898974200688 0.19843016651031681 0 -0.25346052599854813 0.18102869322593659 0 -0.2478069925614465 0.20758551946932891 0 -0.2671071268134021 0.2099876765129691 0 -0.26157160712062288 0.22660766342487551 0 -0.25782970247841619 0.21509086546560391 0 -0.2671071268134021 0.2099876765129691 0 -0.26157160712062288 0.22660766342487551 0 -0.25935898974200688 0.19843016651031681 0 -0.26031196714990901 0.2079222606499613 0 -0.26809406941033431 0.2070244546378455 0 -0.25782970247841619 0.21509086546560391 0 -0.25269960786195012 0.22327843035587289 0 -0.2478069925614465 0.20758551946932891 0 -0.26031196714990901 0.2079222606499613 0 -0.2671071268134021 0.2099876765129691 0 -0.26809406941033431 0.2070244546378455 0 -0.25935898974200688 0.19843016651031681 0 -0.26031196714990901 0.2079222606499613 0 -0.2478069925614465 0.20758551946932891 0 -0.26031196714990901 0.2079222606499613 0 -0.25782970247841619 0.21509086546560391 0 -0.2478069925614465 0.20758551946932891 0 -0.26031196714990901 0.2079222606499613 0 -0.25782970247841619 0.21509086546560391 0 -0.2671071268134021 0.2099876765129691 0 -0.2671071268134021 0.2099876765129691 0 -0.2739323882078204 0.2160377195071615 0 -0.26157160712062288 0.22660766342487551 0 -0.2671071268134021 0.2099876765129691 0 -0.26809406941033431 0.2070244546378455 0 -0.27602368392013149 0.20634795767087821 0 -0.2671071268134021 0.2099876765129691 0 -0.27602368392013149 0.20634795767087821 0 -0.2739323882078204 0.2160377195071615 0 -0.2671071268134021 0.2099876765129691 0 -0.26809406941033431 0.2070244546378455 0 -0.28629316929502019 0.2054677755894502 0 -0.27602368392013149 0.20634795767087821 0 -0.2739323882078204 0.2160377195071615 0 -0.28629316929502019 0.2054677755894502 0 -0.2739323882078204 0.2160377195071615 0 -0.2739323882078204 0.2160377195071615 0 -0.27858049325635192 0.2305655903761504 0 -0.26157160712062288 0.22660766342487551 0 -0.29101297561747219 0.20965150270625429 0 -0.2739323882078204 0.2160377195071615 0 -0.27858049325635192 0.2305655903761504 0 -0.27858049325635192 0.2305655903761504 0 -0.25963374047625137 0.23242596415435379 0 -0.26157160712062288 0.22660766342487551 0 -0.27858049325635192 0.2305655903761504 0 -0.25963374047625137 0.23242596415435379 0 -0.27858049325635192 0.2305655903761504 0 -0.25963374047625137 0.23242596415435379 0 -0.26761756747721888 0.23917497371144139 0 -0.2739323882078204 0.2160377195071615 0 -0.26157160712062288 0.22660766342487551 0 -0.25782970247841619 0.21509086546560391 0 -0.25269960786195012 0.22327843035587289 0 -0.26157160712062288 0.22660766342487551 0 -0.25269960786195012 0.22327843035587289 0 -0.25413627802491828 0.23296575770684111 0 -0.26157160712062288 0.22660766342487551 0 -0.25413627802491828 0.23296575770684111 0 -0.25963374047625137 0.23242596415435379 0 -0.25413627802491828 0.23296575770684111 0 -0.25963374047625137 0.23242596415435379 0 -0.26157160712062288 0.22660766342487551 0 -0.25413627802491828 0.23296575770684111 0 -0.26157160712062288 0.22660766342487551 0 -0.25963374047625137 0.23242596415435379 0 -0.26157160712062288 0.22660766342487551 0 -0.25413627802491828 0.23296575770684111 0 -0.25963374047625137 0.23242596415435379 0 -0.25340714826148919 0.25112084500721238 0 -0.25963374047625137 0.23242596415435379 0 -0.25340714826148919 0.25112084500721238 0 -0.25963374047625137 0.23242596415435379 0 -0.26331515313786069 0.2439178721034759 0 -0.25340714826148919 0.25112084500721238 0 -0.25963374047625137 0.23242596415435379 0 -0.26331515313786069 0.2439178721034759 0 -0.26761756747721888 0.23917497371144139 0 -0.27297323991564859 0.23999818674333601 0 -0.26294406955869742 0.25686939090103672 0 -0.26331515313786069 0.2439178721034759 0 -0.27297323991564859 0.23999818674333601 0 -0.26294406955869742 0.25686939090103672 0 -0.27858049325635192 0.2305655903761504 0 -0.26761756747721888 0.23917497371144139 0 -0.27297323991564859 0.23999818674333601 0 -0.26331515313786069 0.2439178721034759 0 -0.26761756747721888 0.23917497371144139 0 -0.27297323991564859 0.23999818674333601 0 -0.26761756747721888 0.23917497371144139 0 -0.27297323991564859 0.23999818674333601 0 -0.27858049325635192 0.2305655903761504 0 -0.27297323991564859 0.23999818674333601 0 -0.2898031455427359 0.14184456526613651 0 -0.30208884062525448 0.15897535133619681 0 -0.2898031455427359 0.14184456526613651 0 -0.28122289602445782 0.16760612743359929 0 -0.2898031455427359 0.14184456526613651 0 -0.30208884062525448 0.15897535133619681 0 -0.28122289602445782 0.16760612743359929 0 -0.2898031455427359 0.14184456526613651 0 -0.2735462164545247 0.11917641564206539 0 -0.2898031455427359 0.14184456526613651 0 -0.2735462164545247 0.11917641564206539 0 -0.29862864674243778 0.1153466531330718 0 -0.2898031455427359 0.14184456526613651 0 -0.29862864674243778 0.1153466531330718 0 -0.32812060221672268 0.12728900250280439 0 -0.30886421182911578 0.13430968895424089 0 -0.29862864674243778 0.1153466531330718 0 -0.2898031455427359 0.14184456526613651 0 -0.30886421182911578 0.13430968895424089 0 -0.29862864674243778 0.1153466531330718 0 -0.318383692465253 0.16080315567482259 0 -0.30884460779596301 0.14833805616450729 0 -0.30208884062525448 0.15897535133619681 0 -0.2898031455427359 0.14184456526613651 0 -0.30884460779596301 0.14833805616450729 0 -0.30208884062525448 0.15897535133619681 0 -0.2898031455427359 0.14184456526613651 0 -0.30886421182911578 0.13430968895424089 0 -0.30884460779596301 0.14833805616450729 0 -0.31437453570777341 0.17610613740625691 0 -0.318383692465253 0.16080315567482259 0 -0.30208884062525448 0.15897535133619681 0 -0.30208884062525448 0.15897535133619681 0 -0.30437024965404202 0.17787623343829781 0 -0.29516442486075928 0.17570749554340681 0 -0.31437453570777341 0.17610613740625691 0 -0.30208884062525448 0.15897535133619681 0 -0.30437024965404202 0.17787623343829781 0 -0.31437453570777341 0.17610613740625691 0 -0.30208884062525448 0.15897535133619681 0 -0.30635693692302168 0.18831085831133279 0 -0.28914844091640379 0.1884967906559038 0 -0.29876001308855671 0.18259784448723529 0 -0.31437453570777341 0.17610613740625691 0 -0.30635693692302168 0.18831085831133279 0 -0.30437024965404202 0.17787623343829781 0 -0.30437024965404202 0.17787623343829781 0 -0.29876001308855671 0.18259784448723529 0 -0.29516442486075928 0.17570749554340681 0 -0.30635693692302168 0.18831085831133279 0 -0.30437024965404202 0.17787623343829781 0 -0.29876001308855671 0.18259784448723529 0 -0.28914844091640379 0.1884967906559038 0 -0.29516442486075928 0.17570749554340681 0 -0.28122289602445782 0.16760612743359929 0 -0.28914844091640379 0.1884967906559038 0 -0.29876001308855671 0.18259784448723529 0 -0.29516442486075928 0.17570749554340681 0 -0.30208884062525448 0.15897535133619681 0 -0.29516442486075928 0.17570749554340681 0 -0.28122289602445782 0.16760612743359929 0 -0.27044034457517829 0.16641812155724781 0 -0.28122289602445782 0.16760612743359929 0 -0.27199328051485111 0.14279726859965661 0 -0.26888740863550581 0.19003897451483909 0 -0.27044034457517829 0.16641812155724781 0 -0.28122289602445782 0.16760612743359929 0 -0.27264264650617992 0.19336768960106221 0 -0.26888740863550581 0.19003897451483909 0 -0.28122289602445782 0.16760612743359929 0 -0.26888740863550581 0.19003897451483909 0 -0.27044034457517829 0.16641812155724781 0 -0.27264264650617992 0.19336768960106221 0 -0.28122289602445782 0.16760612743359929 0 -0.28914844091640379 0.1884967906559038 0 -0.27264264650617992 0.19336768960106221 0 -0.28122289602445782 0.16760612743359929 0 -0.26888740863550581 0.19003897451483909 0 -0.24886757523169081 0.17229300907405271 0 -0.26888740863550581 0.19003897451483909 0 -0.27044034457517829 0.16641812155724781 0 -0.24886757523169081 0.17229300907405271 0 -0.26888740863550581 0.19003897451483909 0 -0.25346052599854813 0.18102869322593659 0 -0.24886757523169081 0.17229300907405271 0 -0.2604523202916087 0.15782417992063841 0 -0.25050808084471438 0.14978832045159629 0 -0.24886757523169081 0.17229300907405271 0 -0.27044034457517829 0.16641812155724781 0 -0.2604523202916087 0.15782417992063841 0 -0.24886757523169081 0.17229300907405271 0 -0.2604523202916087 0.15782417992063841 0 -0.25050808084471438 0.14978832045159629 0 -0.27199328051485111 0.14279726859965661 0 -0.27044034457517829 0.16641812155724781 0 -0.2604523202916087 0.15782417992063841 0 -0.27199328051485111 0.14279726859965661 0 -0.2898031455427359 0.14184456526613651 0 -0.28122289602445782 0.16760612743359929 0 -0.27199328051485111 0.14279726859965661 0 -0.27044034457517829 0.16641812155724781 0 -0.27199328051485111 0.14279726859965661 0 -0.27199328051485111 0.14279726859965661 0 -0.25574895695993211 0.12822640562063159 0 -0.2735462164545247 0.11917641564206539 0 -0.27199328051485111 0.14279726859965661 0 -0.2735462164545247 0.11917641564206539 0 -0.2898031455427359 0.14184456526613651 0 -0.27199328051485111 0.14279726859965661 0 -0.2735462164545247 0.11917641564206539 0 -0.25050808084471438 0.14978832045159629 0 -0.27199328051485111 0.14279726859965661 0 -0.25574895695993211 0.12822640562063159 0 -0.25574895695993211 0.12822640562063159 0 -0.26647343862832568 0.1093143571221448 0 -0.23626781756408999 0.1122145407574148 0 -0.25574895695993211 0.12822640562063159 0 -0.26647343862832568 0.1093143571221448 0 -0.2735462164545247 0.11917641564206539 0 -0.26647343862832568 0.1093143571221448 0 -0.25640419938876868 0.092922661928037609 0 -0.23626781756408999 0.1122145407574148 0 -0.27504339883398282 0.096403599370361304 0 -0.26647343862832568 0.1093143571221448 0 -0.2735462164545247 0.11917641564206539 0 -0.27504339883398282 0.096403599370361304 0 -0.2735462164545247 0.11917641564206539 0 -0.27504339883398282 0.096403599370361304 0 -0.26647343862832568 0.1093143571221448 0 -0.25640419938876868 0.092922661928037609 0 -0.26647343862832568 0.1093143571221448 0 -0.2735462164545247 0.11917641564206539 0 -0.27504339883398282 0.096403599370361304 0 -0.2735462164545247 0.11917641564206539 0 -0.29862864674243778 0.1153466531330718 0 -0.27504339883398282 0.096403599370361304 0 -0.29862864674243778 0.1153466531330718 0 -0.30745414794213921 0.088848741000006642 0 -0.29862864674243778 0.1153466531330718 0 -0.30745414794213921 0.088848741000006642 0 -0.29862864674243778 0.1153466531330718 0 -0.30745414794213921 0.088848741000006642 0 -0.31948014068468128 0.10471213413606351 0 -0.27504339883398282 0.096403599370361304 0 -0.30745414794213921 0.088848741000006642 0 -0.29352226501801298 0.075954486985226291 0 -0.30745414794213921 0.088848741000006642 0 -0.31627964914184142 0.062350828866941807 0 -0.30745414794213921 0.088848741000006642 0 -0.29352226501801298 0.075954486985226291 0 -0.31627964914184142 0.062350828866941807 0 -0.29352226501801298 0.075954486985226291 0 -0.29229354795866053 0.058538482590164732 0 -0.31627964914184142 0.062350828866941807 0 -0.27504339883398282 0.096403599370361304 0 -0.29352226501801298 0.075954486985226291 0 -0.2765405812134446 0.073630783098657435 0 -0.2765405812134446 0.073630783098657435 0 -0.29229354795866053 0.058538482590164732 0 -0.29352226501801298 0.075954486985226291 0 -0.2765405812134446 0.073630783098657435 0 -0.29229354795866053 0.058538482590164732 0 -0.27694033730825368 0.067550313393999556 0 -0.2765405812134446 0.073630783098657435 0 -0.29229354795866053 0.058538482590164732 0 -0.27694033730825368 0.067550313393999556 0 -0.2765405812134446 0.073630783098657435 0 -0.25632392574972962 0.07403983973707437 0 -0.27694033730825368 0.067550313393999556 0 -0.25632392574972962 0.07403983973707437 0 -0.26972142241983549 0.054884313120501592 0 -0.27694033730825368 0.067550313393999556 0 -0.2765405812134446 0.073630783098657435 0 -0.2765405812134446 0.073630783098657435 0 -0.25640419938876868 0.092922661928037609 0 -0.27504339883398282 0.096403599370361304 0 -0.2765405812134446 0.073630783098657435 0 -0.25640419938876868 0.092922661928037609 0 -0.27504339883398282 0.096403599370361304 0 -0.2765405812134446 0.073630783098657435 0 -0.25640419938876868 0.092922661928037609 0 -0.25632392574972962 0.07403983973707437 0 -0.24292642907962361 0.093195366353647155 0 -0.2765405812134446 0.073630783098657435 0 -0.25640419938876868 0.092922661928037609 0 -0.25632392574972962 0.07403983973707437 0 -0.25632392574972962 0.07403983973707437 0 -0.25503391724474961 0.058874689284337062 0 -0.23987544433144381 0.075824976303794173 0 -0.25632392574972962 0.07403983973707437 0 -0.25503391724474961 0.058874689284337062 0 -0.26972142241983549 0.054884313120501592 0 -0.25632392574972962 0.07403983973707437 0 -0.26972142241983549 0.054884313120501592 0 -0.26039309801784483 0.038629833370137361 0 -0.23989003152367941 0.057355269834598717 0 -0.25503391724474961 0.058874689284337062 0 -0.26039309801784483 0.038629833370137361 0 -0.26972142241983549 0.054884313120501592 0 -0.25503391724474961 0.058874689284337062 0 -0.26039309801784483 0.038629833370137361 0 -0.23989003152367941 0.057355269834598717 0 -0.27464142912509959 0.041237421360556199 0 -0.28089616451201022 0.019904396905676001 0 -0.28583546073411242 0.038179426417908217 0 -0.26039309801784483 0.038629833370137361 0 -0.27464142912509959 0.041237421360556199 0 -0.26972142241983549 0.054884313120501592 0 -0.26039309801784483 0.038629833370137361 0 -0.27464142912509959 0.041237421360556199 0 -0.28089616451201022 0.019904396905676001 0 -0.27464142912509959 0.041237421360556199 0 -0.28198646283285578 0.051321987882989938 0 -0.28583546073411242 0.038179426417908217 0 -0.27464142912509959 0.041237421360556199 0 -0.26972142241983549 0.054884313120501592 0 -0.28198646283285578 0.051321987882989938 0 -0.27694033730825368 0.067550313393999556 0 -0.26972142241983549 0.054884313120501592 0 -0.28198646283285578 0.051321987882989938 0 -0.25720494356961171 0.001634888965453551 0 -0.25459918235657658 0.015344980042216631 0 -0.23884320974042261 0.01096674529969861 0 -0.25720494356961171 0.001634888965453551 0 -0.25459918235657658 0.015344980042216631 0 -0.265768452012552 0.013153942097251981 0 -0.25459918235657658 0.015344980042216631 0 -0.26126031313651399 0.023325781395069189 0 -0.265768452012552 0.013153942097251981 0 -0.25459918235657658 0.015344980042216631 0 -0.26126031313651399 0.023325781395069189 0 -0.2467606898286997 0.026432615363113782 0 -0.26039309801784483 0.038629833370137361 0 -0.26126031313651399 0.023325781395069189 0 -0.2467606898286997 0.026432615363113782 0 -0.26039309801784483 0.038629833370137361 0 -0.28089616451201022 0.019904396905676001 0 -0.26039309801784483 0.038629833370137361 0 -0.26126031313651399 0.023325781395069189 0 -0.28089616451201022 0.019904396905676001 0 -0.26126031313651399 0.023325781395069189 0 -0.28089616451201022 0.019904396905676001 0 -0.265768452012552 0.013153942097251981 0 -0.25720494356961171 0.001634888965453551 0 -0.265768452012552 0.013153942097251981 0 -0.27593966701060429 0.0039780935793694138 0 -0.28089616451201022 0.019904396905676001 0 -0.265768452012552 0.013153942097251981 0 -0.27593966701060429 0.0039780935793694138 0 -0.2857910828920992 -0.0034281565469929639 0 -0.27593966701060429 0.0039780935793694138 0 -0.29229138727235171 0.0072697876120097898 0 -0.28089616451201022 0.019904396905676001 0 -0.27593966701060429 0.0039780935793694138 0 -0.29229138727235171 0.0072697876120097898 0 -0.28089616451201022 0.019904396905676001 0 -0.30016895098811047 0.025357984846838131 0 -0.28583546073411242 0.038179426417908217 0 -0.28089616451201022 0.019904396905676001 0 -0.29229138727235171 0.0072697876120097898 0 -0.30016895098811047 0.025357984846838131 0 -0.29229138727235171 0.0072697876120097898 0 -0.30016895098811047 0.025357984846838131 0 -0.30016895098811047 0.025357984846838131 0 -0.30560873340909428 0.0095567714058668509 0 -0.31487907146900729 0.018211558745324 0 -0.30016895098811047 0.025357984846838131 0 -0.31487907146900729 0.018211558745324 0 -0.313051653099367 0.027569954798820628 0 -0.29229138727235171 0.0072697876120097898 0 -0.30016895098811047 0.025357984846838131 0 -0.30560873340909428 0.0095567714058668509 0 -0.30560873340909428 0.0095567714058668509 0 -0.31678979828314718 0.001639376443308806 0 -0.31487907146900729 0.018211558745324 0 -0.30127289935097229 -0.0050638700336834309 0 -0.30560873340909428 0.0095567714058668509 0 -0.31678979828314718 0.001639376443308806 0 -0.30127289935097229 -0.0050638700336834309 0 -0.29229138727235171 0.0072697876120097898 0 -0.30560873340909428 0.0095567714058668509 0 -0.27694033730825368 0.067550313393999556 0 -0.29229354795866053 0.058538482590164732 0 -0.28198646283285578 0.051321987882989938 0 -0.29229354795866053 0.058538482590164732 0 -0.28198646283285578 0.051321987882989938 0 -0.29487419546223892 0.04524732154452446 0 -0.28198646283285578 0.051321987882989938 0 -0.28583546073411242 0.038179426417908217 0 -0.29487419546223892 0.04524732154452446 0 -0.30016895098811047 0.025357984846838131 0 -0.28583546073411242 0.038179426417908217 0 -0.29487419546223892 0.04524732154452446 0 -0.30016895098811047 0.025357984846838131 0 -0.30804651470387068 0.043446182081665903 0 -0.30016895098811047 0.025357984846838131 0 -0.30804651470387068 0.043446182081665903 0 -0.313051653099367 0.027569954798820628 0 -0.30016895098811047 0.025357984846838131 0 -0.29487419546223892 0.04524732154452446 0 -0.30804651470387068 0.043446182081665903 0 -0.29229354795866053 0.058538482590164732 0 -0.30804651470387068 0.043446182081665903 0 -0.30804651470387068 0.043446182081665903 0 -0.31627964914184142 0.062350828866941807 0 -0.29229354795866053 0.058538482590164732 0 -0.29487419546223892 0.04524732154452446 0 -0.30804651470387068 0.043446182081665903 0 -0.29229354795866053 0.058538482590164732 0 -0.30804651470387068 0.043446182081665903 0 -0.31627964914184142 0.062350828866941807 0 -0.30804651470387068 0.043446182081665903 0 -0.31627964914184142 0.062350828866941807 0 -0.31547010759195021 0.046379689636724918 0 -0.31627964914184142 0.062350828866941807 0 -0.32084295362996001 0.048649845928238858 0 -0.31627964914184142 0.062350828866941807 0 -0.32084295362996001 0.048649845928238858 0 -0.31547010759195021 0.046379689636724918 0 -0.31627964914184142 0.062350828866941807 0 -0.32084295362996001 0.048649845928238858 0 -0.32862647418708568 0.05797249685076919 0 -0.32084295362996001 0.048649845928238858 0 -0.32358292031890118 0.044455093181577393 0 -0.32862647418708568 0.05797249685076919 0 -0.30804651470387068 0.043446182081665903 0 -0.31547010759195021 0.046379689636724918 0 -0.31962754995093329 0.040613962649944158 0 -0.30804651470387068 0.043446182081665903 0 -0.313051653099367 0.027569954798820628 0 -0.32911207523648101 0.02326409352145389 0 -0.31962754995093329 0.040613962649944158 0 -0.32358292031890118 0.044455093181577393 0 -0.33731326297966652 0.04231228538814423 0 -0.30804651470387068 0.043446182081665903 0 -0.31962754995093329 0.040613962649944158 0 -0.32911207523648101 0.02326409352145389 0 -0.30804651470387068 0.043446182081665903 0 -0.32911207523648101 0.02326409352145389 0 -0.31547010759195021 0.046379689636724918 0 -0.31962754995093329 0.040613962649944158 0 -0.3198808828729362 0.045024647849121337 0 -0.32084295362996001 0.048649845928238858 0 -0.31547010759195021 0.046379689636724918 0 -0.3198808828729362 0.045024647849121337 0 -0.32084295362996001 0.048649845928238858 0 -0.3198808828729362 0.045024647849121337 0 -0.32358292031890118 0.044455093181577393 0 -0.31962754995093329 0.040613962649944158 0 -0.3198808828729362 0.045024647849121337 0 -0.32358292031890118 0.044455093181577393 0 -0.31962754995093329 0.040613962649944158 0 -0.34229236152675679 0.029508521107573311 0 -0.31962754995093329 0.040613962649944158 0 -0.33731326297966652 0.04231228538814423 0 -0.34229236152675679 0.029508521107573311 0 -0.33731326297966652 0.04231228538814423 0 -0.34229236152675679 0.029508521107573311 0 -0.34688177050114011 0.037122880329940773 0 -0.32358292031890118 0.044455093181577393 0 -0.34391335812413459 0.055946026598449598 0 -0.32358292031890118 0.044455093181577393 0 -0.32862647418708568 0.05797249685076919 0 -0.34391335812413459 0.055946026598449598 0 -0.32358292031890118 0.044455093181577393 0 -0.33731326297966652 0.04231228538814423 0 -0.34391335812413459 0.055946026598449598 0 -0.33731326297966652 0.04231228538814423 0 -0.34391335812413459 0.055946026598449598 0 -0.34852877076827599 0.04591167333281114 0 -0.32862647418708568 0.05797249685076919 0 -0.34391335812413459 0.055946026598449598 0 -0.33807165800818689 0.067069598771272637 0 -0.32925106857772313 -0.0075682474619246411 0 -0.31678979828314718 0.001639376443308806 0 -0.33012178307726708 0.0082724189683675096 0 -0.31678979828314718 0.001639376443308806 0 -0.31487907146900729 0.018211558745324 0 -0.33012178307726708 0.0082724189683675096 0 -0.31487907146900729 0.018211558745324 0 -0.313051653099367 0.027569954798820628 0 -0.32911207523648101 0.02326409352145389 0 -0.31487907146900729 0.018211558745324 0 -0.32911207523648101 0.02326409352145389 0 -0.33012178307726708 0.0082724189683675096 0 -0.34229236152675679 0.029508521107573311 0 -0.32911207523648101 0.02326409352145389 0 -0.35244201554110632 0.015686769641284862 0 -0.31962754995093329 0.040613962649944158 0 -0.34229236152675679 0.029508521107573311 0 -0.32911207523648101 0.02326409352145389 0 -0.32911207523648101 0.02326409352145389 0 -0.35017763576908723 0.0030820049612377211 0 -0.32911207523648101 0.02326409352145389 0 -0.33012178307726708 0.0082724189683675096 0 -0.35017763576908723 0.0030820049612377211 0 -0.33858722498905958 -0.00030383088879644762 0 -0.32925106857772313 -0.0075682474619246411 0 -0.33012178307726708 0.0082724189683675096 0 -0.33858722498905958 -0.00030383088879644762 0 -0.33012178307726708 0.0082724189683675096 0 -0.35017763576908723 0.0030820049612377211 0 -0.32911207523648101 0.02326409352145389 0 -0.35017763576908723 0.0030820049612377211 0 -0.35244201554110632 0.015686769641284862 0 -0.35017763576908723 0.0030820049612377211 0 -0.36113558911099281 0.0062830848860273882 0 -0.3553820571636761 -0.00190414735726221 0 -0.36113558911099281 0.0062830848860273882 0 -0.35017763576908723 0.0030820049612377211 0 -0.35575704714569301 0.0098637767552806621 0 -0.36113558911099281 0.0062830848860273882 0 -0.3553820571636761 -0.00190414735726221 0 -0.35017763576908723 0.0030820049612377211 0 -0.36113558911099281 0.0062830848860273882 0 -0.3553820571636761 -0.00190414735726221 0 -0.35017763576908723 0.0030820049612377211 0 -0.33858722498905958 -0.00030383088879644762 0 -0.35017763576908723 0.0030820049612377211 0 -0.35017763576908723 0.0030820049612377211 0 -0.35575704714569301 0.0098637767552806621 0 -0.35244201554110632 0.015686769641284862 0 -0.35575704714569301 0.0098637767552806621 0 -0.35927294816158528 0.014403247532573771 0 -0.36113558911099281 0.0062830848860273882 0 -0.35575704714569301 0.0098637767552806621 0 -0.35927294816158528 0.014403247532573771 0 -0.35244201554110632 0.015686769641284862 0 -0.34229236152675679 0.029508521107573311 0 -0.353562750325013 0.02998346164371566 0 -0.36495717310258058 0.018403079565202849 0 -0.34229236152675679 0.029508521107573311 0 -0.35244201554110632 0.015686769641284862 0 -0.36495717310258058 0.018403079565202849 0 -0.34229236152675679 0.029508521107573311 0 -0.36495717310258058 0.018403079565202849 0 -0.35927294816158528 0.014403247532573771 0 -0.35244201554110632 0.015686769641284862 0 -0.36495717310258058 0.018403079565202849 0 -0.353562750325013 0.02998346164371566 0 -0.36339559612645239 0.02489812320433776 0 -0.36038436001963348 0.034032235410853408 0 -0.38413006128795801 0.039004044072342967 0 -0.36845010826070851 0.016691590057332839 0 -0.36837052859009639 0.035394070512106197 0 -0.36339559612645239 0.02489812320433776 0 -0.36845010826070851 0.016691590057332839 0 -0.36837052859009639 0.035394070512106197 0 -0.353562750325013 0.02998346164371566 0 -0.36339559612645239 0.02489812320433776 0 -0.36495717310258058 0.018403079565202849 0 -0.36495717310258058 0.018403079565202849 0 -0.36615415943232321 0.013424472320109 0 -0.36845010826070851 0.016691590057332839 0 -0.36495717310258058 0.018403079565202849 0 -0.36845010826070851 0.016691590057332839 0 -0.36495717310258058 0.018403079565202849 0 -0.36615415943232321 0.013424472320109 0 -0.36339559612645239 0.02489812320433776 0 -0.36845010826070851 0.016691590057332839 0 -0.36495717310258058 0.018403079565202849 0 -0.36339559612645239 0.02489812320433776 0 -0.36495717310258058 0.018403079565202849 0 -0.35927294816158528 0.014403247532573771 0 -0.36495717310258058 0.018403079565202849 0 -0.36290030067717699 0.014717777658679111 0 -0.35927294816158528 0.014403247532573771 0 -0.36290030067717699 0.014717777658679111 0 -0.36113558911099281 0.0062830848860273882 0 -0.36290030067717699 0.014717777658679111 0 -0.36615415943232321 0.013424472320109 0 -0.36113558911099281 0.0062830848860273882 0 -0.36615415943232321 0.013424472320109 0 -0.36113558911099281 0.0062830848860273882 0 -0.36615415943232321 0.013424472320109 0 -0.36742911380120757 0.0081215737820304595 0 -0.36615415943232321 0.013424472320109 0 -0.36742911380120757 0.0081215737820304595 0 -0.36113558911099281 0.0062830848860273882 0 -0.36495717310258058 0.018403079565202849 0 -0.36290030067717699 0.014717777658679111 0 -0.36615415943232321 0.013424472320109 0 -0.37902631883179511 0.0115093943949471 0 -0.36845010826070851 0.016691590057332839 0 -0.36742911380120757 0.0081215737820304595 0 -0.37902631883179511 0.0115093943949471 0 -0.36742911380120757 0.0081215737820304595 0 -0.37902631883179511 0.0115093943949471 0 -0.36845010826070851 0.016691590057332839 0 -0.36845010826070851 0.016691590057332839 0 -0.36615415943232321 0.013424472320109 0 -0.36845010826070851 0.016691590057332839 0 -0.36615415943232321 0.013424472320109 0 -0.36742911380120757 0.0081215737820304595 0 -0.37902631883179511 0.0115093943949471 0 -0.37614130794978518 0.0010756032901526949 0 -0.36742911380120757 0.0081215737820304595 0 -0.3553820571636761 -0.00190414735726221 0 -0.36742911380120757 0.0081215737820304595 0 -0.36113558911099281 0.0062830848860273882 0 -0.36742911380120757 0.0081215737820304595 0 -0.36113558911099281 0.0062830848860273882 0 -0.35538731275432811 0.05374412824683597 0 -0.34391335812413459 0.055946026598449598 0 -0.36424379592936762 0.067436960015322567 0 -0.34391335812413459 0.055946026598449598 0 -0.36424379592936762 0.067436960015322567 0 -0.35538731275432811 0.05374412824683597 0 -0.34852877076827599 0.04591167333281114 0 -0.35986691557116918 0.043206387242131827 0 -0.35538731275432811 0.05374412824683597 0 -0.34391335812413459 0.055946026598449598 0 -0.34852877076827599 0.04591167333281114 0 -0.34852877076827599 0.04591167333281114 0 -0.34688177050114011 0.037122880329940773 0 -0.35465424182877647 0.038310756381886808 0 -0.33731326297966652 0.04231228538814423 0 -0.34852877076827599 0.04591167333281114 0 -0.34688177050114011 0.037122880329940773 0 -0.34229236152675679 0.029508521107573311 0 -0.353562750325013 0.02998346164371566 0 -0.34688177050114011 0.037122880329940773 0 -0.353562750325013 0.02998346164371566 0 -0.34688177050114011 0.037122880329940773 0 -0.35465424182877647 0.038310756381886808 0 -0.353562750325013 0.02998346164371566 0 -0.35465424182877647 0.038310756381886808 0 -0.36038436001963348 0.034032235410853408 0 -0.35465424182877647 0.038310756381886808 0 -0.35986691557116918 0.043206387242131827 0 -0.36038436001963348 0.034032235410853408 0 -0.34852877076827599 0.04591167333281114 0 -0.35465424182877647 0.038310756381886808 0 -0.35986691557116918 0.043206387242131827 0 -0.38413006128795801 0.039004044072342967 0 -0.36837052859009639 0.035394070512106197 0 -0.36986912817618028 0.052455122431039433 0 -0.35986691557116918 0.043206387242131827 0 -0.36837052859009639 0.035394070512106197 0 -0.36986912817618028 0.052455122431039433 0 -0.36339559612645239 0.02489812320433776 0 -0.36038436001963348 0.034032235410853408 0 -0.36837052859009639 0.035394070512106197 0 -0.35986691557116918 0.043206387242131827 0 -0.36038436001963348 0.034032235410853408 0 -0.36837052859009639 0.035394070512106197 0 -0.38148098495877059 0.06120436788229805 0 -0.36986912817618028 0.052455122431039433 0 -0.36424379592936762 0.067436960015322567 0 -0.35538731275432811 0.05374412824683597 0 -0.35986691557116918 0.043206387242131827 0 -0.36986912817618028 0.052455122431039433 0 -0.35538731275432811 0.05374412824683597 0 -0.36986912817618028 0.052455122431039433 0 -0.36424379592936762 0.067436960015322567 0 -0.35538731275432811 0.05374412824683597 0 -0.36424379592936762 0.067436960015322567 0 -0.37645187316996609 0.086311624435547504 0 -0.36424379592936762 0.067436960015322567 0 -0.38503180124967462 0.079186514417133008 0 -0.36424379592936762 0.067436960015322567 0 -0.36424379592936762 0.067436960015322567 0 -0.34957098102621809 0.07301433540847993 0 -0.36149279243027388 0.083471881070964093 0 -0.34391335812413459 0.055946026598449598 0 -0.34957098102621809 0.07301433540847993 0 -0.33807165800818689 0.067069598771272637 0 -0.34391335812413459 0.055946026598449598 0 -0.36424379592936762 0.067436960015322567 0 -0.34957098102621809 0.07301433540847993 0 -0.34927025135677808 0.090470492786441856 0 -0.36149279243027388 0.083471881070964093 0 -0.36397865244555511 0.099406720292626677 0 -0.34957098102621809 0.07301433540847993 0 -0.34927025135677808 0.090470492786441856 0 -0.36149279243027388 0.083471881070964093 0 -0.34957098102621809 0.07301433540847993 0 -0.34927025135677808 0.090470492786441856 0 -0.33980660055628659 0.076371300224479161 0 -0.37645187316996609 0.086311624435547504 0 -0.36149279243027388 0.083471881070964093 0 -0.36397865244555511 0.099406720292626677 0 -0.37645187316996609 0.086311624435547504 0 -0.36424379592936762 0.067436960015322567 0 -0.36149279243027388 0.083471881070964093 0 -0.37562534717357859 0.10602245132632671 0 -0.37645187316996609 0.086311624435547504 0 -0.36397865244555511 0.099406720292626677 0 -0.37562534717357859 0.10602245132632671 0 -0.36397865244555511 0.099406720292626677 0 -0.36690779064653978 0.1176907307020968 0 -0.36397865244555511 0.099406720292626677 0 -0.36690779064653978 0.1176907307020968 0 -0.35215454792158779 0.1124997917592345 0 -0.38212846919526611 0.1215168923455906 0 -0.36897569561914978 0.12971624649538219 0 -0.36690779064653978 0.1176907307020968 0 -0.38212846919526611 0.1215168923455906 0 -0.37562534717357859 0.10602245132632671 0 -0.36690779064653978 0.1176907307020968 0 -0.36897569561914978 0.12971624649538219 0 -0.35819343634065082 0.12692670565902461 0 -0.36690779064653978 0.1176907307020968 0 -0.34707175060915207 0.1330546180982918 0 -0.35215454792158779 0.1124997917592345 0 -0.33680771678671562 0.1094866883545083 0 -0.35819343634065082 0.12692670565902461 0 -0.34707175060915207 0.1330546180982918 0 -0.35215454792158779 0.1124997917592345 0 -0.35819343634065082 0.12692670565902461 0 -0.36690779064653978 0.1176907307020968 0 -0.35215454792158779 0.1124997917592345 0 -0.34927025135677808 0.090470492786441856 0 -0.35215454792158779 0.1124997917592345 0 -0.33680771678671562 0.1094866883545083 0 -0.34927025135677808 0.090470492786441856 0 -0.36397865244555511 0.099406720292626677 0 -0.35215454792158779 0.1124997917592345 0 -0.34927025135677808 0.090470492786441856 0 -0.33680771678671562 0.1094866883545083 0 -0.32654368296427899 0.085918758610724816 0 -0.33680771678671562 0.1094866883545083 0 -0.32654368296427899 0.085918758610724816 0 -0.32812060221672268 0.12728900250280439 0 -0.33680771678671562 0.1094866883545083 0 -0.31948014068468128 0.10471213413606351 0 -0.34707175060915207 0.1330546180982918 0 -0.33680771678671562 0.1094866883545083 0 -0.34707175060915207 0.1330546180982918 0 -0.32812060221672268 0.12728900250280439 0 -0.33680771678671562 0.1094866883545083 0 -0.32812060221672268 0.12728900250280439 0 -0.29862864674243778 0.1153466531330718 0 -0.31948014068468128 0.10471213413606351 0 -0.33680771678671562 0.1094866883545083 0 -0.31948014068468128 0.10471213413606351 0 -0.32654368296427899 0.085918758610724816 0 -0.30745414794213921 0.088848741000006642 0 -0.31627964914184142 0.062350828866941807 0 -0.32654368296427899 0.085918758610724816 0 -0.30745414794213921 0.088848741000006642 0 -0.31948014068468128 0.10471213413606351 0 -0.32654368296427899 0.085918758610724816 0 -0.31627964914184142 0.062350828866941807 0 -0.32654368296427899 0.085918758610724816 0 -0.32986561297153583 0.069936596664837467 0 -0.31627964914184142 0.062350828866941807 0 -0.32654368296427899 0.085918758610724816 0 -0.31627964914184142 0.062350828866941807 0 -0.32862647418708568 0.05797249685076919 0 -0.32986561297153583 0.069936596664837467 0 -0.32654368296427899 0.085918758610724816 0 -0.32986561297153583 0.069936596664837467 0 -0.33980660055628659 0.076371300224479161 0 -0.32986561297153583 0.069936596664837467 0 -0.33807165800818689 0.067069598771272637 0 -0.33980660055628659 0.076371300224479161 0 -0.32862647418708568 0.05797249685076919 0 -0.32986561297153583 0.069936596664837467 0 -0.33807165800818689 0.067069598771272637 0 -0.34957098102621809 0.07301433540847993 0 -0.33807165800818689 0.067069598771272637 0 -0.33980660055628659 0.076371300224479161 0 -0.34927025135677808 0.090470492786441856 0 -0.32654368296427899 0.085918758610724816 0 -0.33980660055628659 0.076371300224479161 0 -0.40188745582869051 0.47737630627146849 0 -0.38213267700749892 0.47875881473444609 0 -0.3905827138716782 0.4624656454216905 0 -0.38414124128482702 0.5 0 -0.40893382658886129 0.48864583530802608 0 -0.41275667606490729 0.499999999999999 0 -0.40188745582869051 0.47737630627146849 0 -0.38414124128482702 0.5 0 -0.40893382658886129 0.48864583530802608 0 -0.38414124128482702 0.5 0 -0.38213267700749892 0.47875881473444609 0 -0.36744605840715122 0.48555164383741989 0 -0.40188745582869051 0.47737630627146849 0 -0.38414124128482702 0.5 0 -0.38213267700749892 0.47875881473444609 0 -0.38213267700749892 0.47875881473444609 0 -0.3905827138716782 0.4624656454216905 0 -0.36542440675862142 0.46763896378353331 0 -0.3905827138716782 0.4624656454216905 0 -0.36542440675862142 0.46763896378353331 0 -0.38110673566462211 0.4549507225842605 0 -0.3905827138716782 0.4624656454216905 0 -0.36542440675862142 0.46763896378353331 0 -0.38110673566462211 0.4549507225842605 0 -0.3905827138716782 0.4624656454216905 0 -0.39125040920269538 0.45153151605923192 0 -0.38280049245434777 0.44053012613774328 0 -0.37946432347585529 0.44800085751087099 0 -0.3679218392476955 0.43947225669000839 0 -0.38110673566462211 0.4549507225842605 0 -0.37946432347585529 0.44800085751087099 0 -0.38735073183136792 0.44582223089013079 0 -0.38110673566462211 0.4549507225842605 0 -0.37946432347585529 0.44800085751087099 0 -0.37014221598743879 0.45254719781377939 0 -0.38110673566462211 0.4549507225842605 0 -0.38735073183136792 0.44582223089013079 0 -0.39125040920269538 0.45153151605923192 0 -0.38280049245434777 0.44053012613774328 0 -0.37946432347585529 0.44800085751087099 0 -0.38735073183136792 0.44582223089013079 0 -0.38735073183136792 0.44582223089013079 0 -0.3868091727198622 0.44147420999504178 0 -0.39548746786365052 0.4353014843824432 0 -0.38280049245434777 0.44053012613774328 0 -0.38735073183136792 0.44582223089013079 0 -0.3868091727198622 0.44147420999504178 0 -0.38735073183136792 0.44582223089013079 0 -0.39615520841099738 0.44420480835182818 0 -0.39548746786365052 0.4353014843824432 0 -0.38735073183136792 0.44582223089013079 0 -0.39548746786365052 0.4353014843824432 0 -0.3868091727198622 0.44147420999504178 0 -0.39548746786365052 0.4353014843824432 0 -0.39615520841099738 0.44420480835182818 0 -0.39125040920269538 0.45153151605923192 0 -0.40148888875639482 0.4505285098443273 0 -0.38735073183136792 0.44582223089013079 0 -0.39615520841099738 0.44420480835182818 0 -0.39125040920269538 0.45153151605923192 0 -0.39615520841099738 0.44420480835182818 0 -0.40148888875639482 0.4505285098443273 0 -0.40896761198908271 0.44058131744480339 0 -0.39615520841099738 0.44420480835182818 0 -0.40896761198908271 0.44058131744480339 0 -0.39548746786365052 0.4353014843824432 0 -0.3905827138716782 0.4624656454216905 0 -0.40148888875639482 0.4505285098443273 0 -0.41574102098473498 0.45729232705984768 0 -0.40188745582869051 0.47737630627146849 0 -0.3905827138716782 0.4624656454216905 0 -0.41574102098473498 0.45729232705984768 0 -0.3905827138716782 0.4624656454216905 0 -0.41574102098473498 0.45729232705984768 0 -0.3905827138716782 0.4624656454216905 0 -0.39125040920269538 0.45153151605923192 0 -0.40148888875639482 0.4505285098443273 0 -0.40148888875639482 0.4505285098443273 0 -0.41574102098473498 0.45729232705984768 0 -0.40896761198908271 0.44058131744480339 0 -0.41574102098473498 0.45729232705984768 0 -0.40896761198908271 0.44058131744480339 0 -0.42875488217936492 0.43619804017481878 0 -0.44089932809779181 0.45211900869800509 0 -0.42875488217936492 0.43619804017481878 0 -0.41574102098473498 0.45729232705984768 0 -0.44089932809779181 0.45211900869800509 0 -0.42875488217936492 0.43619804017481878 0 -0.41574102098473498 0.45729232705984768 0 -0.43237546821639811 0.46523212118360902 0 -0.42083748625691159 0.47582053852775558 0 -0.41574102098473498 0.45729232705984768 0 -0.43237546821639811 0.46523212118360902 0 -0.44089932809779181 0.45211900869800509 0 -0.41574102098473498 0.45729232705984768 0 -0.44089932809779181 0.45211900869800509 0 -0.43733587095303472 0.4800646634818167 0 -0.42083748625691159 0.47582053852775558 0 -0.42504627350897101 0.49003233174090788 0 -0.43237546821639811 0.46523212118360902 0 -0.43733587095303472 0.4800646634818167 0 -0.42083748625691159 0.47582053852775558 0 -0.40188745582869051 0.47737630627146849 0 -0.41574102098473498 0.45729232705984768 0 -0.42083748625691159 0.47582053852775558 0 -0.40188745582869051 0.47737630627146849 0 -0.42083748625691159 0.47582053852775558 0 -0.40893382658886129 0.48864583530802608 0 -0.42083748625691159 0.47582053852775558 0 -0.40893382658886129 0.48864583530802608 0 -0.42504627350897101 0.49003233174090788 0 -0.40893382658886129 0.48864583530802608 0 -0.41275667606490729 0.499999999999999 0 -0.42504627350897101 0.49003233174090788 0 -0.41275667606490729 0.499999999999999 0 -0.42504627350897101 0.49003233174090788 0 -0.41275667606490729 0.499999999999999 0 -0.42721962377938638 0.500000000000002 0 -0.42504627350897101 0.49003233174090788 0 -0.43733587095303472 0.4800646634818167 0 -0.42721962377938638 0.500000000000002 0 -0.43733587095303472 0.4800646634818167 0 -0.42721962377938638 0.500000000000002 0 -0.42504627350897101 0.49003233174090788 0 -0.43733587095303472 0.4800646634818167 0 -0.42504627350897101 0.49003233174090788 0 -0.43733587095303472 0.4800646634818167 0 -0.42721962377938638 0.500000000000002 0 -0.44821937966543168 0.5 0 -0.43733587095303472 0.4800646634818167 0 -0.44821937966543168 0.5 0 -0.45201837523194599 0.4828341916428131 0 -0.43733587095303472 0.4800646634818167 0 -0.45270662004894202 0.46759797947698722 0 -0.44727532178461871 0.46047772637634782 0 -0.43733587095303472 0.4800646634818167 0 -0.44727532178461871 0.46047772637634782 0 -0.43733587095303472 0.4800646634818167 0 -0.45270662004894202 0.46759797947698722 0 -0.43733587095303472 0.4800646634818167 0 -0.45201837523194599 0.4828341916428131 0 -0.45270662004894202 0.46759797947698722 0 -0.45986002859050279 0.47697586241942502 0 -0.46179757930877852 0.48817673643767617 0 -0.47884346905793801 0.4745661894149692 0 -0.45986002859050279 0.47697586241942502 0 -0.47884346905793801 0.4745661894149692 0 -0.46538361885114909 0.46720604065274379 0 -0.45986002859050279 0.47697586241942502 0 -0.45270662004894202 0.46759797947698722 0 -0.45201837523194599 0.4828341916428131 0 -0.45986002859050279 0.47697586241942502 0 -0.45270662004894202 0.46759797947698722 0 -0.45986002859050279 0.47697586241942502 0 -0.46538361885114909 0.46720604065274379 0 -0.45270662004894202 0.46759797947698722 0 -0.45201837523194599 0.4828341916428131 0 -0.45986002859050279 0.47697586241942502 0 -0.46179757930877852 0.48817673643767617 0 -0.44821937966543168 0.5 0 -0.46179757930877852 0.48817673643767617 0 -0.46921913555147687 0.50000000000000222 0 -0.44821937966543168 0.5 0 -0.45201837523194599 0.4828341916428131 0 -0.46179757930877852 0.48817673643767617 0 -0.46179757930877852 0.48817673643767617 0 -0.46921913555147687 0.50000000000000222 0 -0.47884346905793801 0.4745661894149692 0 -0.46921913555147687 0.50000000000000222 0 -0.47884346905793801 0.4745661894149692 0 -0.47884346905793801 0.4745661894149692 0 -0.5 0.5 0 -0.49999999999999922 0.4559806481533763 0 -0.46921913555147687 0.50000000000000222 0 -0.47884346905793801 0.4745661894149692 0 -0.5 0.5 0 -0.48846780256439809 0.44913237882993567 0 -0.47485295113098158 0.44104734820716518 0 -0.49418463821536712 0.43402474410438308 0 -0.48846780256439809 0.44913237882993567 0 -0.49999999999999922 0.4559806481533763 0 -0.5 0.43744887876610328 0 -0.48846780256439809 0.44913237882993567 0 -0.49418463821536712 0.43402474410438308 0 -0.48846780256439809 0.44913237882993567 0 -0.5 0.43744887876610328 0 -0.49418463821536712 0.43402474410438308 0 -0.48846780256439809 0.44913237882993567 0 -0.49999999999999922 0.4559806481533763 0 -0.47884346905793801 0.4745661894149692 0 -0.48846780256439809 0.44913237882993567 0 -0.49999999999999922 0.4559806481533763 0 -0.47884346905793801 0.4745661894149692 0 -0.47316764266279782 0.45710576522768831 0 -0.46538361885114909 0.46720604065274379 0 -0.47884346905793801 0.4745661894149692 0 -0.48846780256439809 0.44913237882993567 0 -0.47316764266279782 0.45710576522768831 0 -0.47884346905793801 0.4745661894149692 0 -0.48846780256439809 0.44913237882993567 0 -0.47316764266279782 0.45710576522768831 0 -0.47485295113098158 0.44104734820716518 0 -0.4656669772817103 0.44823919834047449 0 -0.48846780256439809 0.44913237882993567 0 -0.47316764266279782 0.45710576522768831 0 -0.47485295113098158 0.44104734820716518 0 -0.48846780256439809 0.44913237882993567 0 -0.47485295113098158 0.44104734820716518 0 -0.47485295113098158 0.44104734820716518 0 -0.4656669772817103 0.44823919834047449 0 -0.46123809969756518 0.43296231758439441 0 -0.4656669772817103 0.44823919834047449 0 -0.45425671074109258 0.44672002198037142 0 -0.46234033389556461 0.45978440672464937 0 -0.4656669772817103 0.44823919834047449 0 -0.45425671074109258 0.44672002198037142 0 -0.46123809969756518 0.43296231758439441 0 -0.45425671074109258 0.44672002198037142 0 -0.46123809969756518 0.43296231758439441 0 -0.45425671074109258 0.44672002198037142 0 -0.45152356074548988 0.43726675245323282 0 -0.46123809969756518 0.43296231758439441 0 -0.47316764266279782 0.45710576522768831 0 -0.46538361885114909 0.46720604065274379 0 -0.46234033389556461 0.45978440672464937 0 -0.47316764266279782 0.45710576522768831 0 -0.4656669772817103 0.44823919834047449 0 -0.46234033389556461 0.45978440672464937 0 -0.45425671074109258 0.44672002198037142 0 -0.46234033389556461 0.45978440672464937 0 -0.44727532178461871 0.46047772637634782 0 -0.46234033389556461 0.45978440672464937 0 -0.45270662004894202 0.46759797947698722 0 -0.44727532178461871 0.46047772637634782 0 -0.46234033389556461 0.45978440672464937 0 -0.45270662004894202 0.46759797947698722 0 -0.46538361885114909 0.46720604065274379 0 -0.46234033389556461 0.45978440672464937 0 -0.45270662004894202 0.46759797947698722 0 -0.43237546821639811 0.46523212118360902 0 -0.43733587095303472 0.4800646634818167 0 -0.44727532178461871 0.46047772637634782 0 -0.45270662004894202 0.46759797947698722 0 -0.44727532178461871 0.46047772637634782 0 -0.45425671074109258 0.44672002198037142 0 -0.44727532178461871 0.46047772637634782 0 -0.44727532178461871 0.46047772637634782 0 -0.44089932809779181 0.45211900869800509 0 -0.44727532178461871 0.46047772637634782 0 -0.44493399092361008 0.45128935846808882 0 -0.44089932809779181 0.45211900869800509 0 -0.43237546821639811 0.46523212118360902 0 -0.44727532178461871 0.46047772637634782 0 -0.44089932809779181 0.45211900869800509 0 -0.44089932809779181 0.45211900869800509 0 -0.44288436217785138 0.43856867301821212 0 -0.42875488217936492 0.43619804017481878 0 -0.45425671074109258 0.44672002198037142 0 -0.4468995905371671 0.44519276292358212 0 -0.45152356074548988 0.43726675245323282 0 -0.4468995905371671 0.44519276292358212 0 -0.44288436217785138 0.43856867301821212 0 -0.45152356074548988 0.43726675245323282 0 -0.45425671074109258 0.44672002198037142 0 -0.4468995905371671 0.44519276292358212 0 -0.44493399092361008 0.45128935846808882 0 -0.45425671074109258 0.44672002198037142 0 -0.44727532178461871 0.46047772637634782 0 -0.44493399092361008 0.45128935846808882 0 -0.4468995905371671 0.44519276292358212 0 -0.44493399092361008 0.45128935846808882 0 -0.44089932809779181 0.45211900869800509 0 -0.44493399092361008 0.45128935846808882 0 -0.44089932809779181 0.45211900869800509 0 -0.4468995905371671 0.44519276292358212 0 -0.44089932809779181 0.45211900869800509 0 -0.44288436217785138 0.43856867301821212 0 -0.44451993463701911 0.42303441810403047 0 -0.46123809969756518 0.43296231758439441 0 -0.44288436217785138 0.43856867301821212 0 -0.44451993463701911 0.42303441810403047 0 -0.42875488217936492 0.43619804017481878 0 -0.44451993463701911 0.42303441810403047 0 -0.45152356074548988 0.43726675245323282 0 -0.46123809969756518 0.43296231758439441 0 -0.44288436217785138 0.43856867301821212 0 -0.44451993463701911 0.42303441810403047 0 -0.45152356074548988 0.43726675245323282 0 -0.44451993463701911 0.42303441810403047 0 -0.45732674327999462 0.41094790304313228 0 -0.43889290217951787 0.40442792780384162 0 -0.45732674327999462 0.41094790304313228 0 -0.46828490693116392 0.41932101733892291 0 -0.4758437181673657 0.40814402412747969 0 -0.44451993463701911 0.42303441810403047 0 -0.45732674327999462 0.41094790304313228 0 -0.45884341640379189 0.42321133002460998 0 -0.45732674327999462 0.41094790304313228 0 -0.46828490693116392 0.41932101733892291 0 -0.45884341640379189 0.42321133002460998 0 -0.44451993463701911 0.42303441810403047 0 -0.45884341640379189 0.42321133002460998 0 -0.46123809969756518 0.43296231758439441 0 -0.46828490693116392 0.41932101733892291 0 -0.46284739747321679 0.42979099405256971 0 -0.46920348384329941 0.42962842705192927 0 -0.46828490693116392 0.41932101733892291 0 -0.45884341640379189 0.42321133002460998 0 -0.46284739747321679 0.42979099405256971 0 -0.45884341640379189 0.42321133002460998 0 -0.46123809969756518 0.43296231758439441 0 -0.46284739747321679 0.42979099405256971 0 -0.47485295113098158 0.44104734820716518 0 -0.46123809969756518 0.43296231758439441 0 -0.47485295113098158 0.44104734820716518 0 -0.46123809969756518 0.43296231758439441 0 -0.46920348384329941 0.42962842705192927 0 -0.46123809969756518 0.43296231758439441 0 -0.46284739747321679 0.42979099405256971 0 -0.46920348384329941 0.42962842705192927 0 -0.46123809969756518 0.43296231758439441 0 -0.46284739747321679 0.42979099405256971 0 -0.47485295113098158 0.44104734820716518 0 -0.47879406398356977 0.42502045807659428 0 -0.46920348384329941 0.42962842705192927 0 -0.47485295113098158 0.44104734820716518 0 -0.47879406398356977 0.42502045807659428 0 -0.49418463821536712 0.43402474410438308 0 -0.46828490693116392 0.41932101733892291 0 -0.47879406398356977 0.42502045807659428 0 -0.46920348384329941 0.42962842705192927 0 -0.47879406398356977 0.42502045807659428 0 -0.4758437181673657 0.40814402412747969 0 -0.48747396385343178 0.41565838756147172 0 -0.46828490693116392 0.41932101733892291 0 -0.47879406398356977 0.42502045807659428 0 -0.4758437181673657 0.40814402412747969 0 -0.4758437181673657 0.40814402412747969 0 -0.48747396385343178 0.41565838756147172 0 -0.48885999634086741 0.4039658359811738 0 -0.48747396385343178 0.41565838756147172 0 -0.49990147386633582 0.41891710937883042 0 -0.48885999634086741 0.4039658359811738 0 -0.48747396385343178 0.41565838756147172 0 -0.49990147386633582 0.41891710937883042 0 -0.49418463821536712 0.43402474410438308 0 -0.49990147386633582 0.41891710937883042 0 -0.5 0.43744887876610328 0 -0.49418463821536712 0.43402474410438308 0 -0.47879406398356977 0.42502045807659428 0 -0.48747396385343178 0.41565838756147172 0 -0.49418463821536712 0.43402474410438308 0 -0.49990147386633582 0.41891710937883042 0 -0.49418463821536712 0.43402474410438308 0 -0.5 0.38890387961986522 0 -0.48179620207620749 0.39128282997771219 0 -0.48345783401667991 0.37272964010825788 0 -0.49990147386633582 0.41891710937883042 0 -0.5 0.38890387961986522 0 -0.48885999634086741 0.4039658359811738 0 -0.5 0.38890387961986522 0 -0.48885999634086741 0.4039658359811738 0 -0.48179620207620749 0.39128282997771219 0 -0.4758437181673657 0.40814402412747969 0 -0.48179620207620749 0.39128282997771219 0 -0.46117536809809889 0.38857878395604978 0 -0.4758437181673657 0.40814402412747969 0 -0.48885999634086741 0.4039658359811738 0 -0.48179620207620749 0.39128282997771219 0 -0.48179620207620749 0.39128282997771219 0 -0.46117536809809889 0.38857878395604978 0 -0.48345783401667991 0.37272964010825788 0 -0.46117536809809889 0.38857878395604978 0 -0.48345783401667991 0.37272964010825788 0 -0.46117536809809889 0.38857878395604978 0 -0.44308042595467872 0.37376410064035243 0 -0.46375002303711438 0.36334226757108212 0 -0.45732674327999462 0.41094790304313228 0 -0.4758437181673657 0.40814402412747969 0 -0.46117536809809889 0.38857878395604978 0 -0.46117536809809889 0.38857878395604978 0 -0.43889290217951787 0.40442792780384162 0 -0.45732674327999462 0.41094790304313228 0 -0.46117536809809889 0.38857878395604978 0 -0.43889290217951787 0.40442792780384162 0 -0.46117536809809889 0.38857878395604978 0 -0.43889290217951787 0.40442792780384162 0 -0.44230439637135349 0.38927596681979248 0 -0.46117536809809889 0.38857878395604978 0 -0.44230439637135349 0.38927596681979248 0 -0.44308042595467872 0.37376410064035243 0 -0.44230439637135349 0.38927596681979248 0 -0.42748605444907878 0.39392752107161438 0 -0.44308042595467872 0.37376410064035243 0 -0.42748605444907878 0.39392752107161438 0 -0.42457855467938149 0.3748499672574328 0 -0.44308042595467872 0.37376410064035243 0 -0.42748605444907878 0.39392752107161438 0 -0.44308042595467872 0.37376410064035243 0 -0.41003434235198399 0.38633753596335818 0 -0.42748605444907878 0.39392752107161438 0 -0.42457855467938149 0.3748499672574328 0 -0.41003434235198399 0.38633753596335818 0 -0.4118904032142866 0.37459432299286899 0 -0.42457855467938149 0.3748499672574328 0 -0.41003434235198399 0.38633753596335818 0 -0.40027760382027538 0.37898279998641632 0 -0.4118904032142866 0.37459432299286899 0 -0.41187986373534791 0.39759404167072809 0 -0.42748605444907878 0.39392752107161438 0 -0.41189168294347928 0.41409094150287662 0 -0.42748605444907878 0.39392752107161438 0 -0.42372026895825388 0.408180865507491 0 -0.41189168294347928 0.41409094150287662 0 -0.41003434235198399 0.38633753596335818 0 -0.41187986373534791 0.39759404167072809 0 -0.42748605444907878 0.39392752107161438 0 -0.42748605444907878 0.39392752107161438 0 -0.41189168294347928 0.41409094150287662 0 -0.41187986373534791 0.39759404167072809 0 -0.41189168294347928 0.41409094150287662 0 -0.39810737519684808 0.39602016814506402 0 -0.41003434235198399 0.38633753596335818 0 -0.41187986373534791 0.39759404167072809 0 -0.39810737519684808 0.39602016814506402 0 -0.43889290217951787 0.40442792780384162 0 -0.44230439637135349 0.38927596681979248 0 -0.42748605444907878 0.39392752107161438 0 -0.43889290217951787 0.40442792780384162 0 -0.42748605444907878 0.39392752107161438 0 -0.42372026895825388 0.408180865507491 0 -0.44451993463701911 0.42303441810403047 0 -0.43889290217951787 0.40442792780384162 0 -0.42742879722471422 0.41258215315658192 0 -0.43889290217951787 0.40442792780384162 0 -0.42742879722471422 0.41258215315658192 0 -0.42372026895825388 0.408180865507491 0 -0.44451993463701911 0.42303441810403047 0 -0.42742879722471422 0.41258215315658192 0 -0.43889290217951787 0.40442792780384162 0 -0.42742879722471422 0.41258215315658192 0 -0.42742879722471422 0.41258215315658192 0 -0.41661043626093691 0.4202770716516333 0 -0.42742879722471422 0.41258215315658192 0 -0.42372026895825388 0.408180865507491 0 -0.41661043626093691 0.4202770716516333 0 -0.44451993463701911 0.42303441810403047 0 -0.42742879722471422 0.41258215315658192 0 -0.42875488217936492 0.43619804017481878 0 -0.42742879722471422 0.41258215315658192 0 -0.42875488217936492 0.43619804017481878 0 -0.41661043626093691 0.4202770716516333 0 -0.42875488217936492 0.43619804017481878 0 -0.41661043626093691 0.4202770716516333 0 -0.41661043626093691 0.4202770716516333 0 -0.41189168294347928 0.41409094150287662 0 -0.39548746786365052 0.4353014843824432 0 -0.40896761198908271 0.44058131744480339 0 -0.41661043626093691 0.4202770716516333 0 -0.39548746786365052 0.4353014843824432 0 -0.40896761198908271 0.44058131744480339 0 -0.42875488217936492 0.43619804017481878 0 -0.41661043626093691 0.4202770716516333 0 -0.42372026895825388 0.408180865507491 0 -0.41661043626093691 0.4202770716516333 0 -0.41189168294347928 0.41409094150287662 0 -0.41661043626093691 0.4202770716516333 0 -0.41189168294347928 0.41409094150287662 0 -0.41189168294347928 0.41409094150287662 0 -0.39561035878107348 0.41868337777829961 0 -0.39810737519684808 0.39602016814506402 0 -0.39561035878107348 0.41868337777829961 0 -0.39548746786365052 0.4353014843824432 0 -0.38743998155650877 0.43007149303657821 0 -0.41189168294347928 0.41409094150287662 0 -0.39548746786365052 0.4353014843824432 0 -0.41189168294347928 0.41409094150287662 0 -0.39561035878107348 0.41868337777829961 0 -0.39548746786365052 0.4353014843824432 0 -0.41661043626093691 0.4202770716516333 0 -0.39548746786365052 0.4353014843824432 0 -0.38280049245434777 0.44053012613774328 0 -0.37583880675848852 0.41409838992576742 0 -0.3679218392476955 0.43947225669000839 0 -0.38280049245434777 0.44053012613774328 0 -0.38743998155650877 0.43007149303657821 0 -0.37583880675848852 0.41409838992576742 0 -0.38280049245434777 0.44053012613774328 0 -0.37583880675848852 0.41409838992576742 0 -0.3868091727198622 0.44147420999504178 0 -0.39548746786365052 0.4353014843824432 0 -0.38743998155650877 0.43007149303657821 0 -0.38280049245434777 0.44053012613774328 0 -0.3868091727198622 0.44147420999504178 0 -0.38743998155650877 0.43007149303657821 0 -0.39561035878107348 0.41868337777829961 0 -0.37583880675848852 0.41409838992576742 0 -0.39810737519684808 0.39602016814506402 0 -0.39561035878107348 0.41868337777829961 0 -0.38743998155650877 0.43007149303657821 0 -0.37583880675848852 0.41409838992576742 0 -0.37583880675848852 0.41409838992576742 0 -0.38245673240661909 0.39401887197279722 0 -0.36857493042679851 0.38651931332514822 0 -0.37583880675848852 0.41409838992576742 0 -0.38245673240661909 0.39401887197279722 0 -0.39810737519684808 0.39602016814506402 0 -0.37583880675848852 0.41409838992576742 0 -0.39810737519684808 0.39602016814506402 0 -0.38245673240661909 0.39401887197279722 0 -0.3846636590165185 0.37839589911053417 0 -0.39810737519684808 0.39602016814506402 0 -0.38245673240661909 0.39401887197279722 0 -0.3846636590165185 0.37839589911053417 0 -0.36857493042679851 0.38651931332514822 0 -0.3846636590165185 0.37839589911053417 0 -0.40027760382027538 0.37898279998641632 0 -0.39810737519684808 0.39602016814506402 0 -0.41003434235198399 0.38633753596335818 0 -0.40027760382027538 0.37898279998641632 0 -0.39810737519684808 0.39602016814506402 0 -0.3846636590165185 0.37839589911053417 0 -0.39810737519684808 0.39602016814506402 0 -0.41003434235198399 0.38633753596335818 0 -0.39810737519684808 0.39602016814506402 0 -0.41189168294347928 0.41409094150287662 0 -0.39810737519684808 0.39602016814506402 0 -0.39616602071929941 0.34687464420773401 0 -0.40170077005347921 0.35625184582941671 0 -0.39000440130668063 0.35557714245814243 0 -0.39616602071929941 0.34687464420773401 0 -0.39000440130668063 0.35557714245814243 0 -0.38709472219092328 0.34689489967374099 0 -0.39616602071929941 0.34687464420773401 0 -0.40606821463252141 0.346108201668893 0 -0.40170077005347921 0.35625184582941671 0 -0.39616602071929941 0.34687464420773401 0 -0.40606821463252141 0.346108201668893 0 -0.40025331233790951 0.33946211591770847 0 -0.40170077005347921 0.35625184582941671 0 -0.39381320650628321 0.36670411014122262 0 -0.40723449933868627 0.3667070528549885 0 -0.40027760382027538 0.37898279998641632 0 -0.39381320650628321 0.36670411014122262 0 -0.40723449933868627 0.3667070528549885 0 -0.3846636590165185 0.37839589911053417 0 -0.40027760382027538 0.37898279998641632 0 -0.39381320650628321 0.36670411014122262 0 -0.40170077005347921 0.35625184582941671 0 -0.39381320650628321 0.36670411014122262 0 -0.39000440130668063 0.35557714245814243 0 -0.3846636590165185 0.37839589911053417 0 -0.3712199428361902 0.36077163007600349 0 -0.3714423965936543 0.37115676980905349 0 -0.3846636590165185 0.37839589911053417 0 -0.38388176522484257 0.36295966537730912 0 -0.3712199428361902 0.36077163007600349 0 -0.3846636590165185 0.37839589911053417 0 -0.3712199428361902 0.36077163007600349 0 -0.39381320650628321 0.36670411014122262 0 -0.38388176522484257 0.36295966537730912 0 -0.39000440130668063 0.35557714245814243 0 -0.3846636590165185 0.37839589911053417 0 -0.39381320650628321 0.36670411014122262 0 -0.38388176522484257 0.36295966537730912 0 -0.38388176522484257 0.36295966537730912 0 -0.37970761645854051 0.35334954510064298 0 -0.3712199428361902 0.36077163007600349 0 -0.38388176522484257 0.36295966537730912 0 -0.37970761645854051 0.35334954510064298 0 -0.39000440130668063 0.35557714245814243 0 -0.37970761645854051 0.35334954510064298 0 -0.39000440130668063 0.35557714245814243 0 -0.38709472219092328 0.34689489967374099 0 -0.37970761645854051 0.35334954510064298 0 -0.37819114369664958 0.34150734279125983 0 -0.37129939676277463 0.35272593022440968 0 -0.37970761645854051 0.35334954510064298 0 -0.38709472219092328 0.34689489967374099 0 -0.37819114369664958 0.34150734279125983 0 -0.37819114369664958 0.34150734279125983 0 -0.38111395893364192 0.33105361375218562 0 -0.36984608655811019 0.33217094355441229 0 -0.38111395893364192 0.33105361375218562 0 -0.39133538032635629 0.32437493450135801 0 -0.39140442877344628 0.33716582381092569 0 -0.37819114369664958 0.34150734279125983 0 -0.38111395893364192 0.33105361375218562 0 -0.39140442877344628 0.33716582381092569 0 -0.38709472219092328 0.34689489967374099 0 -0.37819114369664958 0.34150734279125983 0 -0.39140442877344628 0.33716582381092569 0 -0.38111395893364192 0.33105361375218562 0 -0.39133538032635629 0.32437493450135801 0 -0.37479275531364697 0.32004902410297198 0 -0.39133538032635629 0.32437493450135801 0 -0.39003449381461169 0.31173801812104179 0 -0.37479275531364697 0.32004902410297198 0 -0.39003449381461169 0.31173801812104179 0 -0.37479275531364697 0.32004902410297198 0 -0.39003449381461169 0.31173801812104179 0 -0.37684880126114728 0.30587897211972032 0 -0.37479275531364697 0.32004902410297198 0 -0.38111395893364192 0.33105361375218562 0 -0.37479275531364697 0.32004902410297198 0 -0.36984608655811019 0.33217094355441229 0 -0.39698295676628093 0.31830107735312257 0 -0.40027342917915731 0.31213998586678021 0 -0.39003449381461169 0.31173801812104179 0 -0.39698295676628093 0.31830107735312257 0 -0.39133538032635629 0.32437493450135801 0 -0.39003449381461169 0.31173801812104179 0 -0.39698295676628093 0.31830107735312257 0 -0.39133538032635629 0.32437493450135801 0 -0.40377817880044509 0.32569103240245761 0 -0.39133538032635629 0.32437493450135801 0 -0.40377817880044509 0.32569103240245761 0 -0.3990231471128568 0.33240580386217983 0 -0.39698295676628093 0.31830107735312257 0 -0.40377817880044509 0.32569103240245761 0 -0.40397450791671141 0.31725670912876242 0 -0.40397450791671141 0.31725670912876242 0 -0.40795365053103949 0.3112160004610604 0 -0.40027342917915731 0.31213998586678021 0 -0.39698295676628093 0.31830107735312257 0 -0.40397450791671141 0.31725670912876242 0 -0.40027342917915731 0.31213998586678021 0 -0.39140442877344628 0.33716582381092569 0 -0.3990231471128568 0.33240580386217983 0 -0.40025331233790951 0.33946211591770847 0 -0.39616602071929941 0.34687464420773401 0 -0.38709472219092328 0.34689489967374099 0 -0.39140442877344628 0.33716582381092569 0 -0.39616602071929941 0.34687464420773401 0 -0.39140442877344628 0.33716582381092569 0 -0.40025331233790951 0.33946211591770847 0 -0.39133538032635629 0.32437493450135801 0 -0.39140442877344628 0.33716582381092569 0 -0.3990231471128568 0.33240580386217983 0 -0.3990231471128568 0.33240580386217983 0 -0.40025331233790951 0.33946211591770847 0 -0.40834443532612641 0.3353351126784489 0 -0.40377817880044509 0.32569103240245761 0 -0.3990231471128568 0.33240580386217983 0 -0.40834443532612641 0.3353351126784489 0 -0.40606821463252141 0.346108201668893 0 -0.40025331233790951 0.33946211591770847 0 -0.40834443532612641 0.3353351126784489 0 -0.40606821463252141 0.346108201668893 0 -0.40834443532612641 0.3353351126784489 0 -0.41819152322284298 0.34440195150648212 0 -0.40834443532612641 0.3353351126784489 0 -0.41913895245758032 0.3333943822972063 0 -0.41260925149650979 0.32762667951780172 0 -0.40377817880044509 0.32569103240245761 0 -0.40834443532612641 0.3353351126784489 0 -0.41260925149650979 0.32762667951780172 0 -0.40834443532612641 0.3353351126784489 0 -0.41913895245758032 0.3333943822972063 0 -0.41819152322284298 0.34440195150648212 0 -0.41119972451819597 0.31891400342122939 0 -0.41572774404078677 0.30858241730957131 0 -0.40795365053103949 0.3112160004610604 0 -0.40397450791671141 0.31725670912876242 0 -0.41119972451819597 0.31891400342122939 0 -0.40795365053103949 0.3112160004610604 0 -0.40377817880044509 0.32569103240245761 0 -0.41119972451819597 0.31891400342122939 0 -0.41260925149650979 0.32762667951780172 0 -0.40377817880044509 0.32569103240245761 0 -0.40397450791671141 0.31725670912876242 0 -0.41119972451819597 0.31891400342122939 0 -0.41913895245758032 0.3333943822972063 0 -0.41260925149650979 0.32762667951780172 0 -0.42519835904626979 0.3222310943400945 0 -0.41119972451819597 0.31891400342122939 0 -0.41260925149650979 0.32762667951780172 0 -0.42519835904626979 0.3222310943400945 0 -0.41119972451819597 0.31891400342122939 0 -0.42519835904626979 0.3222310943400945 0 -0.41572774404078677 0.30858241730957131 0 -0.43879902142987209 0.32384972062079759 0 -0.43641446279193158 0.30529170657050808 0 -0.41572774404078677 0.30858241730957131 0 -0.42519835904626979 0.3222310943400945 0 -0.43879902142987209 0.32384972062079759 0 -0.41572774404078677 0.30858241730957131 0 -0.43879902142987209 0.32384972062079759 0 -0.41572774404078677 0.30858241730957131 0 -0.41913895245758032 0.3333943822972063 0 -0.42519835904626979 0.3222310943400945 0 -0.43397720879368618 0.33925251162280939 0 -0.41913895245758032 0.3333943822972063 0 -0.43397720879368618 0.33925251162280939 0 -0.41819152322284298 0.34440195150648212 0 -0.42519835904626979 0.3222310943400945 0 -0.43397720879368618 0.33925251162280939 0 -0.43879902142987209 0.32384972062079759 0 -0.43397720879368618 0.33925251162280939 0 -0.42836803310558791 0.35736252686558828 0 -0.44627427347469267 0.35441088179747371 0 -0.43397720879368618 0.33925251162280939 0 -0.42836803310558791 0.35736252686558828 0 -0.41819152322284298 0.34440195150648212 0 -0.42836803310558791 0.35736252686558828 0 -0.41819152322284298 0.34440195150648212 0 -0.41292691735811771 0.35574299555043409 0 -0.40606821463252141 0.346108201668893 0 -0.40170077005347921 0.35625184582941671 0 -0.41292691735811771 0.35574299555043409 0 -0.40606821463252141 0.346108201668893 0 -0.41819152322284298 0.34440195150648212 0 -0.41292691735811771 0.35574299555043409 0 -0.4118904032142866 0.37459432299286899 0 -0.40723449933868627 0.3667070528549885 0 -0.41732701588110582 0.36609425890214919 0 -0.40027760382027538 0.37898279998641632 0 -0.4118904032142866 0.37459432299286899 0 -0.40723449933868627 0.3667070528549885 0 -0.41292691735811771 0.35574299555043409 0 -0.40723449933868627 0.3667070528549885 0 -0.41732701588110582 0.36609425890214919 0 -0.40170077005347921 0.35625184582941671 0 -0.41292691735811771 0.35574299555043409 0 -0.40723449933868627 0.3667070528549885 0 -0.42836803310558791 0.35736252686558828 0 -0.41292691735811771 0.35574299555043409 0 -0.41732701588110582 0.36609425890214919 0 -0.4118904032142866 0.37459432299286899 0 -0.41732701588110582 0.36609425890214919 0 -0.42457855467938149 0.3748499672574328 0 -0.42836803310558791 0.35736252686558828 0 -0.41732701588110582 0.36609425890214919 0 -0.42457855467938149 0.3748499672574328 0 -0.42836803310558791 0.35736252686558828 0 -0.42457855467938149 0.3748499672574328 0 -0.44308042595467872 0.37376410064035243 0 -0.44308042595467872 0.37376410064035243 0 -0.44627427347469267 0.35441088179747371 0 -0.46375002303711438 0.36334226757108212 0 -0.42836803310558791 0.35736252686558828 0 -0.44308042595467872 0.37376410064035243 0 -0.44627427347469267 0.35441088179747371 0 -0.43397720879368618 0.33925251162280939 0 -0.44627427347469267 0.35441088179747371 0 -0.46187029881895753 0.33911702393202392 0 -0.44627427347469267 0.35441088179747371 0 -0.46375002303711438 0.36334226757108212 0 -0.46187029881895753 0.33911702393202392 0 -0.46375002303711438 0.36334226757108212 0 -0.48345783401667991 0.37272964010825788 0 -0.48494157620804301 0.35438432724325009 0 -0.46117536809809889 0.38857878395604978 0 -0.46375002303711438 0.36334226757108212 0 -0.48345783401667991 0.37272964010825788 0 -0.48494157620804301 0.35438432724325009 0 -0.46187029881895753 0.33911702393202392 0 -0.46375002303711438 0.36334226757108212 0 -0.48494157620804301 0.35438432724325009 0 -0.46187029881895753 0.33911702393202392 0 -0.48494157620804301 0.35438432724325009 0 -0.48633294697964802 0.3389791455842962 0 -0.46187029881895753 0.33911702393202392 0 -0.5 0.35889064986090002 0 -0.48494157620804301 0.35438432724325009 0 -0.48633294697964802 0.3389791455842962 0 -0.5 0.38890387961986522 0 -0.48345783401667991 0.37272964010825788 0 -0.5 0.35889064986090002 0 -0.48345783401667991 0.37272964010825788 0 -0.5 0.35889064986090002 0 -0.48494157620804301 0.35438432724325009 0 -0.5 0.32887742010193483 0 -0.47900298857045209 0.32398075172005408 0 -0.48190878823413669 0.30507509993471149 0 -0.5 0.35889064986090002 0 -0.48633294697964802 0.3389791455842962 0 -0.5 0.32887742010193483 0 -0.48633294697964802 0.3389791455842962 0 -0.5 0.32887742010193483 0 -0.47900298857045209 0.32398075172005408 0 -0.48633294697964802 0.3389791455842962 0 -0.47900298857045209 0.32398075172005408 0 -0.46187029881895753 0.33911702393202392 0 -0.47900298857045209 0.32398075172005408 0 -0.46297057055378837 0.30776047741391871 0 -0.47900298857045209 0.32398075172005408 0 -0.46187029881895753 0.33911702393202392 0 -0.46297057055378837 0.30776047741391871 0 -0.46187029881895753 0.33911702393202392 0 -0.43879902142987209 0.32384972062079759 0 -0.46297057055378837 0.30776047741391871 0 -0.46187029881895753 0.33911702393202392 0 -0.43879902142987209 0.32384972062079759 0 -0.43397720879368618 0.33925251162280939 0 -0.46187029881895753 0.33911702393202392 0 -0.43879902142987209 0.32384972062079759 0 -0.43879902142987209 0.32384972062079759 0 -0.46297057055378837 0.30776047741391871 0 -0.43641446279193158 0.30529170657050808 0 -0.44693815253712482 0.29154020310778322 0 -0.46297057055378837 0.30776047741391871 0 -0.43641446279193158 0.30529170657050808 0 -0.44693815253712482 0.29154020310778322 0 -0.43090573452046221 0.27531992880164669 0 -0.44693815253712482 0.29154020310778322 0 -0.46833876841594468 0.28700722026968911 0 -0.45407621166135098 0.27035703315483289 0 -0.44693815253712482 0.29154020310778322 0 -0.46833876841594468 0.28700722026968911 0 -0.46297057055378837 0.30776047741391871 0 -0.44693815253712482 0.29154020310778322 0 -0.46297057055378837 0.30776047741391871 0 -0.47900298857045209 0.32398075172005408 0 -0.46297057055378837 0.30776047741391871 0 -0.48190878823413669 0.30507509993471149 0 -0.46833876841594468 0.28700722026968911 0 -0.46297057055378837 0.30776047741391871 0 -0.48190878823413669 0.30507509993471149 0 -0.46833876841594468 0.28700722026968911 0 -0.48190878823413669 0.30507509993471149 0 -0.48607141324845821 0.28442365065739278 0 -0.48190878823413669 0.30507509993471149 0 -0.48607141324845821 0.28442365065739278 0 -0.5 0.29886419034296963 0 -0.48607141324845821 0.28442365065739278 0 -0.5 0.29886419034296963 0 -0.5 0.26885096058400421 0 -0.5 0.32887742010193483 0 -0.48190878823413669 0.30507509993471149 0 -0.5 0.29886419034296963 0 -0.48515404259462402 0.24836105536639891 0 -0.5 0.23883773082503881 0 -0.5 0.26885096058400421 0 -0.48515404259462402 0.24836105536639891 0 -0.5 0.26885096058400421 0 -0.47602543892940968 0.26345293254340169 0 -0.48607141324845821 0.28442365065739278 0 -0.5 0.26885096058400421 0 -0.47602543892940968 0.26345293254340169 0 -0.46833876841594468 0.28700722026968911 0 -0.48607141324845821 0.28442365065739278 0 -0.47602543892940968 0.26345293254340169 0 -0.47102222716384989 0.23780700617981429 0 -0.47602543892940968 0.26345293254340169 0 -0.47102222716384989 0.23780700617981429 0 -0.47602543892940968 0.26345293254340169 0 -0.45925987119813061 0.25150640183567857 0 -0.47602543892940968 0.26345293254340169 0 -0.45925987119813061 0.25150640183567857 0 -0.45407621166135098 0.27035703315483289 0 -0.46833876841594468 0.28700722026968911 0 -0.47602543892940968 0.26345293254340169 0 -0.45407621166135098 0.27035703315483289 0 -0.44693815253712482 0.29154020310778322 0 -0.45407621166135098 0.27035703315483289 0 -0.43090573452046221 0.27531992880164669 0 -0.45407621166135098 0.27035703315483289 0 -0.4361169775084886 0.26389951644644533 0 -0.43090573452046221 0.27531992880164669 0 -0.45925987119813061 0.25150640183567857 0 -0.45407621166135098 0.27035703315483289 0 -0.44154361281610521 0.25200707292449243 0 -0.45407621166135098 0.27035703315483289 0 -0.44154361281610521 0.25200707292449243 0 -0.4361169775084886 0.26389951644644533 0 -0.44154361281610521 0.25200707292449243 0 -0.4361169775084886 0.26389951644644533 0 -0.42617931340455828 0.24025723648996261 0 -0.44154361281610521 0.25200707292449243 0 -0.4361169775084886 0.26389951644644533 0 -0.4361169775084886 0.26389951644644533 0 -0.41998562682326868 0.25342565943811102 0 -0.42020662463614078 0.26449545447876122 0 -0.42617931340455828 0.24025723648996261 0 -0.4361169775084886 0.26389951644644533 0 -0.41998562682326868 0.25342565943811102 0 -0.42617931340455828 0.24025723648996261 0 -0.4361169775084886 0.26389951644644533 0 -0.41998562682326868 0.25342565943811102 0 -0.42020662463614078 0.26449545447876122 0 -0.406549631445982 0.25707962180525479 0 -0.42020662463614078 0.26449545447876122 0 -0.406549631445982 0.25707962180525479 0 -0.40577858893680391 0.27124302857307669 0 -0.40994365922488119 0.24501031921078101 0 -0.41998562682326868 0.25342565943811102 0 -0.406549631445982 0.25707962180525479 0 -0.41924281692678622 0.27613221619075962 0 -0.41074916872120271 0.28271076416847352 0 -0.40577858893680391 0.27124302857307669 0 -0.42020662463614078 0.26449545447876122 0 -0.41924281692678622 0.27613221619075962 0 -0.40577858893680391 0.27124302857307669 0 -0.41924281692678622 0.27613221619075962 0 -0.43090573452046221 0.27531992880164669 0 -0.42331673928062469 0.29195117305560908 0 -0.4361169775084886 0.26389951644644533 0 -0.42020662463614078 0.26449545447876122 0 -0.43090573452046221 0.27531992880164669 0 -0.42020662463614078 0.26449545447876122 0 -0.43090573452046221 0.27531992880164669 0 -0.42020662463614078 0.26449545447876122 0 -0.41924281692678622 0.27613221619075962 0 -0.43090573452046221 0.27531992880164669 0 -0.4361169775084886 0.26389951644644533 0 -0.43090573452046221 0.27531992880164669 0 -0.43090573452046221 0.27531992880164669 0 -0.42331673928062469 0.29195117305560908 0 -0.44693815253712482 0.29154020310778322 0 -0.43090573452046221 0.27531992880164669 0 -0.42331673928062469 0.29195117305560908 0 -0.44693815253712482 0.29154020310778322 0 -0.42331673928062469 0.29195117305560908 0 -0.43641446279193158 0.30529170657050808 0 -0.42331673928062469 0.29195117305560908 0 -0.43641446279193158 0.30529170657050808 0 -0.41572774404078677 0.30858241730957131 0 -0.42331673928062469 0.29195117305560908 0 -0.41572774404078677 0.30858241730957131 0 -0.4113616994979048 0.2957177923680433 0 -0.42331673928062469 0.29195117305560908 0 -0.41572774404078677 0.30858241730957131 0 -0.41572774404078677 0.30858241730957131 0 -0.40061193679336787 0.2985796068821977 0 -0.41572774404078677 0.30858241730957131 0 -0.4113616994979048 0.2957177923680433 0 -0.40061193679336787 0.2985796068821977 0 -0.41572774404078677 0.30858241730957131 0 -0.40795365053103949 0.3112160004610604 0 -0.40061193679336787 0.2985796068821977 0 -0.41924281692678622 0.27613221619075962 0 -0.42331673928062469 0.29195117305560908 0 -0.41074916872120271 0.28271076416847352 0 -0.42331673928062469 0.29195117305560908 0 -0.4113616994979048 0.2957177923680433 0 -0.41074916872120271 0.28271076416847352 0 -0.4113616994979048 0.2957177923680433 0 -0.41074916872120271 0.28271076416847352 0 -0.39879666547786319 0.28501150087943011 0 -0.39879666547786319 0.28501150087943011 0 -0.40061193679336787 0.2985796068821977 0 -0.38180684949434163 0.29057510994030611 0 -0.4113616994979048 0.2957177923680433 0 -0.39879666547786319 0.28501150087943011 0 -0.40061193679336787 0.2985796068821977 0 -0.40061193679336787 0.2985796068821977 0 -0.39003449381461169 0.31173801812104179 0 -0.38180684949434163 0.29057510994030611 0 -0.40795365053103949 0.3112160004610604 0 -0.40027342917915731 0.31213998586678021 0 -0.40061193679336787 0.2985796068821977 0 -0.40027342917915731 0.31213998586678021 0 -0.40061193679336787 0.2985796068821977 0 -0.39003449381461169 0.31173801812104179 0 -0.39003449381461169 0.31173801812104179 0 -0.37684880126114728 0.30587897211972032 0 -0.38180684949434163 0.29057510994030611 0 -0.39879666547786319 0.28501150087943011 0 -0.38180684949434163 0.29057510994030611 0 -0.38965087546558058 0.27218455215343867 0 -0.38180684949434163 0.29057510994030611 0 -0.38965087546558058 0.27218455215343867 0 -0.37531263374665252 0.26911282073443349 0 -0.38965087546558058 0.27218455215343867 0 -0.37531263374665252 0.26911282073443349 0 -0.38461828371804169 0.25824770462635488 0 -0.3767122668512386 0.25412772461180178 0 -0.38461828371804169 0.25824770462635488 0 -0.37484010420526348 0.26126408182959748 0 -0.37531263374665252 0.26911282073443349 0 -0.38461828371804169 0.25824770462635488 0 -0.37484010420526348 0.26126408182959748 0 -0.38114343776269882 0.24801998263204589 0 -0.3767122668512386 0.25412772461180178 0 -0.38461828371804169 0.25824770462635488 0 -0.38114343776269882 0.24801998263204589 0 -0.37278941221433959 0.24816867233428569 0 -0.3767122668512386 0.25412772461180178 0 -0.38114343776269882 0.24801998263204589 0 -0.39454137741122453 0.2453554626325164 0 -0.38461828371804169 0.25824770462635488 0 -0.38965087546558058 0.27218455215343867 0 -0.38461828371804169 0.25824770462635488 0 -0.39577737862624163 0.26106356186552487 0 -0.39454137741122453 0.2453554626325164 0 -0.406549631445982 0.25707962180525479 0 -0.39577737862624163 0.26106356186552487 0 -0.39454137741122453 0.2453554626325164 0 -0.38461828371804169 0.25824770462635488 0 -0.39577737862624163 0.26106356186552487 0 -0.406549631445982 0.25707962180525479 0 -0.39577737862624163 0.26106356186552487 0 -0.40577858893680391 0.27124302857307669 0 -0.39879666547786319 0.28501150087943011 0 -0.38965087546558058 0.27218455215343867 0 -0.40577858893680391 0.27124302857307669 0 -0.38965087546558058 0.27218455215343867 0 -0.39577737862624163 0.26106356186552487 0 -0.40577858893680391 0.27124302857307669 0 -0.41074916872120271 0.28271076416847352 0 -0.39879666547786319 0.28501150087943011 0 -0.40577858893680391 0.27124302857307669 0 -0.3485958587390543 0.2696201724421336 0 -0.35380467111880448 0.25242267467050927 0 -0.33084453708704259 0.26683158218552028 0 -0.3485958587390543 0.2696201724421336 0 -0.35380467111880448 0.25242267467050927 0 -0.36611161386666069 0.25431435788476431 0 -0.35380467111880448 0.25242267467050927 0 -0.36611161386666069 0.25431435788476431 0 -0.36146494472005519 0.24834746491546941 0 -0.35380467111880448 0.25242267467050927 0 -0.36611161386666069 0.25431435788476431 0 -0.36611161386666069 0.25431435788476431 0 -0.3701700963558493 0.25493818163672488 0 -0.37484010420526348 0.26126408182959748 0 -0.37278941221433959 0.24816867233428569 0 -0.36611161386666069 0.25431435788476431 0 -0.3701700963558493 0.25493818163672488 0 -0.36611161386666069 0.25431435788476431 0 -0.3701700963558493 0.25493818163672488 0 -0.3767122668512386 0.25412772461180178 0 -0.3701700963558493 0.25493818163672488 0 -0.37484010420526348 0.26126408182959748 0 -0.37278941221433959 0.24816867233428569 0 -0.3767122668512386 0.25412772461180178 0 -0.3701700963558493 0.25493818163672488 0 -0.37531263374665252 0.26911282073443349 0 -0.36611161386666069 0.25431435788476431 0 -0.37484010420526348 0.26126408182959748 0 -0.36611161386666069 0.25431435788476431 0 -0.36392474818200149 0.27899624861814382 0 -0.3485958587390543 0.2696201724421336 0 -0.36611161386666069 0.25431435788476431 0 -0.36392474818200149 0.27899624861814382 0 -0.37531263374665252 0.26911282073443349 0 -0.36611161386666069 0.25431435788476431 0 -0.36392474818200149 0.27899624861814382 0 -0.38180684949434163 0.29057510994030611 0 -0.37531263374665252 0.26911282073443349 0 -0.36392474818200149 0.27899624861814382 0 -0.36392474818200149 0.27899624861814382 0 -0.3617378824973424 0.30367813935152338 0 -0.38180684949434163 0.29057510994030611 0 -0.36392474818200149 0.27899624861814382 0 -0.3617378824973424 0.30367813935152338 0 -0.37684880126114728 0.30587897211972032 0 -0.38180684949434163 0.29057510994030611 0 -0.3617378824973424 0.30367813935152338 0 -0.37684880126114728 0.30587897211972032 0 -0.3617378824973424 0.30367813935152338 0 -0.37479275531364697 0.32004902410297198 0 -0.34495119368442712 0.29682604000102603 0 -0.34949918572392452 0.31409360006246723 0 -0.3617378824973424 0.30367813935152338 0 -0.34495119368442712 0.29682604000102603 0 -0.34949918572392452 0.31409360006246723 0 -0.3485958587390543 0.2696201724421336 0 -0.36392474818200149 0.27899624861814382 0 -0.34495119368442712 0.29682604000102603 0 -0.36392474818200149 0.27899624861814382 0 -0.3617378824973424 0.30367813935152338 0 -0.34495119368442712 0.29682604000102603 0 -0.3485958587390543 0.2696201724421336 0 -0.34495119368442712 0.29682604000102603 0 -0.33076708395680587 0.28454412443950627 0 -0.34495119368442712 0.29682604000102603 0 -0.33076708395680587 0.28454412443950627 0 -0.32295012989168442 0.2984785203441036 0 -0.34495119368442712 0.29682604000102603 0 -0.33562636577471677 0.30956726244046101 0 -0.34949918572392452 0.31409360006246723 0 -0.34495119368442712 0.29682604000102603 0 -0.33562636577471677 0.30956726244046101 0 -0.32295012989168442 0.2984785203441036 0 -0.33562636577471677 0.30956726244046101 0 -0.32295012989168442 0.2984785203441036 0 -0.31680501379559067 0.31239977765069882 0 -0.32295012989168442 0.2984785203441036 0 -0.31680501379559067 0.31239977765069882 0 -0.30122208287694602 0.30680443029777449 0 -0.33076708395680587 0.28454412443950627 0 -0.32295012989168442 0.2984785203441036 0 -0.30788440305528081 0.28124048970053123 0 -0.33084453708704259 0.26683158218552028 0 -0.31137755739160788 0.26130914561969709 0 -0.30788440305528081 0.28124048970053123 0 -0.33076708395680587 0.28454412443950627 0 -0.33084453708704259 0.26683158218552028 0 -0.30788440305528081 0.28124048970053123 0 -0.33084453708704259 0.26683158218552028 0 -0.30788440305528081 0.28124048970053123 0 -0.3485958587390543 0.2696201724421336 0 -0.33076708395680587 0.28454412443950627 0 -0.33084453708704259 0.26683158218552028 0 -0.32686086071775239 0.248281178694785 0 -0.35380467111880448 0.25242267467050927 0 -0.33084453708704259 0.26683158218552028 0 -0.32686086071775239 0.248281178694785 0 -0.35380467111880448 0.25242267467050927 0 -0.35380467111880448 0.25242267467050927 0 -0.33084453708704259 0.26683158218552028 0 -0.32686086071775239 0.248281178694785 0 -0.33084453708704259 0.26683158218552028 0 -0.31137755739160788 0.26130914561969709 0 -0.32686086071775239 0.248281178694785 0 -0.29991705031670052 0.2441396827190607 0 -0.31137755739160788 0.26130914561969709 0 -0.29991705031670052 0.2441396827190607 0 -0.31137755739160788 0.26130914561969709 0 -0.2920118940265225 0.26521474316597982 0 -0.31137755739160788 0.26130914561969709 0 -0.30788440305528081 0.28124048970053123 0 -0.2920118940265225 0.26521474316597982 0 -0.28534497150971999 0.27921297163318121 0 -0.2920118940265225 0.26521474316597982 0 -0.27298470733064512 0.26926523194671181 0 -0.30788440305528081 0.28124048970053123 0 -0.28534497150971999 0.27921297163318121 0 -0.2920118940265225 0.26521474316597982 0 -0.29991705031670052 0.2441396827190607 0 -0.2920118940265225 0.26521474316597982 0 -0.28016619222964279 0.25509744709522508 0 -0.2920118940265225 0.26521474316597982 0 -0.28016619222964279 0.25509744709522508 0 -0.27298470733064512 0.26926523194671181 0 -0.28016619222964279 0.25509744709522508 0 -0.27298470733064512 0.26926523194671181 0 -0.26294406955869742 0.25686939090103672 0 -0.27297323991564859 0.23999818674333601 0 -0.28016619222964279 0.25509744709522508 0 -0.26294406955869742 0.25686939090103672 0 -0.28534497150971999 0.27921297163318121 0 -0.27298470733064512 0.26926523194671181 0 -0.26891958411263273 0.284694996137141 0 -0.25291489920174731 0.27374059505873788 0 -0.26891958411263273 0.284694996137141 0 -0.25291489920174731 0.27374059505873788 0 -0.26294406955869742 0.25686939090103672 0 -0.24718055604672989 0.26981572586007191 0 -0.27298470733064512 0.26926523194671181 0 -0.25291489920174731 0.27374059505873788 0 -0.26891958411263273 0.284694996137141 0 -0.27298470733064512 0.26926523194671181 0 -0.25291489920174731 0.27374059505873788 0 -0.26294406955869742 0.25686939090103672 0 -0.25291489920174731 0.27374059505873788 0 -0.24731107477036801 0.28316742326892902 0 -0.25291489920174731 0.27374059505873788 0 -0.24718055604672989 0.26981572586007191 0 -0.25340714826148919 0.25112084500721238 0 -0.24718055604672989 0.26981572586007191 0 -0.25291489920174731 0.27374059505873788 0 -0.26294406955869742 0.25686939090103672 0 -0.25340714826148919 0.25112084500721238 0 -0.26294406955869742 0.25686939090103672 0 -0.24718055604672989 0.26981572586007191 0 -0.26331515313786069 0.2439178721034759 0 -0.25340714826148919 0.25112084500721238 0 -0.26294406955869742 0.25686939090103672 0 -0.2554388420320447 0.30182259519025828 0 -0.25831345734776051 0.28859671138942261 0 -0.24731107477036801 0.28316742326892902 0 -0.25291489920174731 0.27374059505873788 0 -0.25831345734776051 0.28859671138942261 0 -0.26891958411263273 0.284694996137141 0 -0.25291489920174731 0.27374059505873788 0 -0.25831345734776051 0.28859671138942261 0 -0.24731107477036801 0.28316742326892902 0 -0.25831345734776051 0.28859671138942261 0 -0.26891958411263273 0.284694996137141 0 -0.2680950256733407 0.29876231777174278 0 -0.2554388420320447 0.30182259519025828 0 -0.25831345734776051 0.28859671138942261 0 -0.2680950256733407 0.29876231777174278 0 -0.28534497150971999 0.27921297163318121 0 -0.26891958411263273 0.284694996137141 0 -0.28492426902351931 0.29564939721554268 0 -0.26891958411263273 0.284694996137141 0 -0.27884925609559402 0.2994618444473342 0 -0.28492426902351931 0.29564939721554268 0 -0.26891958411263273 0.284694996137141 0 -0.28492426902351931 0.29564939721554268 0 -0.26891958411263273 0.284694996137141 0 -0.27884925609559402 0.2994618444473342 0 -0.2680950256733407 0.29876231777174278 0 -0.2554388420320447 0.30182259519025828 0 -0.27951005830433717 0.31883762693440559 0 -0.27884925609559402 0.2994618444473342 0 -0.2680950256733407 0.29876231777174278 0 -0.27951005830433717 0.31883762693440559 0 -0.2554388420320447 0.30182259519025828 0 -0.2680950256733407 0.29876231777174278 0 -0.27951005830433717 0.31883762693440559 0 -0.28806750441784218 0.30777691021503539 0 -0.28492426902351931 0.29564939721554268 0 -0.30122208287694602 0.30680443029777449 0 -0.28492426902351931 0.29564939721554268 0 -0.30122208287694602 0.30680443029777449 0 -0.27884925609559402 0.2994618444473342 0 -0.28806750441784218 0.30777691021503539 0 -0.27951005830433717 0.31883762693440559 0 -0.27884925609559402 0.2994618444473342 0 -0.28806750441784218 0.30777691021503539 0 -0.28492426902351931 0.29564939721554268 0 -0.27884925609559402 0.2994618444473342 0 -0.28492426902351931 0.29564939721554268 0 -0.28806750441784218 0.30777691021503539 0 -0.30122208287694602 0.30680443029777449 0 -0.29823308515039881 0.3194439149862881 0 -0.30788440305528081 0.28124048970053123 0 -0.28492426902351931 0.29564939721554268 0 -0.30788440305528081 0.28124048970053123 0 -0.28534497150971999 0.27921297163318121 0 -0.28492426902351931 0.29564939721554268 0 -0.30788440305528081 0.28124048970053123 0 -0.28492426902351931 0.29564939721554268 0 -0.30122208287694602 0.30680443029777449 0 -0.32295012989168442 0.2984785203441036 0 -0.30788440305528081 0.28124048970053123 0 -0.30122208287694602 0.30680443029777449 0 -0.31680501379559067 0.31239977765069882 0 -0.30122208287694602 0.30680443029777449 0 -0.3083389021850233 0.31817680440856688 0 -0.30813498505526538 0.32642274985296632 0 -0.29823308515039881 0.3194439149862881 0 -0.30358127457662859 0.33585265867855402 0 -0.3083389021850233 0.31817680440856688 0 -0.30813498505526538 0.32642274985296632 0 -0.29823308515039881 0.3194439149862881 0 -0.3083389021850233 0.31817680440856688 0 -0.30813498505526538 0.32642274985296632 0 -0.31584167371675448 0.3235921532665671 0 -0.30122208287694602 0.30680443029777449 0 -0.3083389021850233 0.31817680440856688 0 -0.29823308515039881 0.3194439149862881 0 -0.30358127457662859 0.33585265867855402 0 -0.31481055835620558 0.34379021438044111 0 -0.30358127457662859 0.33585265867855402 0 -0.31481055835620558 0.34379021438044111 0 -0.31467998964752159 0.33504821792485528 0 -0.30358127457662859 0.33585265867855402 0 -0.30279313696852911 0.34672506133127079 0 -0.31481055835620558 0.34379021438044111 0 -0.30813498505526538 0.32642274985296632 0 -0.30358127457662859 0.33585265867855402 0 -0.31467998964752159 0.33504821792485528 0 -0.30358127457662859 0.33585265867855402 0 -0.31467998964752159 0.33504821792485528 0 -0.30358127457662859 0.33585265867855402 0 -0.29065711509677011 0.34758335487461628 0 -0.30279313696852911 0.34672506133127079 0 -0.30358127457662859 0.33585265867855402 0 -0.27654082117140022 0.33781256508022223 0 -0.29065711509677011 0.34758335487461628 0 -0.30358127457662859 0.33585265867855402 0 -0.27654082117140022 0.33781256508022223 0 -0.30358127457662859 0.33585265867855402 0 -0.27951005830433717 0.31883762693440559 0 -0.27654082117140022 0.33781256508022223 0 -0.29823308515039881 0.3194439149862881 0 -0.30358127457662859 0.33585265867855402 0 -0.27951005830433717 0.31883762693440559 0 -0.28806750441784218 0.30777691021503539 0 -0.29823308515039881 0.3194439149862881 0 -0.27951005830433717 0.31883762693440559 0 -0.30358127457662859 0.33585265867855402 0 -0.27951005830433717 0.31883762693440559 0 -0.27951005830433717 0.31883762693440559 0 -0.27654082117140022 0.33781256508022223 0 -0.26172509430154473 0.32366853924087619 0 -0.27654082117140022 0.33781256508022223 0 -0.24950036776617149 0.33977247148188838 0 -0.27654082117140022 0.33781256508022223 0 -0.26172509430154473 0.32366853924087619 0 -0.24950036776617149 0.33977247148188838 0 -0.26172509430154473 0.32366853924087619 0 -0.24763538223376991 0.32009743751760639 0 -0.24950036776617149 0.33977247148188838 0 -0.2554388420320447 0.30182259519025828 0 -0.26172509430154473 0.32366853924087619 0 -0.24763538223376991 0.32009743751760639 0 -0.2554388420320447 0.30182259519025828 0 -0.27951005830433717 0.31883762693440559 0 -0.26172509430154473 0.32366853924087619 0 -0.26055833468296219 0.36631583936561102 0 -0.25917670923047809 0.37651563189171899 0 -0.23713730694341101 0.36722144970416198 0 -0.26055833468296219 0.36631583936561102 0 -0.27011908161856563 0.37394893670089352 0 -0.25917670923047809 0.37651563189171899 0 -0.27084634217665471 0.35457410310378179 0 -0.249690785978991 0.35612464654265219 0 -0.24950036776617149 0.33977247148188838 0 -0.26055833468296219 0.36631583936561102 0 -0.27084634217665471 0.35457410310378179 0 -0.249690785978991 0.35612464654265219 0 -0.27654082117140022 0.33781256508022223 0 -0.27084634217665471 0.35457410310378179 0 -0.24950036776617149 0.33977247148188838 0 -0.27654082117140022 0.33781256508022223 0 -0.27084634217665471 0.35457410310378179 0 -0.29065711509677011 0.34758335487461628 0 -0.27285827861250522 0.36506174359127003 0 -0.27971102883430071 0.37189513060139268 0 -0.28486512857043672 0.35928643916751057 0 -0.27084634217665471 0.35457410310378179 0 -0.27285827861250522 0.36506174359127003 0 -0.28486512857043672 0.35928643916751057 0 -0.26055833468296219 0.36631583936561102 0 -0.27084634217665471 0.35457410310378179 0 -0.27285827861250522 0.36506174359127003 0 -0.26055833468296219 0.36631583936561102 0 -0.27285827861250522 0.36506174359127003 0 -0.27011908161856563 0.37394893670089352 0 -0.27011908161856563 0.37394893670089352 0 -0.27971102883430071 0.37189513060139268 0 -0.27696807511620247 0.37840752701049662 0 -0.27285827861250522 0.36506174359127003 0 -0.27011908161856563 0.37394893670089352 0 -0.27971102883430071 0.37189513060139268 0 -0.27971102883430071 0.37189513060139268 0 -0.30212359984451193 0.35967401739147181 0 -0.27971102883430071 0.37189513060139268 0 -0.29774754270192438 0.37321681601184992 0 -0.30212359984451193 0.35967401739147181 0 -0.27971102883430071 0.37189513060139268 0 -0.28486512857043672 0.35928643916751057 0 -0.30212359984451193 0.35967401739147181 0 -0.27084634217665471 0.35457410310378179 0 -0.28486512857043672 0.35928643916751057 0 -0.29065711509677011 0.34758335487461628 0 -0.28486512857043672 0.35928643916751057 0 -0.29065711509677011 0.34758335487461628 0 -0.30212359984451193 0.35967401739147181 0 -0.30279313696852911 0.34672506133127079 0 -0.30212359984451193 0.35967401739147181 0 -0.31481055835620558 0.34379021438044111 0 -0.29065711509677011 0.34758335487461628 0 -0.30279313696852911 0.34672506133127079 0 -0.30212359984451193 0.35967401739147181 0 -0.29774754270192438 0.37321681601184992 0 -0.30212359984451193 0.35967401739147181 0 -0.310408327628105 0.37971772330547438 0 -0.30212359984451193 0.35967401739147181 0 -0.31926974511360939 0.36822290264917001 0 -0.310408327628105 0.37971772330547438 0 -0.31926974511360939 0.36822290264917001 0 -0.33365252245007598 0.3724742073500571 0 -0.33044134503393269 0.36007190963535168 0 -0.31926974511360939 0.36822290264917001 0 -0.33365252245007598 0.3724742073500571 0 -0.32504544286596698 0.38113903620116391 0 -0.33365252245007598 0.3724742073500571 0 -0.33044134503393269 0.36007190963535168 0 -0.34165256997266968 0.36309264646621048 0 -0.33365252245007598 0.3724742073500571 0 -0.34165256997266968 0.36309264646621048 0 -0.34926146523577789 0.37615235105469108 0 -0.33044134503393269 0.36007190963535168 0 -0.34165256997266968 0.36309264646621048 0 -0.33842143760773519 0.35289903120482141 0 -0.33044134503393269 0.36007190963535168 0 -0.33842143760773519 0.35289903120482141 0 -0.32453617085472403 0.34745290418155222 0 -0.33842143760773519 0.35289903120482141 0 -0.32453617085472403 0.34745290418155222 0 -0.33929167430907381 0.33940703215273088 0 -0.31926974511360939 0.36822290264917001 0 -0.33044134503393269 0.36007190963535168 0 -0.32453617085472403 0.34745290418155222 0 -0.30212359984451193 0.35967401739147181 0 -0.32453617085472403 0.34745290418155222 0 -0.31481055835620558 0.34379021438044111 0 -0.30212359984451193 0.35967401739147181 0 -0.31926974511360939 0.36822290264917001 0 -0.32453617085472403 0.34745290418155222 0 -0.30212359984451193 0.35967401739147181 0 -0.32453617085472403 0.34745290418155222 0 -0.31926974511360939 0.36822290264917001 0 -0.32453617085472403 0.34745290418155222 0 -0.32453617085472403 0.34745290418155222 0 -0.33070577441402049 0.32312090696532181 0 -0.32453617085472403 0.34745290418155222 0 -0.31467998964752159 0.33504821792485528 0 -0.33070577441402049 0.32312090696532181 0 -0.32453617085472403 0.34745290418155222 0 -0.31481055835620558 0.34379021438044111 0 -0.31467998964752159 0.33504821792485528 0 -0.30813498505526538 0.32642274985296632 0 -0.31467998964752159 0.33504821792485528 0 -0.31584167371675448 0.3235921532665671 0 -0.31467998964752159 0.33504821792485528 0 -0.31584167371675448 0.3235921532665671 0 -0.33070577441402049 0.32312090696532181 0 -0.33562636577471677 0.30956726244046101 0 -0.31680501379559067 0.31239977765069882 0 -0.33070577441402049 0.32312090696532181 0 -0.31680501379559067 0.31239977765069882 0 -0.3083389021850233 0.31817680440856688 0 -0.31584167371675448 0.3235921532665671 0 -0.31680501379559067 0.31239977765069882 0 -0.31584167371675448 0.3235921532665671 0 -0.33070577441402049 0.32312090696532181 0 -0.33562636577471677 0.30956726244046101 0 -0.33070577441402049 0.32312090696532181 0 -0.34316999014979288 0.32499331962048772 0 -0.33562636577471677 0.30956726244046101 0 -0.34316999014979288 0.32499331962048772 0 -0.34949918572392452 0.31409360006246723 0 -0.33070577441402049 0.32312090696532181 0 -0.34316999014979288 0.32499331962048772 0 -0.33929167430907381 0.33940703215273088 0 -0.32453617085472403 0.34745290418155222 0 -0.33070577441402049 0.32312090696532181 0 -0.33929167430907381 0.33940703215273088 0 -0.32453617085472403 0.34745290418155222 0 -0.33929167430907381 0.33940703215273088 0 -0.35404717776342259 0.33136116012390809 0 -0.35899613286983029 0.33462268487128449 0 -0.36131105409511022 0.35894023672452818 0 -0.33929167430907381 0.33940703215273088 0 -0.35404717776342259 0.33136116012390809 0 -0.36131105409511022 0.35894023672452818 0 -0.34316999014979288 0.32499331962048772 0 -0.33929167430907381 0.33940703215273088 0 -0.35404717776342259 0.33136116012390809 0 -0.33929167430907381 0.33940703215273088 0 -0.35404717776342259 0.33136116012390809 0 -0.35404717776342259 0.33136116012390809 0 -0.35955101681268281 0.32836003008490289 0 -0.35404717776342259 0.33136116012390809 0 -0.35899613286983029 0.33462268487128449 0 -0.35955101681268281 0.32836003008490289 0 -0.35899613286983029 0.33462268487128449 0 -0.35955101681268281 0.32836003008490289 0 -0.3617378824973424 0.30367813935152338 0 -0.34949918572392452 0.31409360006246723 0 -0.35955101681268281 0.32836003008490289 0 -0.34316999014979288 0.32499331962048772 0 -0.35404717776342259 0.33136116012390809 0 -0.34949918572392452 0.31409360006246723 0 -0.35404717776342259 0.33136116012390809 0 -0.34949918572392452 0.31409360006246723 0 -0.35955101681268281 0.32836003008490289 0 -0.35404717776342259 0.33136116012390809 0 -0.34949918572392452 0.31409360006246723 0 -0.3617378824973424 0.30367813935152338 0 -0.37479275531364697 0.32004902410297198 0 -0.35955101681268281 0.32836003008490289 0 -0.3617378824973424 0.30367813935152338 0 -0.35955101681268281 0.32836003008490289 0 -0.37479275531364697 0.32004902410297198 0 -0.35955101681268281 0.32836003008490289 0 -0.37479275531364697 0.32004902410297198 0 -0.35955101681268281 0.32836003008490289 0 -0.36984608655811019 0.33217094355441229 0 -0.35899613286983029 0.33462268487128449 0 -0.36766953517154188 0.33856055824563031 0 -0.36664365932978232 0.34616363580984483 0 -0.35899613286983029 0.33462268487128449 0 -0.35955101681268281 0.32836003008490289 0 -0.36984608655811019 0.33217094355441229 0 -0.35899613286983029 0.33462268487128449 0 -0.36984608655811019 0.33217094355441229 0 -0.36766953517154188 0.33856055824563031 0 -0.37819114369664958 0.34150734279125983 0 -0.36766953517154188 0.33856055824563031 0 -0.36664365932978232 0.34616363580984483 0 -0.37819114369664958 0.34150734279125983 0 -0.36984608655811019 0.33217094355441229 0 -0.36766953517154188 0.33856055824563031 0 -0.37819114369664958 0.34150734279125983 0 -0.36664365932978232 0.34616363580984483 0 -0.37129939676277463 0.35272593022440968 0 -0.35899613286983029 0.33462268487128449 0 -0.36664365932978232 0.34616363580984483 0 -0.36131105409511022 0.35894023672452818 0 -0.36664365932978232 0.34616363580984483 0 -0.36131105409511022 0.35894023672452818 0 -0.37129939676277463 0.35272593022440968 0 -0.36131105409511022 0.35894023672452818 0 -0.37129939676277463 0.35272593022440968 0 -0.3712199428361902 0.36077163007600349 0 -0.37970761645854051 0.35334954510064298 0 -0.37129939676277463 0.35272593022440968 0 -0.3712199428361902 0.36077163007600349 0 -0.36131105409511022 0.35894023672452818 0 -0.3712199428361902 0.36077163007600349 0 -0.3714423965936543 0.37115676980905349 0 -0.36131105409511022 0.35894023672452818 0 -0.36857493042679851 0.38651931332514822 0 -0.36131105409511022 0.35894023672452818 0 -0.3714423965936543 0.37115676980905349 0 -0.36857493042679851 0.38651931332514822 0 -0.36131105409511022 0.35894023672452818 0 -0.34926146523577789 0.37615235105469108 0 -0.36857493042679851 0.38651931332514822 0 -0.34165256997266968 0.36309264646621048 0 -0.36131105409511022 0.35894023672452818 0 -0.34926146523577789 0.37615235105469108 0 -0.33842143760773519 0.35289903120482141 0 -0.33929167430907381 0.33940703215273088 0 -0.36131105409511022 0.35894023672452818 0 -0.34165256997266968 0.36309264646621048 0 -0.33842143760773519 0.35289903120482141 0 -0.36131105409511022 0.35894023672452818 0 -0.35404717776342259 0.33136116012390809 0 -0.36131105409511022 0.35894023672452818 0 -0.3496827711698689 0.39268040987209291 0 -0.35644293138043781 0.409945544619227 0 -0.33488442710392369 0.40520667076627859 0 -0.3496827711698689 0.39268040987209291 0 -0.36857493042679851 0.38651931332514822 0 -0.35644293138043781 0.409945544619227 0 -0.3496827711698689 0.39268040987209291 0 -0.34926146523577789 0.37615235105469108 0 -0.33624456647849921 0.38616639809375541 0 -0.3496827711698689 0.39268040987209291 0 -0.34926146523577789 0.37615235105469108 0 -0.36857493042679851 0.38651931332514822 0 -0.3846636590165185 0.37839589911053417 0 -0.3714423965936543 0.37115676980905349 0 -0.36857493042679851 0.38651931332514822 0 -0.37583880675848852 0.41409838992576742 0 -0.36857493042679851 0.38651931332514822 0 -0.35644293138043781 0.409945544619227 0 -0.37583880675848852 0.41409838992576742 0 -0.36857493042679851 0.38651931332514822 0 -0.37583880675848852 0.41409838992576742 0 -0.35672995508104149 0.4296114687999627 0 -0.37583880675848852 0.41409838992576742 0 -0.35672995508104149 0.4296114687999627 0 -0.35644293138043781 0.409945544619227 0 -0.37583880675848852 0.41409838992576742 0 -0.35672995508104149 0.4296114687999627 0 -0.3679218392476955 0.43947225669000839 0 -0.35672995508104149 0.4296114687999627 0 -0.34220444811812317 0.4226483965965151 0 -0.33762110340359192 0.44512454767415438 0 -0.35672995508104149 0.4296114687999627 0 -0.33762110340359192 0.44512454767415438 0 -0.35644293138043781 0.409945544619227 0 -0.34220444811812317 0.4226483965965151 0 -0.33488442710392369 0.40520667076627859 0 -0.35672995508104149 0.4296114687999627 0 -0.35644293138043781 0.409945544619227 0 -0.34220444811812317 0.4226483965965151 0 -0.34220444811812317 0.4226483965965151 0 -0.32684632218769327 0.42483600886767969 0 -0.33488442710392369 0.40520667076627859 0 -0.34220444811812317 0.4226483965965151 0 -0.32684632218769327 0.42483600886767969 0 -0.33762110340359192 0.44512454767415438 0 -0.32684632218769327 0.42483600886767969 0 -0.31791466818218173 0.43722378436225029 0 -0.33762110340359192 0.44512454767415438 0 -0.32684632218769327 0.42483600886767969 0 -0.31791466818218173 0.43722378436225029 0 -0.31122566133468349 0.42290386137896269 0 -0.32684632218769327 0.42483600886767969 0 -0.32043305853781079 0.41290819164599513 0 -0.33488442710392369 0.40520667076627859 0 -0.32043305853781079 0.41290819164599513 0 -0.32047198843137842 0.40183151763264979 0 -0.33488442710392369 0.40520667076627859 0 -0.32043305853781079 0.41290819164599513 0 -0.30873689363137541 0.40976289958440448 0 -0.31122566133468349 0.42290386137896269 0 -0.32684632218769327 0.42483600886767969 0 -0.32043305853781079 0.41290819164599513 0 -0.31122566133468349 0.42290386137896269 0 -0.32043305853781079 0.41290819164599513 0 -0.32047198843137842 0.40183151763264979 0 -0.30873689363137541 0.40976289958440448 0 -0.32047198843137842 0.40183151763264979 0 -0.31400331937249237 0.38899290111678719 0 -0.30873689363137541 0.40976289958440448 0 -0.32481996863089119 0.3913861289029687 0 -0.32047198843137842 0.40183151763264979 0 -0.31400331937249237 0.38899290111678719 0 -0.32481996863089119 0.3913861289029687 0 -0.32047198843137842 0.40183151763264979 0 -0.33488442710392369 0.40520667076627859 0 -0.32481996863089119 0.3913861289029687 0 -0.33488442710392369 0.40520667076627859 0 -0.33624456647849921 0.38616639809375541 0 -0.3496827711698689 0.39268040987209291 0 -0.33488442710392369 0.40520667076627859 0 -0.33624456647849921 0.38616639809375541 0 -0.33365252245007598 0.3724742073500571 0 -0.34926146523577789 0.37615235105469108 0 -0.33624456647849921 0.38616639809375541 0 -0.32481996863089119 0.3913861289029687 0 -0.33624456647849921 0.38616639809375541 0 -0.32504544286596698 0.38113903620116391 0 -0.33365252245007598 0.3724742073500571 0 -0.33624456647849921 0.38616639809375541 0 -0.32504544286596698 0.38113903620116391 0 -0.31926974511360939 0.36822290264917001 0 -0.31400331937249237 0.38899290111678719 0 -0.31926974511360939 0.36822290264917001 0 -0.32504544286596698 0.38113903620116391 0 -0.31400331937249237 0.38899290111678719 0 -0.31926974511360939 0.36822290264917001 0 -0.31400331937249237 0.38899290111678719 0 -0.310408327628105 0.37971772330547438 0 -0.32481996863089119 0.3913861289029687 0 -0.32504544286596698 0.38113903620116391 0 -0.31400331937249237 0.38899290111678719 0 -0.310408327628105 0.37971772330547438 0 -0.28376660150192767 0.38481420357208368 0 -0.29774754270192438 0.37321681601184992 0 -0.310408327628105 0.37971772330547438 0 -0.28642874678719138 0.38184480127075809 0 -0.31400331937249237 0.38899290111678719 0 -0.310408327628105 0.37971772330547438 0 -0.30761662593335293 0.38640639324362169 0 -0.310408327628105 0.37971772330547438 0 -0.30761662593335293 0.38640639324362169 0 -0.29537557536404102 0.38932988439565841 0 -0.30761662593335293 0.38640639324362169 0 -0.30627289342361641 0.39683898074101359 0 -0.29473473475724488 0.40219372901924122 0 -0.30761662593335293 0.38640639324362169 0 -0.29473473475724488 0.40219372901924122 0 -0.31400331937249237 0.38899290111678719 0 -0.30873689363137541 0.40976289958440448 0 -0.31400331937249237 0.38899290111678719 0 -0.30627289342361641 0.39683898074101359 0 -0.30873689363137541 0.40976289958440448 0 -0.30761662593335293 0.38640639324362169 0 -0.29473473475724488 0.40219372901924122 0 -0.29537557536404102 0.38932988439565841 0 -0.31400331937249237 0.38899290111678719 0 -0.30761662593335293 0.38640639324362169 0 -0.30627289342361641 0.39683898074101359 0 -0.30627289342361641 0.39683898074101359 0 -0.29473473475724488 0.40219372901924122 0 -0.30873689363137541 0.40976289958440448 0 -0.29473473475724488 0.40219372901924122 0 -0.28663870764095623 0.394402727768636 0 -0.27870461930042822 0.40050510698877728 0 -0.28663870764095623 0.394402727768636 0 -0.29537557536404102 0.38932988439565841 0 -0.28757704532705253 0.38949045357371398 0 -0.29473473475724488 0.40219372901924122 0 -0.28663870764095623 0.394402727768636 0 -0.29537557536404102 0.38932988439565841 0 -0.28663870764095623 0.394402727768636 0 -0.28094466896703479 0.39200059259206421 0 -0.27870461930042822 0.40050510698877728 0 -0.28663870764095623 0.394402727768636 0 -0.28757704532705253 0.38949045357371398 0 -0.28452729680128508 0.38941499855847778 0 -0.28663870764095623 0.394402727768636 0 -0.28452729680128508 0.38941499855847778 0 -0.28094466896703479 0.39200059259206421 0 -0.310408327628105 0.37971772330547438 0 -0.28376660150192767 0.38481420357208368 0 -0.28642874678719138 0.38184480127075809 0 -0.27971102883430071 0.37189513060139268 0 -0.29774754270192438 0.37321681601184992 0 -0.28642874678719138 0.38184480127075809 0 -0.310408327628105 0.37971772330547438 0 -0.29537557536404102 0.38932988439565841 0 -0.28376660150192767 0.38481420357208368 0 -0.29537557536404102 0.38932988439565841 0 -0.28757704532705253 0.38949045357371398 0 -0.28376660150192767 0.38481420357208368 0 -0.28757704532705253 0.38949045357371398 0 -0.28452729680128508 0.38941499855847778 0 -0.28376660150192767 0.38481420357208368 0 -0.28452729680128508 0.38941499855847778 0 -0.28376660150192767 0.38481420357208368 0 -0.28094466896703479 0.39200059259206421 0 -0.28376660150192767 0.38481420357208368 0 -0.27260804274310452 0.39264347133087391 0 -0.25645537968269932 0.38915069421898663 0 -0.28376660150192767 0.38481420357208368 0 -0.2714420632349453 0.38549774774487211 0 -0.25645537968269932 0.38915069421898663 0 -0.27971102883430071 0.37189513060139268 0 -0.28642874678719138 0.38184480127075809 0 -0.27696807511620247 0.37840752701049662 0 -0.28376660150192767 0.38481420357208368 0 -0.25645537968269932 0.38915069421898663 0 -0.28642874678719138 0.38184480127075809 0 -0.27696807511620247 0.37840752701049662 0 -0.2714420632349453 0.38549774774487211 0 -0.27011908161856563 0.37394893670089352 0 -0.27696807511620247 0.37840752701049662 0 -0.2714420632349453 0.38549774774487211 0 -0.27011908161856563 0.37394893670089352 0 -0.2714420632349453 0.38549774774487211 0 -0.25917670923047809 0.37651563189171899 0 -0.28642874678719138 0.38184480127075809 0 -0.2714420632349453 0.38549774774487211 0 -0.28376660150192767 0.38481420357208368 0 -0.28642874678719138 0.38184480127075809 0 -0.2714420632349453 0.38549774774487211 0 -0.28376660150192767 0.38481420357208368 0 -0.28094466896703479 0.39200059259206421 0 -0.27260804274310452 0.39264347133087391 0 -0.28094466896703479 0.39200059259206421 0 -0.27870461930042822 0.40050510698877728 0 -0.27260804274310452 0.39264347133087391 0 -0.27870461930042822 0.40050510698877728 0 -0.2632604101466447 0.39687554229201549 0 -0.28185284358113699 0.41798106479486058 0 -0.27870461930042822 0.40050510698877728 0 -0.2632604101466447 0.39687554229201549 0 -0.27870461930042822 0.40050510698877728 0 -0.27260804274310452 0.39264347133087391 0 -0.2632604101466447 0.39687554229201549 0 -0.2632604101466447 0.39687554229201549 0 -0.2592586661638796 0.41393885071154291 0 -0.2478224811489893 0.40173431354211131 0 -0.2632604101466447 0.39687554229201549 0 -0.25645537968269932 0.38915069421898663 0 -0.24366061760356261 0.39226936826459352 0 -0.27260804274310452 0.39264347133087391 0 -0.2632604101466447 0.39687554229201549 0 -0.25645537968269932 0.38915069421898663 0 -0.2632604101466447 0.39687554229201549 0 -0.24366061760356261 0.39226936826459352 0 -0.2632604101466447 0.39687554229201549 0 -0.24366061760356261 0.39226936826459352 0 -0.2478224811489893 0.40173431354211131 0 -0.2632604101466447 0.39687554229201549 0 -0.25645537968269932 0.38915069421898663 0 -0.25645537968269932 0.38915069421898663 0 -0.24366061760356261 0.39226936826459352 0 -0.25645537968269932 0.38915069421898663 0 -0.25917670923047809 0.37651563189171899 0 -0.23713730694341101 0.36722144970416198 0 -0.2714420632349453 0.38549774774487211 0 -0.25645537968269932 0.38915069421898663 0 -0.2714420632349453 0.38549774774487211 0 -0.25645537968269932 0.38915069421898663 0 -0.25917670923047809 0.37651563189171899 0 -0.25270685726375619 0.42702565606867421 0 -0.2592586661638796 0.41393885071154291 0 -0.26771325728140732 0.43530976238983771 0 -0.25270685726375619 0.42702565606867421 0 -0.26771325728140732 0.43530976238983771 0 -0.2531768712920614 0.43909920263986518 0 -0.25270685726375619 0.42702565606867421 0 -0.2531768712920614 0.43909920263986518 0 -0.24619187234414841 0.43451859309757429 0 -0.2592586661638796 0.41393885071154291 0 -0.245765529262127 0.41037427772549773 0 -0.2454058317206243 0.41865430787761088 0 -0.25270685726375619 0.42702565606867421 0 -0.2592586661638796 0.41393885071154291 0 -0.2454058317206243 0.41865430787761088 0 -0.2592586661638796 0.41393885071154291 0 -0.245765529262127 0.41037427772549773 0 -0.2478224811489893 0.40173431354211131 0 -0.2632604101466447 0.39687554229201549 0 -0.2592586661638796 0.41393885071154291 0 -0.28185284358113699 0.41798106479486058 0 -0.2632604101466447 0.39687554229201549 0 -0.28185284358113699 0.41798106479486058 0 -0.2592586661638796 0.41393885071154291 0 -0.26771325728140732 0.43530976238983771 0 -0.28185284358113699 0.41798106479486058 0 -0.26771325728140732 0.43530976238983771 0 -0.28185284358113699 0.41798106479486058 0 -0.26771325728140732 0.43530976238983771 0 -0.28250540457773943 0.4359192191305325 0 -0.28185284358113699 0.41798106479486058 0 -0.28250540457773943 0.4359192191305325 0 -0.29592138458978751 0.43395121253729418 0 -0.28185284358113699 0.41798106479486058 0 -0.29592138458978751 0.43395121253729418 0 -0.28185284358113699 0.41798106479486058 0 -0.29592138458978751 0.43395121253729418 0 -0.28185284358113699 0.41798106479486058 0 -0.2980193659988547 0.41784027512933791 0 -0.29473473475724488 0.40219372901924122 0 -0.27870461930042822 0.40050510698877728 0 -0.28185284358113699 0.41798106479486058 0 -0.29473473475724488 0.40219372901924122 0 -0.28185284358113699 0.41798106479486058 0 -0.29473473475724488 0.40219372901924122 0 -0.28185284358113699 0.41798106479486058 0 -0.2980193659988547 0.41784027512933791 0 -0.29473473475724488 0.40219372901924122 0 -0.2980193659988547 0.41784027512933791 0 -0.30873689363137541 0.40976289958440448 0 -0.2980193659988547 0.41784027512933791 0 -0.30873689363137541 0.40976289958440448 0 -0.31122566133468349 0.42290386137896269 0 -0.29592138458978751 0.43395121253729418 0 -0.2980193659988547 0.41784027512933791 0 -0.31122566133468349 0.42290386137896269 0 -0.31791466818218173 0.43722378436225029 0 -0.29592138458978751 0.43395121253729418 0 -0.31122566133468349 0.42290386137896269 0 -0.31791466818218173 0.43722378436225029 0 -0.29592138458978751 0.43395121253729418 0 -0.30998992559843702 0.44992136027972868 0 -0.29592138458978751 0.43395121253729418 0 -0.30998992559843702 0.44992136027972868 0 -0.29592138458978751 0.43395121253729418 0 -0.30998992559843702 0.44992136027972868 0 -0.29401723559938558 0.44925388584699788 0 -0.30998992559843702 0.44992136027972868 0 -0.30176336287756123 0.45804527692573299 0 -0.29401723559938558 0.44925388584699788 0 -0.30176336287756123 0.45804527692573299 0 -0.2887963925450957 0.46376389589536199 0 -0.31424989776732648 0.46924196568084348 0 -0.30998992559843702 0.44992136027972868 0 -0.30176336287756123 0.45804527692573299 0 -0.31424989776732648 0.46924196568084348 0 -0.2887963925450957 0.46376389589536199 0 -0.31424989776732648 0.46924196568084348 0 -0.30176336287756123 0.45804527692573299 0 -0.2887963925450957 0.46376389589536199 0 -0.29401723559938558 0.44925388584699788 0 -0.2887963925450957 0.46376389589536199 0 -0.29401723559938558 0.44925388584699788 0 -0.2812016649341596 0.45447810064501198 0 -0.28250540457773943 0.4359192191305325 0 -0.29592138458978751 0.43395121253729418 0 -0.29401723559938558 0.44925388584699788 0 -0.29401723559938558 0.44925388584699788 0 -0.27865014426929241 0.44660879472780812 0 -0.2812016649341596 0.45447810064501198 0 -0.28250540457773943 0.4359192191305325 0 -0.29401723559938558 0.44925388584699788 0 -0.27865014426929241 0.44660879472780812 0 -0.26771325728140732 0.43530976238983771 0 -0.27865014426929241 0.44660879472780812 0 -0.26334288732286493 0.45828582610988039 0 -0.27865014426929241 0.44660879472780812 0 -0.2812016649341596 0.45447810064501198 0 -0.26334288732286493 0.45828582610988039 0 -0.26771325728140732 0.43530976238983771 0 -0.28250540457773943 0.4359192191305325 0 -0.27865014426929241 0.44660879472780812 0 -0.2887963925450957 0.46376389589536199 0 -0.26334288732286493 0.45828582610988039 0 -0.2887963925450957 0.46376389589536199 0 -0.26334288732286493 0.45828582610988039 0 -0.28781336607151292 0.47243166421223148 0 -0.2887963925450957 0.46376389589536199 0 -0.2812016649341596 0.45447810064501198 0 -0.26334288732286493 0.45828582610988039 0 -0.26334288732286493 0.45828582610988039 0 -0.28781336607151292 0.47243166421223148 0 -0.26334288732286493 0.45828582610988039 0 -0.26165895026886032 0.46528287192225187 0 -0.28781336607151292 0.47243166421223148 0 -0.26334288732286493 0.45828582610988039 0 -0.25357367098167599 0.45263845998481339 0 -0.26334288732286493 0.45828582610988039 0 -0.26165895026886032 0.46528287192225187 0 -0.25111327540907219 0.45565378518160032 0 -0.26334288732286493 0.45828582610988039 0 -0.25111327540907219 0.45565378518160032 0 -0.25357367098167599 0.45263845998481339 0 -0.26334288732286493 0.45828582610988039 0 -0.25111327540907219 0.45565378518160032 0 -0.25111327540907219 0.45565378518160032 0 -0.25357367098167599 0.45263845998481339 0 -0.26771325728140732 0.43530976238983771 0 -0.25357367098167599 0.45263845998481339 0 -0.26771325728140732 0.43530976238983771 0 -0.25357367098167599 0.45263845998481339 0 -0.2531768712920614 0.43909920263986518 0 -0.26771325728140732 0.43530976238983771 0 -0.26334288732286493 0.45828582610988039 0 -0.25357367098167599 0.45263845998481339 0 -0.26967950216450559 0.50000000000000155 0 -0.27774701137367358 0.48567907498319168 0 -0.24828146388832609 0.48645519182638453 0 -0.26967950216450559 0.50000000000000155 0 -0.24828146388832609 0.48645519182638453 0 -0.26967950216450559 0.50000000000000155 0 -0.24926405305611979 0.5 0 -0.24828146388832609 0.48645519182638453 0 -0.26165895026886032 0.46528287192225187 0 -0.24240542842966589 0.47206345581143311 0 -0.24828146388832609 0.48645519182638453 0 -0.26165895026886032 0.46528287192225187 0 -0.27774701137367358 0.48567907498319168 0 -0.24828146388832609 0.48645519182638453 0 -0.26165895026886032 0.46528287192225187 0 -0.27774701137367358 0.48567907498319168 0 -0.28781336607151292 0.47243166421223148 0 -0.26165895026886032 0.46528287192225187 0 -0.28781336607151292 0.47243166421223148 0 -0.27774701137367358 0.48567907498319168 0 -0.29385655103516628 0.48606272349404378 0 -0.29829493694458598 0.5 0 -0.26967950216450559 0.50000000000000155 0 -0.27774701137367358 0.48567907498319168 0 -0.29829493694458598 0.5 0 -0.27774701137367358 0.48567907498319168 0 -0.29385655103516628 0.48606272349404378 0 -0.28781336607151292 0.47243166421223148 0 -0.2887963925450957 0.46376389589536199 0 -0.28781336607151292 0.47243166421223148 0 -0.30186380282070302 0.47627207321472548 0 -0.28781336607151292 0.47243166421223148 0 -0.30186380282070302 0.47627207321472548 0 -0.28781336607151292 0.47243166421223148 0 -0.31037344220417651 0.48547314116196139 0 -0.28781336607151292 0.47243166421223148 0 -0.30186380282070302 0.47627207321472548 0 -0.31037344220417651 0.48547314116196139 0 -0.2887963925450957 0.46376389589536199 0 -0.30186380282070302 0.47627207321472548 0 -0.31424989776732648 0.46924196568084348 0 -0.30186380282070302 0.47627207321472548 0 -0.31037344220417651 0.48547314116196139 0 -0.31424989776732648 0.46924196568084348 0 -0.29385655103516628 0.48606272349404378 0 -0.28781336607151292 0.47243166421223148 0 -0.31037344220417651 0.48547314116196139 0 -0.29385655103516628 0.48606272349404378 0 -0.29829493694458598 0.5 0 -0.31037344220417651 0.48547314116196139 0 -0.29829493694458598 0.5 0 -0.31037344220417651 0.48547314116196139 0 -0.32691037172466619 0.5 0 -0.31037344220417651 0.48547314116196139 0 -0.32691037172466619 0.5 0 -0.32348067122573948 0.48180652945258318 0 -0.32691037172466619 0.5 0 -0.33970340298955731 0.47472003546632491 0 -0.35552580650474658 0.5 0 -0.32691037172466619 0.5 0 -0.33970340298955731 0.47472003546632491 0 -0.32348067122573948 0.48180652945258318 0 -0.31037344220417651 0.48547314116196139 0 -0.31424989776732648 0.46924196568084348 0 -0.32348067122573948 0.48180652945258318 0 -0.33970340298955731 0.47472003546632491 0 -0.31424989776732648 0.46924196568084348 0 -0.32348067122573948 0.48180652945258318 0 -0.33970340298955731 0.47472003546632491 0 -0.31424989776732648 0.46924196568084348 0 -0.33970340298955731 0.47472003546632491 0 -0.31424989776732648 0.46924196568084348 0 -0.32389579958821879 0.45524633869266029 0 -0.30998992559843702 0.44992136027972868 0 -0.31424989776732648 0.46924196568084348 0 -0.32389579958821879 0.45524633869266029 0 -0.31791466818218173 0.43722378436225029 0 -0.32389579958821879 0.45524633869266029 0 -0.33762110340359192 0.44512454767415438 0 -0.31791466818218173 0.43722378436225029 0 -0.30998992559843702 0.44992136027972868 0 -0.32389579958821879 0.45524633869266029 0 -0.33970340298955731 0.47472003546632491 0 -0.32389579958821879 0.45524633869266029 0 -0.33762110340359192 0.44512454767415438 0 -0.33970340298955731 0.47472003546632491 0 -0.33762110340359192 0.44512454767415438 0 -0.3562571539113244 0.45151907837129379 0 -0.33970340298955731 0.47472003546632491 0 -0.3562571539113244 0.45151907837129379 0 -0.36542440675862142 0.46763896378353331 0 -0.35672995508104149 0.4296114687999627 0 -0.33762110340359192 0.44512454767415438 0 -0.3562571539113244 0.45151907837129379 0 -0.35672995508104149 0.4296114687999627 0 -0.3562571539113244 0.45151907837129379 0 -0.3679218392476955 0.43947225669000839 0 -0.3562571539113244 0.45151907837129379 0 -0.37014221598743879 0.45254719781377939 0 -0.3679218392476955 0.43947225669000839 0 -0.37946432347585529 0.44800085751087099 0 -0.37014221598743879 0.45254719781377939 0 -0.3679218392476955 0.43947225669000839 0 -0.3562571539113244 0.45151907837129379 0 -0.37014221598743879 0.45254719781377939 0 -0.36542440675862142 0.46763896378353331 0 -0.38110673566462211 0.4549507225842605 0 -0.37014221598743879 0.45254719781377939 0 -0.36542440675862142 0.46763896378353331 0 -0.38213267700749892 0.47875881473444609 0 -0.36542440675862142 0.46763896378353331 0 -0.36744605840715122 0.48555164383741989 0 -0.38414124128482702 0.5 0 -0.36744605840715122 0.48555164383741989 0 -0.35552580650474658 0.5 0 -0.33970340298955731 0.47472003546632491 0 -0.36744605840715122 0.48555164383741989 0 -0.35552580650474658 0.5 0 -0.33970340298955731 0.47472003546632491 0 -0.36542440675862142 0.46763896378353331 0 -0.36744605840715122 0.48555164383741989 0 -0.1507316909468501 0.47746120007044113 0 -0.14072378325908569 0.5 0 -0.16533582729280111 0.5 0 -0.1507316909468501 0.47746120007044113 0 -0.14072378325908569 0.5 0 -0.12841776124222809 0.48425750950777452 0 -0.14072378325908569 0.5 0 -0.12841776124222809 0.48425750950777452 0 -0.11611173922537051 0.5 0 -0.1507316909468501 0.47746120007044113 0 -0.12841776124222809 0.48425750950777452 0 -0.13194290306208231 0.46635924932073208 0 -0.13194290306208231 0.46635924932073208 0 -0.1337665585577798 0.44637311626676413 0 -0.1190641749427971 0.45455009863219809 0 -0.13194290306208231 0.46635924932073208 0 -0.1337665585577798 0.44637311626676413 0 -0.14580758257304191 0.45748481404936292 0 -0.1337665585577798 0.44637311626676413 0 -0.13501525506328199 0.43066732253695778 0 -0.1177249759244212 0.43631310851046362 0 -0.1337665585577798 0.44637311626676413 0 -0.14956848191379521 0.43833830275332603 0 -0.13501525506328199 0.43066732253695778 0 -0.1337665585577798 0.44637311626676413 0 -0.14956848191379521 0.43833830275332603 0 -0.14580758257304191 0.45748481404936292 0 -0.14956848191379521 0.43833830275332603 0 -0.14580758257304191 0.45748481404936292 0 -0.16302827838470221 0.45889220183555079 0 -0.1507316909468501 0.47746120007044113 0 -0.14580758257304191 0.45748481404936292 0 -0.16302827838470221 0.45889220183555079 0 -0.1507316909468501 0.47746120007044113 0 -0.13194290306208231 0.46635924932073208 0 -0.14580758257304191 0.45748481404936292 0 -0.16484642872991029 0.44606602242383497 0 -0.17924793122483751 0.44275744975275411 0 -0.15840906522283191 0.4357021074706412 0 -0.17581861272324081 0.44058671518957288 0 -0.17924793122483751 0.44275744975275411 0 -0.15840906522283191 0.4357021074706412 0 -0.14956848191379521 0.43833830275332603 0 -0.16302827838470221 0.45889220183555079 0 -0.18180287538238271 0.4407368924043204 0 -0.15840906522283191 0.4357021074706412 0 -0.14956848191379521 0.43833830275332603 0 -0.16302827838470221 0.45889220183555079 0 -0.16484642872991029 0.44606602242383497 0 -0.17924793122483751 0.44275744975275411 0 -0.15840906522283191 0.4357021074706412 0 -0.14956848191379521 0.43833830275332603 0 -0.16484642872991029 0.44606602242383497 0 -0.15840906522283191 0.4357021074706412 0 -0.16302827838470221 0.45889220183555079 0 -0.16484642872991029 0.44606602242383497 0 -0.17421838241286389 0.4511859216777378 0 -0.17581861272324081 0.44058671518957288 0 -0.18180287538238271 0.4407368924043204 0 -0.15840906522283191 0.4357021074706412 0 -0.17581861272324081 0.44058671518957288 0 -0.17924793122483751 0.44275744975275411 0 -0.18180287538238271 0.4407368924043204 0 -0.17581861272324081 0.44058671518957288 0 -0.17924793122483751 0.44275744975275411 0 -0.17924793122483751 0.44275744975275411 0 -0.17421838241286389 0.4511859216777378 0 -0.1840873490597901 0.44582076730552872 0 -0.16484642872991029 0.44606602242383497 0 -0.17924793122483751 0.44275744975275411 0 -0.17421838241286389 0.4511859216777378 0 -0.17924793122483751 0.44275744975275411 0 -0.1840873490597901 0.44582076730552872 0 -0.18319570286090381 0.44383649505230921 0 -0.17924793122483751 0.44275744975275411 0 -0.18319570286090381 0.44383649505230921 0 -0.18180287538238271 0.4407368924043204 0 -0.17924793122483751 0.44275744975275411 0 -0.18319570286090381 0.44383649505230921 0 -0.17924793122483751 0.44275744975275411 0 -0.1840873490597901 0.44582076730552872 0 -0.18319570286090381 0.44383649505230921 0 -0.18180287538238271 0.4407368924043204 0 -0.1840873490597901 0.44582076730552872 0 -0.18319570286090381 0.44383649505230921 0 -0.16302827838470221 0.45889220183555079 0 -0.17988192466508041 0.46239316707101918 0 -0.17648807485560919 0.47944610091777562 0 -0.16302827838470221 0.45889220183555079 0 -0.17421838241286389 0.4511859216777378 0 -0.17988192466508041 0.46239316707101918 0 -0.17421838241286389 0.4511859216777378 0 -0.1840873490597901 0.44582076730552872 0 -0.17988192466508041 0.46239316707101918 0 -0.1840873490597901 0.44582076730552872 0 -0.17988192466508041 0.46239316707101918 0 -0.19626025194956931 0.47291038365276611 0 -0.17988192466508041 0.46239316707101918 0 -0.17648807485560919 0.47944610091777562 0 -0.19626025194956931 0.47291038365276611 0 -0.16302827838470221 0.45889220183555079 0 -0.17648807485560919 0.47944610091777562 0 -0.1507316909468501 0.47746120007044113 0 -0.16302827838470221 0.45889220183555079 0 -0.17648807485560919 0.47944610091777562 0 -0.1507316909468501 0.47746120007044113 0 -0.17648807485560919 0.47944610091777562 0 -0.16533582729280111 0.5 0 -0.17648807485560919 0.47944610091777562 0 -0.18994787132651639 0.50000000000000033 0 -0.17648807485560919 0.47944610091777562 0 -0.16533582729280111 0.5 0 -0.18994787132651639 0.50000000000000033 0 -0.19626025194956931 0.47291038365276611 0 -0.20843315483934791 0.50000000000000377 0 -0.18994787132651639 0.50000000000000033 0 -0.19626025194956931 0.47291038365276611 0 -0.20843315483934791 0.50000000000000377 0 -0.17648807485560919 0.47944610091777562 0 -0.18994787132651639 0.50000000000000033 0 -0.19626025194956931 0.47291038365276611 0 -0.19626025194956931 0.47291038365276611 0 -0.21272207160664011 0.48140085315621212 0 -0.20548538733596811 0.45936557547914841 0 -0.21272207160664011 0.48140085315621212 0 -0.22688342561214719 0.4729103836527665 0 -0.20548538733596811 0.45936557547914841 0 -0.21272207160664011 0.48140085315621212 0 -0.20843315483934791 0.50000000000000377 0 -0.22884860394773379 0.5 0 -0.19626025194956931 0.47291038365276611 0 -0.21272207160664011 0.48140085315621212 0 -0.20843315483934791 0.50000000000000377 0 -0.21272207160664011 0.48140085315621212 0 -0.22884860394773379 0.5 0 -0.22688342561214719 0.4729103836527665 0 -0.22688342561214719 0.4729103836527665 0 -0.24828146388832609 0.48645519182638453 0 -0.22688342561214719 0.4729103836527665 0 -0.24240542842966589 0.47206345581143311 0 -0.24828146388832609 0.48645519182638453 0 -0.22884860394773379 0.5 0 -0.24926405305611979 0.5 0 -0.24828146388832609 0.48645519182638453 0 -0.22884860394773379 0.5 0 -0.22688342561214719 0.4729103836527665 0 -0.24828146388832609 0.48645519182638453 0 -0.25111327540907219 0.45565378518160032 0 -0.2428179051404081 0.44642079159261722 0 -0.22800980873350879 0.45068148758917498 0 -0.2428179051404081 0.44642079159261722 0 -0.22800980873350879 0.45068148758917498 0 -0.2327757044758586 0.44134032812628848 0 -0.2428179051404081 0.44642079159261722 0 -0.2327757044758586 0.44134032812628848 0 -0.23759758942663539 0.43397557702501499 0 -0.2531768712920614 0.43909920263986518 0 -0.2428179051404081 0.44642079159261722 0 -0.24619187234414841 0.43451859309757429 0 -0.2428179051404081 0.44642079159261722 0 -0.24619187234414841 0.43451859309757429 0 -0.23759758942663539 0.43397557702501499 0 -0.25357367098167599 0.45263845998481339 0 -0.2531768712920614 0.43909920263986518 0 -0.2428179051404081 0.44642079159261722 0 -0.25357367098167599 0.45263845998481339 0 -0.2428179051404081 0.44642079159261722 0 -0.25111327540907219 0.45565378518160032 0 -0.25357367098167599 0.45263845998481339 0 -0.2428179051404081 0.44642079159261722 0 -0.25111327540907219 0.45565378518160032 0 -0.23550453446620789 0.45813407963227182 0 -0.22800980873350879 0.45068148758917498 0 -0.26165895026886032 0.46528287192225187 0 -0.24240542842966589 0.47206345581143311 0 -0.23550453446620789 0.45813407963227182 0 -0.25111327540907219 0.45565378518160032 0 -0.22800980873350879 0.45068148758917498 0 -0.26165895026886032 0.46528287192225187 0 -0.25111327540907219 0.45565378518160032 0 -0.23550453446620789 0.45813407963227182 0 -0.26165895026886032 0.46528287192225187 0 -0.23550453446620789 0.45813407963227182 0 -0.22688342561214719 0.4729103836527665 0 -0.24240542842966589 0.47206345581143311 0 -0.23550453446620789 0.45813407963227182 0 -0.23550453446620789 0.45813407963227182 0 -0.21957478062563729 0.46078187891571942 0 -0.20935011866355549 0.45098528734229171 0 -0.22688342561214719 0.4729103836527665 0 -0.23550453446620789 0.45813407963227182 0 -0.21957478062563729 0.46078187891571942 0 -0.23550453446620789 0.45813407963227182 0 -0.22800980873350879 0.45068148758917498 0 -0.20935011866355549 0.45098528734229171 0 -0.23550453446620789 0.45813407963227182 0 -0.20935011866355549 0.45098528734229171 0 -0.22800980873350879 0.45068148758917498 0 -0.2327757044758586 0.44134032812628848 0 -0.22267751460288229 0.43428345629834691 0 -0.22800980873350879 0.45068148758917498 0 -0.20490634205794531 0.44570918999674969 0 -0.20935011866355549 0.45098528734229171 0 -0.22800980873350879 0.45068148758917498 0 -0.20490634205794531 0.44570918999674969 0 -0.22800980873350879 0.45068148758917498 0 -0.20490634205794531 0.44570918999674969 0 -0.22267751460288229 0.43428345629834691 0 -0.22688342561214719 0.4729103836527665 0 -0.20548538733596811 0.45936557547914841 0 -0.22688342561214719 0.4729103836527665 0 -0.21957478062563729 0.46078187891571942 0 -0.20548538733596811 0.45936557547914841 0 -0.21957478062563729 0.46078187891571942 0 -0.20935011866355549 0.45098528734229171 0 -0.20548538733596811 0.45936557547914841 0 -0.1840873490597901 0.44582076730552872 0 -0.19626025194956931 0.47291038365276611 0 -0.1840873490597901 0.44582076730552872 0 -0.19626025194956931 0.47291038365276611 0 -0.20548538733596811 0.45936557547914841 0 -0.18180287538238271 0.4407368924043204 0 -0.20490634205794531 0.44570918999674969 0 -0.19684315657054219 0.43286020092990818 0 -0.18180287538238271 0.4407368924043204 0 -0.20490634205794531 0.44570918999674969 0 -0.18319570286090381 0.44383649505230921 0 -0.18180287538238271 0.4407368924043204 0 -0.20490634205794531 0.44570918999674969 0 -0.18319570286090381 0.44383649505230921 0 -0.20935011866355549 0.45098528734229171 0 -0.18319570286090381 0.44383649505230921 0 -0.20490634205794531 0.44570918999674969 0 -0.20935011866355549 0.45098528734229171 0 -0.1840873490597901 0.44582076730552872 0 -0.20935011866355549 0.45098528734229171 0 -0.20548538733596811 0.45936557547914841 0 -0.1840873490597901 0.44582076730552872 0 -0.18319570286090381 0.44383649505230921 0 -0.20935011866355549 0.45098528734229171 0 -0.1840873490597901 0.44582076730552872 0 -0.20548538733596811 0.45936557547914841 0 -0.18180287538238271 0.4407368924043204 0 -0.18910721503411371 0.42326011834203681 0 -0.19684315657054219 0.43286020092990818 0 -0.18910721503411371 0.42326011834203681 0 -0.2012476373351286 0.42282878633784499 0 -0.19684315657054219 0.43286020092990818 0 -0.2012476373351286 0.42282878633784499 0 -0.19684315657054219 0.43286020092990818 0 -0.2087655712794845 0.43015882750285189 0 -0.18910721503411371 0.42326011834203681 0 -0.18957058512130889 0.41071289669875638 0 -0.19712582419667579 0.41615104773497841 0 -0.2012476373351286 0.42282878633784499 0 -0.19712582419667579 0.41615104773497841 0 -0.20528837809247441 0.41420488911171233 0 -0.18910721503411371 0.42326011834203681 0 -0.2012476373351286 0.42282878633784499 0 -0.19712582419667579 0.41615104773497841 0 -0.18957058512130889 0.41071289669875638 0 -0.19712582419667579 0.41615104773497841 0 -0.2004153054003536 0.40974854818454137 0 -0.19712582419667579 0.41615104773497841 0 -0.2004153054003536 0.40974854818454137 0 -0.20528837809247441 0.41420488911171233 0 -0.18957058512130889 0.41071289669875638 0 -0.2004153054003536 0.40974854818454137 0 -0.19845243727204431 0.40269470499365279 0 -0.2074716009876823 0.40833071118871378 0 -0.21234635596150131 0.40835252312714831 0 -0.2108940301769569 0.40528763369751969 0 -0.2074716009876823 0.40833071118871378 0 -0.21264514753929589 0.41249993056537099 0 -0.21234635596150131 0.40835252312714831 0 -0.2004153054003536 0.40974854818454137 0 -0.2074716009876823 0.40833071118871378 0 -0.20366449759036401 0.40569869820794918 0 -0.2074716009876823 0.40833071118871378 0 -0.20366449759036401 0.40569869820794918 0 -0.20706869708076639 0.40482330905885372 0 -0.2004153054003536 0.40974854818454137 0 -0.2074716009876823 0.40833071118871378 0 -0.20528837809247441 0.41420488911171233 0 -0.2074716009876823 0.40833071118871378 0 -0.20528837809247441 0.41420488911171233 0 -0.21264514753929589 0.41249993056537099 0 -0.2012476373351286 0.42282878633784499 0 -0.20528837809247441 0.41420488911171233 0 -0.2104978495223355 0.41996462752281338 0 -0.20528837809247441 0.41420488911171233 0 -0.2104978495223355 0.41996462752281338 0 -0.21264514753929589 0.41249993056537099 0 -0.2104978495223355 0.41996462752281338 0 -0.2176961846250007 0.41705260005873168 0 -0.21664988521495759 0.42510198847235231 0 -0.2104978495223355 0.41996462752281338 0 -0.2176961846250007 0.41705260005873168 0 -0.21264514753929589 0.41249993056537099 0 -0.21264514753929589 0.41249993056537099 0 -0.217739689375091 0.4120147738922193 0 -0.21574500442597211 0.4094206822155213 0 -0.2176961846250007 0.41705260005873168 0 -0.21264514753929589 0.41249993056537099 0 -0.217739689375091 0.4120147738922193 0 -0.21966153782494571 0.4081340873287635 0 -0.21497599667759909 0.40622365796861548 0 -0.2181406994682476 0.40499886932760121 0 -0.21574500442597211 0.4094206822155213 0 -0.21966153782494571 0.4081340873287635 0 -0.21497599667759909 0.40622365796861548 0 -0.217739689375091 0.4120147738922193 0 -0.21574500442597211 0.4094206822155213 0 -0.21966153782494571 0.4081340873287635 0 -0.21234635596150131 0.40835252312714831 0 -0.21497599667759909 0.40622365796861548 0 -0.2108940301769569 0.40528763369751969 0 -0.21574500442597211 0.4094206822155213 0 -0.21234635596150131 0.40835252312714831 0 -0.21497599667759909 0.40622365796861548 0 -0.21264514753929589 0.41249993056537099 0 -0.21574500442597211 0.4094206822155213 0 -0.21234635596150131 0.40835252312714831 0 -0.20490634205794531 0.44570918999674969 0 -0.2087655712794845 0.43015882750285189 0 -0.22267751460288229 0.43428345629834691 0 -0.20490634205794531 0.44570918999674969 0 -0.19684315657054219 0.43286020092990818 0 -0.2087655712794845 0.43015882750285189 0 -0.2012476373351286 0.42282878633784499 0 -0.2104978495223355 0.41996462752281338 0 -0.2087655712794845 0.43015882750285189 0 -0.2104978495223355 0.41996462752281338 0 -0.2087655712794845 0.43015882750285189 0 -0.21664988521495759 0.42510198847235231 0 -0.2087655712794845 0.43015882750285189 0 -0.21664988521495759 0.42510198847235231 0 -0.22267751460288229 0.43428345629834691 0 -0.2327757044758586 0.44134032812628848 0 -0.22267751460288229 0.43428345629834691 0 -0.23759758942663539 0.43397557702501499 0 -0.22267751460288229 0.43428345629834691 0 -0.23080858687437 0.42680341551233608 0 -0.23759758942663539 0.43397557702501499 0 -0.23080858687437 0.42680341551233608 0 -0.230601094985072 0.42062177202006418 0 -0.2369778906296349 0.42077590505505769 0 -0.23080858687437 0.42680341551233608 0 -0.22414892039100809 0.42082204453955208 0 -0.230601094985072 0.42062177202006418 0 -0.22267751460288229 0.43428345629834691 0 -0.23080858687437 0.42680341551233608 0 -0.22414892039100809 0.42082204453955208 0 -0.21664988521495759 0.42510198847235231 0 -0.22267751460288229 0.43428345629834691 0 -0.22414892039100809 0.42082204453955208 0 -0.2176961846250007 0.41705260005873168 0 -0.21664988521495759 0.42510198847235231 0 -0.22414892039100809 0.42082204453955208 0 -0.2176961846250007 0.41705260005873168 0 -0.22414892039100809 0.42082204453955208 0 -0.22295057246024039 0.41296656929270892 0 -0.22414892039100809 0.42082204453955208 0 -0.22295057246024039 0.41296656929270892 0 -0.22911425668439009 0.41461801644398549 0 -0.21966153782494571 0.4081340873287635 0 -0.22411764001787771 0.40697879140806692 0 -0.2220569395287148 0.4041481262731057 0 -0.21966153782494571 0.4081340873287635 0 -0.22295057246024039 0.41296656929270892 0 -0.22411764001787771 0.40697879140806692 0 -0.217739689375091 0.4120147738922193 0 -0.21966153782494571 0.4081340873287635 0 -0.22295057246024039 0.41296656929270892 0 -0.2176961846250007 0.41705260005873168 0 -0.217739689375091 0.4120147738922193 0 -0.22295057246024039 0.41296656929270892 0 -0.22295057246024039 0.41296656929270892 0 -0.22732216306646069 0.41016959653563978 0 -0.22911425668439009 0.41461801644398549 0 -0.22295057246024039 0.41296656929270892 0 -0.22411764001787771 0.40697879140806692 0 -0.22732216306646069 0.41016959653563978 0 -0.22411764001787771 0.40697879140806692 0 -0.22732216306646069 0.41016959653563978 0 -0.22847673995294979 0.40551481496938308 0 -0.22732216306646069 0.41016959653563978 0 -0.2317285608231423 0.41052179447019738 0 -0.22847673995294979 0.40551481496938308 0 -0.22732216306646069 0.41016959653563978 0 -0.2317285608231423 0.41052179447019738 0 -0.22911425668439009 0.41461801644398549 0 -0.2317285608231423 0.41052179447019738 0 -0.22911425668439009 0.41461801644398549 0 -0.23615430500619269 0.41290203174296292 0 -0.2317285608231423 0.41052179447019738 0 -0.23379228597014129 0.40678116940160819 0 -0.22847673995294979 0.40551481496938308 0 -0.2317285608231423 0.41052179447019738 0 -0.23379228597014129 0.40678116940160819 0 -0.23615430500619269 0.41290203174296292 0 -0.22414892039100809 0.42082204453955208 0 -0.22911425668439009 0.41461801644398549 0 -0.230601094985072 0.42062177202006418 0 -0.22911425668439009 0.41461801644398549 0 -0.230601094985072 0.42062177202006418 0 -0.23615430500619269 0.41290203174296292 0 -0.2369778906296349 0.42077590505505769 0 -0.23615430500619269 0.41290203174296292 0 -0.2454058317206243 0.41865430787761088 0 -0.230601094985072 0.42062177202006418 0 -0.2369778906296349 0.42077590505505769 0 -0.23615430500619269 0.41290203174296292 0 -0.23615430500619269 0.41290203174296292 0 -0.245765529262127 0.41037427772549773 0 -0.23988857483395309 0.40526575502141809 0 -0.23379228597014129 0.40678116940160819 0 -0.23615430500619269 0.41290203174296292 0 -0.23988857483395309 0.40526575502141809 0 -0.23615430500619269 0.41290203174296292 0 -0.245765529262127 0.41037427772549773 0 -0.2454058317206243 0.41865430787761088 0 -0.25270685726375619 0.42702565606867421 0 -0.2454058317206243 0.41865430787761088 0 -0.24157174199815509 0.42690912596193048 0 -0.25270685726375619 0.42702565606867421 0 -0.24619187234414841 0.43451859309757429 0 -0.24157174199815509 0.42690912596193048 0 -0.24619187234414841 0.43451859309757429 0 -0.23759758942663539 0.43397557702501499 0 -0.24157174199815509 0.42690912596193048 0 -0.23080858687437 0.42680341551233608 0 -0.2369778906296349 0.42077590505505769 0 -0.24157174199815509 0.42690912596193048 0 -0.23080858687437 0.42680341551233608 0 -0.23759758942663539 0.43397557702501499 0 -0.24157174199815509 0.42690912596193048 0 -0.2369778906296349 0.42077590505505769 0 -0.2454058317206243 0.41865430787761088 0 -0.24157174199815509 0.42690912596193048 0 -0.25645537968269932 0.38915069421898663 0 -0.23608271700219169 0.37629713959770739 0 -0.23713730694341101 0.36722144970416198 0 -0.25645537968269932 0.38915069421898663 0 -0.23713730694341101 0.36722144970416198 0 -0.25645537968269932 0.38915069421898663 0 -0.23885099451977129 0.38407489501694608 0 -0.23608271700219169 0.37629713959770739 0 -0.25645537968269932 0.38915069421898663 0 -0.23885099451977129 0.38407489501694608 0 -0.24366061760356261 0.39226936826459352 0 -0.24366061760356261 0.39226936826459352 0 -0.2478224811489893 0.40173431354211131 0 -0.24156496581118311 0.39827704511134032 0 -0.2478224811489893 0.40173431354211131 0 -0.23988857483395309 0.40526575502141809 0 -0.24156496581118311 0.39827704511134032 0 -0.245765529262127 0.41037427772549773 0 -0.2478224811489893 0.40173431354211131 0 -0.23988857483395309 0.40526575502141809 0 -0.23988857483395309 0.40526575502141809 0 -0.23779376736926669 0.40038316468681778 0 -0.24156496581118311 0.39827704511134032 0 -0.23779376736926669 0.40038316468681778 0 -0.24156496581118311 0.39827704511134032 0 -0.23721750800281979 0.39766193342161538 0 -0.23779376736926669 0.40038316468681778 0 -0.23721750800281979 0.39766193342161538 0 -0.23389930433876091 0.40009313349393238 0 -0.23779376736926669 0.40038316468681778 0 -0.2353731803769917 0.40302374899313559 0 -0.23389930433876091 0.40009313349393238 0 -0.23379228597014129 0.40678116940160819 0 -0.23988857483395309 0.40526575502141809 0 -0.2353731803769917 0.40302374899313559 0 -0.23988857483395309 0.40526575502141809 0 -0.23779376736926669 0.40038316468681778 0 -0.2353731803769917 0.40302374899313559 0 -0.24366061760356261 0.39226936826459352 0 -0.23952353729989251 0.39327776567658418 0 -0.24366061760356261 0.39226936826459352 0 -0.23952353729989251 0.39327776567658418 0 -0.24156496581118311 0.39827704511134032 0 -0.23952353729989251 0.39327776567658418 0 -0.24156496581118311 0.39827704511134032 0 -0.23721750800281979 0.39766193342161538 0 -0.23952353729989251 0.39327776567658418 0 -0.23721750800281979 0.39766193342161538 0 -0.23180445607080799 0.39732389173019722 0 -0.23952353729989251 0.39327776567658418 0 -0.22196516985679349 0.39755755020788919 0 -0.23952353729989251 0.39327776567658418 0 -0.228127854529103 0.39755163794592913 0 -0.22196516985679349 0.39755755020788919 0 -0.23952353729989251 0.39327776567658418 0 -0.22196516985679349 0.39755755020788919 0 -0.21803333279976631 0.39193270876694192 0 -0.23952353729989251 0.39327776567658418 0 -0.23180445607080799 0.39732389173019722 0 -0.228127854529103 0.39755163794592913 0 -0.23721750800281979 0.39766193342161538 0 -0.23180445607080799 0.39732389173019722 0 -0.23389930433876091 0.40009313349393238 0 -0.23180445607080799 0.39732389173019722 0 -0.228127854529103 0.39755163794592913 0 -0.22852532484908869 0.39901930970362021 0 -0.23379228597014129 0.40678116940160819 0 -0.23149196937283659 0.40259552236190138 0 -0.22847673995294979 0.40551481496938308 0 -0.23379228597014129 0.40678116940160819 0 -0.2353731803769917 0.40302374899313559 0 -0.23149196937283659 0.40259552236190138 0 -0.23149196937283659 0.40259552236190138 0 -0.23389930433876091 0.40009313349393238 0 -0.2306308411337967 0.40004591298560349 0 -0.2353731803769917 0.40302374899313559 0 -0.23149196937283659 0.40259552236190138 0 -0.23389930433876091 0.40009313349393238 0 -0.23180445607080799 0.39732389173019722 0 -0.23389930433876091 0.40009313349393238 0 -0.2306308411337967 0.40004591298560349 0 -0.23149196937283659 0.40259552236190138 0 -0.2306308411337967 0.40004591298560349 0 -0.2274331510374891 0.40119770763836621 0 -0.23180445607080799 0.39732389173019722 0 -0.2306308411337967 0.40004591298560349 0 -0.22852532484908869 0.39901930970362021 0 -0.2306308411337967 0.40004591298560349 0 -0.22852532484908869 0.39901930970362021 0 -0.2274331510374891 0.40119770763836621 0 -0.228127854529103 0.39755163794592913 0 -0.22852532484908869 0.39901930970362021 0 -0.22654664480889361 0.39941837884648562 0 -0.22852532484908869 0.39901930970362021 0 -0.2274331510374891 0.40119770763836621 0 -0.22654664480889361 0.39941837884648562 0 -0.23149196937283659 0.40259552236190138 0 -0.2274331510374891 0.40119770763836621 0 -0.22847673995294979 0.40551481496938308 0 -0.2274331510374891 0.40119770763836621 0 -0.22847673995294979 0.40551481496938308 0 -0.22478353274427659 0.40305628454327869 0 -0.22411764001787771 0.40697879140806692 0 -0.22847673995294979 0.40551481496938308 0 -0.22478353274427659 0.40305628454327869 0 -0.22411764001787771 0.40697879140806692 0 -0.22478353274427659 0.40305628454327869 0 -0.2220569395287148 0.4041481262731057 0 -0.22478353274427659 0.40305628454327869 0 -0.2229549934982277 0.40127759223666848 0 -0.2220569395287148 0.4041481262731057 0 -0.22478353274427659 0.40305628454327869 0 -0.2229549934982277 0.40127759223666848 0 -0.22487027777528129 0.40052072682195711 0 -0.2229549934982277 0.40127759223666848 0 -0.22487027777528129 0.40052072682195711 0 -0.22295976771326659 0.39938499291008023 0 -0.2274331510374891 0.40119770763836621 0 -0.22478353274427659 0.40305628454327869 0 -0.22487027777528129 0.40052072682195711 0 -0.22487027777528129 0.40052072682195711 0 -0.22654664480889361 0.39941837884648562 0 -0.2244732119424438 0.39878610403624271 0 -0.2274331510374891 0.40119770763836621 0 -0.22487027777528129 0.40052072682195711 0 -0.22654664480889361 0.39941837884648562 0 -0.228127854529103 0.39755163794592913 0 -0.22654664480889361 0.39941837884648562 0 -0.2244732119424438 0.39878610403624271 0 -0.2244732119424438 0.39878610403624271 0 -0.22295976771326659 0.39938499291008023 0 -0.22196516985679349 0.39755755020788919 0 -0.22487027777528129 0.40052072682195711 0 -0.2244732119424438 0.39878610403624271 0 -0.22295976771326659 0.39938499291008023 0 -0.21972086847425931 0.39952808058905909 0 -0.22196516985679349 0.39755755020788919 0 -0.21721174767708079 0.4000917716691893 0 -0.22150860493687641 0.39934242069012721 0 -0.21972086847425931 0.39952808058905909 0 -0.22196516985679349 0.39755755020788919 0 -0.22295976771326659 0.39938499291008023 0 -0.22150860493687641 0.39934242069012721 0 -0.22196516985679349 0.39755755020788919 0 -0.2229549934982277 0.40127759223666848 0 -0.22295976771326659 0.39938499291008023 0 -0.22150860493687641 0.39934242069012721 0 -0.21972086847425931 0.39952808058905909 0 -0.219640172922002 0.40288002360589947 0 -0.217533116009828 0.40152382289164068 0 -0.22150860493687641 0.39934242069012721 0 -0.21972086847425931 0.39952808058905909 0 -0.219640172922002 0.40288002360589947 0 -0.2229549934982277 0.40127759223666848 0 -0.22150860493687641 0.39934242069012721 0 -0.219640172922002 0.40288002360589947 0 -0.21966153782494571 0.4081340873287635 0 -0.2220569395287148 0.4041481262731057 0 -0.2181406994682476 0.40499886932760121 0 -0.2220569395287148 0.4041481262731057 0 -0.219640172922002 0.40288002360589947 0 -0.2181406994682476 0.40499886932760121 0 -0.2229549934982277 0.40127759223666848 0 -0.2220569395287148 0.4041481262731057 0 -0.219640172922002 0.40288002360589947 0 -0.228127854529103 0.39755163794592913 0 -0.2244732119424438 0.39878610403624271 0 -0.22196516985679349 0.39755755020788919 0 -0.24366061760356261 0.39226936826459352 0 -0.2167050151160235 0.38593449529087709 0 -0.23885099451977129 0.38407489501694608 0 -0.2167050151160235 0.38593449529087709 0 -0.24366061760356261 0.39226936826459352 0 -0.23952353729989251 0.39327776567658418 0 -0.2167050151160235 0.38593449529087709 0 -0.23952353729989251 0.39327776567658418 0 -0.2167050151160235 0.38593449529087709 0 -0.21803333279976631 0.39193270876694192 0 -0.23885099451977129 0.38407489501694608 0 -0.24366061760356261 0.39226936826459352 0 -0.2167050151160235 0.38593449529087709 0 -0.23885099451977129 0.38407489501694608 0 -0.2266598625745265 0.37812162422287998 0 -0.2167050151160235 0.38593449529087709 0 -0.23885099451977129 0.38407489501694608 0 -0.23608271700219169 0.37629713959770739 0 -0.2266598625745265 0.37812162422287998 0 -0.2266598625745265 0.37812162422287998 0 -0.21454256777204411 0.37597064145661291 0 -0.2167050151160235 0.38593449529087709 0 -0.2167050151160235 0.38593449529087709 0 -0.21252553671628641 0.39465432135439438 0 -0.18802326595656241 0.3883429048545855 0 -0.21454256777204411 0.37597064145661291 0 -0.2167050151160235 0.38593449529087709 0 -0.19294065481546449 0.38034960050415489 0 -0.2167050151160235 0.38593449529087709 0 -0.19294065481546449 0.38034960050415489 0 -0.22196516985679349 0.39755755020788919 0 -0.20445829098635199 0.39998563944701387 0 -0.2044068024136946 0.40183733473919431 0 -0.22196516985679349 0.39755755020788919 0 -0.2044068024136946 0.40183733473919431 0 -0.22196516985679349 0.39755755020788919 0 -0.20445829098635199 0.39998563944701387 0 -0.22196516985679349 0.39755755020788919 0 -0.2142520186613818 0.3958010930325373 0 -0.20445829098635199 0.39998563944701387 0 -0.22196516985679349 0.39755755020788919 0 -0.21251031691463099 0.40085220777660652 0 -0.2044068024136946 0.40183733473919431 0 -0.22196516985679349 0.39755755020788919 0 -0.21721174767708079 0.4000917716691893 0 -0.21251031691463099 0.40085220777660652 0 -0.21338193744045991 0.40387379080317998 0 -0.21497599667759909 0.40622365796861548 0 -0.2108940301769569 0.40528763369751969 0 -0.21195730632032411 0.4030577790269419 0 -0.21338193744045991 0.40387379080317998 0 -0.2108940301769569 0.40528763369751969 0 -0.21338193744045991 0.40387379080317998 0 -0.21369757926640801 0.40238912322458459 0 -0.21549436587547161 0.4033774183645058 0 -0.21195730632032411 0.4030577790269419 0 -0.21338193744045991 0.40387379080317998 0 -0.21369757926640801 0.40238912322458459 0 -0.21369757926640801 0.40238912322458459 0 -0.21549436587547161 0.4033774183645058 0 -0.21524320281999321 0.40152777388214439 0 -0.21338193744045991 0.40387379080317998 0 -0.21497599667759909 0.40622365796861548 0 -0.21549436587547161 0.4033774183645058 0 -0.21497599667759909 0.40622365796861548 0 -0.2181406994682476 0.40499886932760121 0 -0.21549436587547161 0.4033774183645058 0 -0.219640172922002 0.40288002360589947 0 -0.2181406994682476 0.40499886932760121 0 -0.217533116009828 0.40152382289164068 0 -0.2181406994682476 0.40499886932760121 0 -0.21549436587547161 0.4033774183645058 0 -0.217533116009828 0.40152382289164068 0 -0.21524320281999321 0.40152777388214439 0 -0.217533116009828 0.40152382289164068 0 -0.21721174767708079 0.4000917716691893 0 -0.21549436587547161 0.4033774183645058 0 -0.21524320281999321 0.40152777388214439 0 -0.217533116009828 0.40152382289164068 0 -0.21524320281999321 0.40152777388214439 0 -0.21721174767708079 0.4000917716691893 0 -0.21251031691463099 0.40085220777660652 0 -0.21972086847425931 0.39952808058905909 0 -0.217533116009828 0.40152382289164068 0 -0.21721174767708079 0.4000917716691893 0 -0.21369757926640801 0.40238912322458459 0 -0.21524320281999321 0.40152777388214439 0 -0.21251031691463099 0.40085220777660652 0 -0.21195730632032411 0.4030577790269419 0 -0.21251031691463099 0.40085220777660652 0 -0.2093026678031645 0.402886139632819 0 -0.21195730632032411 0.4030577790269419 0 -0.21369757926640801 0.40238912322458459 0 -0.21251031691463099 0.40085220777660652 0 -0.2167050151160235 0.38593449529087709 0 -0.21252553671628641 0.39465432135439438 0 -0.21803333279976631 0.39193270876694192 0 -0.22196516985679349 0.39755755020788919 0 -0.2142520186613818 0.3958010930325373 0 -0.21803333279976631 0.39193270876694192 0 -0.21252553671628641 0.39465432135439438 0 -0.2142520186613818 0.3958010930325373 0 -0.21803333279976631 0.39193270876694192 0 -0.21252553671628641 0.39465432135439438 0 -0.2142520186613818 0.3958010930325373 0 -0.20445829098635199 0.39998563944701387 0 -0.21251031691463099 0.40085220777660652 0 -0.2044068024136946 0.40183733473919431 0 -0.2093026678031645 0.402886139632819 0 -0.2044068024136946 0.40183733473919431 0 -0.20706869708076639 0.40482330905885372 0 -0.2093026678031645 0.402886139632819 0 -0.2044068024136946 0.40183733473919431 0 -0.20366449759036401 0.40569869820794918 0 -0.20706869708076639 0.40482330905885372 0 -0.2074716009876823 0.40833071118871378 0 -0.20706869708076639 0.40482330905885372 0 -0.2108940301769569 0.40528763369751969 0 -0.21195730632032411 0.4030577790269419 0 -0.2093026678031645 0.402886139632819 0 -0.2108940301769569 0.40528763369751969 0 -0.20706869708076639 0.40482330905885372 0 -0.2093026678031645 0.402886139632819 0 -0.2108940301769569 0.40528763369751969 0 -0.21252553671628641 0.39465432135439438 0 -0.20445829098635199 0.39998563944701387 0 -0.18802326595656241 0.3883429048545855 0 -0.20445829098635199 0.39998563944701387 0 -0.19171156465653089 0.40055776517622649 0 -0.18802326595656241 0.3883429048545855 0 -0.20445829098635199 0.39998563944701387 0 -0.19845243727204431 0.40269470499365279 0 -0.19171156465653089 0.40055776517622649 0 -0.2044068024136946 0.40183733473919431 0 -0.20366449759036401 0.40569869820794918 0 -0.19845243727204431 0.40269470499365279 0 -0.2004153054003536 0.40974854818454137 0 -0.20366449759036401 0.40569869820794918 0 -0.19845243727204431 0.40269470499365279 0 -0.20445829098635199 0.39998563944701387 0 -0.2044068024136946 0.40183733473919431 0 -0.19845243727204431 0.40269470499365279 0 -0.18957058512130889 0.41071289669875638 0 -0.19845243727204431 0.40269470499365279 0 -0.19171156465653089 0.40055776517622649 0 -0.2167050151160235 0.38593449529087709 0 -0.18802326595656241 0.3883429048545855 0 -0.19294065481546449 0.38034960050415489 0 -0.2167050151160235 0.38593449529087709 0 -0.18802326595656241 0.3883429048545855 0 -0.19294065481546449 0.38034960050415489 0 -0.1691762945149059 0.37476470571743142 0 -0.18303158622690169 0.37094746344162027 0 -0.18802326595656241 0.3883429048545855 0 -0.15934151679710151 0.39075131441829708 0 -0.1691762945149059 0.37476470571743142 0 -0.18802326595656241 0.3883429048545855 0 -0.19294065481546449 0.38034960050415489 0 -0.1691762945149059 0.37476470571743142 0 -0.19294065481546449 0.38034960050415489 0 -0.1691762945149059 0.37476470571743142 0 -0.18802326595656241 0.3883429048545855 0 -0.15934151679710151 0.39075131441829708 0 -0.15934151679710151 0.39075131441829708 0 -0.14947534950382399 0.36879511471698961 0 -0.1691762945149059 0.37476470571743142 0 -0.15934151679710151 0.39075131441829708 0 -0.17057219608974511 0.41574410341130741 0 -0.15420155232659399 0.41013384186532797 0 -0.15934151679710151 0.39075131441829708 0 -0.17057219608974511 0.41574410341130741 0 -0.15934151679710151 0.39075131441829708 0 -0.17905548305927871 0.40263328010516419 0 -0.17057219608974511 0.41574410341130741 0 -0.18802326595656241 0.3883429048545855 0 -0.15934151679710151 0.39075131441829708 0 -0.17905548305927871 0.40263328010516419 0 -0.19171156465653089 0.40055776517622649 0 -0.18802326595656241 0.3883429048545855 0 -0.17905548305927871 0.40263328010516419 0 -0.18957058512130889 0.41071289669875638 0 -0.19171156465653089 0.40055776517622649 0 -0.17905548305927871 0.40263328010516419 0 -0.18910721503411371 0.42326011834203681 0 -0.18957058512130889 0.41071289669875638 0 -0.17057219608974511 0.41574410341130741 0 -0.18957058512130889 0.41071289669875638 0 -0.17905548305927871 0.40263328010516419 0 -0.17057219608974511 0.41574410341130741 0 -0.18180287538238271 0.4407368924043204 0 -0.17057219608974511 0.41574410341130741 0 -0.18180287538238271 0.4407368924043204 0 -0.18910721503411371 0.42326011834203681 0 -0.17057219608974511 0.41574410341130741 0 -0.18180287538238271 0.4407368924043204 0 -0.15840906522283191 0.4357021074706412 0 -0.17057219608974511 0.41574410341130741 0 -0.15840906522283191 0.4357021074706412 0 -0.17057219608974511 0.41574410341130741 0 -0.15420155232659399 0.41013384186532797 0 -0.15840906522283191 0.4357021074706412 0 -0.15420155232659399 0.41013384186532797 0 -0.14459256329471931 0.41897708334756678 0 -0.15420155232659399 0.41013384186532797 0 -0.14459256329471931 0.41897708334756678 0 -0.1424661607851633 0.4057156836818846 0 -0.14956848191379521 0.43833830275332603 0 -0.15840906522283191 0.4357021074706412 0 -0.13501525506328199 0.43066732253695778 0 -0.15840906522283191 0.4357021074706412 0 -0.14459256329471931 0.41897708334756678 0 -0.13501525506328199 0.43066732253695778 0 -0.15840906522283191 0.4357021074706412 0 -0.13501525506328199 0.43066732253695778 0 -0.14459256329471931 0.41897708334756678 0 -0.13501525506328199 0.43066732253695778 0 -0.13287078307572511 0.41266646118302241 0 -0.13501525506328199 0.43066732253695778 0 -0.13287078307572511 0.41266646118302241 0 -0.12303763283716861 0.41952030052520789 0 -0.14459256329471931 0.41897708334756678 0 -0.13287078307572511 0.41266646118302241 0 -0.1424661607851633 0.4057156836818846 0 -0.13287078307572511 0.41266646118302241 0 -0.13573764048978831 0.40283592987673272 0 -0.1424661607851633 0.4057156836818846 0 -0.13287078307572511 0.41266646118302241 0 -0.1239273010572704 0.41118486072446703 0 -0.12303763283716861 0.41952030052520789 0 -0.13287078307572511 0.41266646118302241 0 -0.12796686335315369 0.40103931286682798 0 -0.1239273010572704 0.41118486072446703 0 -0.12796686335315369 0.40103931286682798 0 -0.1407172237552938 0.39231519830940098 0 -0.1173104214787532 0.39428067001565181 0 -0.1407172237552938 0.39231519830940098 0 -0.1173104214787532 0.39428067001565181 0 -0.13287078307572511 0.41266646118302241 0 -0.12796686335315369 0.40103931286682798 0 -0.13573764048978831 0.40283592987673272 0 -0.13573764048978831 0.40283592987673272 0 -0.13943178657818911 0.39576725994066519 0 -0.1424661607851633 0.4057156836818846 0 -0.12796686335315369 0.40103931286682798 0 -0.13573764048978831 0.40283592987673272 0 -0.13943178657818911 0.39576725994066519 0 -0.12796686335315369 0.40103931286682798 0 -0.13943178657818911 0.39576725994066519 0 -0.1407172237552938 0.39231519830940098 0 -0.13943178657818911 0.39576725994066519 0 -0.1407172237552938 0.39231519830940098 0 -0.12963139342908001 0.37761356657849088 0 -0.1407172237552938 0.39231519830940098 0 -0.1173104214787532 0.39428067001565181 0 -0.12963139342908001 0.37761356657849088 0 -0.1407172237552938 0.39231519830940098 0 -0.14947534950382399 0.36879511471698961 0 -0.15934151679710151 0.39075131441829708 0 -0.1407172237552938 0.39231519830940098 0 -0.14947534950382399 0.36879511471698961 0 -0.1407172237552938 0.39231519830940098 0 -0.14947534950382399 0.36879511471698961 0 -0.15934151679710151 0.39075131441829708 0 -0.14947534950382399 0.36879511471698961 0 -0.15934151679710151 0.39075131441829708 0 -0.1407172237552938 0.39231519830940098 0 -0.15934151679710151 0.39075131441829708 0 -0.14741555489634409 0.39881326039609938 0 -0.1407172237552938 0.39231519830940098 0 -0.15934151679710151 0.39075131441829708 0 -0.15420155232659399 0.41013384186532797 0 -0.14741555489634409 0.39881326039609938 0 -0.15420155232659399 0.41013384186532797 0 -0.14741555489634409 0.39881326039609938 0 -0.1424661607851633 0.4057156836818846 0 -0.13943178657818911 0.39576725994066519 0 -0.14741555489634409 0.39881326039609938 0 -0.1424661607851633 0.4057156836818846 0 -0.13943178657818911 0.39576725994066519 0 -0.14741555489634409 0.39881326039609938 0 -0.1407172237552938 0.39231519830940098 0 -0.14608132203238319 0.35026909573316989 0 -0.15546682780519239 0.35270490608828198 0 -0.14947534950382399 0.36879511471698961 0 -0.14947534950382399 0.36879511471698961 0 -0.13940214255216651 0.3463781683092525 0 -0.14608132203238319 0.35026909573316989 0 -0.14947534950382399 0.36879511471698961 0 -0.13940214255216651 0.3463781683092525 0 -0.1481473177458236 0.349822271284845 0 -0.13940214255216651 0.3463781683092525 0 -0.1481473177458236 0.349822271284845 0 -0.13940214255216651 0.3463781683092525 0 -0.14549027247925209 0.34249463063103408 0 -0.14608132203238319 0.35026909573316989 0 -0.1481473177458236 0.349822271284845 0 -0.13940214255216651 0.3463781683092525 0 -0.13940214255216651 0.3463781683092525 0 -0.13768358025916411 0.34255367438140361 0 -0.14549027247925209 0.34249463063103408 0 -0.14608132203238319 0.35026909573316989 0 -0.1481473177458236 0.349822271284845 0 -0.1481473177458236 0.349822271284845 0 -0.1572753462623673 0.34784810150332268 0 -0.1481473177458236 0.349822271284845 0 -0.15546682780519239 0.35270490608828198 0 -0.1481473177458236 0.349822271284845 0 -0.14549027247925209 0.34249463063103408 0 -0.1572753462623673 0.34784810150332268 0 -0.1481473177458236 0.349822271284845 0 -0.15546682780519239 0.35270490608828198 0 -0.1572753462623673 0.34784810150332268 0 -0.14608132203238319 0.35026909573316989 0 -0.1481473177458236 0.349822271284845 0 -0.15546682780519239 0.35270490608828198 0 -0.15546682780519239 0.35270490608828198 0 -0.14947534950382399 0.36879511471698961 0 -0.16238594358384331 0.36401265876829819 0 -0.14947534950382399 0.36879511471698961 0 -0.1338709763054681 0.36315548317995971 0 -0.13940214255216651 0.3463781683092525 0 -0.15546682780519239 0.35270490608828198 0 -0.14947534950382399 0.36879511471698961 0 -0.12963139342908001 0.37761356657849088 0 -0.14947534950382399 0.36879511471698961 0 -0.1338709763054681 0.36315548317995971 0 -0.12963139342908001 0.37761356657849088 0 -0.1338709763054681 0.36315548317995971 0 -0.12087263656310911 0.3657685284757104 0 -0.1338709763054681 0.36315548317995971 0 -0.12623952971516331 0.35351391767907442 0 -0.12087263656310911 0.3657685284757104 0 -0.1338709763054681 0.36315548317995971 0 -0.12623952971516331 0.35351391767907442 0 -0.13940214255216651 0.3463781683092525 0 -0.12623952971516331 0.35351391767907442 0 -0.13940214255216651 0.3463781683092525 0 -0.1229182622514491 0.33988633939377971 0 -0.13940214255216651 0.3463781683092525 0 -0.13768358025916411 0.34255367438140361 0 -0.13940214255216651 0.3463781683092525 0 -0.1229182622514491 0.33988633939377971 0 -0.13132203738421561 0.3355675093812408 0 -0.13768358025916411 0.34255367438140361 0 -0.1229182622514491 0.33988633939377971 0 -0.13940214255216651 0.3463781683092525 0 -0.13768358025916411 0.34255367438140361 0 -0.1229182622514491 0.33988633939377971 0 -0.13132203738421561 0.3355675093812408 0 -0.1249269236761287 0.32967328003524271 0 -0.1229182622514491 0.33988633939377971 0 -0.13132203738421561 0.3355675093812408 0 -0.1325558764144463 0.32535989054584452 0 -0.1249269236761287 0.32967328003524271 0 -0.13132203738421561 0.3355675093812408 0 -0.138725190113443 0.33084651596965398 0 -0.1325558764144463 0.32535989054584452 0 -0.13132203738421561 0.3355675093812408 0 -0.138725190113443 0.33084651596965398 0 -0.13732461627926501 0.33647854060378268 0 -0.138725190113443 0.33084651596965398 0 -0.13732461627926501 0.33647854060378268 0 -0.1415676573602373 0.33694646268283218 0 -0.13732461627926501 0.33647854060378268 0 -0.13768358025916411 0.34255367438140361 0 -0.1415676573602373 0.33694646268283218 0 -0.13132203738421561 0.3355675093812408 0 -0.13732461627926501 0.33647854060378268 0 -0.13768358025916411 0.34255367438140361 0 -0.13458255010312331 0.31751859262116239 0 -0.1275531853856228 0.30982518116109542 0 -0.1245482768209321 0.31732283894063762 0 -0.1325558764144463 0.32535989054584452 0 -0.13458255010312331 0.31751859262116239 0 -0.1245482768209321 0.31732283894063762 0 -0.1325558764144463 0.32535989054584452 0 -0.1245482768209321 0.31732283894063762 0 -0.1249269236761287 0.32967328003524271 0 -0.138725190113443 0.33084651596965398 0 -0.1325558764144463 0.32535989054584452 0 -0.14132718123106769 0.32258117874896458 0 -0.1325558764144463 0.32535989054584452 0 -0.13458255010312331 0.31751859262116239 0 -0.14132718123106769 0.32258117874896458 0 -0.13458255010312331 0.31751859262116239 0 -0.14132718123106769 0.32258117874896458 0 -0.14233516250229331 0.31157938236484117 0 -0.15089871755734521 0.31876358536773841 0 -0.1488655906957552 0.33141910562454768 0 -0.16698151022032609 0.32178204648108882 0 -0.14132718123106769 0.32258117874896458 0 -0.15089871755734521 0.31876358536773841 0 -0.14233516250229331 0.31157938236484117 0 -0.14132718123106769 0.32258117874896458 0 -0.15089871755734521 0.31876358536773841 0 -0.1488655906957552 0.33141910562454768 0 -0.14549027247925209 0.34249463063103408 0 -0.1488655906957552 0.33141910562454768 0 -0.1572753462623673 0.34784810150332268 0 -0.14549027247925209 0.34249463063103408 0 -0.1415676573602373 0.33694646268283218 0 -0.1488655906957552 0.33141910562454768 0 -0.13768358025916411 0.34255367438140361 0 -0.14549027247925209 0.34249463063103408 0 -0.1415676573602373 0.33694646268283218 0 -0.138725190113443 0.33084651596965398 0 -0.14132718123106769 0.32258117874896458 0 -0.1488655906957552 0.33141910562454768 0 -0.138725190113443 0.33084651596965398 0 -0.1415676573602373 0.33694646268283218 0 -0.1488655906957552 0.33141910562454768 0 -0.1488655906957552 0.33141910562454768 0 -0.16698151022032609 0.32178204648108882 0 -0.1572753462623673 0.34784810150332268 0 -0.16698151022032609 0.32178204648108882 0 -0.17837763916981589 0.34328419058837301 0 -0.1572753462623673 0.34784810150332268 0 -0.16698151022032609 0.32178204648108882 0 -0.1572753462623673 0.34784810150332268 0 -0.16698151022032609 0.32178204648108882 0 -0.18287148853231081 0.32888385632862771 0 -0.18288658974149019 0.31165648148446262 0 -0.18287148853231081 0.32888385632862771 0 -0.19411469151363969 0.32409444794662617 0 -0.18288658974149019 0.31165648148446262 0 -0.16698151022032609 0.32178204648108882 0 -0.18287148853231081 0.32888385632862771 0 -0.17837763916981589 0.34328419058837301 0 -0.18287148853231081 0.32888385632862771 0 -0.17837763916981589 0.34328419058837301 0 -0.19947993207726419 0.33872027967342211 0 -0.17837763916981589 0.34328419058837301 0 -0.17515874112747629 0.3604601512110589 0 -0.19386974690563899 0.3529951669195876 0 -0.17837763916981589 0.34328419058837301 0 -0.1572753462623673 0.34784810150332268 0 -0.17515874112747629 0.3604601512110589 0 -0.15546682780519239 0.35270490608828198 0 -0.1572753462623673 0.34784810150332268 0 -0.17515874112747629 0.3604601512110589 0 -0.17837763916981589 0.34328419058837301 0 -0.1572753462623673 0.34784810150332268 0 -0.15546682780519239 0.35270490608828198 0 -0.16238594358384331 0.36401265876829819 0 -0.17515874112747629 0.3604601512110589 0 -0.15546682780519239 0.35270490608828198 0 -0.17515874112747629 0.3604601512110589 0 -0.15546682780519239 0.35270490608828198 0 -0.1572753462623673 0.34784810150332268 0 -0.14947534950382399 0.36879511471698961 0 -0.16238594358384331 0.36401265876829819 0 -0.1691762945149059 0.37476470571743142 0 -0.16238594358384331 0.36401265876829819 0 -0.1691762945149059 0.37476470571743142 0 -0.17515874112747629 0.3604601512110589 0 -0.17515874112747629 0.3604601512110589 0 -0.18303158622690169 0.37094746344162027 0 -0.19485065444976021 0.36821539633383588 0 -0.17515874112747629 0.3604601512110589 0 -0.19485065444976021 0.36821539633383588 0 -0.1691762945149059 0.37476470571743142 0 -0.17515874112747629 0.3604601512110589 0 -0.18303158622690169 0.37094746344162027 0 -0.19294065481546449 0.38034960050415489 0 -0.18303158622690169 0.37094746344162027 0 -0.19485065444976021 0.36821539633383588 0 -0.17515874112747629 0.3604601512110589 0 -0.19485065444976021 0.36821539633383588 0 -0.19386974690563899 0.3529951669195876 0 -0.21454256777204411 0.37597064145661291 0 -0.19294065481546449 0.38034960050415489 0 -0.19485065444976021 0.36821539633383588 0 -0.19485065444976021 0.36821539633383588 0 -0.19386974690563899 0.3529951669195876 0 -0.2031791603127252 0.35802368386129468 0 -0.19485065444976021 0.36821539633383588 0 -0.2031791603127252 0.35802368386129468 0 -0.20814657418765589 0.36537246268914492 0 -0.17837763916981589 0.34328419058837301 0 -0.19386974690563899 0.3529951669195876 0 -0.19947993207726419 0.33872027967342211 0 -0.19386974690563899 0.3529951669195876 0 -0.20787408076760119 0.34615874217430631 0 -0.2031791603127252 0.35802368386129468 0 -0.19386974690563899 0.3529951669195876 0 -0.20787408076760119 0.34615874217430631 0 -0.19947993207726419 0.33872027967342211 0 -0.20787408076760119 0.34615874217430631 0 -0.2031791603127252 0.35802368386129468 0 -0.21115474525296979 0.35737665118959872 0 -0.21115474525296979 0.35737665118959872 0 -0.21803576348466169 0.35793153328875299 0 -0.21825870645220249 0.35090986827947879 0 -0.20787408076760119 0.34615874217430631 0 -0.21115474525296979 0.35737665118959872 0 -0.21825870645220249 0.35090986827947879 0 -0.20787408076760119 0.34615874217430631 0 -0.21825870645220249 0.35090986827947879 0 -0.2224599143609429 0.34173237788355459 0 -0.21454256777204411 0.37597064145661291 0 -0.19485065444976021 0.36821539633383588 0 -0.21454256777204411 0.37597064145661291 0 -0.19485065444976021 0.36821539633383588 0 -0.20814657418765589 0.36537246268914492 0 -0.2031791603127252 0.35802368386129468 0 -0.21115474525296979 0.35737665118959872 0 -0.20814657418765589 0.36537246268914492 0 -0.21115474525296979 0.35737665118959872 0 -0.20814657418765589 0.36537246268914492 0 -0.2181440480639005 0.36491369651673999 0 -0.21115474525296979 0.35737665118959872 0 -0.21803576348466169 0.35793153328875299 0 -0.2181440480639005 0.36491369651673999 0 -0.21454256777204411 0.37597064145661291 0 -0.20814657418765589 0.36537246268914492 0 -0.2181440480639005 0.36491369651673999 0 -0.21454256777204411 0.37597064145661291 0 -0.2181440480639005 0.36491369651673999 0 -0.22755775022911151 0.36874084640024851 0 -0.2266598625745265 0.37812162422287998 0 -0.21454256777204411 0.37597064145661291 0 -0.22755775022911151 0.36874084640024851 0 -0.23608271700219169 0.37629713959770739 0 -0.2266598625745265 0.37812162422287998 0 -0.22755775022911151 0.36874084640024851 0 -0.23608271700219169 0.37629713959770739 0 -0.22755775022911151 0.36874084640024851 0 -0.23713730694341101 0.36722144970416198 0 -0.22755775022911151 0.36874084640024851 0 -0.2260497432864616 0.35814838824881429 0 -0.23713730694341101 0.36722144970416198 0 -0.2181440480639005 0.36491369651673999 0 -0.22755775022911151 0.36874084640024851 0 -0.2260497432864616 0.35814838824881429 0 -0.21803576348466169 0.35793153328875299 0 -0.2181440480639005 0.36491369651673999 0 -0.2260497432864616 0.35814838824881429 0 -0.21803576348466169 0.35793153328875299 0 -0.21825870645220249 0.35090986827947879 0 -0.2260497432864616 0.35814838824881429 0 -0.21825870645220249 0.35090986827947879 0 -0.2260497432864616 0.35814838824881429 0 -0.22606573541825839 0.35081957994457519 0 -0.21825870645220249 0.35090986827947879 0 -0.22606573541825839 0.35081957994457519 0 -0.2224599143609429 0.34173237788355459 0 -0.22606573541825839 0.35081957994457519 0 -0.23582033808695951 0.35235587603394453 0 -0.2224599143609429 0.34173237788355459 0 -0.2260497432864616 0.35814838824881429 0 -0.23582033808695951 0.35235587603394453 0 -0.23713730694341101 0.36722144970416198 0 -0.2260497432864616 0.35814838824881429 0 -0.22606573541825839 0.35081957994457519 0 -0.23582033808695951 0.35235587603394453 0 -0.23582033808695951 0.35235587603394453 0 -0.24950036776617149 0.33977247148188838 0 -0.2224599143609429 0.34173237788355459 0 -0.23582033808695951 0.35235587603394453 0 -0.249690785978991 0.35612464654265219 0 -0.24950036776617149 0.33977247148188838 0 -0.23582033808695951 0.35235587603394453 0 -0.249690785978991 0.35612464654265219 0 -0.23713730694341101 0.36722144970416198 0 -0.26055833468296219 0.36631583936561102 0 -0.249690785978991 0.35612464654265219 0 -0.23713730694341101 0.36722144970416198 0 -0.23806404871455561 0.31682769323735122 0 -0.24763538223376991 0.32009743751760639 0 -0.23375873974655931 0.32765983815440569 0 -0.23806404871455561 0.31682769323735122 0 -0.24763538223376991 0.32009743751760639 0 -0.24251752345540009 0.30905135562509972 0 -0.24763538223376991 0.32009743751760639 0 -0.24950036776617149 0.33977247148188838 0 -0.23375873974655931 0.32765983815440569 0 -0.24950036776617149 0.33977247148188838 0 -0.2224599143609429 0.34173237788355459 0 -0.23375873974655931 0.32765983815440569 0 -0.24950036776617149 0.33977247148188838 0 -0.2224599143609429 0.34173237788355459 0 -0.22058222498471261 0.3341563687584711 0 -0.2223442391177668 0.32376451289377262 0 -0.21518967511326559 0.32749259293312249 0 -0.22058222498471261 0.3341563687584711 0 -0.2223442391177668 0.32376451289377262 0 -0.23375873974655931 0.32765983815440569 0 -0.2224599143609429 0.34173237788355459 0 -0.22058222498471261 0.3341563687584711 0 -0.23375873974655931 0.32765983815440569 0 -0.23806404871455561 0.31682769323735122 0 -0.23375873974655931 0.32765983815440569 0 -0.23066872463172461 0.31879562340641671 0 -0.2223442391177668 0.32376451289377262 0 -0.23375873974655931 0.32765983815440569 0 -0.23066872463172461 0.31879562340641671 0 -0.23066872463172461 0.31879562340641671 0 -0.22475233593067101 0.31350221015993868 0 -0.2331041260093068 0.31027382109738971 0 -0.23806404871455561 0.31682769323735122 0 -0.23066872463172461 0.31879562340641671 0 -0.2331041260093068 0.31027382109738971 0 -0.2223442391177668 0.32376451289377262 0 -0.23066872463172461 0.31879562340641671 0 -0.22475233593067101 0.31350221015993868 0 -0.22475233593067101 0.31350221015993868 0 -0.2184595419818251 0.31750991091189429 0 -0.21961130825022779 0.30777419592026217 0 -0.2223442391177668 0.32376451289377262 0 -0.22475233593067101 0.31350221015993868 0 -0.2184595419818251 0.31750991091189429 0 -0.2184595419818251 0.31750991091189429 0 -0.21128667686200739 0.31320086536541658 0 -0.21199899182424681 0.32174678631326997 0 -0.2184595419818251 0.31750991091189429 0 -0.21128667686200739 0.31320086536541658 0 -0.21961130825022779 0.30777419592026217 0 -0.2223442391177668 0.32376451289377262 0 -0.2184595419818251 0.31750991091189429 0 -0.21199899182424681 0.32174678631326997 0 -0.2223442391177668 0.32376451289377262 0 -0.21199899182424681 0.32174678631326997 0 -0.21518967511326559 0.32749259293312249 0 -0.21199899182424681 0.32174678631326997 0 -0.21518967511326559 0.32749259293312249 0 -0.20640449752145931 0.329266927309113 0 -0.21199899182424681 0.32174678631326997 0 -0.20640449752145931 0.329266927309113 0 -0.20303906095659341 0.31855272337468599 0 -0.21128667686200739 0.31320086536541658 0 -0.21199899182424681 0.32174678631326997 0 -0.20303906095659341 0.31855272337468599 0 -0.21128667686200739 0.31320086536541658 0 -0.20303906095659341 0.31855272337468599 0 -0.2040380154631877 0.30892912336990103 0 -0.22058222498471261 0.3341563687584711 0 -0.19947993207726419 0.33872027967342211 0 -0.20787408076760119 0.34615874217430631 0 -0.22058222498471261 0.3341563687584711 0 -0.19947993207726419 0.33872027967342211 0 -0.22058222498471261 0.3341563687584711 0 -0.20640449752145931 0.329266927309113 0 -0.19947993207726419 0.33872027967342211 0 -0.20787408076760119 0.34615874217430631 0 -0.2224599143609429 0.34173237788355459 0 -0.22058222498471261 0.3341563687584711 0 -0.22058222498471261 0.3341563687584711 0 -0.21518967511326559 0.32749259293312249 0 -0.20640449752145931 0.329266927309113 0 -0.17837763916981589 0.34328419058837301 0 -0.19947993207726419 0.33872027967342211 0 -0.18287148853231081 0.32888385632862771 0 -0.19947993207726419 0.33872027967342211 0 -0.19411469151363969 0.32409444794662617 0 -0.20640449752145931 0.329266927309113 0 -0.19947993207726419 0.33872027967342211 0 -0.19411469151363969 0.32409444794662617 0 -0.20303906095659341 0.31855272337468599 0 -0.19411469151363969 0.32409444794662617 0 -0.1952864991323818 0.31106005220238331 0 -0.20303906095659341 0.31855272337468599 0 -0.1952864991323818 0.31106005220238331 0 -0.2040380154631877 0.30892912336990103 0 -0.20640449752145931 0.329266927309113 0 -0.20303906095659341 0.31855272337468599 0 -0.19411469151363969 0.32409444794662617 0 -0.19411469151363969 0.32409444794662617 0 -0.1952864991323818 0.31106005220238331 0 -0.18288658974149019 0.31165648148446262 0 -0.1952864991323818 0.31106005220238331 0 -0.18844268440770959 0.3038836490515906 0 -0.19743511922494519 0.30219396609325722 0 -0.1952864991323818 0.31106005220238331 0 -0.18844268440770959 0.3038836490515906 0 -0.18288658974149019 0.31165648148446262 0 -0.18844268440770959 0.3038836490515906 0 -0.192084834819821 0.29842037806983818 0 -0.18684502802382549 0.29563472937254692 0 -0.192084834819821 0.29842037806983818 0 -0.19743511922494519 0.30219396609325722 0 -0.19561650762280369 0.29196916776195819 0 -0.18844268440770959 0.3038836490515906 0 -0.192084834819821 0.29842037806983818 0 -0.19743511922494519 0.30219396609325722 0 -0.19743511922494519 0.30219396609325722 0 -0.19561650762280369 0.29196916776195819 0 -0.20589127771361321 0.29757155907234578 0 -0.19743511922494519 0.30219396609325722 0 -0.2040380154631877 0.30892912336990103 0 -0.20589127771361321 0.29757155907234578 0 -0.1952864991323818 0.31106005220238331 0 -0.19743511922494519 0.30219396609325722 0 -0.2040380154631877 0.30892912336990103 0 -0.19561650762280369 0.29196916776195819 0 -0.18399222860137171 0.27609949638111331 0 -0.18684502802382549 0.29563472937254692 0 -0.19561650762280369 0.29196916776195819 0 -0.20283694556500759 0.28502297680216909 0 -0.18399222860137171 0.27609949638111331 0 -0.192084834819821 0.29842037806983818 0 -0.19561650762280369 0.29196916776195819 0 -0.18684502802382549 0.29563472937254692 0 -0.19561650762280369 0.29196916776195819 0 -0.20283694556500759 0.28502297680216909 0 -0.20589127771361321 0.29757155907234578 0 -0.20283694556500759 0.28502297680216909 0 -0.21735250949514789 0.28882937842068751 0 -0.21133220439210129 0.270645282374741 0 -0.20283694556500759 0.28502297680216909 0 -0.21735250949514789 0.28882937842068751 0 -0.20589127771361321 0.29757155907234578 0 -0.21735250949514789 0.28882937842068751 0 -0.20589127771361321 0.29757155907234578 0 -0.2166506653146576 0.30067628757367282 0 -0.21128667686200739 0.31320086536541658 0 -0.21071930744078329 0.3051332234655989 0 -0.2040380154631877 0.30892912336990103 0 -0.21071930744078329 0.3051332234655989 0 -0.2040380154631877 0.30892912336990103 0 -0.20589127771361321 0.29757155907234578 0 -0.21071930744078329 0.3051332234655989 0 -0.2166506653146576 0.30067628757367282 0 -0.21961130825022779 0.30777419592026217 0 -0.21071930744078329 0.3051332234655989 0 -0.20589127771361321 0.29757155907234578 0 -0.2166506653146576 0.30067628757367282 0 -0.21128667686200739 0.31320086536541658 0 -0.21071930744078329 0.3051332234655989 0 -0.21961130825022779 0.30777419592026217 0 -0.22475233593067101 0.31350221015993868 0 -0.21961130825022779 0.30777419592026217 0 -0.22688855206353631 0.30318032090489933 0 -0.22475233593067101 0.31350221015993868 0 -0.2331041260093068 0.31027382109738971 0 -0.22688855206353631 0.30318032090489933 0 -0.22688855206353631 0.30318032090489933 0 -0.2296232395477861 0.29300161802239799 0 -0.2364899848113044 0.300356212381026 0 -0.2331041260093068 0.31027382109738971 0 -0.22688855206353631 0.30318032090489933 0 -0.2364899848113044 0.300356212381026 0 -0.22688855206353631 0.30318032090489933 0 -0.22262874160528201 0.2964219012304144 0 -0.2296232395477861 0.29300161802239799 0 -0.2166506653146576 0.30067628757367282 0 -0.22688855206353631 0.30318032090489933 0 -0.22262874160528201 0.2964219012304144 0 -0.2166506653146576 0.30067628757367282 0 -0.21961130825022779 0.30777419592026217 0 -0.22688855206353631 0.30318032090489933 0 -0.21735250949514789 0.28882937842068751 0 -0.22262874160528201 0.2964219012304144 0 -0.2296232395477861 0.29300161802239799 0 -0.21735250949514789 0.28882937842068751 0 -0.2313676257597517 0.28480756344611202 0 -0.21133220439210129 0.270645282374741 0 -0.21735250949514789 0.28882937842068751 0 -0.2166506653146576 0.30067628757367282 0 -0.22262874160528201 0.2964219012304144 0 -0.21735250949514789 0.28882937842068751 0 -0.2313676257597517 0.28480756344611202 0 -0.2296232395477861 0.29300161802239799 0 -0.2313676257597517 0.28480756344611202 0 -0.2296232395477861 0.29300161802239799 0 -0.2313676257597517 0.28480756344611202 0 -0.2296232395477861 0.29300161802239799 0 -0.2364899848113044 0.300356212381026 0 -0.2313676257597517 0.28480756344611202 0 -0.24731107477036801 0.28316742326892902 0 -0.2388605552649424 0.27933323040053709 0 -0.2554388420320447 0.30182259519025828 0 -0.2313676257597517 0.28480756344611202 0 -0.24731107477036801 0.28316742326892902 0 -0.2554388420320447 0.30182259519025828 0 -0.2313676257597517 0.28480756344611202 0 -0.2364899848113044 0.300356212381026 0 -0.2554388420320447 0.30182259519025828 0 -0.2313676257597517 0.28480756344611202 0 -0.2554388420320447 0.30182259519025828 0 -0.24763538223376991 0.32009743751760639 0 -0.24251752345540009 0.30905135562509972 0 -0.2554388420320447 0.30182259519025828 0 -0.24251752345540009 0.30905135562509972 0 -0.2364899848113044 0.300356212381026 0 -0.23806404871455561 0.31682769323735122 0 -0.2331041260093068 0.31027382109738971 0 -0.24251752345540009 0.30905135562509972 0 -0.2331041260093068 0.31027382109738971 0 -0.24251752345540009 0.30905135562509972 0 -0.2364899848113044 0.300356212381026 0 -0.236164315237752 0.26227566363017579 0 -0.23160081273228339 0.25915217591107509 0 -0.2397928331796417 0.24523111590159871 0 -0.25340714826148919 0.25112084500721238 0 -0.2441362131814023 0.25711083759976439 0 -0.24718055604672989 0.26981572586007191 0 -0.236164315237752 0.26227566363017579 0 -0.2397928331796417 0.24523111590159871 0 -0.236164315237752 0.26227566363017579 0 -0.2441362131814023 0.25711083759976439 0 -0.2397928331796417 0.24523111590159871 0 -0.25340714826148919 0.25112084500721238 0 -0.2441362131814023 0.25711083759976439 0 -0.2397928331796417 0.24523111590159871 0 -0.236164315237752 0.26227566363017579 0 -0.2441362131814023 0.25711083759976439 0 -0.24718055604672989 0.26981572586007191 0 -0.2313676257597517 0.28480756344611202 0 -0.236164315237752 0.26227566363017579 0 -0.2388605552649424 0.27933323040053709 0 -0.236164315237752 0.26227566363017579 0 -0.2425448061552429 0.27259243696278351 0 -0.2388605552649424 0.27933323040053709 0 -0.25291489920174731 0.27374059505873788 0 -0.24718055604672989 0.26981572586007191 0 -0.24598929306732989 0.27339240451448249 0 -0.24718055604672989 0.26981572586007191 0 -0.24598929306732989 0.27339240451448249 0 -0.24718055604672989 0.26981572586007191 0 -0.2425448061552429 0.27259243696278351 0 -0.24598929306732989 0.27339240451448249 0 -0.24731107477036801 0.28316742326892902 0 -0.24452931115945589 0.27814516040865728 0 -0.2388605552649424 0.27933323040053709 0 -0.25291489920174731 0.27374059505873788 0 -0.24598929306732989 0.27339240451448249 0 -0.24452931115945589 0.27814516040865728 0 -0.25291489920174731 0.27374059505873788 0 -0.24731107477036801 0.28316742326892902 0 -0.24452931115945589 0.27814516040865728 0 -0.2425448061552429 0.27259243696278351 0 -0.24598929306732989 0.27339240451448249 0 -0.24452931115945589 0.27814516040865728 0 -0.2425448061552429 0.27259243696278351 0 -0.24452931115945589 0.27814516040865728 0 -0.2388605552649424 0.27933323040053709 0 -0.236164315237752 0.26227566363017579 0 -0.24718055604672989 0.26981572586007191 0 -0.236164315237752 0.26227566363017579 0 -0.24718055604672989 0.26981572586007191 0 -0.2425448061552429 0.27259243696278351 0 -0.2313676257597517 0.28480756344611202 0 -0.236164315237752 0.26227566363017579 0 -0.2313676257597517 0.28480756344611202 0 -0.21133220439210129 0.270645282374741 0 -0.2313676257597517 0.28480756344611202 0 -0.236164315237752 0.26227566363017579 0 -0.22414765208781501 0.26783281337606152 0 -0.2313676257597517 0.28480756344611202 0 -0.22414765208781501 0.26783281337606152 0 -0.21133220439210129 0.270645282374741 0 -0.22414765208781501 0.26783281337606152 0 -0.2234391527436283 0.26302771560658322 0 -0.21547724047171959 0.26602385136350631 0 -0.22763503682568101 0.25562748363255311 0 -0.21547724047171959 0.26602385136350631 0 -0.2234391527436283 0.26302771560658322 0 -0.22763503682568101 0.25562748363255311 0 -0.21547724047171959 0.26602385136350631 0 -0.22763503682568101 0.25562748363255311 0 -0.2171838947868738 0.25529858443894871 0 -0.21547724047171959 0.26602385136350631 0 -0.2234391527436283 0.26302771560658322 0 -0.22859739392543191 0.2615831704312897 0 -0.22763503682568101 0.25562748363255311 0 -0.22414765208781501 0.26783281337606152 0 -0.2234391527436283 0.26302771560658322 0 -0.22859739392543191 0.2615831704312897 0 -0.236164315237752 0.26227566363017579 0 -0.22414765208781501 0.26783281337606152 0 -0.22859739392543191 0.2615831704312897 0 -0.22859739392543191 0.2615831704312897 0 -0.23160081273228339 0.25915217591107509 0 -0.22763503682568101 0.25562748363255311 0 -0.236164315237752 0.26227566363017579 0 -0.23160081273228339 0.25915217591107509 0 -0.236164315237752 0.26227566363017579 0 -0.22859739392543191 0.2615831704312897 0 -0.23160081273228339 0.25915217591107509 0 -0.22763503682568101 0.25562748363255311 0 -0.2397928331796417 0.24523111590159871 0 -0.23160081273228339 0.25915217591107509 0 -0.22763503682568101 0.25562748363255311 0 -0.2397928331796417 0.24523111590159871 0 -0.22763503682568101 0.25562748363255311 0 -0.2171838947868738 0.25529858443894871 0 -0.2214680976475705 0.2485851247463548 0 -0.2171838947868738 0.25529858443894871 0 -0.2214680976475705 0.2485851247463548 0 -0.21048685923229599 0.24841301311941411 0 -0.2171838947868738 0.25529858443894871 0 -0.20636765484252509 0.2583843815756599 0 -0.21048685923229599 0.24841301311941411 0 -0.20636765484252509 0.2583843815756599 0 -0.21547724047171959 0.26602385136350631 0 -0.21133220439210129 0.270645282374741 0 -0.2171838947868738 0.25529858443894871 0 -0.20636765484252509 0.2583843815756599 0 -0.21547724047171959 0.26602385136350631 0 -0.22414765208781501 0.26783281337606152 0 -0.21547724047171959 0.26602385136350631 0 -0.21133220439210129 0.270645282374741 0 -0.20283694556500759 0.28502297680216909 0 -0.21133220439210129 0.270645282374741 0 -0.18399222860137171 0.27609949638111331 0 -0.19129678302445149 0.25648300130336937 0 -0.18399222860137171 0.27609949638111331 0 -0.21133220439210129 0.270645282374741 0 -0.19129678302445149 0.25648300130336937 0 -0.18399222860137171 0.27609949638111331 0 -0.21133220439210129 0.270645282374741 0 -0.19129678302445149 0.25648300130336937 0 -0.20636765484252509 0.2583843815756599 0 -0.1924289471477095 0.25344255685397887 0 -0.21048685923229599 0.24841301311941411 0 -0.20636765484252509 0.2583843815756599 0 -0.21133220439210129 0.270645282374741 0 -0.19129678302445149 0.25648300130336937 0 -0.20636765484252509 0.2583843815756599 0 -0.19129678302445149 0.25648300130336937 0 -0.1924289471477095 0.25344255685397887 0 -0.19129678302445149 0.25648300130336937 0 -0.1924289471477095 0.25344255685397887 0 -0.19129678302445149 0.25648300130336937 0 -0.1924289471477095 0.25344255685397887 0 -0.17485479628261039 0.24486078316596499 0 -0.19129678302445149 0.25648300130336937 0 -0.1789512173338596 0.25687971450469349 0 -0.18399222860137171 0.27609949638111331 0 -0.19129678302445149 0.25648300130336937 0 -0.1789512173338596 0.25687971450469349 0 -0.17485479628261039 0.24486078316596499 0 -0.19129678302445149 0.25648300130336937 0 -0.17485479628261039 0.24486078316596499 0 -0.1789512173338596 0.25687971450469349 0 -0.16890968229743419 0.25373974433343349 0 -0.17048327965646209 0.26475036856378631 0 -0.1789512173338596 0.25687971450469349 0 -0.16890968229743419 0.25373974433343349 0 -0.17485479628261039 0.24486078316596499 0 -0.16890968229743419 0.25373974433343349 0 -0.15914970196053521 0.25072332421181698 0 -0.16533174752033761 0.24564060418494371 0 -0.16890968229743419 0.25373974433343349 0 -0.17048327965646209 0.26475036856378631 0 -0.16129528403925111 0.26128644451265742 0 -0.16129528403925111 0.26128644451265742 0 -0.15914970196053521 0.25072332421181698 0 -0.1508168156453597 0.26163219359512641 0 -0.16890968229743419 0.25373974433343349 0 -0.16129528403925111 0.26128644451265742 0 -0.15914970196053521 0.25072332421181698 0 -0.17048327965646209 0.26475036856378631 0 -0.15943872246254609 0.27682871080992921 0 -0.18399222860137171 0.27609949638111331 0 -0.17048327965646209 0.26475036856378631 0 -0.16129528403925111 0.26128644451265742 0 -0.15943872246254609 0.27682871080992921 0 -0.16129528403925111 0.26128644451265742 0 -0.15943872246254609 0.27682871080992921 0 -0.1508168156453597 0.26163219359512641 0 -0.1789512173338596 0.25687971450469349 0 -0.17048327965646209 0.26475036856378631 0 -0.18399222860137171 0.27609949638111331 0 -0.18399222860137171 0.27609949638111331 0 -0.1766876741782821 0.29571599145885358 0 -0.15943872246254609 0.27682871080992921 0 -0.18399222860137171 0.27609949638111331 0 -0.1766876741782821 0.29571599145885358 0 -0.18399222860137171 0.27609949638111331 0 -0.18684502802382549 0.29563472937254692 0 -0.1766876741782821 0.29571599145885358 0 -0.18844268440770959 0.3038836490515906 0 -0.1766876741782821 0.29571599145885358 0 -0.18288658974149019 0.31165648148446262 0 -0.16698151022032609 0.32178204648108882 0 -0.1766876741782821 0.29571599145885358 0 -0.18288658974149019 0.31165648148446262 0 -0.18844268440770959 0.3038836490515906 0 -0.18684502802382549 0.29563472937254692 0 -0.1766876741782821 0.29571599145885358 0 -0.16698151022032609 0.32178204648108882 0 -0.1766876741782821 0.29571599145885358 0 -0.16698151022032609 0.32178204648108882 0 -0.1766876741782821 0.29571599145885358 0 -0.15257564012064401 0.29438076648529471 0 -0.15089871755734521 0.31876358536773841 0 -0.16698151022032609 0.32178204648108882 0 -0.15257564012064401 0.29438076648529471 0 -0.15943872246254609 0.27682871080992921 0 -0.1766876741782821 0.29571599145885358 0 -0.15257564012064401 0.29438076648529471 0 -0.1766876741782821 0.29571599145885358 0 -0.15257564012064401 0.29438076648529471 0 -0.15943872246254609 0.27682871080992921 0 -0.15257564012064401 0.29438076648529471 0 -0.14128416882656589 0.28142405828868139 0 -0.15257564012064401 0.29438076648529471 0 -0.14128416882656589 0.28142405828868139 0 -0.1284636060630058 0.2930455415117369 0 -0.15257564012064401 0.29438076648529471 0 -0.14233516250229331 0.31157938236484117 0 -0.13359700213780601 0.30476352832039488 0 -0.15089871755734521 0.31876358536773841 0 -0.15257564012064401 0.29438076648529471 0 -0.14233516250229331 0.31157938236484117 0 -0.15257564012064401 0.29438076648529471 0 -0.13359700213780601 0.30476352832039488 0 -0.1284636060630058 0.2930455415117369 0 -0.13458255010312331 0.31751859262116239 0 -0.14233516250229331 0.31157938236484117 0 -0.13359700213780601 0.30476352832039488 0 -0.13359700213780601 0.30476352832039488 0 -0.1250077373125684 0.303077858164154 0 -0.1284636060630058 0.2930455415117369 0 -0.13458255010312331 0.31751859262116239 0 -0.13359700213780601 0.30476352832039488 0 -0.1275531853856228 0.30982518116109542 0 -0.13359700213780601 0.30476352832039488 0 -0.1250077373125684 0.303077858164154 0 -0.1275531853856228 0.30982518116109542 0 -0.15257564012064401 0.29438076648529471 0 -0.1284636060630058 0.2930455415117369 0 -0.14128416882656589 0.28142405828868139 0 -0.1284636060630058 0.2930455415117369 0 -0.13062360521130151 0.2829941282163439 0 -0.1284636060630058 0.2930455415117369 0 -0.13062360521130151 0.2829941282163439 0 -0.1191070176042183 0.28736808282932658 0 -0.13062360521130151 0.2829941282163439 0 -0.13491608780435951 0.27433814675981538 0 -0.1245819527695267 0.27790530939307051 0 -0.13491608780435951 0.27433814675981538 0 -0.1243149592939632 0.26875744569656312 0 -0.1245819527695267 0.27790530939307051 0 -0.14128416882656589 0.28142405828868139 0 -0.13491608780435951 0.27433814675981538 0 -0.1434818899763371 0.26876068774157758 0 -0.14128416882656589 0.28142405828868139 0 -0.13062360521130151 0.2829941282163439 0 -0.13491608780435951 0.27433814675981538 0 -0.13491608780435951 0.27433814675981538 0 -0.13243905885606469 0.26099070479039688 0 -0.1434818899763371 0.26876068774157758 0 -0.13491608780435951 0.27433814675981538 0 -0.13243905885606469 0.26099070479039688 0 -0.1243149592939632 0.26875744569656312 0 -0.13243905885606469 0.26099070479039688 0 -0.12163432698692241 0.26029000038357741 0 -0.1243149592939632 0.26875744569656312 0 -0.13243905885606469 0.26099070479039688 0 -0.13569241585568531 0.2480838548854726 0 -0.1235645028477398 0.2486153537660559 0 -0.13243905885606469 0.26099070479039688 0 -0.12163432698692241 0.26029000038357741 0 -0.1235645028477398 0.2486153537660559 0 -0.13243905885606469 0.26099070479039688 0 -0.14199648626312669 0.25735031220551668 0 -0.13569241585568531 0.2480838548854726 0 -0.13243905885606469 0.26099070479039688 0 -0.14199648626312669 0.25735031220551668 0 -0.1434818899763371 0.26876068774157758 0 -0.14199648626312669 0.25735031220551668 0 -0.1508168156453597 0.26163219359512641 0 -0.1434818899763371 0.26876068774157758 0 -0.14199648626312669 0.25735031220551668 0 -0.13569241585568531 0.2480838548854726 0 -0.1480213077752921 0.24790327325271891 0 -0.14199648626312669 0.25735031220551668 0 -0.1508168156453597 0.26163219359512641 0 -0.1480213077752921 0.24790327325271891 0 -0.15914970196053521 0.25072332421181698 0 -0.1508168156453597 0.26163219359512641 0 -0.1480213077752921 0.24790327325271891 0 -0.15943872246254609 0.27682871080992921 0 -0.14128416882656589 0.28142405828868139 0 -0.1434818899763371 0.26876068774157758 0 -0.15943872246254609 0.27682871080992921 0 -0.1508168156453597 0.26163219359512641 0 -0.1434818899763371 0.26876068774157758 0 -0.10738487755560069 0.26987344596957491 0 -0.097889110799407653 0.27624294439968422 0 -0.1147119302807789 0.27428874526826269 0 -0.10738487755560069 0.26987344596957491 0 -0.10348037342090161 0.26361177998066287 0 -0.11345809572131491 0.26535031422968991 0 -0.10738487755560069 0.26987344596957491 0 -0.097889110799407653 0.27624294439968422 0 -0.10348037342090161 0.26361177998066287 0 -0.097889110799407653 0.27624294439968422 0 -0.10348037342090161 0.26361177998066287 0 -0.091892730646719115 0.26396525546621741 0 -0.098407234790292175 0.25810536507936388 0 -0.10348037342090161 0.26361177998066287 0 -0.091892730646719115 0.26396525546621741 0 -0.098407234790292175 0.25810536507936388 0 -0.1024958643519876 0.25398423233939882 0 -0.10348037342090161 0.26361177998066287 0 -0.098407234790292175 0.25810536507936388 0 -0.095759970741560438 0.25086019253117647 0 -0.091892730646719115 0.26396525546621741 0 -0.098407234790292175 0.25810536507936388 0 -0.095759970741560438 0.25086019253117647 0 -0.1024958643519876 0.25398423233939882 0 -0.095759970741560438 0.25086019253117647 0 -0.1024958643519876 0.25398423233939882 0 -0.09540734921997393 0.24716743898928911 0 -0.1024958643519876 0.25398423233939882 0 -0.1121169792327698 0.25699373561277639 0 -0.1104862699934164 0.24670927378483551 0 -0.1024958643519876 0.25398423233939882 0 -0.10348037342090161 0.26361177998066287 0 -0.1121169792327698 0.25699373561277639 0 -0.10348037342090161 0.26361177998066287 0 -0.11345809572131491 0.26535031422968991 0 -0.1121169792327698 0.25699373561277639 0 -0.11345809572131491 0.26535031422968991 0 -0.1121169792327698 0.25699373561277639 0 -0.12163432698692241 0.26029000038357741 0 -0.1121169792327698 0.25699373561277639 0 -0.1104862699934164 0.24670927378483551 0 -0.1235645028477398 0.2486153537660559 0 -0.1121169792327698 0.25699373561277639 0 -0.12163432698692241 0.26029000038357741 0 -0.1235645028477398 0.2486153537660559 0 -0.11345809572131491 0.26535031422968991 0 -0.12163432698692241 0.26029000038357741 0 -0.1243149592939632 0.26875744569656312 0 -0.11345809572131491 0.26535031422968991 0 -0.1243149592939632 0.26875744569656312 0 -0.1147119302807789 0.27428874526826269 0 -0.097889110799407653 0.27624294439968422 0 -0.1147119302807789 0.27428874526826269 0 -0.1191070176042183 0.28736808282932658 0 -0.10738487755560069 0.26987344596957491 0 -0.11345809572131491 0.26535031422968991 0 -0.1147119302807789 0.27428874526826269 0 -0.1243149592939632 0.26875744569656312 0 -0.1147119302807789 0.27428874526826269 0 -0.1245819527695267 0.27790530939307051 0 -0.1147119302807789 0.27428874526826269 0 -0.1245819527695267 0.27790530939307051 0 -0.1191070176042183 0.28736808282932658 0 -0.1284636060630058 0.2930455415117369 0 -0.1191070176042183 0.28736808282932658 0 -0.1043515720053676 0.29171031653817908 0 -0.13062360521130151 0.2829941282163439 0 -0.1245819527695267 0.27790530939307051 0 -0.1191070176042183 0.28736808282932658 0 -0.1284636060630058 0.2930455415117369 0 -0.1170041941723058 0.30024114353634768 0 -0.1043515720053676 0.29171031653817908 0 -0.1284636060630058 0.2930455415117369 0 -0.1043515720053676 0.29171031653817908 0 -0.1250077373125684 0.303077858164154 0 -0.1275531853856228 0.30982518116109542 0 -0.1189573235802162 0.30844812925915932 0 -0.1275531853856228 0.30982518116109542 0 -0.1189573235802162 0.30844812925915932 0 -0.1245482768209321 0.31732283894063762 0 -0.1250077373125684 0.303077858164154 0 -0.1189573235802162 0.30844812925915932 0 -0.1170041941723058 0.30024114353634768 0 -0.1250077373125684 0.303077858164154 0 -0.1284636060630058 0.2930455415117369 0 -0.1170041941723058 0.30024114353634768 0 -0.1189573235802162 0.30844812925915932 0 -0.1170041941723058 0.30024114353634768 0 -0.1082407319003713 0.30492387220850931 0 -0.1170041941723058 0.30024114353634768 0 -0.1082407319003713 0.30492387220850931 0 -0.1043515720053676 0.29171031653817908 0 -0.1189573235802162 0.30844812925915932 0 -0.1082407319003713 0.30492387220850931 0 -0.10875511017426739 0.31696691415606132 0 -0.1082407319003713 0.30492387220850931 0 -0.1043515720053676 0.29171031653817908 0 -0.092731676387286285 0.30895963041899682 0 -0.1082407319003713 0.30492387220850931 0 -0.092731676387286285 0.30895963041899682 0 -0.10875511017426739 0.31696691415606132 0 -0.097889110799407653 0.27624294439968422 0 -0.1043515720053676 0.29171031653817908 0 -0.080239537947729311 0.29037509156462132 0 -0.097889110799407653 0.27624294439968422 0 -0.1191070176042183 0.28736808282932658 0 -0.1043515720053676 0.29171031653817908 0 -0.097889110799407653 0.27624294439968422 0 -0.1191070176042183 0.28736808282932658 0 -0.1043515720053676 0.29171031653817908 0 -0.080239537947729311 0.29037509156462132 0 -0.1043515720053676 0.29171031653817908 0 -0.080239537947729311 0.29037509156462132 0 -0.092731676387286285 0.30895963041899682 0 -0.080239537947729311 0.29037509156462132 0 -0.092731676387286285 0.30895963041899682 0 -0.069647295921686864 0.3070048589329184 0 -0.080239537947729311 0.29037509156462132 0 -0.069647295921686864 0.3070048589329184 0 -0.055863109724746743 0.28505322618700768 0 -0.069647295921686864 0.3070048589329184 0 -0.055863109724746743 0.28505322618700768 0 -0.076671203994596898 0.26511780597004209 0 -0.055863109724746743 0.28505322618700768 0 -0.080239537947729311 0.29037509156462132 0 -0.076671203994596898 0.26511780597004209 0 -0.055863109724746743 0.28505322618700768 0 -0.076671203994596898 0.26511780597004209 0 -0.05958712097336627 0.26846575737394479 0 -0.055863109724746743 0.28505322618700768 0 -0.097889110799407653 0.27624294439968422 0 -0.076671203994596898 0.26511780597004209 0 -0.097889110799407653 0.27624294439968422 0 -0.080239537947729311 0.29037509156462132 0 -0.076671203994596898 0.26511780597004209 0 -0.097889110799407653 0.27624294439968422 0 -0.091892730646719115 0.26396525546621741 0 -0.076671203994596898 0.26511780597004209 0 -0.095759970741560438 0.25086019253117647 0 -0.091892730646719115 0.26396525546621741 0 -0.076671203994596898 0.26511780597004209 0 -0.095759970741560438 0.25086019253117647 0 -0.076671203994596898 0.26511780597004209 0 -0.09540734921997393 0.24716743898928911 0 -0.076671203994596898 0.26511780597004209 0 -0.09540734921997393 0.24716743898928911 0 -0.07172819153003733 0.2478211668758285 0 -0.076671203994596898 0.26511780597004209 0 -0.09540734921997393 0.24716743898928911 0 -0.076671203994596898 0.26511780597004209 0 -0.055476613240625819 0.25400489279407817 0 -0.076671203994596898 0.26511780597004209 0 -0.055476613240625819 0.25400489279407817 0 -0.05958712097336627 0.26846575737394479 0 -0.076671203994596898 0.26511780597004209 0 -0.055476613240625819 0.25400489279407817 0 -0.07172819153003733 0.2478211668758285 0 -0.055476613240625819 0.25400489279407817 0 -0.05958712097336627 0.26846575737394479 0 -0.046876114895262069 0.2707412307476223 0 -0.046876114895262069 0.2707412307476223 0 -0.039764152612800058 0.28480917054172927 0 -0.055863109724746743 0.28505322618700768 0 -0.05958712097336627 0.26846575737394479 0 -0.046876114895262069 0.2707412307476223 0 -0.055863109724746743 0.28505322618700768 0 -0.046876114895262069 0.2707412307476223 0 -0.055863109724746743 0.28505322618700768 0 -0.046876114895262069 0.2707412307476223 0 -0.029147879495207581 0.278961562985857 0 -0.039764152612800058 0.28480917054172927 0 -0.046876114895262069 0.2707412307476223 0 -0.02978947141449376 0.26672774754874201 0 -0.029147879495207581 0.278961562985857 0 -0.046876114895262069 0.2707412307476223 0 -0.037889120065777382 0.25642923530823691 0 -0.02978947141449376 0.26672774754874201 0 -0.055476613240625819 0.25400489279407817 0 -0.046876114895262069 0.2707412307476223 0 -0.037889120065777382 0.25642923530823691 0 -0.055476613240625819 0.25400489279407817 0 -0.037889120065777382 0.25642923530823691 0 -0.034282022486654969 0.2428919796181139 0 -0.046876114895262069 0.2707412307476223 0 -0.037889120065777382 0.25642923530823691 0 -0.037889120065777382 0.25642923530823691 0 -0.02694943611709328 0.25615970462705079 0 -0.02978947141449376 0.26672774754874201 0 -0.037889120065777382 0.25642923530823691 0 -0.02694943611709328 0.25615970462705079 0 -0.034282022486654969 0.2428919796181139 0 -0.01367307686330593 0.26227792124467669 0 -0.017656319397305852 0.24918947528673629 0 -0.02428119999862503 0.24495157131668341 0 -0.01367307686330593 0.26227792124467669 0 -0.034282022486654969 0.2428919796181139 0 -0.02694943611709328 0.25615970462705079 0 -0.01367307686330593 0.26227792124467669 0 -0.034282022486654969 0.2428919796181139 0 -0.01367307686330593 0.26227792124467669 0 -0.034282022486654969 0.2428919796181139 0 -0.02428119999862503 0.24495157131668341 0 -0.02694943611709328 0.25615970462705079 0 -0.017618561117540409 0.26187670588889372 0 -0.01367307686330593 0.26227792124467669 0 -0.02694943611709328 0.25615970462705079 0 -0.017618561117540409 0.26187670588889372 0 -0.024420348655464521 0.26250500091329132 0 -0.017618561117540409 0.26187670588889372 0 -0.024420348655464521 0.26250500091329132 0 -0.02238742226635498 0.26604504034894128 0 -0.024420348655464521 0.26250500091329132 0 -0.02978947141449376 0.26672774754874201 0 -0.02238742226635498 0.26604504034894128 0 -0.02694943611709328 0.25615970462705079 0 -0.024420348655464521 0.26250500091329132 0 -0.02978947141449376 0.26672774754874201 0 -0.02978947141449376 0.26672774754874201 0 -0.020561312207230811 0.27218704236696001 0 -0.02238742226635498 0.26604504034894128 0 -0.02978947141449376 0.26672774754874201 0 -0.029147879495207581 0.278961562985857 0 -0.020561312207230811 0.27218704236696001 0 -0.029147879495207581 0.278961562985857 0 -0.020561312207230811 0.27218704236696001 0 -0.02385998648925618 0.28857778112920518 0 -0.017618561117540409 0.26187670588889372 0 -0.020561312207230811 0.27218704236696001 0 -0.02238742226635498 0.26604504034894128 0 -0.01367307686330593 0.26227792124467669 0 -0.0083245613626838667 0.28573520421396642 0 0.006935868760041649 0.28166386287124129 0 -0.0039651939046341919 0.26537462149238011 0 -0.01367307686330593 0.26227792124467669 0 0.006935868760041649 0.28166386287124129 0 -0.017618561117540409 0.26187670588889372 0 -0.020561312207230811 0.27218704236696001 0 -0.0083245613626838667 0.28573520421396642 0 -0.017618561117540409 0.26187670588889372 0 -0.0083245613626838667 0.28573520421396642 0 -0.017618561117540409 0.26187670588889372 0 -0.01367307686330593 0.26227792124467669 0 -0.0083245613626838667 0.28573520421396642 0 -0.01367307686330593 0.26227792124467669 0 0.006935868760041649 0.28166386287124129 0 -0.0039651939046341919 0.26537462149238011 0 -0.0038274845182531859 0.25610840522710399 0 -0.0087162118107173159 0.2595586408952027 0 -0.0039651939046341919 0.26537462149238011 0 -0.0038274845182531859 0.25610840522710399 0 0.0024176515686851661 0.26939382453048488 0 -0.0038274845182531859 0.25610840522710399 0 -0.01096827314739557 0.25678361066342992 0 -0.017656319397305852 0.24918947528673629 0 -0.0038274845182531859 0.25610840522710399 0 -0.01096827314739557 0.25678361066342992 0 -0.0087162118107173159 0.2595586408952027 0 -0.01096827314739557 0.25678361066342992 0 -0.01367307686330593 0.26227792124467669 0 -0.017656319397305852 0.24918947528673629 0 -0.0039651939046341919 0.26537462149238011 0 -0.01367307686330593 0.26227792124467669 0 -0.0087162118107173159 0.2595586408952027 0 -0.01096827314739557 0.25678361066342992 0 -0.01367307686330593 0.26227792124467669 0 -0.0087162118107173159 0.2595586408952027 0 -0.016342437070500999 0.3025980141136787 0 -0.01815283591143102 0.32118196268809618 0 0.00096943839217269144 0.30959370253903917 0 -0.0083245613626838667 0.28573520421396642 0 -0.016342437070500999 0.3025980141136787 0 0.00096943839217269144 0.30959370253903917 0 -0.0083245613626838667 0.28573520421396642 0 0.00096943839217269144 0.30959370253903917 0 -0.029147879495207581 0.278961562985857 0 -0.02385998648925618 0.28857778112920518 0 -0.039764152612800058 0.28480917054172927 0 -0.0083245613626838667 0.28573520421396642 0 -0.02385998648925618 0.28857778112920518 0 -0.016342437070500999 0.3025980141136787 0 -0.020561312207230811 0.27218704236696001 0 -0.0083245613626838667 0.28573520421396642 0 -0.02385998648925618 0.28857778112920518 0 -0.02385998648925618 0.28857778112920518 0 -0.016342437070500999 0.3025980141136787 0 -0.037007972818088902 0.30311759443755187 0 -0.037007972818088902 0.30311759443755187 0 -0.01815283591143102 0.32118196268809618 0 -0.016342437070500999 0.3025980141136787 0 -0.037007972818088902 0.30311759443755187 0 -0.01815283591143102 0.32118196268809618 0 -0.037007972818088902 0.30311759443755187 0 -0.039764152612800058 0.28480917054172927 0 -0.055863109724746743 0.28505322618700768 0 -0.02385998648925618 0.28857778112920518 0 -0.037007972818088902 0.30311759443755187 0 -0.039764152612800058 0.28480917054172927 0 -0.037007972818088902 0.30311759443755187 0 -0.055863109724746743 0.28505322618700768 0 -0.037007972818088902 0.30311759443755187 0 -0.055863109724746743 0.28505322618700768 0 -0.053655332661638112 0.30230971583803679 0 -0.069647295921686864 0.3070048589329184 0 -0.053655332661638112 0.30230971583803679 0 -0.050635347504505969 0.31870077886771442 0 -0.037007972818088902 0.30311759443755187 0 -0.053655332661638112 0.30230971583803679 0 -0.050635347504505969 0.31870077886771442 0 -0.069647295921686864 0.3070048589329184 0 -0.055863109724746743 0.28505322618700768 0 -0.053655332661638112 0.30230971583803679 0 -0.069647295921686864 0.3070048589329184 0 -0.050635347504505969 0.31870077886771442 0 -0.066937825908973042 0.32341750895628651 0 -0.050635347504505969 0.31870077886771442 0 -0.064037178091072303 0.3390079063456839 0 -0.066937825908973042 0.32341750895628651 0 -0.050635347504505969 0.31870077886771442 0 -0.043995031821442418 0.34667421836199158 0 -0.050635347504505969 0.31870077886771442 0 -0.043995031821442418 0.34667421836199158 0 -0.064037178091072303 0.3390079063456839 0 -0.050635347504505969 0.31870077886771442 0 -0.034796085775906919 0.32627580697565423 0 -0.043995031821442418 0.34667421836199158 0 -0.034796085775906919 0.32627580697565423 0 -0.024189240824066271 0.3417044805229163 0 -0.043995031821442418 0.34667421836199158 0 -0.037007972818088902 0.30311759443755187 0 -0.050635347504505969 0.31870077886771442 0 -0.034796085775906919 0.32627580697565423 0 -0.037007972818088902 0.30311759443755187 0 -0.034796085775906919 0.32627580697565423 0 -0.01815283591143102 0.32118196268809618 0 -0.034796085775906919 0.32627580697565423 0 -0.01815283591143102 0.32118196268809618 0 -0.024189240824066271 0.3417044805229163 0 -0.01815283591143102 0.32118196268809618 0 0.00070230099522694545 0.33924633093864048 0 -0.01815283591143102 0.32118196268809618 0 -0.024189240824066271 0.3417044805229163 0 0.00070230099522694545 0.33924633093864048 0 -0.01815283591143102 0.32118196268809618 0 -0.0017605313984799041 0.32439662603566699 0 0.00070230099522694545 0.33924633093864048 0 -0.01815283591143102 0.32118196268809618 0 -0.0017605313984799041 0.32439662603566699 0 0.00096943839217269144 0.30959370253903917 0 -0.01480773710871847 0.36110392254280399 0 0.0049146154486653122 0.37652028813430138 0 0.0027322885737161859 0.35924298728223708 0 -0.01480773710871847 0.36110392254280399 0 -0.01245310243245489 0.38678901165564461 0 0.0049146154486653122 0.37652028813430138 0 -0.024189240824066271 0.3417044805229163 0 -0.01480773710871847 0.36110392254280399 0 0.00070230099522694545 0.33924633093864048 0 -0.01480773710871847 0.36110392254280399 0 0.0027322885737161859 0.35924298728223708 0 0.00070230099522694545 0.33924633093864048 0 -0.024189240824066271 0.3417044805229163 0 -0.01480773710871847 0.36110392254280399 0 -0.030086681473151519 0.35603256982099518 0 -0.01480773710871847 0.36110392254280399 0 -0.030086681473151519 0.35603256982099518 0 -0.037354716138378083 0.37464765785626858 0 -0.01480773710871847 0.36110392254280399 0 -0.037354716138378083 0.37464765785626858 0 -0.01245310243245489 0.38678901165564461 0 -0.037354716138378083 0.37464765785626858 0 -0.043995031821442418 0.34667421836199158 0 -0.037354716138378083 0.37464765785626858 0 -0.043995031821442418 0.34667421836199158 0 -0.053102301800332423 0.3669695607150239 0 -0.037354716138378083 0.37464765785626858 0 -0.053102301800332423 0.3669695607150239 0 -0.030086681473151519 0.35603256982099518 0 -0.037354716138378083 0.37464765785626858 0 -0.043995031821442418 0.34667421836199158 0 -0.024189240824066271 0.3417044805229163 0 -0.030086681473151519 0.35603256982099518 0 -0.043995031821442418 0.34667421836199158 0 -0.043995031821442418 0.34667421836199158 0 -0.057131911120066353 0.35309808602675702 0 -0.064037178091072303 0.3390079063456839 0 -0.043995031821442418 0.34667421836199158 0 -0.057131911120066353 0.35309808602675702 0 -0.053102301800332423 0.3669695607150239 0 -0.053102301800332423 0.3669695607150239 0 -0.064750273931620445 0.37263474864247043 0 -0.068849887462287304 0.35929146357378039 0 -0.057131911120066353 0.35309808602675702 0 -0.053102301800332423 0.3669695607150239 0 -0.068849887462287304 0.35929146357378039 0 -0.053102301800332423 0.3669695607150239 0 -0.064750273931620445 0.37263474864247043 0 -0.059150184933172777 0.38439719137903372 0 -0.053102301800332423 0.3669695607150239 0 -0.068849887462287304 0.35929146357378039 0 -0.087245671062140151 0.36319512531730191 0 -0.068849887462287304 0.35929146357378039 0 -0.077587870901861644 0.37841663089918959 0 -0.064750273931620445 0.37263474864247043 0 -0.068849887462287304 0.35929146357378039 0 -0.077587870901861644 0.37841663089918959 0 -0.087245671062140151 0.36319512531730191 0 -0.096040479189209327 0.37636983402803392 0 -0.077587870901861644 0.37841663089918959 0 -0.087245671062140151 0.36319512531730191 0 -0.079690730719867583 0.34663865270923572 0 -0.097215668315567161 0.35090812442473979 0 -0.087245671062140151 0.36319512531730191 0 -0.079690730719867583 0.34663865270923572 0 -0.068849887462287304 0.35929146357378039 0 -0.079690730719867583 0.34663865270923572 0 -0.068849887462287304 0.35929146357378039 0 -0.064037178091072303 0.3390079063456839 0 -0.057131911120066353 0.35309808602675702 0 -0.068849887462287304 0.35929146357378039 0 -0.064037178091072303 0.3390079063456839 0 -0.064037178091072303 0.3390079063456839 0 -0.066937825908973042 0.32341750895628651 0 -0.083431482118626984 0.32895649167882912 0 -0.079690730719867583 0.34663865270923572 0 -0.064037178091072303 0.3390079063456839 0 -0.083431482118626984 0.32895649167882912 0 -0.069647295921686864 0.3070048589329184 0 -0.066937825908973042 0.32341750895628651 0 -0.083431482118626984 0.32895649167882912 0 -0.069647295921686864 0.3070048589329184 0 -0.083431482118626984 0.32895649167882912 0 -0.092731676387286285 0.30895963041899682 0 -0.069647295921686864 0.3070048589329184 0 -0.083431482118626984 0.32895649167882912 0 -0.092731676387286285 0.30895963041899682 0 -0.083431482118626984 0.32895649167882912 0 -0.098969746996733096 0.32769301332911249 0 -0.079690730719867583 0.34663865270923572 0 -0.083431482118626984 0.32895649167882912 0 -0.097215668315567161 0.35090812442473979 0 -0.083431482118626984 0.32895649167882912 0 -0.097215668315567161 0.35090812442473979 0 -0.083431482118626984 0.32895649167882912 0 -0.098969746996733096 0.32769301332911249 0 -0.097215668315567161 0.35090812442473979 0 -0.098969746996733096 0.32769301332911249 0 -0.1127147979879176 0.33267390596693569 0 -0.097215668315567161 0.35090812442473979 0 -0.092731676387286285 0.30895963041899682 0 -0.098969746996733096 0.32769301332911249 0 -0.10875511017426739 0.31696691415606132 0 -0.098969746996733096 0.32769301332911249 0 -0.10875511017426739 0.31696691415606132 0 -0.1127147979879176 0.33267390596693569 0 -0.1189573235802162 0.30844812925915932 0 -0.10875511017426739 0.31696691415606132 0 -0.1245482768209321 0.31732283894063762 0 -0.10875511017426739 0.31696691415606132 0 -0.1245482768209321 0.31732283894063762 0 -0.1127147979879176 0.33267390596693569 0 -0.1245482768209321 0.31732283894063762 0 -0.1127147979879176 0.33267390596693569 0 -0.1249269236761287 0.32967328003524271 0 -0.1127147979879176 0.33267390596693569 0 -0.1229182622514491 0.33988633939377971 0 -0.1140372486124011 0.35091112845132177 0 -0.1127147979879176 0.33267390596693569 0 -0.1249269236761287 0.32967328003524271 0 -0.1229182622514491 0.33988633939377971 0 -0.12623952971516331 0.35351391767907442 0 -0.1229182622514491 0.33988633939377971 0 -0.1140372486124011 0.35091112845132177 0 -0.12623952971516331 0.35351391767907442 0 -0.1140372486124011 0.35091112845132177 0 -0.12087263656310911 0.3657685284757104 0 -0.12963139342908001 0.37761356657849088 0 -0.12087263656310911 0.3657685284757104 0 -0.1117964328961794 0.37913645352838132 0 -0.12087263656310911 0.3657685284757104 0 -0.1056710281881377 0.36416904927385119 0 -0.1117964328961794 0.37913645352838132 0 -0.1140372486124011 0.35091112845132177 0 -0.12087263656310911 0.3657685284757104 0 -0.1056710281881377 0.36416904927385119 0 -0.1056710281881377 0.36416904927385119 0 -0.096040479189209327 0.37636983402803392 0 -0.1117964328961794 0.37913645352838132 0 -0.087245671062140151 0.36319512531730191 0 -0.1056710281881377 0.36416904927385119 0 -0.096040479189209327 0.37636983402803392 0 -0.087245671062140151 0.36319512531730191 0 -0.1056710281881377 0.36416904927385119 0 -0.097215668315567161 0.35090812442473979 0 -0.1127147979879176 0.33267390596693569 0 -0.1140372486124011 0.35091112845132177 0 -0.097215668315567161 0.35090812442473979 0 -0.1140372486124011 0.35091112845132177 0 -0.1056710281881377 0.36416904927385119 0 -0.097215668315567161 0.35090812442473979 0 -0.1074939019585343 0.40444378591049629 0 -0.093903619202212463 0.39624614172190209 0 -0.1173104214787532 0.39428067001565181 0 -0.093903619202212463 0.39624614172190209 0 -0.1173104214787532 0.39428067001565181 0 -0.1074939019585343 0.40444378591049629 0 -0.093903619202212463 0.39624614172190209 0 -0.10004219683688061 0.41063937522004401 0 -0.093903619202212463 0.39624614172190209 0 -0.10004219683688061 0.41063937522004401 0 -0.090955524343993344 0.4084008138434671 0 -0.093903619202212463 0.39624614172190209 0 -0.1117964328961794 0.37913645352838132 0 -0.1173104214787532 0.39428067001565181 0 -0.093903619202212463 0.39624614172190209 0 -0.096040479189209327 0.37636983402803392 0 -0.1117964328961794 0.37913645352838132 0 -0.12963139342908001 0.37761356657849088 0 -0.1117964328961794 0.37913645352838132 0 -0.1173104214787532 0.39428067001565181 0 -0.1074939019585343 0.40444378591049629 0 -0.1173104214787532 0.39428067001565181 0 -0.11652760736614989 0.40769477823845701 0 -0.12796686335315369 0.40103931286682798 0 -0.1173104214787532 0.39428067001565181 0 -0.11652760736614989 0.40769477823845701 0 -0.12796686335315369 0.40103931286682798 0 -0.1239273010572704 0.41118486072446703 0 -0.11652760736614989 0.40769477823845701 0 -0.1239273010572704 0.41118486072446703 0 -0.11661714886722591 0.41511250570728792 0 -0.11652760736614989 0.40769477823845701 0 -0.1239273010572704 0.41118486072446703 0 -0.12303763283716861 0.41952030052520789 0 -0.11661714886722591 0.41511250570728792 0 -0.12303763283716861 0.41952030052520789 0 -0.11661714886722591 0.41511250570728792 0 -0.1086239349646709 0.42498741747205931 0 -0.11661714886722591 0.41511250570728792 0 -0.1096856649086753 0.41335796435642641 0 -0.1086239349646709 0.42498741747205931 0 -0.1074939019585343 0.40444378591049629 0 -0.1096856649086753 0.41335796435642641 0 -0.11652760736614989 0.40769477823845701 0 -0.11661714886722591 0.41511250570728792 0 -0.1096856649086753 0.41335796435642641 0 -0.11652760736614989 0.40769477823845701 0 -0.13501525506328199 0.43066732253695778 0 -0.1086239349646709 0.42498741747205931 0 -0.13501525506328199 0.43066732253695778 0 -0.1177249759244212 0.43631310851046362 0 -0.1086239349646709 0.42498741747205931 0 -0.13501525506328199 0.43066732253695778 0 -0.12303763283716861 0.41952030052520789 0 -0.1086239349646709 0.42498741747205931 0 -0.1086239349646709 0.42498741747205931 0 -0.082232614866059747 0.41930751240716069 0 -0.1177249759244212 0.43631310851046362 0 -0.1086239349646709 0.42498741747205931 0 -0.1010579927094863 0.44038674823221913 0 -0.1086239349646709 0.42498741747205931 0 -0.082232614866059747 0.41930751240716069 0 -0.1010579927094863 0.44038674823221913 0 -0.1086239349646709 0.42498741747205931 0 -0.094587285124719991 0.41432491225534901 0 -0.084799821270448827 0.41694192684680409 0 -0.1086239349646709 0.42498741747205931 0 -0.084799821270448827 0.41694192684680409 0 -0.1074939019585343 0.40444378591049629 0 -0.1096856649086753 0.41335796435642641 0 -0.10004219683688061 0.41063937522004401 0 -0.1096856649086753 0.41335796435642641 0 -0.1086239349646709 0.42498741747205931 0 -0.10004219683688061 0.41063937522004401 0 -0.1086239349646709 0.42498741747205931 0 -0.094587285124719991 0.41432491225534901 0 -0.10004219683688061 0.41063937522004401 0 -0.094587285124719991 0.41432491225534901 0 -0.10004219683688061 0.41063937522004401 0 -0.090955524343993344 0.4084008138434671 0 -0.1086239349646709 0.42498741747205931 0 -0.082232614866059747 0.41930751240716069 0 -0.084799821270448827 0.41694192684680409 0 -0.090955524343993344 0.4084008138434671 0 -0.087609102964980312 0.41180417237103661 0 -0.0827290206467092 0.40731430597322921 0 -0.094587285124719991 0.41432491225534901 0 -0.090955524343993344 0.4084008138434671 0 -0.087609102964980312 0.41180417237103661 0 -0.094587285124719991 0.41432491225534901 0 -0.087609102964980312 0.41180417237103661 0 -0.084799821270448827 0.41694192684680409 0 -0.087609102964980312 0.41180417237103661 0 -0.084799821270448827 0.41694192684680409 0 -0.0827290206467092 0.40731430597322921 0 -0.084799821270448827 0.41694192684680409 0 -0.0827290206467092 0.40731430597322921 0 -0.072587248040655888 0.40798909946045381 0 -0.082232614866059747 0.41930751240716069 0 -0.080785347849720732 0.44362505599340218 0 -0.1010579927094863 0.44038674823221913 0 -0.082232614866059747 0.41930751240716069 0 -0.058805463079472632 0.43264477827004361 0 -0.080785347849720732 0.44362505599340218 0 -0.082232614866059747 0.41930751240716069 0 -0.055841294767448799 0.41362760734226223 0 -0.059692104374032183 0.41007922900172722 0 -0.082232614866059747 0.41930751240716069 0 -0.055841294767448799 0.41362760734226223 0 -0.058805463079472632 0.43264477827004361 0 -0.084799821270448827 0.41694192684680409 0 -0.072587248040655888 0.40798909946045381 0 -0.059692104374032183 0.41007922900172722 0 -0.082232614866059747 0.41930751240716069 0 -0.084799821270448827 0.41694192684680409 0 -0.059692104374032183 0.41007922900172722 0 -0.082232614866059747 0.41930751240716069 0 -0.055841294767448799 0.41362760734226223 0 -0.084799821270448827 0.41694192684680409 0 -0.059692104374032183 0.41007922900172722 0 -0.072587248040655888 0.40798909946045381 0 -0.066718581531475321 0.40562408044233578 0 -0.059692104374032183 0.41007922900172722 0 -0.072587248040655888 0.40798909946045381 0 -0.066718581531475321 0.40562408044233578 0 -0.070496816925671738 0.39821161342815242 0 -0.0827290206467092 0.40731430597322921 0 -0.072587248040655888 0.40798909946045381 0 -0.070496816925671738 0.39821161342815242 0 -0.093903619202212463 0.39624614172190209 0 -0.070496816925671738 0.39821161342815242 0 -0.093903619202212463 0.39624614172190209 0 -0.070496816925671738 0.39821161342815242 0 -0.077587870901861644 0.37841663089918959 0 -0.093903619202212463 0.39624614172190209 0 -0.0827290206467092 0.40731430597322921 0 -0.070496816925671738 0.39821161342815242 0 -0.093903619202212463 0.39624614172190209 0 -0.090955524343993344 0.4084008138434671 0 -0.0827290206467092 0.40731430597322921 0 -0.093903619202212463 0.39624614172190209 0 -0.096040479189209327 0.37636983402803392 0 -0.077587870901861644 0.37841663089918959 0 -0.070496816925671738 0.39821161342815242 0 -0.077587870901861644 0.37841663089918959 0 -0.059150184933172777 0.38439719137903372 0 -0.064750273931620445 0.37263474864247043 0 -0.077587870901861644 0.37841663089918959 0 -0.059150184933172777 0.38439719137903372 0 -0.053102301800332423 0.3669695607150239 0 -0.059150184933172777 0.38439719137903372 0 -0.045291388704940948 0.38723578400810238 0 -0.059150184933172777 0.38439719137903372 0 -0.04709001464913104 0.40017708513440259 0 -0.045291388704940948 0.38723578400810238 0 -0.070496816925671738 0.39821161342815242 0 -0.04709001464913104 0.40017708513440259 0 -0.066718581531475321 0.40562408044233578 0 -0.070496816925671738 0.39821161342815242 0 -0.04709001464913104 0.40017708513440259 0 -0.070496816925671738 0.39821161342815242 0 -0.059150184933172777 0.38439719137903372 0 -0.04709001464913104 0.40017708513440259 0 -0.066718581531475321 0.40562408044233578 0 -0.04709001464913104 0.40017708513440259 0 -0.059692104374032183 0.41007922900172722 0 -0.04709001464913104 0.40017708513440259 0 -0.034584387477615518 0.40321653115665029 0 -0.059692104374032183 0.41007922900172722 0 -0.033402345403608383 0.39129768006681631 0 -0.034584387477615518 0.40321653115665029 0 -0.029449974668837829 0.40794770227736382 0 -0.033402345403608383 0.39129768006681631 0 -0.029449974668837829 0.40794770227736382 0 -0.04709001464913104 0.40017708513440259 0 -0.039862040879401928 0.39607788817475031 0 -0.034584387477615518 0.40321653115665029 0 -0.04709001464913104 0.40017708513440259 0 -0.039862040879401928 0.39607788817475031 0 -0.045291388704940948 0.38723578400810238 0 -0.039862040879401928 0.39607788817475031 0 -0.033402345403608383 0.39129768006681631 0 -0.045291388704940948 0.38723578400810238 0 -0.039862040879401928 0.39607788817475031 0 -0.033402345403608383 0.39129768006681631 0 -0.034584387477615518 0.40321653115665029 0 -0.037354716138378083 0.37464765785626858 0 -0.033402345403608383 0.39129768006681631 0 -0.037354716138378083 0.37464765785626858 0 -0.053102301800332423 0.3669695607150239 0 -0.045291388704940948 0.38723578400810238 0 -0.037354716138378083 0.37464765785626858 0 -0.033402345403608383 0.39129768006681631 0 -0.045291388704940948 0.38723578400810238 0 -0.037354716138378083 0.37464765785626858 0 -0.033402345403608383 0.39129768006681631 0 -0.01245310243245489 0.38678901165564461 0 -0.037354716138378083 0.37464765785626858 0 -0.01245310243245489 0.38678901165564461 0 -0.033402345403608383 0.39129768006681631 0 -0.020951538550646669 0.39736835696650508 0 -0.01245310243245489 0.38678901165564461 0 -0.020951538550646669 0.39736835696650508 0 -0.0085007316976855873 0.40343903386619551 0 -0.029449974668837829 0.40794770227736382 0 -0.033402345403608383 0.39129768006681631 0 -0.020951538550646669 0.39736835696650508 0 -0.029449974668837829 0.40794770227736382 0 -0.0085007316976855873 0.40343903386619551 0 -0.029449974668837829 0.40794770227736382 0 -0.01245310243245489 0.38678901165564461 0 0.012448511273466139 0.39893036545502469 0 -0.020951538550646669 0.39736835696650508 0 -0.0085007316976855873 0.40343903386619551 0 -0.01245310243245489 0.38678901165564461 0 -0.0085007316976855873 0.40343903386619551 0 -0.01245310243245489 0.38678901165564461 0 0.012448511273466139 0.39893036545502469 0 -0.0095143940867274818 0.42049616321873512 0 -0.024767764529702418 0.42767229494404402 0 -0.0061968686170758847 0.44062192971803532 0 -0.0095143940867274818 0.42049616321873512 0 -0.0061968686170758847 0.44062192971803532 0 0.0026267493146783991 0.42351412466293631 0 -0.0085007316976855873 0.40343903386619551 0 -0.0095143940867274818 0.42049616321873512 0 0.0035782602563921109 0.4120149883411493 0 -0.0095143940867274818 0.42049616321873512 0 0.0035782602563921109 0.4120149883411493 0 0.0026267493146783991 0.42351412466293631 0 -0.0085007316976855873 0.40343903386619551 0 -0.0095143940867274818 0.42049616321873512 0 -0.029449974668837829 0.40794770227736382 0 -0.029449974668837829 0.40794770227736382 0 -0.024767764529702418 0.42767229494404402 0 -0.0095143940867274818 0.42049616321873512 0 -0.029449974668837829 0.40794770227736382 0 -0.024767764529702418 0.42767229494404402 0 -0.024767764529702418 0.42767229494404402 0 -0.041342526244053372 0.42491636405792998 0 -0.038277068199900233 0.44018742198522709 0 -0.041342526244053372 0.42491636405792998 0 -0.058805463079472632 0.43264477827004361 0 -0.038277068199900233 0.44018742198522709 0 -0.029449974668837829 0.40794770227736382 0 -0.055841294767448799 0.41362760734226223 0 -0.034584387477615518 0.40321653115665029 0 -0.029449974668837829 0.40794770227736382 0 -0.055841294767448799 0.41362760734226223 0 -0.029449974668837829 0.40794770227736382 0 -0.024767764529702418 0.42767229494404402 0 -0.041342526244053372 0.42491636405792998 0 -0.029449974668837829 0.40794770227736382 0 -0.041342526244053372 0.42491636405792998 0 -0.055841294767448799 0.41362760734226223 0 -0.034584387477615518 0.40321653115665029 0 -0.055841294767448799 0.41362760734226223 0 -0.059692104374032183 0.41007922900172722 0 -0.034584387477615518 0.40321653115665029 0 -0.059692104374032183 0.41007922900172722 0 -0.041342526244053372 0.42491636405792998 0 -0.055841294767448799 0.41362760734226223 0 -0.058805463079472632 0.43264477827004361 0 -0.058805463079472632 0.43264477827004361 0 -0.054353926549652917 0.45420470783427941 0 -0.038277068199900233 0.44018742198522709 0 -0.054353926549652917 0.45420470783427941 0 -0.038948997214866693 0.46961582741031321 0 -0.060660080251748787 0.47477373151638808 0 -0.054353926549652917 0.45420470783427941 0 -0.034233240094301183 0.45490294767992928 0 -0.038948997214866693 0.46961582741031321 0 -0.034233240094301183 0.45490294767992928 0 -0.022370306397969459 0.46413331075598929 0 -0.038948997214866693 0.46961582741031321 0 -0.054353926549652917 0.45420470783427941 0 -0.034233240094301183 0.45490294767992928 0 -0.038277068199900233 0.44018742198522709 0 -0.034233240094301183 0.45490294767992928 0 -0.038277068199900233 0.44018742198522709 0 -0.02008555439056699 0.44739688761072399 0 -0.024767764529702418 0.42767229494404402 0 -0.038277068199900233 0.44018742198522709 0 -0.02008555439056699 0.44739688761072399 0 -0.024767764529702418 0.42767229494404402 0 -0.02008555439056699 0.44739688761072399 0 -0.024767764529702418 0.42767229494404402 0 -0.02008555439056699 0.44739688761072399 0 -0.0061968686170758847 0.44062192971803532 0 -0.034233240094301183 0.45490294767992928 0 -0.02008555439056699 0.44739688761072399 0 -0.022370306397969459 0.46413331075598929 0 -0.02008555439056699 0.44739688761072399 0 -0.022370306397969459 0.46413331075598929 0 -0.01076635640797894 0.45651028906145008 0 -0.022370306397969459 0.46413331075598929 0 -0.01076635640797894 0.45651028906145008 0 -0.0072630139926338731 0.47223740661718627 0 -0.01076635640797894 0.45651028906145008 0 -0.0072630139926338731 0.47223740661718627 0 0.00267830817649002 0.45667541199681111 0 -0.01076635640797894 0.45651028906145008 0 -0.0061968686170758847 0.44062192971803532 0 0.00267830817649002 0.45667541199681111 0 -0.02008555439056699 0.44739688761072399 0 -0.01076635640797894 0.45651028906145008 0 -0.0061968686170758847 0.44062192971803532 0 -0.0131088143799748 0.5 0 -0.0063762823958713691 0.48623483505831849 0 -0.024359502428194291 0.48464821475477687 0 -0.0131088143799748 0.5 0 -0.0063762823958713691 0.48623483505831849 0 0.0085698789479514911 0.49394394483569359 0 -0.0063762823958713691 0.48623483505831849 0 -0.0072630139926338731 0.47223740661718627 0 0.0042800398734946232 0.48034460908393573 0 -0.0063762823958713691 0.48623483505831849 0 -0.0072630139926338731 0.47223740661718627 0 -0.024359502428194291 0.48464821475477687 0 -0.022370306397969459 0.46413331075598929 0 -0.024359502428194291 0.48464821475477687 0 -0.038948997214866693 0.46961582741031321 0 -0.022370306397969459 0.46413331075598929 0 -0.0072630139926338731 0.47223740661718627 0 -0.024359502428194291 0.48464821475477687 0 -0.0131088143799748 0.5 0 -0.024359502428194291 0.48464821475477687 0 -0.039998232768957309 0.5 0 -0.024359502428194291 0.48464821475477687 0 -0.039998232768957309 0.5 0 -0.045867927596670278 0.48423410825672081 0 -0.024359502428194291 0.48464821475477687 0 -0.045867927596670278 0.48423410825672081 0 -0.038948997214866693 0.46961582741031321 0 -0.045867927596670278 0.48423410825672081 0 -0.038948997214866693 0.46961582741031321 0 -0.060660080251748787 0.47477373151638808 0 -0.045867927596670278 0.48423410825672081 0 -0.060660080251748787 0.47477373151638808 0 -0.066887651157939917 0.49999999999999772 0 -0.039998232768957309 0.5 0 -0.045867927596670278 0.48423410825672081 0 -0.066887651157939917 0.49999999999999772 0 -0.060660080251748787 0.47477373151638808 0 -0.066887651157939917 0.49999999999999772 0 -0.083833426080099624 0.47877103617015238 0 -0.066887651157939917 0.49999999999999772 0 -0.083833426080099624 0.47877103617015238 0 -0.066887651157939917 0.49999999999999772 0 -0.091499695191655239 0.5 0 -0.083833426080099624 0.47877103617015238 0 -0.060660080251748787 0.47477373151638808 0 -0.083833426080099624 0.47877103617015238 0 -0.074068552911263422 0.46181670942686281 0 -0.054353926549652917 0.45420470783427941 0 -0.060660080251748787 0.47477373151638808 0 -0.074068552911263422 0.46181670942686281 0 -0.054353926549652917 0.45420470783427941 0 -0.074068552911263422 0.46181670942686281 0 -0.080785347849720732 0.44362505599340218 0 -0.058805463079472632 0.43264477827004361 0 -0.054353926549652917 0.45420470783427941 0 -0.080785347849720732 0.44362505599340218 0 -0.083833426080099624 0.47877103617015238 0 -0.1007792010022604 0.45754207234030803 0 -0.083833426080099624 0.47877103617015238 0 -0.074068552911263422 0.46181670942686281 0 -0.1007792010022604 0.45754207234030803 0 -0.074068552911263422 0.46181670942686281 0 -0.080785347849720732 0.44362505599340218 0 -0.1007792010022604 0.45754207234030803 0 -0.080785347849720732 0.44362505599340218 0 -0.1007792010022604 0.45754207234030803 0 -0.1010579927094863 0.44038674823221913 0 -0.1177249759244212 0.43631310851046362 0 -0.1007792010022604 0.45754207234030803 0 -0.1010579927094863 0.44038674823221913 0 -0.1177249759244212 0.43631310851046362 0 -0.1007792010022604 0.45754207234030803 0 -0.1177249759244212 0.43631310851046362 0 -0.1007792010022604 0.45754207234030803 0 -0.1190641749427971 0.45455009863219809 0 -0.1337665585577798 0.44637311626676413 0 -0.1177249759244212 0.43631310851046362 0 -0.1190641749427971 0.45455009863219809 0 -0.1007792010022604 0.45754207234030803 0 -0.1190641749427971 0.45455009863219809 0 -0.1102496075221932 0.47717389184383108 0 -0.13194290306208231 0.46635924932073208 0 -0.1190641749427971 0.45455009863219809 0 -0.1102496075221932 0.47717389184383108 0 -0.12841776124222809 0.48425750950777452 0 -0.13194290306208231 0.46635924932073208 0 -0.1102496075221932 0.47717389184383108 0 -0.12841776124222809 0.48425750950777452 0 -0.1102496075221932 0.47717389184383108 0 -0.11611173922537051 0.5 0 -0.091499695191655239 0.5 0 -0.1102496075221932 0.47717389184383108 0 -0.11611173922537051 0.5 0 -0.091499695191655239 0.5 0 -0.083833426080099624 0.47877103617015238 0 -0.1102496075221932 0.47717389184383108 0 -0.083833426080099624 0.47877103617015238 0 -0.1007792010022604 0.45754207234030803 0 -0.1102496075221932 0.47717389184383108 0 -0.1685251009068239 0.075893059263388019 0 -0.16784060729746519 0.09629374928054793 0 -0.1481253033663931 0.082402355558354193 0 -0.16784060729746519 0.09629374928054793 0 -0.1481253033663931 0.082402355558354193 0 -0.1685251009068239 0.075893059263388019 0 -0.14718875897359851 0.065295899230287141 0 -0.16359699432843181 0.056166669880929047 0 -0.1685251009068239 0.075893059263388019 0 -0.16359699432843181 0.056166669880929047 0 -0.18468773065506899 0.057356821215480407 0 -0.1685251009068239 0.075893059263388019 0 -0.18468773065506899 0.057356821215480407 0 -0.19414834056263741 0.077546769023812689 0 -0.1685251009068239 0.075893059263388019 0 -0.18447117739217961 0.093218435955423812 0 -0.16784060729746519 0.09629374928054793 0 -0.1685251009068239 0.075893059263388019 0 -0.18447117739217961 0.093218435955423812 0 -0.19414834056263741 0.077546769023812689 0 -0.18447117739217961 0.093218435955423812 0 -0.16784060729746519 0.09629374928054793 0 -0.18755591122853729 0.1101851430027416 0 -0.1717312099920332 0.11132579889622859 0 -0.16784060729746519 0.09629374928054793 0 -0.18755591122853729 0.1101851430027416 0 -0.16784060729746519 0.09629374928054793 0 -0.18755591122853729 0.1101851430027416 0 -0.1717312099920332 0.11132579889622859 0 -0.18755591122853729 0.1101851430027416 0 -0.17021637987010341 0.12747646324237469 0 -0.18755591122853729 0.1101851430027416 0 -0.1886537876297584 0.13126898957983071 0 -0.17021637987010341 0.12747646324237469 0 -0.1717312099920332 0.11132579889622859 0 -0.15905224264327661 0.1181448123737166 0 -0.17021637987010341 0.12747646324237469 0 -0.1717312099920332 0.11132579889622859 0 -0.15905224264327661 0.1181448123737166 0 -0.15756961189113339 0.1049580328669327 0 -0.16784060729746519 0.09629374928054793 0 -0.15756961189113339 0.1049580328669327 0 -0.14607273083654401 0.096516846338900342 0 -0.1717312099920332 0.11132579889622859 0 -0.16784060729746519 0.09629374928054793 0 -0.15756961189113339 0.1049580328669327 0 -0.15756961189113339 0.1049580328669327 0 -0.13438364663018901 0.10468980262173649 0 -0.15756961189113339 0.1049580328669327 0 -0.14607273083654401 0.096516846338900342 0 -0.13438364663018901 0.10468980262173649 0 -0.15756961189113339 0.1049580328669327 0 -0.1455750136107106 0.1172382119421691 0 -0.13438364663018901 0.10468980262173649 0 -0.15905224264327661 0.1181448123737166 0 -0.1455750136107106 0.1172382119421691 0 -0.15134818242004841 0.130695501485557 0 -0.15905224264327661 0.1181448123737166 0 -0.15756961189113339 0.1049580328669327 0 -0.1455750136107106 0.1172382119421691 0 -0.1455750136107106 0.1172382119421691 0 -0.13367823978231999 0.1181820706644164 0 -0.13591315871649531 0.12986350890578929 0 -0.1455750136107106 0.1172382119421691 0 -0.13367823978231999 0.1181820706644164 0 -0.13438364663018901 0.10468980262173649 0 -0.13367823978231999 0.1181820706644164 0 -0.13438364663018901 0.10468980262173649 0 -0.1235775851226818 0.1141937621591404 0 -0.13367823978231999 0.1181820706644164 0 -0.1238115398403533 0.12514634129650751 0 -0.1235775851226818 0.1141937621591404 0 -0.13367823978231999 0.1181820706644164 0 -0.13591315871649531 0.12986350890578929 0 -0.1238115398403533 0.12514634129650751 0 -0.14607273083654401 0.096516846338900342 0 -0.13438364663018901 0.10468980262173649 0 -0.12753223479933801 0.088391456816342584 0 -0.12753223479933801 0.088391456816342584 0 -0.1481253033663931 0.082402355558354193 0 -0.12840999943532089 0.0685109618361604 0 -0.14607273083654401 0.096516846338900342 0 -0.12753223479933801 0.088391456816342584 0 -0.1481253033663931 0.082402355558354193 0 -0.16784060729746519 0.09629374928054793 0 -0.14607273083654401 0.096516846338900342 0 -0.1481253033663931 0.082402355558354193 0 -0.1481253033663931 0.082402355558354193 0 -0.14718875897359851 0.065295899230287141 0 -0.12840999943532089 0.0685109618361604 0 -0.1685251009068239 0.075893059263388019 0 -0.1481253033663931 0.082402355558354193 0 -0.14718875897359851 0.065295899230287141 0 -0.1481253033663931 0.082402355558354193 0 -0.12840999943532089 0.0685109618361604 0 -0.14718875897359851 0.065295899230287141 0 -0.12840999943532089 0.0685109618361604 0 -0.13936062028845789 0.048174395975526842 0 -0.12840999943532089 0.0685109618361604 0 -0.13936062028845789 0.048174395975526842 0 -0.1230916044114118 0.046943269227363152 0 -0.13936062028845789 0.048174395975526842 0 -0.12560411239642191 0.033917963981125149 0 -0.15229904833856131 0.029040941304052961 0 -0.13936062028845789 0.048174395975526842 0 -0.12560411239642191 0.033917963981125149 0 -0.1230916044114118 0.046943269227363152 0 -0.13936062028845789 0.048174395975526842 0 -0.15229904833856131 0.029040941304052961 0 -0.16359699432843181 0.056166669880929047 0 -0.14718875897359851 0.065295899230287141 0 -0.13936062028845789 0.048174395975526842 0 -0.16359699432843181 0.056166669880929047 0 -0.118532798400574 -0.00069274467401118911 0 -0.14100110234869079 0.001915212727176877 0 -0.123096854520839 0.01468008996892131 0 -0.15229904833856131 0.029040941304052961 0 -0.14100110234869079 0.001915212727176877 0 -0.123096854520839 0.01468008996892131 0 -0.12560411239642191 0.033917963981125149 0 -0.15229904833856131 0.029040941304052961 0 -0.123096854520839 0.01468008996892131 0 -0.17049260380878831 -0.0019676634340025732 0 -0.15229904833856131 0.029040941304052961 0 -0.14100110234869079 0.001915212727176877 0 -0.15229904833856131 0.029040941304052961 0 -0.14100110234869079 0.001915212727176877 0 -0.17049260380878831 -0.0019676634340025732 0 -0.15229904833856131 0.029040941304052961 0 -0.18138326662146639 0.03097701646962699 0 -0.17049260380878831 -0.0019676634340025732 0 -0.18138326662146639 0.03097701646962699 0 -0.19330140372524379 0.00671505836599234 0 -0.15229904833856131 0.029040941304052961 0 -0.18138326662146639 0.03097701646962699 0 -0.16359699432843181 0.056166669880929047 0 -0.15229904833856131 0.029040941304052961 0 -0.16359699432843181 0.056166669880929047 0 -0.18138326662146639 0.03097701646962699 0 -0.16359699432843181 0.056166669880929047 0 -0.18468773065506899 0.057356821215480407 0 -0.18468773065506899 0.057356821215480407 0 -0.20283601591916281 0.060591092744165478 0 -0.19763666559189191 0.042966319910960268 0 -0.18138326662146639 0.03097701646962699 0 -0.19763666559189191 0.042966319910960268 0 -0.20776767180942471 0.025402641387434099 0 -0.18138326662146639 0.03097701646962699 0 -0.18468773065506899 0.057356821215480407 0 -0.19763666559189191 0.042966319910960268 0 -0.20776767180942471 0.025402641387434099 0 -0.22824060535332771 0.025918761386472391 0 -0.21926361772811659 0.047213459027572083 0 -0.19763666559189191 0.042966319910960268 0 -0.20776767180942471 0.025402641387434099 0 -0.21926361772811659 0.047213459027572083 0 -0.20283601591916281 0.060591092744165478 0 -0.21926361772811659 0.047213459027572083 0 -0.21938696502951399 0.07608070629906008 0 -0.20283601591916281 0.060591092744165478 0 -0.19763666559189191 0.042966319910960268 0 -0.21926361772811659 0.047213459027572083 0 -0.18138326662146639 0.03097701646962699 0 -0.19330140372524379 0.00671505836599234 0 -0.20776767180942471 0.025402641387434099 0 -0.20776767180942471 0.025402641387434099 0 -0.2179489807319919 0.0052495896145285537 0 -0.22824060535332771 0.025918761386472391 0 -0.19330140372524379 0.00671505836599234 0 -0.20776767180942471 0.025402641387434099 0 -0.2179489807319919 0.0052495896145285537 0 -0.23823259426983059 -0.005860290151616732 0 -0.2179489807319919 0.0052495896145285537 0 -0.23884320974042261 0.01096674529969861 0 -0.2179489807319919 0.0052495896145285537 0 -0.22824060535332771 0.025918761386472391 0 -0.23884320974042261 0.01096674529969861 0 -0.25459918235657658 0.015344980042216631 0 -0.2467606898286997 0.026432615363113782 0 -0.23884320974042261 0.01096674529969861 0 -0.22824060535332771 0.025918761386472391 0 -0.2467606898286997 0.026432615363113782 0 -0.2389096084903336 0.039109987796378858 0 -0.22824060535332771 0.025918761386472391 0 -0.2467606898286997 0.026432615363113782 0 -0.23884320974042261 0.01096674529969861 0 -0.23823259426983059 -0.005860290151616732 0 -0.25720494356961171 0.001634888965453551 0 -0.23884320974042261 0.01096674529969861 0 -0.21926361772811659 0.047213459027572083 0 -0.2389096084903336 0.039109987796378858 0 -0.23989003152367941 0.057355269834598717 0 -0.21926361772811659 0.047213459027572083 0 -0.23989003152367941 0.057355269834598717 0 -0.21938696502951399 0.07608070629906008 0 -0.22824060535332771 0.025918761386472391 0 -0.21926361772811659 0.047213459027572083 0 -0.2389096084903336 0.039109987796378858 0 -0.26039309801784483 0.038629833370137361 0 -0.2467606898286997 0.026432615363113782 0 -0.2389096084903336 0.039109987796378858 0 -0.26039309801784483 0.038629833370137361 0 -0.2389096084903336 0.039109987796378858 0 -0.23989003152367941 0.057355269834598717 0 -0.25503391724474961 0.058874689284337062 0 -0.23989003152367941 0.057355269834598717 0 -0.23987544433144381 0.075824976303794173 0 -0.23987544433144381 0.075824976303794173 0 -0.24292642907962361 0.093195366353647155 0 -0.22569139736136681 0.095403986314047728 0 -0.25632392574972962 0.07403983973707437 0 -0.23987544433144381 0.075824976303794173 0 -0.24292642907962361 0.093195366353647155 0 -0.25632392574972962 0.07403983973707437 0 -0.24292642907962361 0.093195366353647155 0 -0.23987544433144381 0.075824976303794173 0 -0.21938696502951399 0.07608070629906008 0 -0.22569139736136681 0.095403986314047728 0 -0.23989003152367941 0.057355269834598717 0 -0.23987544433144381 0.075824976303794173 0 -0.21938696502951399 0.07608070629906008 0 -0.23989003152367941 0.057355269834598717 0 -0.21938696502951399 0.07608070629906008 0 -0.20283601591916281 0.060591092744165478 0 -0.21938696502951399 0.07608070629906008 0 -0.19414834056263741 0.077546769023812689 0 -0.21938696502951399 0.07608070629906008 0 -0.2062641864014608 0.097560806981352527 0 -0.22569139736136681 0.095403986314047728 0 -0.21938696502951399 0.07608070629906008 0 -0.19414834056263741 0.077546769023812689 0 -0.2062641864014608 0.097560806981352527 0 -0.18447117739217961 0.093218435955423812 0 -0.19414834056263741 0.077546769023812689 0 -0.2062641864014608 0.097560806981352527 0 -0.18468773065506899 0.057356821215480407 0 -0.20283601591916281 0.060591092744165478 0 -0.19414834056263741 0.077546769023812689 0 -0.18755591122853729 0.1101851430027416 0 -0.21014910660380501 0.1119194269662557 0 -0.20727121515960939 0.12407653672493529 0 -0.18755591122853729 0.1101851430027416 0 -0.20727121515960939 0.12407653672493529 0 -0.18755591122853729 0.1101851430027416 0 -0.20727121515960939 0.12407653672493529 0 -0.1886537876297584 0.13126898957983071 0 -0.18755591122853729 0.1101851430027416 0 -0.2062641864014608 0.097560806981352527 0 -0.21014910660380501 0.1119194269662557 0 -0.18447117739217961 0.093218435955423812 0 -0.18755591122853729 0.1101851430027416 0 -0.2062641864014608 0.097560806981352527 0 -0.2062641864014608 0.097560806981352527 0 -0.22569139736136681 0.095403986314047728 0 -0.21879466233467659 0.10734734659231809 0 -0.2062641864014608 0.097560806981352527 0 -0.21014910660380501 0.1119194269662557 0 -0.21879466233467659 0.10734734659231809 0 -0.21014910660380501 0.1119194269662557 0 -0.22018439899784489 0.11283981133242429 0 -0.21879466233467659 0.10734734659231809 0 -0.21014910660380501 0.1119194269662557 0 -0.21842321692956959 0.1191158144351947 0 -0.22018439899784489 0.11283981133242429 0 -0.20727121515960939 0.12407653672493529 0 -0.21842321692956959 0.1191158144351947 0 -0.2161314357394114 0.13150641958679249 0 -0.21014910660380501 0.1119194269662557 0 -0.20727121515960939 0.12407653672493529 0 -0.21842321692956959 0.1191158144351947 0 -0.21842321692956959 0.1191158144351947 0 -0.22952893240951769 0.1123508929702199 0 -0.2161314357394114 0.13150641958679249 0 -0.22952893240951769 0.1123508929702199 0 -0.23626781756408999 0.1122145407574148 0 -0.2161314357394114 0.13150641958679249 0 -0.23626781756408999 0.1122145407574148 0 -0.2161314357394114 0.13150641958679249 0 -0.22952893240951769 0.1123508929702199 0 -0.2161314357394114 0.13150641958679249 0 -0.22018439899784489 0.11283981133242429 0 -0.22952893240951769 0.1123508929702199 0 -0.21879466233467659 0.10734734659231809 0 -0.21842321692956959 0.1191158144351947 0 -0.22018439899784489 0.11283981133242429 0 -0.22952893240951769 0.1123508929702199 0 -0.24292642907962361 0.093195366353647155 0 -0.22952893240951769 0.1123508929702199 0 -0.22569139736136681 0.095403986314047728 0 -0.22952893240951769 0.1123508929702199 0 -0.22569139736136681 0.095403986314047728 0 -0.21879466233467659 0.10734734659231809 0 -0.25640419938876868 0.092922661928037609 0 -0.24292642907962361 0.093195366353647155 0 -0.23626781756408999 0.1122145407574148 0 -0.25640419938876868 0.092922661928037609 0 -0.23626781756408999 0.1122145407574148 0 -0.24292642907962361 0.093195366353647155 0 -0.22952893240951769 0.1123508929702199 0 -0.23626781756408999 0.1122145407574148 0 -0.24292642907962361 0.093195366353647155 0 -0.22952893240951769 0.1123508929702199 0 -0.25574895695993211 0.12822640562063159 0 -0.23626781756408999 0.1122145407574148 0 -0.23691132205614329 0.1354348511369835 0 -0.25050808084471438 0.14978832045159629 0 -0.25574895695993211 0.12822640562063159 0 -0.23691132205614329 0.1354348511369835 0 -0.23691132205614329 0.1354348511369835 0 -0.22884774182787571 0.1545470436332668 0 -0.2161314357394114 0.13150641958679249 0 -0.23626781756408999 0.1122145407574148 0 -0.23691132205614329 0.1354348511369835 0 -0.2161314357394114 0.13150641958679249 0 -0.22884774182787571 0.1545470436332668 0 -0.21459886712834861 0.159016021258821 0 -0.2161314357394114 0.13150641958679249 0 -0.25050808084471438 0.14978832045159629 0 -0.23691132205614329 0.1354348511369835 0 -0.22884774182787571 0.1545470436332668 0 -0.25050808084471438 0.14978832045159629 0 -0.22884774182787571 0.1545470436332668 0 -0.24886757523169081 0.17229300907405271 0 -0.22884774182787571 0.1545470436332668 0 -0.24886757523169081 0.17229300907405271 0 -0.22884774182787571 0.1545470436332668 0 -0.24886757523169081 0.17229300907405271 0 -0.2282684630331035 0.17115023133066359 0 -0.24886757523169081 0.17229300907405271 0 -0.24045372680209809 0.18153237918948911 0 -0.2282684630331035 0.17115023133066359 0 -0.25346052599854813 0.18102869322593659 0 -0.24045372680209809 0.18153237918948911 0 -0.23771455230881061 0.19575736728333129 0 -0.25346052599854813 0.18102869322593659 0 -0.24886757523169081 0.17229300907405271 0 -0.24045372680209809 0.18153237918948911 0 -0.24045372680209809 0.18153237918948911 0 -0.2282684630331035 0.17115023133066359 0 -0.2302793598625939 0.18764137136336631 0 -0.2282684630331035 0.17115023133066359 0 -0.21697803058148871 0.18687797238631851 0 -0.2302793598625939 0.18764137136336631 0 -0.2282684630331035 0.17115023133066359 0 -0.21697803058148871 0.18687797238631851 0 -0.21200041642201181 0.17451951390955381 0 -0.22884774182787571 0.1545470436332668 0 -0.2282684630331035 0.17115023133066359 0 -0.21459886712834861 0.159016021258821 0 -0.2282684630331035 0.17115023133066359 0 -0.21459886712834861 0.159016021258821 0 -0.21200041642201181 0.17451951390955381 0 -0.21459886712834861 0.159016021258821 0 -0.20491583451525 0.1657598582633151 0 -0.1987849696113099 0.15630811962093091 0 -0.20491583451525 0.1657598582633151 0 -0.21200041642201181 0.17451951390955381 0 -0.19571237252613069 0.17231418299934981 0 -0.21459886712834861 0.159016021258821 0 -0.20491583451525 0.1657598582633151 0 -0.21200041642201181 0.17451951390955381 0 -0.21697803058148871 0.18687797238631851 0 -0.21200041642201181 0.17451951390955381 0 -0.20025941411612799 0.18624175299577769 0 -0.21200041642201181 0.17451951390955381 0 -0.20025941411612799 0.18624175299577769 0 -0.19571237252613069 0.17231418299934981 0 -0.20025941411612799 0.18624175299577769 0 -0.1827976420765921 0.1945435287403329 0 -0.1838620195894082 0.18029206368998929 0 -0.20025941411612799 0.18624175299577769 0 -0.19571237252613069 0.17231418299934981 0 -0.1838620195894082 0.18029206368998929 0 -0.20491583451525 0.1657598582633151 0 -0.19571237252613069 0.17231418299934981 0 -0.1987849696113099 0.15630811962093091 0 -0.1987849696113099 0.15630811962093091 0 -0.19793862001526 0.14893624385072071 0 -0.17974580429110881 0.16636606811464921 0 -0.19793862001526 0.14893624385072071 0 -0.17974580429110881 0.16636606811464921 0 -0.19571237252613069 0.17231418299934981 0 -0.1987849696113099 0.15630811962093091 0 -0.17974580429110881 0.16636606811464921 0 -0.20727121515960939 0.12407653672493529 0 -0.19793862001526 0.14893624385072071 0 -0.1886537876297584 0.13126898957983071 0 -0.19793862001526 0.14893624385072071 0 -0.2161314357394114 0.13150641958679249 0 -0.20727121515960939 0.12407653672493529 0 -0.19793862001526 0.14893624385072071 0 -0.2161314357394114 0.13150641958679249 0 -0.1987849696113099 0.15630811962093091 0 -0.19793862001526 0.14893624385072071 0 -0.2161314357394114 0.13150641958679249 0 -0.21459886712834861 0.159016021258821 0 -0.1987849696113099 0.15630811962093091 0 -0.2161314357394114 0.13150641958679249 0 -0.1987849696113099 0.15630811962093091 0 -0.2161314357394114 0.13150641958679249 0 -0.22094397255466591 0.2362248963809693 0 -0.2303986798663806 0.2439621932748394 0 -0.2421534591243448 0.23414234571272111 0 -0.22094397255466591 0.2362248963809693 0 -0.2421534591243448 0.23414234571272111 0 -0.22763503682568101 0.25562748363255311 0 -0.2214680976475705 0.2485851247463548 0 -0.2303986798663806 0.2439621932748394 0 -0.2214680976475705 0.2485851247463548 0 -0.22094397255466591 0.2362248963809693 0 -0.2303986798663806 0.2439621932748394 0 -0.22763503682568101 0.25562748363255311 0 -0.2303986798663806 0.2439621932748394 0 -0.2397928331796417 0.24523111590159871 0 -0.25413627802491828 0.23296575770684111 0 -0.25340714826148919 0.25112084500721238 0 -0.2397928331796417 0.24523111590159871 0 -0.25413627802491828 0.23296575770684111 0 -0.2397928331796417 0.24523111590159871 0 -0.2421534591243448 0.23414234571272111 0 -0.25413627802491828 0.23296575770684111 0 -0.2397928331796417 0.24523111590159871 0 -0.2397928331796417 0.24523111590159871 0 -0.2421534591243448 0.23414234571272111 0 -0.2303986798663806 0.2439621932748394 0 -0.2397928331796417 0.24523111590159871 0 -0.2421534591243448 0.23414234571272111 0 -0.2421534591243448 0.23414234571272111 0 -0.23104190754854881 0.21546076128315531 0 -0.2478069925614465 0.20758551946932891 0 -0.25269960786195012 0.22327843035587289 0 -0.2421534591243448 0.23414234571272111 0 -0.2478069925614465 0.20758551946932891 0 -0.2421534591243448 0.23414234571272111 0 -0.2478069925614465 0.20758551946932891 0 -0.25269960786195012 0.22327843035587289 0 -0.25413627802491828 0.23296575770684111 0 -0.2421534591243448 0.23414234571272111 0 -0.25413627802491828 0.23296575770684111 0 -0.2421534591243448 0.23414234571272111 0 -0.22094397255466591 0.2362248963809693 0 -0.2421534591243448 0.23414234571272111 0 -0.23104190754854881 0.21546076128315531 0 -0.22094397255466591 0.2362248963809693 0 -0.23104190754854881 0.21546076128315531 0 -0.21066918104102089 0.2167259278466297 0 -0.23104190754854881 0.21546076128315531 0 -0.23771455230881061 0.19575736728333129 0 -0.22324480107962849 0.20129547916871149 0 -0.23104190754854881 0.21546076128315531 0 -0.22324480107962849 0.20129547916871149 0 -0.21066918104102089 0.2167259278466297 0 -0.23104190754854881 0.21546076128315531 0 -0.2478069925614465 0.20758551946932891 0 -0.23771455230881061 0.19575736728333129 0 -0.25346052599854813 0.18102869322593659 0 -0.2478069925614465 0.20758551946932891 0 -0.23771455230881061 0.19575736728333129 0 -0.24045372680209809 0.18153237918948911 0 -0.23771455230881061 0.19575736728333129 0 -0.2302793598625939 0.18764137136336631 0 -0.23771455230881061 0.19575736728333129 0 -0.2302793598625939 0.18764137136336631 0 -0.22324480107962849 0.20129547916871149 0 -0.21697803058148871 0.18687797238631851 0 -0.2302793598625939 0.18764137136336631 0 -0.22324480107962849 0.20129547916871149 0 -0.21697803058148871 0.18687797238631851 0 -0.20025941411612799 0.18624175299577769 0 -0.20887532225672331 0.19836543613661781 0 -0.21697803058148871 0.18687797238631851 0 -0.22324480107962849 0.20129547916871149 0 -0.20887532225672331 0.19836543613661781 0 -0.20025941411612799 0.18624175299577769 0 -0.20887532225672331 0.19836543613661781 0 -0.195634762347735 0.20336464310965091 0 -0.20025941411612799 0.18624175299577769 0 -0.195634762347735 0.20336464310965091 0 -0.1827976420765921 0.1945435287403329 0 -0.195634762347735 0.20336464310965091 0 -0.21066918104102089 0.2167259278466297 0 -0.1956761391904048 0.21992299056953141 0 -0.195634762347735 0.20336464310965091 0 -0.1852519832743888 0.21277773143810419 0 -0.1827976420765921 0.1945435287403329 0 -0.195634762347735 0.20336464310965091 0 -0.1956761391904048 0.21992299056953141 0 -0.1852519832743888 0.21277773143810419 0 -0.22324480107962849 0.20129547916871149 0 -0.20887532225672331 0.19836543613661781 0 -0.21066918104102089 0.2167259278466297 0 -0.20887532225672331 0.19836543613661781 0 -0.195634762347735 0.20336464310965091 0 -0.21066918104102089 0.2167259278466297 0 -0.22094397255466591 0.2362248963809693 0 -0.21066918104102089 0.2167259278466297 0 -0.19973448598498711 0.238307447049218 0 -0.1956761391904048 0.21992299056953141 0 -0.19973448598498711 0.238307447049218 0 -0.1870902833038918 0.22843920340405399 0 -0.21066918104102089 0.2167259278466297 0 -0.1956761391904048 0.21992299056953141 0 -0.19973448598498711 0.238307447049218 0 -0.1956761391904048 0.21992299056953141 0 -0.1870902833038918 0.22843920340405399 0 -0.1852519832743888 0.21277773143810419 0 -0.1924289471477095 0.25344255685397887 0 -0.19973448598498711 0.238307447049218 0 -0.17852499941530819 0.2403899977174668 0 -0.19973448598498711 0.238307447049218 0 -0.17852499941530819 0.2403899977174668 0 -0.19973448598498711 0.238307447049218 0 -0.17852499941530819 0.2403899977174668 0 -0.1870902833038918 0.22843920340405399 0 -0.1924289471477095 0.25344255685397887 0 -0.19973448598498711 0.238307447049218 0 -0.21048685923229599 0.24841301311941411 0 -0.22094397255466591 0.2362248963809693 0 -0.19973448598498711 0.238307447049218 0 -0.22094397255466591 0.2362248963809693 0 -0.19973448598498711 0.238307447049218 0 -0.21048685923229599 0.24841301311941411 0 -0.2214680976475705 0.2485851247463548 0 -0.22094397255466591 0.2362248963809693 0 -0.21048685923229599 0.24841301311941411 0 -0.16533174752033761 0.24564060418494371 0 -0.17485479628261039 0.24486078316596499 0 -0.15841280954077031 0.23323856502855911 0 -0.17485479628261039 0.24486078316596499 0 -0.17852499941530819 0.2403899977174668 0 -0.15841280954077031 0.23323856502855911 0 -0.17852499941530819 0.2403899977174668 0 -0.1742243916427591 0.23101348295638341 0 -0.15841280954077031 0.23323856502855911 0 -0.17485479628261039 0.24486078316596499 0 -0.15841280954077031 0.23323856502855911 0 -0.15914970196053521 0.25072332421181698 0 -0.16533174752033761 0.24564060418494371 0 -0.15841280954077031 0.23323856502855911 0 -0.16890968229743419 0.25373974433343349 0 -0.16533174752033761 0.24564060418494371 0 -0.17485479628261039 0.24486078316596499 0 -0.1924289471477095 0.25344255685397887 0 -0.17485479628261039 0.24486078316596499 0 -0.17852499941530819 0.2403899977174668 0 -0.1870902833038918 0.22843920340405399 0 -0.1728694743110662 0.22198616567545379 0 -0.1852519832743888 0.21277773143810419 0 -0.1742243916427591 0.23101348295638341 0 -0.1870902833038918 0.22843920340405399 0 -0.1728694743110662 0.22198616567545379 0 -0.17852499941530819 0.2403899977174668 0 -0.1742243916427591 0.23101348295638341 0 -0.1870902833038918 0.22843920340405399 0 -0.1728694743110662 0.22198616567545379 0 -0.15841280954077031 0.23323856502855911 0 -0.156990948401279 0.2163573241922451 0 -0.1742243916427591 0.23101348295638341 0 -0.1728694743110662 0.22198616567545379 0 -0.15841280954077031 0.23323856502855911 0 -0.1728694743110662 0.22198616567545379 0 -0.156990948401279 0.2163573241922451 0 -0.16834146251282159 0.2037198267235531 0 -0.1728694743110662 0.22198616567545379 0 -0.16834146251282159 0.2037198267235531 0 -0.1852519832743888 0.21277773143810419 0 -0.16834146251282159 0.2037198267235531 0 -0.1852519832743888 0.21277773143810419 0 -0.1827976420765921 0.1945435287403329 0 -0.16834146251282159 0.2037198267235531 0 -0.14336017284280639 0.20122571664250621 0 -0.16155298856695771 0.18379589237857771 0 -0.16834146251282159 0.2037198267235531 0 -0.1827976420765921 0.1945435287403329 0 -0.16155298856695771 0.18379589237857771 0 -0.14336017284280639 0.20122571664250621 0 -0.16155298856695771 0.18379589237857771 0 -0.14309662978705689 0.18274112125633371 0 -0.14336017284280639 0.20122571664250621 0 -0.16155298856695771 0.18379589237857771 0 -0.14336017284280639 0.20122571664250621 0 -0.1252275745875949 0.19821866274566899 0 -0.14309662978705689 0.18274112125633371 0 -0.1252275745875949 0.19821866274566899 0 -0.12528779205653279 0.1777817845849024 0 -0.14336017284280639 0.20122571664250621 0 -0.1252275745875949 0.19821866274566899 0 -0.12516735711865609 0.2186555409064356 0 -0.14336017284280639 0.20122571664250621 0 -0.12516735711865609 0.2186555409064356 0 -0.1252275745875949 0.19821866274566899 0 -0.12516735711865609 0.2186555409064356 0 -0.14336017284280639 0.20122571664250621 0 -0.12516735711865609 0.2186555409064356 0 -0.1419708227989302 0.22161634689115331 0 -0.156990948401279 0.2163573241922451 0 -0.16834146251282159 0.2037198267235531 0 -0.14336017284280639 0.20122571664250621 0 -0.156990948401279 0.2163573241922451 0 -0.14336017284280639 0.20122571664250621 0 -0.1419708227989302 0.22161634689115331 0 -0.15841280954077031 0.23323856502855911 0 -0.156990948401279 0.2163573241922451 0 -0.1419708227989302 0.22161634689115331 0 -0.15841280954077031 0.23323856502855911 0 -0.1419708227989302 0.22161634689115331 0 -0.14205961738627551 0.2363913895898215 0 -0.15841280954077031 0.23323856502855911 0 -0.1419708227989302 0.22161634689115331 0 -0.12516735711865609 0.2186555409064356 0 -0.1251208785475609 0.23442964950529849 0 -0.1419708227989302 0.22161634689115331 0 -0.1251208785475609 0.23442964950529849 0 -0.14205961738627551 0.2363913895898215 0 -0.12516735711865609 0.2186555409064356 0 -0.1419708227989302 0.22161634689115331 0 -0.1251208785475609 0.23442964950529849 0 -0.1251208785475609 0.23442964950529849 0 -0.13569241585568531 0.2480838548854726 0 -0.14205961738627551 0.2363913895898215 0 -0.1251208785475609 0.23442964950529849 0 -0.13569241585568531 0.2480838548854726 0 -0.1235645028477398 0.2486153537660559 0 -0.15841280954077031 0.23323856502855911 0 -0.1480213077752921 0.24790327325271891 0 -0.14205961738627551 0.2363913895898215 0 -0.13569241585568531 0.2480838548854726 0 -0.1480213077752921 0.24790327325271891 0 -0.14205961738627551 0.2363913895898215 0 -0.15914970196053521 0.25072332421181698 0 -0.15841280954077031 0.23323856502855911 0 -0.1480213077752921 0.24790327325271891 0 -0.15838232310439421 0.1442855128354473 0 -0.17525579064052399 0.1468549687944426 0 -0.1565978289325192 0.16279653514363329 0 -0.15838232310439421 0.1442855128354473 0 -0.17021637987010341 0.12747646324237469 0 -0.15134818242004841 0.130695501485557 0 -0.15905224264327661 0.1181448123737166 0 -0.17021637987010341 0.12747646324237469 0 -0.15134818242004841 0.130695501485557 0 -0.15838232310439421 0.1442855128354473 0 -0.17021637987010341 0.12747646324237469 0 -0.17525579064052399 0.1468549687944426 0 -0.1886537876297584 0.13126898957983071 0 -0.17021637987010341 0.12747646324237469 0 -0.17525579064052399 0.1468549687944426 0 -0.19793862001526 0.14893624385072071 0 -0.1886537876297584 0.13126898957983071 0 -0.17525579064052399 0.1468549687944426 0 -0.19793862001526 0.14893624385072071 0 -0.17525579064052399 0.1468549687944426 0 -0.17974580429110881 0.16636606811464921 0 -0.17974580429110881 0.16636606811464921 0 -0.1838620195894082 0.18029206368998929 0 -0.16155298856695771 0.18379589237857771 0 -0.19571237252613069 0.17231418299934981 0 -0.17974580429110881 0.16636606811464921 0 -0.1838620195894082 0.18029206368998929 0 -0.1827976420765921 0.1945435287403329 0 -0.1838620195894082 0.18029206368998929 0 -0.16155298856695771 0.18379589237857771 0 -0.17974580429110881 0.16636606811464921 0 -0.16155298856695771 0.18379589237857771 0 -0.17525579064052399 0.1468549687944426 0 -0.17974580429110881 0.16636606811464921 0 -0.1565978289325192 0.16279653514363329 0 -0.17974580429110881 0.16636606811464921 0 -0.16155298856695771 0.18379589237857771 0 -0.1565978289325192 0.16279653514363329 0 -0.1565978289325192 0.16279653514363329 0 -0.1383717273155837 0.16565491579198591 0 -0.14152837627633899 0.14761023155092429 0 -0.1565978289325192 0.16279653514363329 0 -0.14309662978705689 0.18274112125633371 0 -0.1383717273155837 0.16565491579198591 0 -0.16155298856695771 0.18379589237857771 0 -0.1565978289325192 0.16279653514363329 0 -0.14309662978705689 0.18274112125633371 0 -0.1252275745875949 0.19821866274566899 0 -0.14309662978705689 0.18274112125633371 0 -0.12528779205653279 0.1777817845849024 0 -0.14309662978705689 0.18274112125633371 0 -0.12528779205653279 0.1777817845849024 0 -0.1383717273155837 0.16565491579198591 0 -0.12528779205653279 0.1777817845849024 0 -0.12534800952547079 0.15734490642413579 0 -0.12534800952547079 0.15734490642413579 0 -0.1383717273155837 0.16565491579198591 0 -0.14152837627633899 0.14761023155092429 0 -0.12528779205653279 0.1777817845849024 0 -0.12534800952547079 0.15734490642413579 0 -0.1383717273155837 0.16565491579198591 0 -0.12534800952547079 0.15734490642413579 0 -0.12662067554102641 0.14076499084850669 0 -0.14152837627633899 0.14761023155092429 0 -0.15838232310439421 0.1442855128354473 0 -0.1565978289325192 0.16279653514363329 0 -0.14152837627633899 0.14761023155092429 0 -0.15838232310439421 0.1442855128354473 0 -0.14152837627633899 0.14761023155092429 0 -0.15134818242004841 0.130695501485557 0 -0.14152837627633899 0.14761023155092429 0 -0.15134818242004841 0.130695501485557 0 -0.13591315871649531 0.12986350890578929 0 -0.1455750136107106 0.1172382119421691 0 -0.15134818242004841 0.130695501485557 0 -0.13591315871649531 0.12986350890578929 0 -0.12662067554102641 0.14076499084850669 0 -0.14152837627633899 0.14761023155092429 0 -0.13591315871649531 0.12986350890578929 0 -0.12662067554102641 0.14076499084850669 0 -0.13591315871649531 0.12986350890578929 0 -0.1238115398403533 0.12514634129650751 0 -0.12662067554102641 0.14076499084850669 0 -0.1238115398403533 0.12514634129650751 0 -0.112403664402815 0.13061936884917219 0 -0.112403664402815 0.13061936884917219 0 -0.106634867859111 0.13736001104486831 0 -0.1120615691495466 0.1444840684394364 0 -0.12662067554102641 0.14076499084850669 0 -0.112403664402815 0.13061936884917219 0 -0.1120615691495466 0.1444840684394364 0 -0.112403664402815 0.13061936884917219 0 -0.10072110590809349 0.12803381894074109 0 -0.1068047592762868 0.1204068943983795 0 -0.10072110590809349 0.12803381894074109 0 -0.091000173562774081 0.13744437995542719 0 -0.09488452670997885 0.1204306879889428 0 -0.10072110590809349 0.12803381894074109 0 -0.094872787584728446 0.15417895568118969 0 -0.091000173562774081 0.13744437995542719 0 -0.112403664402815 0.13061936884917219 0 -0.106634867859111 0.13736001104486831 0 -0.10072110590809349 0.12803381894074109 0 -0.106634867859111 0.13736001104486831 0 -0.10072110590809349 0.12803381894074109 0 -0.1034667166423581 0.14475473071835529 0 -0.10072110590809349 0.12803381894074109 0 -0.094872787584728446 0.15417895568118969 0 -0.1034667166423581 0.14475473071835529 0 -0.10072110590809349 0.12803381894074109 0 -0.094872787584728446 0.15417895568118969 0 -0.106634867859111 0.13736001104486831 0 -0.1034667166423581 0.14475473071835529 0 -0.1120615691495466 0.1444840684394364 0 -0.1034667166423581 0.14475473071835529 0 -0.1120615691495466 0.1444840684394364 0 -0.1072704220430494 0.15662068502200441 0 -0.094872787584728446 0.15417895568118969 0 -0.1034667166423581 0.14475473071835529 0 -0.1072704220430494 0.15662068502200441 0 -0.12534800952547079 0.15734490642413579 0 -0.1120615691495466 0.1444840684394364 0 -0.1072704220430494 0.15662068502200441 0 -0.12534800952547079 0.15734490642413579 0 -0.12662067554102641 0.14076499084850669 0 -0.1120615691495466 0.1444840684394364 0 -0.12528779205653279 0.1777817845849024 0 -0.12534800952547079 0.15734490642413579 0 -0.11362156417150759 0.16796112784147799 0 -0.12534800952547079 0.15734490642413579 0 -0.11362156417150759 0.16796112784147799 0 -0.1072704220430494 0.15662068502200441 0 -0.1252275745875949 0.19821866274566899 0 -0.12528779205653279 0.1777817845849024 0 -0.11052456323267559 0.1790779978911938 0 -0.12528779205653279 0.1777817845849024 0 -0.11362156417150759 0.16796112784147799 0 -0.11052456323267559 0.1790779978911938 0 -0.11052456323267559 0.1790779978911938 0 -0.09810992984211156 0.17759002371035401 0 -0.096633006608095012 0.18424111214395281 0 -0.11052456323267559 0.1790779978911938 0 -0.096633006608095012 0.18424111214395281 0 -0.1054217578268377 0.1909669887100216 0 -0.11052456323267559 0.1790779978911938 0 -0.09810992984211156 0.17759002371035401 0 -0.099677033999809081 0.16898026528515389 0 -0.11362156417150759 0.16796112784147799 0 -0.11052456323267559 0.1790779978911938 0 -0.099677033999809081 0.16898026528515389 0 -0.09810992984211156 0.17759002371035401 0 -0.099677033999809081 0.16898026528515389 0 -0.089024469261363204 0.18032409242163841 0 -0.09810992984211156 0.17759002371035401 0 -0.096633006608095012 0.18424111214395281 0 -0.089024469261363204 0.18032409242163841 0 -0.094872787584728446 0.15417895568118969 0 -0.099677033999809081 0.16898026528515389 0 -0.089024469261363204 0.18032409242163841 0 -0.11362156417150759 0.16796112784147799 0 -0.1072704220430494 0.15662068502200441 0 -0.099677033999809081 0.16898026528515389 0 -0.094872787584728446 0.15417895568118969 0 -0.1072704220430494 0.15662068502200441 0 -0.099677033999809081 0.16898026528515389 0 -0.082996232619885021 0.1709492790791223 0 -0.077458001854639927 0.18068117273393339 0 -0.078014686952677492 0.15856048816764029 0 -0.087487772410859338 0.16423136299327709 0 -0.078014686952677492 0.15856048816764029 0 -0.085951075560355597 0.14813863356491569 0 -0.087487772410859338 0.16423136299327709 0 -0.082996232619885021 0.1709492790791223 0 -0.089024469261363204 0.18032409242163841 0 -0.094872787584728446 0.15417895568118969 0 -0.087487772410859338 0.16423136299327709 0 -0.089024469261363204 0.18032409242163841 0 -0.094872787584728446 0.15417895568118969 0 -0.089024469261363204 0.18032409242163841 0 -0.087487772410859338 0.16423136299327709 0 -0.082996232619885021 0.1709492790791223 0 -0.078014686952677492 0.15856048816764029 0 -0.087487772410859338 0.16423136299327709 0 -0.089024469261363204 0.18032409242163841 0 -0.089024469261363204 0.18032409242163841 0 -0.085887242873014316 0.1943491861962772 0 -0.096633006608095012 0.18424111214395281 0 -0.089024469261363204 0.18032409242163841 0 -0.089994774725010801 0.19048540906922881 0 -0.089024469261363204 0.18032409242163841 0 -0.089994774725010801 0.19048540906922881 0 -0.096633006608095012 0.18424111214395281 0 -0.089994774725010801 0.19048540906922881 0 -0.082996232619885021 0.1709492790791223 0 -0.089024469261363204 0.18032409242163841 0 -0.077458001854639927 0.18068117273393339 0 -0.089024469261363204 0.18032409242163841 0 -0.077458001854639927 0.18068117273393339 0 -0.085887242873014316 0.1943491861962772 0 -0.077458001854639927 0.18068117273393339 0 -0.066252399600086276 0.16908451801186961 0 -0.053553369002481872 0.19097857182374761 0 -0.078014686952677492 0.15856048816764029 0 -0.066252399600086276 0.16908451801186961 0 -0.067283983050772433 0.14751682207119959 0 -0.066252399600086276 0.16908451801186961 0 -0.067283983050772433 0.14751682207119959 0 -0.055996594050830913 0.15859384054105241 0 -0.077458001854639927 0.18068117273393339 0 -0.078014686952677492 0.15856048816764029 0 -0.077458001854639927 0.18068117273393339 0 -0.078014686952677492 0.15856048816764029 0 -0.066252399600086276 0.16908451801186961 0 -0.078014686952677492 0.15856048816764029 0 -0.067283983050772433 0.14751682207119959 0 -0.078571372050714322 0.13643980360134719 0 -0.067283983050772433 0.14751682207119959 0 -0.078571372050714322 0.13643980360134719 0 -0.067283983050772433 0.14751682207119959 0 -0.067041371865040236 0.13115698828742139 0 -0.056027055499959857 0.13988977797181401 0 -0.067283983050772433 0.14751682207119959 0 -0.067041371865040236 0.13115698828742139 0 -0.078571372050714322 0.13643980360134719 0 -0.067041371865040236 0.13115698828742139 0 -0.078571372050714322 0.13643980360134719 0 -0.078978885203530247 0.1202466812385989 0 -0.067041371865040236 0.13115698828742139 0 -0.05677412360136419 0.126901042487019 0 -0.065515400241636892 0.11755634112489199 0 -0.078571372050714322 0.13643980360134719 0 -0.078978885203530247 0.1202466812385989 0 -0.078571372050714322 0.13643980360134719 0 -0.09488452670997885 0.1204306879889428 0 -0.078571372050714322 0.13643980360134719 0 -0.091000173562774081 0.13744437995542719 0 -0.09488452670997885 0.1204306879889428 0 -0.078571372050714322 0.13643980360134719 0 -0.078978885203530247 0.1202466812385989 0 -0.09488452670997885 0.1204306879889428 0 -0.087487772410859338 0.16423136299327709 0 -0.085951075560355597 0.14813863356491569 0 -0.078014686952677492 0.15856048816764029 0 -0.078571372050714322 0.13643980360134719 0 -0.094872787584728446 0.15417895568118969 0 -0.091000173562774081 0.13744437995542719 0 -0.085951075560355597 0.14813863356491569 0 -0.094872787584728446 0.15417895568118969 0 -0.087487772410859338 0.16423136299327709 0 -0.085951075560355597 0.14813863356491569 0 -0.078014686952677492 0.15856048816764029 0 -0.078571372050714322 0.13643980360134719 0 -0.085951075560355597 0.14813863356491569 0 -0.078571372050714322 0.13643980360134719 0 -0.091000173562774081 0.13744437995542719 0 -0.085951075560355597 0.14813863356491569 0 -0.095759970741560438 0.25086019253117647 0 -0.09540734921997393 0.24716743898928911 0 -0.09540734921997393 0.24716743898928911 0 -0.1102873531693145 0.23291148994786179 0 -0.09540734921997393 0.24716743898928911 0 -0.1104862699934164 0.24670927378483551 0 -0.1102873531693145 0.23291148994786179 0 -0.1024958643519876 0.25398423233939882 0 -0.09540734921997393 0.24716743898928911 0 -0.1104862699934164 0.24670927378483551 0 -0.1104862699934164 0.24670927378483551 0 -0.1235645028477398 0.2486153537660559 0 -0.11736475113950789 0.2406664417510129 0 -0.1251208785475609 0.23442964950529849 0 -0.1235645028477398 0.2486153537660559 0 -0.11736475113950789 0.2406664417510129 0 -0.1251208785475609 0.23442964950529849 0 -0.11736475113950789 0.2406664417510129 0 -0.1102873531693145 0.23291148994786179 0 -0.1104862699934164 0.24670927378483551 0 -0.11736475113950789 0.2406664417510129 0 -0.1102873531693145 0.23291148994786179 0 -0.12516735711865609 0.2186555409064356 0 -0.1251208785475609 0.23442964950529849 0 -0.1102873531693145 0.23291148994786179 0 -0.12516735711865609 0.2186555409064356 0 -0.1102873531693145 0.23291148994786179 0 -0.111622443365774 0.21428477586585759 0 -0.12516735711865609 0.2186555409064356 0 -0.1102873531693145 0.23291148994786179 0 -0.09540734921997393 0.24716743898928911 0 -0.092701061972491866 0.218826424029259 0 -0.1102873531693145 0.23291148994786179 0 -0.111622443365774 0.21428477586585759 0 -0.092701061972491866 0.218826424029259 0 -0.09540734921997393 0.24716743898928911 0 -0.1102873531693145 0.23291148994786179 0 -0.092701061972491866 0.218826424029259 0 -0.1047288699808134 0.20281176170006321 0 -0.089994774725010801 0.19048540906922881 0 -0.092701061972491866 0.218826424029259 0 -0.111622443365774 0.21428477586585759 0 -0.1047288699808134 0.20281176170006321 0 -0.092701061972491866 0.218826424029259 0 -0.1252275745875949 0.19821866274566899 0 -0.12516735711865609 0.2186555409064356 0 -0.111622443365774 0.21428477586585759 0 -0.1252275745875949 0.19821866274566899 0 -0.111622443365774 0.21428477586585759 0 -0.1047288699808134 0.20281176170006321 0 -0.1252275745875949 0.19821866274566899 0 -0.1054217578268377 0.1909669887100216 0 -0.1047288699808134 0.20281176170006321 0 -0.1252275745875949 0.19821866274566899 0 -0.11052456323267559 0.1790779978911938 0 -0.1054217578268377 0.1909669887100216 0 -0.096633006608095012 0.18424111214395281 0 -0.1054217578268377 0.1909669887100216 0 -0.089994774725010801 0.19048540906922881 0 -0.1054217578268377 0.1909669887100216 0 -0.1047288699808134 0.20281176170006321 0 -0.089994774725010801 0.19048540906922881 0 -0.089994774725010801 0.19048540906922881 0 -0.085887242873014316 0.1943491861962772 0 -0.092701061972491866 0.218826424029259 0 -0.077458001854639927 0.18068117273393339 0 -0.085887242873014316 0.1943491861962772 0 -0.076901316756603832 0.20280185730022651 0 -0.089024469261363204 0.18032409242163841 0 -0.089994774725010801 0.19048540906922881 0 -0.085887242873014316 0.1943491861962772 0 -0.089994774725010801 0.19048540906922881 0 -0.085887242873014316 0.1943491861962772 0 -0.085887242873014316 0.1943491861962772 0 -0.076901316756603832 0.20280185730022651 0 -0.076842161242668114 0.2051524868908326 0 -0.085887242873014316 0.1943491861962772 0 -0.076901316756603832 0.20280185730022651 0 -0.077458001854639927 0.18068117273393339 0 -0.076901316756603832 0.20280185730022651 0 -0.053553369002481872 0.19097857182374761 0 -0.076901316756603832 0.20280185730022651 0 -0.059687082642271107 0.20585116275165441 0 -0.053553369002481872 0.19097857182374761 0 -0.077458001854639927 0.18068117273393339 0 -0.076901316756603832 0.20280185730022651 0 -0.076901316756603832 0.20280185730022651 0 -0.055591669621628981 0.22284691845916979 0 -0.059687082642271107 0.20585116275165441 0 -0.076842161242668114 0.2051524868908326 0 -0.081554898296814907 0.21371710276452169 0 -0.055591669621628981 0.22284691845916979 0 -0.076901316756603832 0.20280185730022651 0 -0.076842161242668114 0.2051524868908326 0 -0.076901316756603832 0.20280185730022651 0 -0.055591669621628981 0.22284691845916979 0 -0.076901316756603832 0.20280185730022651 0 -0.076842161242668114 0.2051524868908326 0 -0.055591669621628981 0.22284691845916979 0 -0.085887242873014316 0.1943491861962772 0 -0.081554898296814907 0.21371710276452169 0 -0.092701061972491866 0.218826424029259 0 -0.085887242873014316 0.1943491861962772 0 -0.076842161242668114 0.2051524868908326 0 -0.081554898296814907 0.21371710276452169 0 -0.089994774725010801 0.19048540906922881 0 -0.092701061972491866 0.218826424029259 0 -0.085887242873014316 0.1943491861962772 0 -0.081554898296814907 0.21371710276452169 0 -0.09540734921997393 0.24716743898928911 0 -0.092701061972491866 0.218826424029259 0 -0.07722255372061565 0.23308501933276621 0 -0.081554898296814907 0.21371710276452169 0 -0.092701061972491866 0.218826424029259 0 -0.07722255372061565 0.23308501933276621 0 -0.081554898296814907 0.21371710276452169 0 -0.07722255372061565 0.23308501933276621 0 -0.081554898296814907 0.21371710276452169 0 -0.07722255372061565 0.23308501933276621 0 -0.055591669621628981 0.22284691845916979 0 -0.07722255372061565 0.23308501933276621 0 -0.07172819153003733 0.2478211668758285 0 -0.055591669621628981 0.22284691845916979 0 -0.09540734921997393 0.24716743898928911 0 -0.07722255372061565 0.23308501933276621 0 -0.07172819153003733 0.2478211668758285 0 -0.055476613240625819 0.25400489279407817 0 -0.034282022486654969 0.2428919796181139 0 -0.055476613240625819 0.25400489279407817 0 -0.034282022486654969 0.2428919796181139 0 -0.055591669621628981 0.22284691845916979 0 -0.055476613240625819 0.25400489279407817 0 -0.07172819153003733 0.2478211668758285 0 -0.055591669621628981 0.22284691845916979 0 -0.034282022486654969 0.2428919796181139 0 -0.055591669621628981 0.22284691845916979 0 -0.034282022486654969 0.2428919796181139 0 -0.055591669621628981 0.22284691845916979 0 -0.031310618873388679 0.22376504924557589 0 -0.055591669621628981 0.22284691845916979 0 -0.031310618873388679 0.22376504924557589 0 -0.046156248125257898 0.20910135687009429 0 -0.031310618873388679 0.22376504924557589 0 -0.046156248125257898 0.20910135687009429 0 -0.0306385004865188 0.20206508207032389 0 -0.055591669621628981 0.22284691845916979 0 -0.046156248125257898 0.20910135687009429 0 -0.059687082642271107 0.20585116275165441 0 -0.046156248125257898 0.20910135687009429 0 -0.059687082642271107 0.20585116275165441 0 -0.053553369002481872 0.19097857182374761 0 -0.046156248125257898 0.20910135687009429 0 -0.053553369002481872 0.19097857182374761 0 -0.0306385004865188 0.20206508207032389 0 -0.053553369002481872 0.19097857182374761 0 -0.0306385004865188 0.20206508207032389 0 -0.039477555456961702 0.18305593017114369 0 -0.0306385004865188 0.20206508207032389 0 -0.039477555456961702 0.18305593017114369 0 -0.02334906615141729 0.18450395987756321 0 -0.0306385004865188 0.20206508207032389 0 -0.0074924754051731712 0.2040631789420444 0 -0.02334906615141729 0.18450395987756321 0 -0.0074924754051731712 0.2040631789420444 0 -0.0048030337887380288 0.18240870863760619 0 0.0071345147498110949 0.1922650087651237 0 -0.0074924754051731712 0.2040631789420444 0 -0.02334906615141729 0.18450395987756321 0 -0.0048030337887380288 0.18240870863760619 0 -0.0074924754051731712 0.2040631789420444 0 -0.02334906615141729 0.18450395987756321 0 -0.0074924754051731712 0.2040631789420444 0 -0.017446670945342999 0.2162774187411596 0 0.0083641153410709476 0.22362239800652561 0 -0.0306385004865188 0.20206508207032389 0 -0.0074924754051731712 0.2040631789420444 0 -0.017446670945342999 0.2162774187411596 0 -0.031310618873388679 0.22376504924557589 0 -0.0306385004865188 0.20206508207032389 0 -0.017446670945342999 0.2162774187411596 0 -0.017446670945342999 0.2162774187411596 0 -0.0098376149111197436 0.23007509713247901 0 -0.020983065239008249 0.2359189666008073 0 -0.031310618873388679 0.22376504924557589 0 -0.017446670945342999 0.2162774187411596 0 -0.020983065239008249 0.2359189666008073 0 -0.034282022486654969 0.2428919796181139 0 -0.031310618873388679 0.22376504924557589 0 -0.020983065239008249 0.2359189666008073 0 -0.031310618873388679 0.22376504924557589 0 -0.020983065239008249 0.2359189666008073 0 -0.017446670945342999 0.2162774187411596 0 -0.0098376149111197436 0.23007509713247901 0 0.0083641153410709476 0.22362239800652561 0 -0.0098376149111197436 0.23007509713247901 0 -0.020983065239008249 0.2359189666008073 0 -0.0038274845182531859 0.25610840522710399 0 -0.020983065239008249 0.2359189666008073 0 -0.0038274845182531859 0.25610840522710399 0 -0.0098376149111197436 0.23007509713247901 0 -0.020983065239008249 0.2359189666008073 0 -0.0038274845182531859 0.25610840522710399 0 -0.0098376149111197436 0.23007509713247901 0 0.0041247767034085416 0.24056210875822209 0 -0.0038274845182531859 0.25610840522710399 0 -0.017656319397305852 0.24918947528673629 0 -0.020983065239008249 0.2359189666008073 0 -0.017656319397305852 0.24918947528673629 0 -0.020983065239008249 0.2359189666008073 0 -0.02428119999862503 0.24495157131668341 0 -0.034282022486654969 0.2428919796181139 0 -0.020983065239008249 0.2359189666008073 0 -0.02428119999862503 0.24495157131668341 0 -0.034282022486654969 0.2428919796181139 0 -0.020983065239008249 0.2359189666008073 0 -0.043251462881501793 0.14429042196515959 0 -0.055996594050830913 0.15859384054105241 0 -0.039205656897661409 0.164944740813082 0 -0.043251462881501793 0.14429042196515959 0 -0.039205656897661409 0.164944740813082 0 -0.027406461673516441 0.1500962872601907 0 -0.043251462881501793 0.14429042196515959 0 -0.032122675808456153 0.12683869984069321 0 -0.046080165202463857 0.13086781630669431 0 -0.043251462881501793 0.14429042196515959 0 -0.032122675808456153 0.12683869984069321 0 -0.027406461673516441 0.1500962872601907 0 -0.043251462881501793 0.14429042196515959 0 -0.046080165202463857 0.13086781630669431 0 -0.056027055499959857 0.13988977797181401 0 -0.046080165202463857 0.13086781630669431 0 -0.05677412360136419 0.126901042487019 0 -0.056027055499959857 0.13988977797181401 0 -0.067041371865040236 0.13115698828742139 0 -0.05677412360136419 0.126901042487019 0 -0.056027055499959857 0.13988977797181401 0 -0.067283983050772433 0.14751682207119959 0 -0.056027055499959857 0.13988977797181401 0 -0.055996594050830913 0.15859384054105241 0 -0.043251462881501793 0.14429042196515959 0 -0.056027055499959857 0.13988977797181401 0 -0.055996594050830913 0.15859384054105241 0 -0.067283983050772433 0.14751682207119959 0 -0.055996594050830913 0.15859384054105241 0 -0.055996594050830913 0.15859384054105241 0 -0.050641184746729101 0.17278729627100159 0 -0.039205656897661409 0.164944740813082 0 -0.066252399600086276 0.16908451801186961 0 -0.055996594050830913 0.15859384054105241 0 -0.050641184746729101 0.17278729627100159 0 -0.053553369002481872 0.19097857182374761 0 -0.050641184746729101 0.17278729627100159 0 -0.039477555456961702 0.18305593017114369 0 -0.066252399600086276 0.16908451801186961 0 -0.053553369002481872 0.19097857182374761 0 -0.050641184746729101 0.17278729627100159 0 -0.050641184746729101 0.17278729627100159 0 -0.039477555456961702 0.18305593017114369 0 -0.039205656897661409 0.164944740813082 0 -0.039205656897661409 0.164944740813082 0 -0.02334906615141729 0.18450395987756321 0 -0.039477555456961702 0.18305593017114369 0 -0.039205656897661409 0.164944740813082 0 -0.02334906615141729 0.18450395987756321 0 -0.039205656897661409 0.164944740813082 0 -0.023448986912211721 0.1660406535847225 0 -0.02334906615141729 0.18450395987756321 0 -0.023448986912211721 0.1660406535847225 0 -0.013327458119237769 0.1582519758967289 0 -0.027406461673516441 0.1500962872601907 0 -0.039205656897661409 0.164944740813082 0 -0.023448986912211721 0.1660406535847225 0 -0.027406461673516441 0.1500962872601907 0 -0.023448986912211721 0.1660406535847225 0 -0.01395629171922569 0.17240630407604801 0 -0.013327458119237769 0.1582519758967289 0 -0.023448986912211721 0.1660406535847225 0 -0.02334906615141729 0.18450395987756321 0 -0.01395629171922569 0.17240630407604801 0 -0.02334906615141729 0.18450395987756321 0 -0.01395629171922569 0.17240630407604801 0 -0.0048030337887380288 0.18240870863760619 0 -0.0048030337887380288 0.18240870863760619 0 -0.0034366507208921449 0.168172849745857 0 0.0055959155995442111 0.1756954140574829 0 -0.01395629171922569 0.17240630407604801 0 -0.0048030337887380288 0.18240870863760619 0 -0.0034366507208921449 0.168172849745857 0 -0.01395629171922569 0.17240630407604801 0 -0.013327458119237769 0.1582519758967289 0 -0.0034366507208921449 0.168172849745857 0 -0.013327458119237769 0.1582519758967289 0 -0.0034366507208921449 0.168172849745857 0 0.0017251335677484999 0.15826571593547409 0 -0.013327458119237769 0.1582519758967289 0 -0.012890959032096571 0.14170159320577219 0 0.0017251335677484999 0.15826571593547409 0 -0.012890959032096571 0.14170159320577219 0 0.0095312785984691603 0.1383233352344477 0 0.0017251335677484999 0.15826571593547409 0 -0.013327458119237769 0.1582519758967289 0 -0.012890959032096571 0.14170159320577219 0 -0.027406461673516441 0.1500962872601907 0 -0.032122675808456153 0.12683869984069321 0 -0.012890959032096571 0.14170159320577219 0 -0.027406461673516441 0.1500962872601907 0 -0.032122675808456153 0.12683869984069321 0 -0.012890959032096571 0.14170159320577219 0 -0.011758133231778449 0.1236023260653485 0 -0.012890959032096571 0.14170159320577219 0 -0.011758133231778449 0.1236023260653485 0 0.0095312785984691603 0.1383233352344477 0 -0.011758133231778449 0.1236023260653485 0 -0.013950116748944639 0.1101529351957313 0 0.0042199872391034329 0.11041698314989799 0 -0.013950116748944639 0.1101529351957313 0 -0.01815820185897039 0.092474857812560929 0 0.0042199872391034329 0.11041698314989799 0 -0.0010913041202619969 0.0825106310653482 0 -0.01815820185897039 0.092474857812560929 0 0.0042199872391034329 0.11041698314989799 0 -0.01815820185897039 0.092474857812560929 0 -0.035225099597677577 0.10243908455977579 0 -0.013950116748944639 0.1101529351957313 0 -0.022075508316896829 0.1050750867037472 0 -0.01815820185897039 0.092474857812560929 0 -0.030857401020926319 0.10349214404114759 0 -0.01815820185897039 0.092474857812560929 0 -0.035225099597677577 0.10243908455977579 0 -0.022075508316896829 0.1050750867037472 0 -0.030857401020926319 0.10349214404114759 0 -0.01815820185897039 0.092474857812560929 0 -0.030857401020926319 0.10349214404114759 0 -0.025336313638745979 0.1141804097655489 0 -0.035225099597677577 0.10243908455977579 0 -0.022075508316896829 0.1050750867037472 0 -0.030857401020926319 0.10349214404114759 0 -0.025336313638745979 0.1141804097655489 0 -0.032122675808456153 0.12683869984069321 0 -0.025336313638745979 0.1141804097655489 0 -0.035225099597677577 0.10243908455977579 0 -0.032122675808456153 0.12683869984069321 0 -0.011758133231778449 0.1236023260653485 0 -0.025336313638745979 0.1141804097655489 0 -0.013950116748944639 0.1101529351957313 0 -0.022075508316896829 0.1050750867037472 0 -0.025336313638745979 0.1141804097655489 0 -0.011758133231778449 0.1236023260653485 0 -0.013950116748944639 0.1101529351957313 0 -0.025336313638745979 0.1141804097655489 0 -0.0010913041202619969 0.0825106310653482 0 -0.0066279362267601966 0.053420303596473748 0 -0.0010913041202619969 0.0825106310653482 0 -0.0066279362267601966 0.053420303596473748 0 -0.00089968687069840944 0.061614524494677088 0 -0.0010913041202619969 0.0825106310653482 0 -0.016427440255607339 0.069478246745642486 0 -0.0066279362267601966 0.053420303596473748 0 -0.0010913041202619969 0.0825106310653482 0 -0.01815820185897039 0.092474857812560929 0 -0.016427440255607339 0.069478246745642486 0 -0.0010913041202619969 0.0825106310653482 0 -0.01815820185897039 0.092474857812560929 0 -0.01815820185897039 0.092474857812560929 0 -0.016427440255607339 0.069478246745642486 0 -0.038948628182198269 0.073154669817501489 0 -0.01815820185897039 0.092474857812560929 0 -0.038948628182198269 0.073154669817501489 0 -0.035225099597677577 0.10243908455977579 0 -0.016427440255607339 0.069478246745642486 0 -0.038948628182198269 0.073154669817501489 0 -0.02645150329188858 0.055350313001523793 0 -0.038948628182198269 0.073154669817501489 0 -0.035225099597677577 0.10243908455977579 0 -0.038948628182198269 0.073154669817501489 0 -0.04788236916024069 0.088940150509247667 0 -0.035225099597677577 0.10243908455977579 0 -0.04788236916024069 0.088940150509247667 0 -0.058576450519926312 0.076404029325939371 0 -0.066031430722667636 0.089673264147962436 0 -0.038948628182198269 0.073154669817501489 0 -0.04788236916024069 0.088940150509247667 0 -0.058576450519926312 0.076404029325939371 0 -0.038948628182198269 0.073154669817501489 0 -0.058576450519926312 0.076404029325939371 0 -0.056937442151747598 0.055276743882200691 0 -0.032122675808456153 0.12683869984069321 0 -0.035225099597677577 0.10243908455977579 0 -0.032122675808456153 0.12683869984069321 0 -0.043499272951665592 0.1163628056415644 0 -0.035225099597677577 0.10243908455977579 0 -0.032122675808456153 0.12683869984069321 0 -0.046080165202463857 0.13086781630669431 0 -0.043499272951665592 0.1163628056415644 0 -0.037153556021311117 0.1035649820351897 0 -0.044035416198030669 0.10758284259152941 0 -0.058269977188829418 0.1038092704555203 0 -0.043499272951665592 0.1163628056415644 0 -0.035225099597677577 0.10243908455977579 0 -0.037153556021311117 0.1035649820351897 0 -0.030857401020926319 0.10349214404114759 0 -0.035225099597677577 0.10243908455977579 0 -0.035225099597677577 0.10243908455977579 0 -0.037153556021311117 0.1035649820351897 0 -0.04788236916024069 0.088940150509247667 0 -0.035225099597677577 0.10243908455977579 0 -0.037153556021311117 0.1035649820351897 0 -0.043499272951665592 0.1163628056415644 0 -0.037153556021311117 0.1035649820351897 0 -0.044035416198030669 0.10758284259152941 0 -0.037153556021311117 0.1035649820351897 0 -0.044035416198030669 0.10758284259152941 0 -0.037153556021311117 0.1035649820351897 0 -0.058269977188829418 0.1038092704555203 0 -0.04788236916024069 0.088940150509247667 0 -0.037153556021311117 0.1035649820351897 0 -0.058269977188829418 0.1038092704555203 0 -0.044035416198030669 0.10758284259152941 0 -0.058269977188829418 0.1038092704555203 0 -0.053509357549168877 0.11523146860237581 0 -0.04788236916024069 0.088940150509247667 0 -0.058269977188829418 0.1038092704555203 0 -0.066031430722667636 0.089673264147962436 0 -0.058269977188829418 0.1038092704555203 0 -0.053509357549168877 0.11523146860237581 0 -0.065515400241636892 0.11755634112489199 0 -0.043499272951665592 0.1163628056415644 0 -0.044035416198030669 0.10758284259152941 0 -0.053509357549168877 0.11523146860237581 0 -0.046080165202463857 0.13086781630669431 0 -0.05677412360136419 0.126901042487019 0 -0.043499272951665592 0.1163628056415644 0 -0.05677412360136419 0.126901042487019 0 -0.043499272951665592 0.1163628056415644 0 -0.053509357549168877 0.11523146860237581 0 -0.05677412360136419 0.126901042487019 0 -0.053509357549168877 0.11523146860237581 0 -0.065515400241636892 0.11755634112489199 0 -0.065515400241636892 0.11755634112489199 0 -0.078978885203530247 0.1202466812385989 0 -0.079386398356347671 0.10405355887585049 0 -0.067041371865040236 0.13115698828742139 0 -0.065515400241636892 0.11755634112489199 0 -0.078978885203530247 0.1202466812385989 0 -0.078978885203530247 0.1202466812385989 0 -0.079386398356347671 0.10405355887585049 0 -0.087135462533163219 0.1122421234323969 0 -0.09488452670997885 0.1204306879889428 0 -0.095292039862796107 0.1042375656261955 0 -0.087135462533163219 0.1122421234323969 0 -0.078978885203530247 0.1202466812385989 0 -0.079386398356347671 0.10405355887585049 0 -0.087135462533163219 0.1122421234323969 0 -0.078978885203530247 0.1202466812385989 0 -0.09488452670997885 0.1204306879889428 0 -0.087135462533163219 0.1122421234323969 0 -0.079386398356347671 0.10405355887585049 0 -0.095292039862796107 0.1042375656261955 0 -0.079386398356347671 0.10405355887585049 0 -0.095292039862796107 0.1042375656261955 0 -0.079386398356347671 0.10405355887585049 0 -0.080122806377560585 0.074791324972314749 0 -0.095292039862796107 0.1042375656261955 0 -0.058269977188829418 0.1038092704555203 0 -0.065515400241636892 0.11755634112489199 0 -0.079386398356347671 0.10405355887585049 0 -0.058269977188829418 0.1038092704555203 0 -0.079386398356347671 0.10405355887585049 0 -0.066031430722667636 0.089673264147962436 0 -0.058269977188829418 0.1038092704555203 0 -0.079386398356347671 0.10405355887585049 0 -0.058576450519926312 0.076404029325939371 0 -0.066031430722667636 0.089673264147962436 0 -0.080122806377560585 0.074791324972314749 0 -0.079386398356347671 0.10405355887585049 0 -0.066031430722667636 0.089673264147962436 0 -0.080122806377560585 0.074791324972314749 0 -0.058576450519926312 0.076404029325939371 0 -0.080122806377560585 0.074791324972314749 0 -0.056937442151747598 0.055276743882200691 0 -0.080122806377560585 0.074791324972314749 0 -0.101334281464544 0.077144894091250305 0 -0.092709441317218366 0.058625168350743218 0 -0.080122806377560585 0.074791324972314749 0 -0.101334281464544 0.077144894091250305 0 -0.095292039862796107 0.1042375656261955 0 -0.079386398356347671 0.10405355887585049 0 -0.080122806377560585 0.074791324972314749 0 -0.101334281464544 0.077144894091250305 0 -0.1116667939052217 0.090532362950985101 0 -0.095292039862796107 0.1042375656261955 0 -0.101334281464544 0.077144894091250305 0 -0.11552760102173459 0.075839848761741005 0 -0.1086946955042488 0.054619568113966663 0 -0.101334281464544 0.077144894091250305 0 -0.1086946955042488 0.054619568113966663 0 -0.092709441317218366 0.058625168350743218 0 -0.12753223479933801 0.088391456816342584 0 -0.12840999943532089 0.0685109618361604 0 -0.11552760102173459 0.075839848761741005 0 -0.12840999943532089 0.0685109618361604 0 -0.11552760102173459 0.075839848761741005 0 -0.1086946955042488 0.054619568113966663 0 -0.12753223479933801 0.088391456816342584 0 -0.11552760102173459 0.075839848761741005 0 -0.1116667939052217 0.090532362950985101 0 -0.101334281464544 0.077144894091250305 0 -0.11552760102173459 0.075839848761741005 0 -0.1116667939052217 0.090532362950985101 0 -0.13438364663018901 0.10468980262173649 0 -0.1111976813692445 0.1044215723765396 0 -0.1235775851226818 0.1141937621591404 0 -0.12753223479933801 0.088391456816342584 0 -0.1111976813692445 0.1044215723765396 0 -0.12753223479933801 0.088391456816342584 0 -0.1116667939052217 0.090532362950985101 0 -0.1111976813692445 0.1044215723765396 0 -0.13438364663018901 0.10468980262173649 0 -0.1111976813692445 0.1044215723765396 0 -0.13438364663018901 0.10468980262173649 0 -0.12753223479933801 0.088391456816342584 0 -0.1111976813692445 0.1044215723765396 0 -0.1111976813692445 0.1044215723765396 0 -0.11481681799130219 0.118529023836501 0 -0.1068047592762868 0.1204068943983795 0 -0.1238115398403533 0.12514634129650751 0 -0.1235775851226818 0.1141937621591404 0 -0.11481681799130219 0.118529023836501 0 -0.112403664402815 0.13061936884917219 0 -0.11481681799130219 0.118529023836501 0 -0.1068047592762868 0.1204068943983795 0 -0.1238115398403533 0.12514634129650751 0 -0.112403664402815 0.13061936884917219 0 -0.11481681799130219 0.118529023836501 0 -0.1111976813692445 0.1044215723765396 0 -0.1235775851226818 0.1141937621591404 0 -0.11481681799130219 0.118529023836501 0 -0.1111976813692445 0.1044215723765396 0 -0.09488452670997885 0.1204306879889428 0 -0.095292039862796107 0.1042375656261955 0 -0.1111976813692445 0.1044215723765396 0 -0.09488452670997885 0.1204306879889428 0 -0.1111976813692445 0.1044215723765396 0 -0.1068047592762868 0.1204068943983795 0 -0.09488452670997885 0.1204306879889428 0 -0.10072110590809349 0.12803381894074109 0 -0.1068047592762868 0.1204068943983795 0 -0.09488452670997885 0.1204306879889428 0 -0.1111976813692445 0.1044215723765396 0 -0.095292039862796107 0.1042375656261955 0 -0.1116667939052217 0.090532362950985101 0 -0.1111976813692445 0.1044215723765396 0 -0.095292039862796107 0.1042375656261955 0 -0.096582507422790953 0.02624951558877121 0 -0.10154530334434821 0.01424215190501046 0 -0.1103286489705861 0.025719061711802511 0 -0.096582507422790953 0.02624951558877121 0 -0.1103286489705861 0.025719061711802511 0 -0.1069454151806614 0.040798594622193547 0 -0.10154530334434821 0.01424215190501046 0 -0.090209648421391703 0.018547476340484269 0 -0.096582507422790953 0.02624951558877121 0 -0.10154530334434821 0.01424215190501046 0 -0.090209648421391703 0.018547476340484269 0 -0.091564775452932151 -0.00067738949726625826 0 -0.10154530334434821 0.01424215190501046 0 -0.090209648421391703 0.018547476340484269 0 -0.118532798400574 -0.00069274467401118911 0 -0.1038705681539047 -0.00042274594182551881 0 -0.10154530334434821 0.01424215190501046 0 -0.1038705681539047 -0.00042274594182551881 0 -0.091564775452932151 -0.00067738949726625826 0 -0.10154530334434821 0.01424215190501046 0 -0.118532798400574 -0.00069274467401118911 0 -0.10154530334434821 0.01424215190501046 0 -0.123096854520839 0.01468008996892131 0 -0.12560411239642191 0.033917963981125149 0 -0.123096854520839 0.01468008996892131 0 -0.1103286489705861 0.025719061711802511 0 -0.10154530334434821 0.01424215190501046 0 -0.123096854520839 0.01468008996892131 0 -0.1103286489705861 0.025719061711802511 0 -0.12560411239642191 0.033917963981125149 0 -0.1230916044114118 0.046943269227363152 0 -0.1069454151806614 0.040798594622193547 0 -0.12560411239642191 0.033917963981125149 0 -0.1103286489705861 0.025719061711802511 0 -0.1069454151806614 0.040798594622193547 0 -0.12840999943532089 0.0685109618361604 0 -0.1086946955042488 0.054619568113966663 0 -0.12840999943532089 0.0685109618361604 0 -0.1230916044114118 0.046943269227363152 0 -0.1086946955042488 0.054619568113966663 0 -0.1230916044114118 0.046943269227363152 0 -0.1086946955042488 0.054619568113966663 0 -0.1069454151806614 0.040798594622193547 0 -0.1086946955042488 0.054619568113966663 0 -0.1069454151806614 0.040798594622193547 0 -0.092709441317218366 0.058625168350743218 0 -0.1069454151806614 0.040798594622193547 0 -0.092070060235529272 0.039933869200734412 0 -0.092709441317218366 0.058625168350743218 0 -0.096582507422790953 0.02624951558877121 0 -0.1069454151806614 0.040798594622193547 0 -0.092070060235529272 0.039933869200734412 0 -0.096582507422790953 0.02624951558877121 0 -0.092070060235529272 0.039933869200734412 0 -0.082864127177731006 0.031112894183049539 0 -0.092070060235529272 0.039933869200734412 0 -0.080859214398775706 0.04552909106877906 0 -0.082864127177731006 0.031112894183049539 0 -0.080122806377560585 0.074791324972314749 0 -0.080859214398775706 0.04552909106877906 0 -0.092709441317218366 0.058625168350743218 0 -0.080122806377560585 0.074791324972314749 0 -0.080859214398775706 0.04552909106877906 0 -0.092070060235529272 0.039933869200734412 0 -0.080859214398775706 0.04552909106877906 0 -0.092709441317218366 0.058625168350743218 0 -0.080122806377560585 0.074791324972314749 0 -0.080859214398775706 0.04552909106877906 0 -0.056937442151747598 0.055276743882200691 0 -0.080859214398775706 0.04552909106877906 0 -0.056937442151747598 0.055276743882200691 0 -0.05665024760109736 0.041687994866642153 0 -0.080859214398775706 0.04552909106877906 0 -0.066926404695742056 0.027390540003802859 0 -0.05665024760109736 0.041687994866642153 0 -0.080859214398775706 0.04552909106877906 0 -0.066926404695742056 0.027390540003802859 0 -0.082864127177731006 0.031112894183049539 0 -0.066926404695742056 0.027390540003802859 0 -0.090209648421391703 0.018547476340484269 0 -0.063049528480829523 0.0106102806403259 0 -0.066926404695742056 0.027390540003802859 0 -0.082864127177731006 0.031112894183049539 0 -0.090209648421391703 0.018547476340484269 0 -0.066926404695742056 0.027390540003802859 0 -0.090209648421391703 0.018547476340484269 0 -0.096582507422790953 0.02624951558877121 0 -0.090209648421391703 0.018547476340484269 0 -0.096582507422790953 0.02624951558877121 0 -0.082864127177731006 0.031112894183049539 0 -0.090209648421391703 0.018547476340484269 0 -0.091564775452932151 -0.00067738949726625826 0 -0.071002387778944728 -0.0046658216922618387 0 -0.090209648421391703 0.018547476340484269 0 -0.071002387778944728 -0.0046658216922618387 0 -0.090209648421391703 0.018547476340484269 0 -0.071002387778944728 -0.0046658216922618387 0 -0.090209648421391703 0.018547476340484269 0 -0.063049528480829523 0.0106102806403259 0 -0.049077805081034383 -0.0065082119276327266 0 -0.063049528480829523 0.0106102806403259 0 -0.046360483025564267 0.01486269586974554 0 -0.049077805081034383 -0.0065082119276327266 0 -0.046360483025564267 0.01486269586974554 0 -0.066926404695742056 0.027390540003802859 0 -0.063049528480829523 0.0106102806403259 0 -0.046360483025564267 0.01486269586974554 0 -0.066926404695742056 0.027390540003802859 0 -0.046360483025564267 0.01486269586974554 0 -0.043643160970093263 0.036233603667123693 0 -0.046360483025564267 0.01486269586974554 0 -0.043643160970093263 0.036233603667123693 0 -0.034824409373147631 0.02413935110263268 0 -0.046360483025564267 0.01486269586974554 0 -0.043643160970093263 0.036233603667123693 0 -0.034824409373147631 0.02413935110263268 0 -0.032517231880014243 0.0091048488657586614 0 -0.046360483025564267 0.01486269586974554 0 -0.049077805081034383 -0.0065082119276327266 0 -0.032517231880014243 0.0091048488657586614 0 -0.046360483025564267 0.01486269586974554 0 -0.056937442151747598 0.055276743882200691 0 -0.042672156766721099 0.043870255075227439 0 -0.056937442151747598 0.055276743882200691 0 -0.05665024760109736 0.041687994866642153 0 -0.042672156766721099 0.043870255075227439 0 -0.066926404695742056 0.027390540003802859 0 -0.043643160970093263 0.036233603667123693 0 -0.066926404695742056 0.027390540003802859 0 -0.05665024760109736 0.041687994866642153 0 -0.043643160970093263 0.036233603667123693 0 -0.05665024760109736 0.041687994866642153 0 -0.043643160970093263 0.036233603667123693 0 -0.042672156766721099 0.043870255075227439 0 -0.036509827136010337 0.038942870725005567 0 -0.042672156766721099 0.043870255075227439 0 -0.02645150329188858 0.055350313001523793 0 -0.043643160970093263 0.036233603667123693 0 -0.036509827136010337 0.038942870725005567 0 -0.034824409373147631 0.02413935110263268 0 -0.043643160970093263 0.036233603667123693 0 -0.036509827136010337 0.038942870725005567 0 -0.036509827136010337 0.038942870725005567 0 -0.042672156766721099 0.043870255075227439 0 -0.043643160970093263 0.036233603667123693 0 -0.036509827136010337 0.038942870725005567 0 -0.042672156766721099 0.043870255075227439 0 -0.043643160970093263 0.036233603667123693 0 -0.042672156766721099 0.043870255075227439 0 -0.038948628182198269 0.073154669817501489 0 -0.042672156766721099 0.043870255075227439 0 -0.038948628182198269 0.073154669817501489 0 -0.056937442151747598 0.055276743882200691 0 -0.042672156766721099 0.043870255075227439 0 -0.038948628182198269 0.073154669817501489 0 -0.042672156766721099 0.043870255075227439 0 -0.02645150329188858 0.055350313001523793 0 -0.036509827136010337 0.038942870725005567 0 -0.02645150329188858 0.055350313001523793 0 -0.009010166604055056 0.049387345372486208 0 -0.016003032200862459 0.056778294695553941 0 -0.02645150329188858 0.055350313001523793 0 -0.009010166604055056 0.049387345372486208 0 -0.016427440255607339 0.069478246745642486 0 -0.016003032200862459 0.056778294695553941 0 -0.02645150329188858 0.055350313001523793 0 -0.036509827136010337 0.038942870725005567 0 -0.017884612182512302 0.033371856491873471 0 -0.009010166604055056 0.049387345372486208 0 -0.036509827136010337 0.038942870725005567 0 -0.009010166604055056 0.049387345372486208 0 -0.0041636361336807957 0.042131515986052193 0 -0.0066279362267601966 0.053420303596473748 0 -0.012164568333258101 0.02432997612759924 0 -0.009010166604055056 0.049387345372486208 0 -0.0066279362267601966 0.053420303596473748 0 -0.012164568333258101 0.02432997612759924 0 -0.017884612182512302 0.033371856491873471 0 -0.009010166604055056 0.049387345372486208 0 -0.012164568333258101 0.02432997612759924 0 -0.0010818343786847091 0.036313277307003171 0 -0.0041636361336807957 0.042131515986052193 0 -0.012164568333258101 0.02432997612759924 0 -0.0066279362267601966 0.053420303596473748 0 -0.012164568333258101 0.02432997612759924 0 -0.0010818343786847091 0.036313277307003171 0 -0.0041636361336807957 0.042131515986052193 0 0.0021307236045819918 0.047388868496797597 0 -0.0041636361336807957 0.042131515986052193 0 -0.0028964022179659029 0.0497084990351217 0 0.0021307236045819918 0.047388868496797597 0 -0.016427440255607339 0.069478246745642486 0 -0.016003032200862459 0.056778294695553941 0 -0.0066279362267601966 0.053420303596473748 0 -0.016003032200862459 0.056778294695553941 0 -0.009010166604055056 0.049387345372486208 0 -0.0066279362267601966 0.053420303596473748 0 -0.0041636361336807957 0.042131515986052193 0 -0.0066279362267601966 0.053420303596473748 0 -0.0028964022179659029 0.0497084990351217 0 -0.0028964022179659029 0.0497084990351217 0 -0.00089968687069840944 0.061614524494677088 0 0.0021307236045819918 0.047388868496797597 0 -0.0066279362267601966 0.053420303596473748 0 -0.0028964022179659029 0.0497084990351217 0 -0.00089968687069840944 0.061614524494677088 0 -0.021599706429861011 -0.0052748255593804043 0 -0.032517231880014243 0.0091048488657586614 0 -0.013853886656726769 0.020827233742401551 0 -0.034824409373147631 0.02413935110263268 0 -0.036509827136010337 0.038942870725005567 0 -0.013853886656726769 0.020827233742401551 0 -0.034824409373147631 0.02413935110263268 0 -0.032517231880014243 0.0091048488657586614 0 -0.013853886656726769 0.020827233742401551 0 -0.036509827136010337 0.038942870725005567 0 -0.017884612182512302 0.033371856491873471 0 -0.013853886656726769 0.020827233742401551 0 -0.036509827136010337 0.038942870725005567 0 -0.013853886656726769 0.020827233742401551 0 -0.013853886656726769 0.020827233742401551 0 0.005325126548753294 0.01527264868825407 0 0.001555813202496156 0.022052167341656711 0 -0.017884612182512302 0.033371856491873471 0 -0.013853886656726769 0.020827233742401551 0 -0.012164568333258101 0.02432997612759924 0 -0.013853886656726769 0.020827233742401551 0 -0.012164568333258101 0.02432997612759924 0 -0.0042132066441236222 0.026628526711576238 0 -0.0010818343786847091 0.036313277307003171 0 -0.012164568333258101 0.02432997612759924 0 -0.0042132066441236222 0.026628526711576238 0 -0.0010818343786847091 0.036313277307003171 0 -0.0042132066441236222 0.026628526711576238 0 0.0040528613682784872 0.02857106238454998 0 -0.013853886656726769 0.020827233742401551 0 -0.0042132066441236222 0.026628526711576238 0 0.001555813202496156 0.022052167341656711 0 -0.013853886656726769 0.020827233742401551 0 0.0088293797870906583 0.0027457714027656899 0 -0.021599706429861011 -0.0052748255593804043 0 -0.0063794060058670974 -0.003062831159869018 0 -0.013853886656726769 0.020827233742401551 0 -0.0063794060058670974 -0.003062831159869018 0 -0.013853886656726769 0.020827233742401551 0 0.0088293797870906583 0.0027457714027656899 0 -0.013853886656726769 0.020827233742401551 0 0.0088293797870906583 0.0027457714027656899 0 0.005325126548753294 0.01527264868825407 0 0.0088293797870906583 0.0027457714027656899 0 0.017047618141468709 0.011266879859987601 0 0.011981312975307769 0.0001694685820870395 0 0.017047618141468709 0.011266879859987601 0 0.0088293797870906583 0.0027457714027656899 0 0.011981312975307769 0.0001694685820870395 0 0.017047618141468709 0.011266879859987601 0 0.0088293797870906583 0.0027457714027656899 0 0.011981312975307769 0.0001694685820870395 0 0.0088293797870906583 0.0027457714027656899 0 0.005325126548753294 0.01527264868825407 0 0.017047618141468709 0.011266879859987601 0 0.005325126548753294 0.01527264868825407 0 0.001555813202496156 0.022052167341656711 0 0.0116295148703645 0.02260614446471601 0 -0.0042132066441236222 0.026628526711576238 0 0.001555813202496156 0.022052167341656711 0 0.0040528613682784872 0.02857106238454998 0 0.001555813202496156 0.022052167341656711 0 0.0040528613682784872 0.02857106238454998 0 0.0116295148703645 0.02260614446471601 0 0.0040528613682784872 0.02857106238454998 0 0.0116295148703645 0.02260614446471601 0 0.01152285663678646 0.033157362788456712 0 0.005325126548753294 0.01527264868825407 0 0.0116295148703645 0.02260614446471601 0 0.017047618141468709 0.011266879859987601 0 0.0116295148703645 0.02260614446471601 0 0.017047618141468709 0.011266879859987601 0 0.026380385274465581 0.031709698016212033 0 0.017047618141468709 0.011266879859987601 0 0.026380385274465581 0.031709698016212033 0 0.031427624398106653 0.026176838374761289 0 0.017047618141468709 0.011266879859987601 0 0.026380385274465581 0.031709698016212033 0 0.0116295148703645 0.02260614446471601 0 0.01152285663678646 0.033157362788456712 0 0.026380385274465581 0.031709698016212033 0 0.026380385274465581 0.031709698016212033 0 0.031427624398106653 0.026176838374761289 0 0.017047618141468709 0.011266879859987601 0 0.031427624398106653 0.026176838374761289 0 0.025985220899769079 0.0049728996579387289 0 0.017047618141468709 0.011266879859987601 0 0.031427624398106653 0.026176838374761289 0 0.011981312975307769 0.0001694685820870395 0 0.01834501088887738 0.0026641171186025971 0 0.017047618141468709 0.011266879859987601 0 0.025985220899769079 0.0049728996579387289 0 0.01834501088887738 0.0026641171186025971 0 0.018118669559515389 -0.0047379473785954286 0 0.025985220899769079 0.0049728996579387289 0 0.01834501088887738 0.0026641171186025971 0 0.017047618141468709 0.011266879859987601 0 -0.00089968687069840944 0.061614524494677088 0 0.010562134343010969 0.058372708790347019 0 0.0127403492018834 0.046662111255444429 0 -0.00089968687069840944 0.061614524494677088 0 0.0021307236045819918 0.047388868496797597 0 0.0127403492018834 0.046662111255444429 0 -0.00089968687069840944 0.061614524494677088 0 0.0127403492018834 0.046662111255444429 0 0.010562134343010969 0.058372708790347019 0 0.0127403492018834 0.046662111255444429 0 0.018226889568248049 0.057600104267350093 0 0.0021307236045819918 0.047388868496797597 0 0.0127403492018834 0.046662111255444429 0 0.01152285663678646 0.033157362788456712 0 -0.0010818343786847091 0.036313277307003171 0 0.0040528613682784872 0.02857106238454998 0 0.01152285663678646 0.033157362788456712 0 -0.0010818343786847091 0.036313277307003171 0 0.0021307236045819918 0.047388868496797597 0 0.01152285663678646 0.033157362788456712 0 0.026380385274465581 0.031709698016212033 0 0.024884218055721781 0.053723847332931923 0 0.036911530888272079 0.054777486132189121 0 0.0127403492018834 0.046662111255444429 0 0.026380385274465581 0.031709698016212033 0 0.024884218055721781 0.053723847332931923 0 0.0127403492018834 0.046662111255444429 0 0.01152285663678646 0.033157362788456712 0 0.026380385274465581 0.031709698016212033 0 0.0127403492018834 0.046662111255444429 0 0.026380385274465581 0.031709698016212033 0 0.0127403492018834 0.046662111255444429 0 0.024884218055721781 0.053723847332931923 0 0.018226889568248049 0.057600104267350093 0 0.024884218055721781 0.053723847332931923 0 0.030254161124065891 0.060138492723457893 0 0.036911530888272079 0.054777486132189121 0 0.024884218055721781 0.053723847332931923 0 0.030254161124065891 0.060138492723457893 0 0.024707245402725279 0.060116010893011523 0 0.030254161124065891 0.060138492723457893 0 0.024707245402725279 0.060116010893011523 0 0.028467456023168271 0.065253236491078156 0 0.010562134343010969 0.058372708790347019 0 0.018226889568248049 0.057600104267350093 0 0.020482278761100502 0.064966148660409256 0 0.024707245402725279 0.060116010893011523 0 0.018226889568248049 0.057600104267350093 0 0.020482278761100502 0.064966148660409256 0 0.024884218055721781 0.053723847332931923 0 0.024707245402725279 0.060116010893011523 0 0.018226889568248049 0.057600104267350093 0 0.030254161124065891 0.060138492723457893 0 0.036911530888272079 0.054777486132189121 0 0.033857908287798243 0.069025432788418134 0 0.026380385274465581 0.031709698016212033 0 0.036911530888272079 0.054777486132189121 0 0.046892663407766981 0.04221181679884807 0 0.026380385274465581 0.031709698016212033 0 0.036911530888272079 0.054777486132189121 0 0.046892663407766981 0.04221181679884807 0 0.031427624398106653 0.026176838374761289 0 0.026380385274465581 0.031709698016212033 0 0.046892663407766981 0.04221181679884807 0 0.031427624398106653 0.026176838374761289 0 0.046892663407766981 0.04221181679884807 0 0.046081787886740527 0.02348009819248844 0 0.059582283361316289 0.02978513880324183 0 0.060020896276669622 0.042668868214389158 0 0.046892663407766981 0.04221181679884807 0 0.059582283361316289 0.02978513880324183 0 0.036911530888272079 0.054777486132189121 0 0.046892663407766981 0.04221181679884807 0 0.062357702417427323 0.058246795222934827 0 0.046892663407766981 0.04221181679884807 0 0.062357702417427323 0.058246795222934827 0 0.060020896276669622 0.042668868214389158 0 0.046892663407766981 0.04221181679884807 0 0.062357702417427323 0.058246795222934827 0 0.025985220899769079 0.0049728996579387289 0 0.031427624398106653 0.026176838374761289 0 0.047424781783244163 0.00864051320650501 0 0.025985220899769079 0.0049728996579387289 0 0.047424781783244163 0.00864051320650501 0 0.028766352396372818 -0.0065772594287296458 0 0.046081787886740527 0.02348009819248844 0 0.031427624398106653 0.026176838374761289 0 0.047424781783244163 0.00864051320650501 0 0.046892663407766981 0.04221181679884807 0 0.046081787886740527 0.02348009819248844 0 0.031427624398106653 0.026176838374761289 0 0.031427624398106653 0.026176838374761289 0 0.047424781783244163 0.00864051320650501 0 0.059582283361316289 0.02978513880324183 0 0.059309243941124447 0.01330614170609996 0 0.047424781783244163 0.00864051320650501 0 0.046081787886740527 0.02348009819248844 0 0.059582283361316289 0.02978513880324183 0 0.047424781783244163 0.00864051320650501 0 0.059582283361316289 0.02978513880324183 0 0.047424781783244163 0.00864051320650501 0 0.059582283361316289 0.02978513880324183 0 0.059309243941124447 0.01330614170609996 0 0.068041794731764249 0.02230322757175594 0 0.047424781783244163 0.00864051320650501 0 0.051771076667811562 0.003876039210404685 0 0.048188550075413422 -0.0094740717754240398 0 0.059309243941124447 0.01330614170609996 0 0.059579947486016083 0.0054554459203928207 0 0.066689624321311675 0.0090506488783109115 0 0.059309243941124447 0.01330614170609996 0 0.047424781783244163 0.00864051320650501 0 0.051771076667811562 0.003876039210404685 0 0.047424781783244163 0.00864051320650501 0 0.051771076667811562 0.003876039210404685 0 0.059309243941124447 0.01330614170609996 0 0.051771076667811562 0.003876039210404685 0 0.059579947486016083 0.0054554459203928207 0 0.051771076667811562 0.003876039210404685 0 0.059579947486016083 0.0054554459203928207 0 0.06285003663150579 -0.003417403523085589 0 0.059579947486016083 0.0054554459203928207 0 0.066689624321311675 0.0090506488783109115 0 0.06285003663150579 -0.003417403523085589 0 0.071574257761234134 0.0094851857896497121 0 0.089464599259436117 0.0075770871038890264 0 0.06285003663150579 -0.003417403523085589 0 0.066689624321311675 0.0090506488783109115 0 0.071574257761234134 0.0094851857896497121 0 0.06285003663150579 -0.003417403523085589 0 0.066689624321311675 0.0090506488783109115 0 0.06285003663150579 -0.003417403523085589 0 0.089464599259436117 0.0075770871038890264 0 0.06285003663150579 -0.003417403523085589 0 0.059309243941124447 0.01330614170609996 0 0.066689624321311675 0.0090506488783109115 0 0.068494819826233136 0.014641375934043089 0 0.066689624321311675 0.0090506488783109115 0 0.068494819826233136 0.014641375934043089 0 0.071574257761234134 0.0094851857896497121 0 0.071574257761234134 0.0094851857896497121 0 0.081274481924865249 0.015610520514341 0 0.073044222177703302 0.016952139171542761 0 0.068494819826233136 0.014641375934043089 0 0.071574257761234134 0.0094851857896497121 0 0.073044222177703302 0.016952139171542761 0 0.071574257761234134 0.0094851857896497121 0 0.089464599259436117 0.0075770871038890264 0 0.071574257761234134 0.0094851857896497121 0 0.081274481924865249 0.015610520514341 0 0.089464599259436117 0.0075770871038890264 0 0.089464599259436117 0.0075770871038890264 0 0.099081305271367687 0.0065514150056479774 0 0.07776723310210655 -0.0088190809768160135 0 0.081274481924865249 0.015610520514341 0 0.089464599259436117 0.0075770871038890264 0 0.086591023964201944 0.020812175433857459 0 0.086591023964201944 0.020812175433857459 0 0.081809624249471691 0.03028345880032882 0 0.091673669544723779 0.031621383420056479 0 0.086591023964201944 0.020812175433857459 0 0.091673669544723779 0.031621383420056479 0 0.095999205415775918 0.020975193656205801 0 0.089464599259436117 0.0075770871038890264 0 0.086591023964201944 0.020812175433857459 0 0.095999205415775918 0.020975193656205801 0 0.081274481924865249 0.015610520514341 0 0.086591023964201944 0.020812175433857459 0 0.076789192638743911 0.023695077974226968 0 0.086591023964201944 0.020812175433857459 0 0.081809624249471691 0.03028345880032882 0 0.076789192638743911 0.023695077974226968 0 0.059582283361316289 0.02978513880324183 0 0.068041794731764249 0.02230322757175594 0 0.072262255170835094 0.038548206976662842 0 0.076789192638743911 0.023695077974226968 0 0.068041794731764249 0.02230322757175594 0 0.072262255170835094 0.038548206976662842 0 0.081809624249471691 0.03028345880032882 0 0.076789192638743911 0.023695077974226968 0 0.072262255170835094 0.038548206976662842 0 0.076789192638743911 0.023695077974226968 0 0.073044222177703302 0.016952139171542761 0 0.068041794731764249 0.02230322757175594 0 0.081274481924865249 0.015610520514341 0 0.076789192638743911 0.023695077974226968 0 0.073044222177703302 0.016952139171542761 0 0.059309243941124447 0.01330614170609996 0 0.068494819826233136 0.014641375934043089 0 0.068041794731764249 0.02230322757175594 0 0.068494819826233136 0.014641375934043089 0 0.073044222177703302 0.016952139171542761 0 0.068041794731764249 0.02230322757175594 0 0.060020896276669622 0.042668868214389158 0 0.062357702417427323 0.058246795222934827 0 0.072262255170835094 0.038548206976662842 0 0.060020896276669622 0.042668868214389158 0 0.059582283361316289 0.02978513880324183 0 0.072262255170835094 0.038548206976662842 0 0.072262255170835094 0.038548206976662842 0 0.077016062304977873 0.057762980433667933 0 0.084799277787182228 0.047514594923847388 0 0.062357702417427323 0.058246795222934827 0 0.072262255170835094 0.038548206976662842 0 0.077016062304977873 0.057762980433667933 0 0.062357702417427323 0.058246795222934827 0 0.077016062304977873 0.057762980433667933 0 0.069654491092777923 0.071105165701555617 0 0.077016062304977873 0.057762980433667933 0 0.090759585148561001 0.057496219114240327 0 0.083546271611708869 0.071829176409636458 0 0.077016062304977873 0.057762980433667933 0 0.084799277787182228 0.047514594923847388 0 0.090759585148561001 0.057496219114240327 0 0.084799277787182228 0.047514594923847388 0 0.090759585148561001 0.057496219114240327 0 0.094977767833902035 0.044558289948697767 0 0.081809624249471691 0.03028345880032882 0 0.072262255170835094 0.038548206976662842 0 0.083957409736417604 0.037947105105849373 0 0.081809624249471691 0.03028345880032882 0 0.083957409736417604 0.037947105105849373 0 0.091673669544723779 0.031621383420056479 0 0.072262255170835094 0.038548206976662842 0 0.084799277787182228 0.047514594923847388 0 0.083957409736417604 0.037947105105849373 0 0.084799277787182228 0.047514594923847388 0 0.083957409736417604 0.037947105105849373 0 0.094977767833902035 0.044558289948697767 0 0.083957409736417604 0.037947105105849373 0 0.091673669544723779 0.031621383420056479 0 0.094977767833902035 0.044558289948697767 0 0.091673669544723779 0.031621383420056479 0 0.1014147771324963 0.035293413434597513 0 0.099031091314029929 0.027876135827193341 0 0.091673669544723779 0.031621383420056479 0 0.1014147771324963 0.035293413434597513 0 0.094977767833902035 0.044558289948697767 0 0.1014147771324963 0.035293413434597513 0 0.094977767833902035 0.044558289948697767 0 0.1094538129217283 0.045344139675539942 0 0.1014147771324963 0.035293413434597513 0 0.1100026752685218 0.034055669348136433 0 0.1094538129217283 0.045344139675539942 0 0.1014147771324963 0.035293413434597513 0 0.1100026752685218 0.034055669348136433 0 0.10623210897528911 0.024522593070151189 0 0.090759585148561001 0.057496219114240327 0 0.1031983426215034 0.057887624482569351 0 0.096894877208969762 0.070400976386127245 0 0.090759585148561001 0.057496219114240327 0 0.094977767833902035 0.044558289948697767 0 0.1031983426215034 0.057887624482569351 0 0.094977767833902035 0.044558289948697767 0 0.1031983426215034 0.057887624482569351 0 0.1094538129217283 0.045344139675539942 0 0.12106300125978579 0.047715007938918502 0 0.11733313067805309 0.057901875845389202 0 0.1094538129217283 0.045344139675539942 0 0.1031983426215034 0.057887624482569351 0 0.11733313067805309 0.057901875845389202 0 0.1094538129217283 0.045344139675539942 0 0.12106300125978579 0.047715007938918502 0 0.11733313067805309 0.057901875845389202 0 0.13152110067121769 0.055154717829548623 0 0.1100026752685218 0.034055669348136433 0 0.1184246972577746 0.037113887541059813 0 0.11448798005532029 0.028004313019333701 0 0.1100026752685218 0.034055669348136433 0 0.1094538129217283 0.045344139675539942 0 0.1184246972577746 0.037113887541059813 0 0.12106300125978579 0.047715007938918502 0 0.1094538129217283 0.045344139675539942 0 0.1184246972577746 0.037113887541059813 0 0.12106300125978579 0.047715007938918502 0 0.1184246972577746 0.037113887541059813 0 0.1285822647701555 0.043060418803054917 0 0.1184246972577746 0.037113887541059813 0 0.12202704021255539 0.030430790806807061 0 0.11448798005532029 0.028004313019333701 0 0.1184246972577746 0.037113887541059813 0 0.1257802063456222 0.035510630727506737 0 0.1285822647701555 0.043060418803054917 0 0.1184246972577746 0.037113887541059813 0 0.12202704021255539 0.030430790806807061 0 0.1257802063456222 0.035510630727506737 0 0.12202704021255539 0.030430790806807061 0 0.11448798005532029 0.028004313019333701 0 0.11684120755847591 0.019358845917260979 0 0.12202704021255539 0.030430790806807061 0 0.11684120755847591 0.019358845917260979 0 0.13460110984558421 0.032166276828874088 0 0.11684120755847591 0.019358845917260979 0 0.1238578153041297 0.01582594586091424 0 0.13378737012505851 0.025338993649437841 0 0.1100026752685218 0.034055669348136433 0 0.11448798005532029 0.028004313019333701 0 0.10623210897528911 0.024522593070151189 0 0.11448798005532029 0.028004313019333701 0 0.11684120755847591 0.019358845917260979 0 0.10623210897528911 0.024522593070151189 0 0.1238578153041297 0.01582594586091424 0 0.11722873092196021 0.01139428885376377 0 0.1207506948084323 0.0042402610401935043 0 0.1207506948084323 0.0042402610401935043 0 0.099081305271367687 0.0065514150056479774 0 0.1084171591961014 -0.0086853988539226951 0 0.1207506948084323 0.0042402610401935043 0 0.099081305271367687 0.0065514150056479774 0 0.11684120755847591 0.019358845917260979 0 0.11722873092196021 0.01139428885376377 0 0.099081305271367687 0.0065514150056479774 0 0.11722873092196021 0.01139428885376377 0 0.1207506948084323 0.0042402610401935043 0 0.099081305271367687 0.0065514150056479774 0 0.11684120755847591 0.019358845917260979 0 0.1238578153041297 0.01582594586091424 0 0.11722873092196021 0.01139428885376377 0 0.11684120755847591 0.019358845917260979 0 0.1030090399006429 0.0131723030673884 0 0.099081305271367687 0.0065514150056479774 0 0.11684120755847591 0.019358845917260979 0 0.099081305271367687 0.0065514150056479774 0 0.089464599259436117 0.0075770871038890264 0 0.099081305271367687 0.0065514150056479774 0 0.089464599259436117 0.0075770871038890264 0 0.1030090399006429 0.0131723030673884 0 0.099081305271367687 0.0065514150056479774 0 0.089464599259436117 0.0075770871038890264 0 0.1030090399006429 0.0131723030673884 0 0.089464599259436117 0.0075770871038890264 0 0.1030090399006429 0.0131723030673884 0 0.095999205415775918 0.020975193656205801 0 0.095999205415775918 0.020975193656205801 0 0.099031091314029929 0.027876135827193341 0 0.10623210897528911 0.024522593070151189 0 0.091673669544723779 0.031621383420056479 0 0.095999205415775918 0.020975193656205801 0 0.099031091314029929 0.027876135827193341 0 0.1014147771324963 0.035293413434597513 0 0.099031091314029929 0.027876135827193341 0 0.10623210897528911 0.024522593070151189 0 0.11684120755847591 0.019358845917260979 0 0.1030090399006429 0.0131723030673884 0 0.10623210897528911 0.024522593070151189 0 0.1030090399006429 0.0131723030673884 0 0.095999205415775918 0.020975193656205801 0 0.10623210897528911 0.024522593070151189 0 0.10875172118023051 0.10828061279940331 0 0.1073666842065774 0.092325037105889685 0 0.093711316773942357 0.1042291152175982 0 0.1073666842065774 0.092325037105889685 0 0.092427996799591627 0.08804092031953456 0 0.093711316773942357 0.1042291152175982 0 0.10875172118023051 0.10828061279940331 0 0.093711316773942357 0.1042291152175982 0 0.090760787335755017 0.1233484818676871 0 0.10875172118023051 0.10828061279940331 0 0.090760787335755017 0.1233484818676871 0 0.108481396965521 0.12516196084622089 0 0.10875172118023051 0.10828061279940331 0 0.108481396965521 0.12516196084622089 0 0.1264974503334684 0.1148734287294892 0 0.10875172118023051 0.10828061279940331 0 0.12545604365175661 0.093055420268558287 0 0.1264974503334684 0.1148734287294892 0 0.10875172118023051 0.10828061279940331 0 0.1073666842065774 0.092325037105889685 0 0.12545604365175661 0.093055420268558287 0 0.11050889416385661 0.07725625762924801 0 0.1073666842065774 0.092325037105889685 0 0.12545604365175661 0.093055420268558287 0 0.11050889416385661 0.07725625762924801 0 0.12957546115750859 0.073652613505623687 0 0.12545604365175661 0.093055420268558287 0 0.1031983426215034 0.057887624482569351 0 0.11733313067805309 0.057901875845389202 0 0.11050889416385661 0.07725625762924801 0 0.11733313067805309 0.057901875845389202 0 0.11050889416385661 0.07725625762924801 0 0.12957546115750859 0.073652613505623687 0 0.1031983426215034 0.057887624482569351 0 0.11050889416385661 0.07725625762924801 0 0.096894877208969762 0.070400976386127245 0 0.11050889416385661 0.07725625762924801 0 0.1073666842065774 0.092325037105889685 0 0.092427996799591627 0.08804092031953456 0 0.11050889416385661 0.07725625762924801 0 0.096894877208969762 0.070400976386127245 0 0.092427996799591627 0.08804092031953456 0 0.092427996799591627 0.08804092031953456 0 0.07181756123030647 0.085936476168861659 0 0.079161464604133328 0.1054374224168641 0 0.092427996799591627 0.08804092031953456 0 0.083546271611708869 0.071829176409636458 0 0.07181756123030647 0.085936476168861659 0 0.096894877208969762 0.070400976386127245 0 0.092427996799591627 0.08804092031953456 0 0.083546271611708869 0.071829176409636458 0 0.090759585148561001 0.057496219114240327 0 0.096894877208969762 0.070400976386127245 0 0.083546271611708869 0.071829176409636458 0 0.077016062304977873 0.057762980433667933 0 0.083546271611708869 0.071829176409636458 0 0.069654491092777923 0.071105165701555617 0 0.083546271611708869 0.071829176409636458 0 0.069654491092777923 0.071105165701555617 0 0.07181756123030647 0.085936476168861659 0 0.069654491092777923 0.071105165701555617 0 0.07181756123030647 0.085936476168861659 0 0.047442676502078403 0.077845274248166271 0 0.07181756123030647 0.085936476168861659 0 0.079161464604133328 0.1054374224168641 0 0.057973822115884713 0.10091306236414339 0 0.092427996799591627 0.08804092031953456 0 0.079161464604133328 0.1054374224168641 0 0.093711316773942357 0.1042291152175982 0 0.079161464604133328 0.1054374224168641 0 0.090760787335755017 0.1233484818676871 0 0.068504967729691016 0.1239808504801205 0 0.079161464604133328 0.1054374224168641 0 0.093711316773942357 0.1042291152175982 0 0.090760787335755017 0.1233484818676871 0 0.079161464604133328 0.1054374224168641 0 0.068504967729691016 0.1239808504801205 0 0.057973822115884713 0.10091306236414339 0 0.068504967729691016 0.1239808504801205 0 0.057973822115884713 0.10091306236414339 0 0.049219344162078953 0.1088410612958485 0 0.062415439700837252 0.12898847477781861 0 0.039528830980517883 0.1355940392612521 0 0.049219344162078953 0.1088410612958485 0 0.062415439700837252 0.12898847477781861 0 0.068504967729691016 0.1239808504801205 0 0.057973822115884713 0.10091306236414339 0 0.049219344162078953 0.1088410612958485 0 0.068504967729691016 0.1239808504801205 0 0.049219344162078953 0.1088410612958485 0 0.062415439700837252 0.12898847477781861 0 0.057973822115884713 0.10091306236414339 0 0.049219344162078953 0.1088410612958485 0 0.036023248623320722 0.088693647813878465 0 0.049219344162078953 0.1088410612958485 0 0.036023248623320722 0.088693647813878465 0 0.049219344162078953 0.1088410612958485 0 0.036023248623320722 0.088693647813878465 0 0.02635476647676779 0.1145073551644154 0 0.049219344162078953 0.1088410612958485 0 0.02635476647676779 0.1145073551644154 0 0.039528830980517883 0.1355940392612521 0 0.062357702417427323 0.058246795222934827 0 0.069654491092777923 0.071105165701555617 0 0.047442676502078403 0.077845274248166271 0 0.036911530888272079 0.054777486132189121 0 0.062357702417427323 0.058246795222934827 0 0.047442676502078403 0.077845274248166271 0 0.057973822115884713 0.10091306236414339 0 0.047442676502078403 0.077845274248166271 0 0.057973822115884713 0.10091306236414339 0 0.047442676502078403 0.077845274248166271 0 0.036023248623320722 0.088693647813878465 0 0.07181756123030647 0.085936476168861659 0 0.057973822115884713 0.10091306236414339 0 0.047442676502078403 0.077845274248166271 0 0.047442676502078403 0.077845274248166271 0 0.036023248623320722 0.088693647813878465 0 0.033857908287798243 0.069025432788418134 0 0.036911530888272079 0.054777486132189121 0 0.047442676502078403 0.077845274248166271 0 0.036911530888272079 0.054777486132189121 0 0.047442676502078403 0.077845274248166271 0 0.033857908287798243 0.069025432788418134 0 0.036023248623320722 0.088693647813878465 0 0.033857908287798243 0.069025432788418134 0 0.022827153084562169 0.068546234331908595 0 0.022827153084562169 0.068546234331908595 0 0.020482278761100502 0.064966148660409256 0 0.033857908287798243 0.069025432788418134 0 0.022827153084562169 0.068546234331908595 0 0.028467456023168271 0.065253236491078156 0 0.022827153084562169 0.068546234331908595 0 0.020482278761100502 0.064966148660409256 0 0.028467456023168271 0.065253236491078156 0 0.030254161124065891 0.060138492723457893 0 0.033857908287798243 0.069025432788418134 0 0.028467456023168271 0.065253236491078156 0 0.024707245402725279 0.060116010893011523 0 0.020482278761100502 0.064966148660409256 0 0.028467456023168271 0.065253236491078156 0 0.022827153084562169 0.068546234331908595 0 0.028467456023168271 0.065253236491078156 0 0.036023248623320722 0.088693647813878465 0 0.022827153084562169 0.068546234331908595 0 0.036023248623320722 0.088693647813878465 0 0.022827153084562169 0.068546234331908595 0 0.016521117575159949 0.093496332978569269 0 -0.0010913041202619969 0.0825106310653482 0 0.022827153084562169 0.068546234331908595 0 0.016521117575159949 0.093496332978569269 0 -0.0010913041202619969 0.0825106310653482 0 0.022827153084562169 0.068546234331908595 0 0.020482278761100502 0.064966148660409256 0 -0.0010913041202619969 0.0825106310653482 0 0.022827153084562169 0.068546234331908595 0 -0.0010913041202619969 0.0825106310653482 0 -0.00089968687069840944 0.061614524494677088 0 0.010562134343010969 0.058372708790347019 0 -0.0010913041202619969 0.0825106310653482 0 0.010562134343010969 0.058372708790347019 0 0.020482278761100502 0.064966148660409256 0 0.036023248623320722 0.088693647813878465 0 0.016521117575159949 0.093496332978569269 0 0.02635476647676779 0.1145073551644154 0 0.016521117575159949 0.093496332978569269 0 0.02635476647676779 0.1145073551644154 0 0.0042199872391034329 0.11041698314989799 0 -0.0010913041202619969 0.0825106310653482 0 0.0042199872391034329 0.11041698314989799 0 -0.0010913041202619969 0.0825106310653482 0 0.016521117575159949 0.093496332978569269 0 0.0042199872391034329 0.11041698314989799 0 0.0042199872391034329 0.11041698314989799 0 0.0095312785984691603 0.1383233352344477 0 0.02635476647676779 0.1145073551644154 0 0.0042199872391034329 0.11041698314989799 0 0.0095312785984691603 0.1383233352344477 0 -0.011758133231778449 0.1236023260653485 0 0.0042199872391034329 0.11041698314989799 0 0.0095312785984691603 0.1383233352344477 0 0.02635476647676779 0.1145073551644154 0 0.0095312785984691603 0.1383233352344477 0 0.039528830980517883 0.1355940392612521 0 0.0095312785984691603 0.1383233352344477 0 0.03509889171841233 0.160531754299263 0 0.039528830980517883 0.1355940392612521 0 0.0095312785984691603 0.1383233352344477 0 0.014842569957822099 0.16622968731900001 0 0.03509889171841233 0.160531754299263 0 0.0095312785984691603 0.1383233352344477 0 0.014842569957822099 0.16622968731900001 0 0.0095312785984691603 0.1383233352344477 0 0.0017251335677484999 0.15826571593547409 0 0.014842569957822099 0.16622968731900001 0 0.012106713764007491 0.1669992606664322 0 0.014842569957822099 0.16622968731900001 0 0.017850910624392251 0.18203597775779651 0 -0.0034366507208921449 0.168172849745857 0 0.0017251335677484999 0.15826571593547409 0 0.0039977780526020126 0.16728331010131151 0 0.0039977780526020126 0.16728331010131151 0 0.012106713764007491 0.1669992606664322 0 0.0055959155995442111 0.1756954140574829 0 -0.0034366507208921449 0.168172849745857 0 0.0039977780526020126 0.16728331010131151 0 0.0055959155995442111 0.1756954140574829 0 0.0017251335677484999 0.15826571593547409 0 0.0039977780526020126 0.16728331010131151 0 0.012106713764007491 0.1669992606664322 0 0.012106713764007491 0.1669992606664322 0 0.014842569957822099 0.16622968731900001 0 0.0017251335677484999 0.15826571593547409 0 0.012106713764007491 0.1669992606664322 0 0.014842569957822099 0.16622968731900001 0 -0.0048030337887380288 0.18240870863760619 0 0.0055959155995442111 0.1756954140574829 0 0.0071345147498110949 0.1922650087651237 0 0.0055959155995442111 0.1756954140574829 0 0.017850910624392251 0.18203597775779651 0 0.0071345147498110949 0.1922650087651237 0 0.012106713764007491 0.1669992606664322 0 0.0055959155995442111 0.1756954140574829 0 0.017850910624392251 0.18203597775779651 0 0.014842569957822099 0.16622968731900001 0 0.017850910624392251 0.18203597775779651 0 0.029276393408636459 0.1727685006134056 0 0.017850910624392251 0.18203597775779651 0 0.038001756746661203 0.18639018445241509 0 0.014842569957822099 0.16622968731900001 0 0.029276393408636459 0.1727685006134056 0 0.017850910624392251 0.18203597775779651 0 0.014842569957822099 0.16622968731900001 0 0.03509889171841233 0.160531754299263 0 0.014842569957822099 0.16622968731900001 0 0.029276393408636459 0.1727685006134056 0 0.03509889171841233 0.160531754299263 0 0.03509889171841233 0.160531754299263 0 0.049578801436515788 0.17220694311803381 0 0.055355213479002893 0.154833821279527 0 0.03509889171841233 0.160531754299263 0 0.055355213479002893 0.154833821279527 0 0.029276393408636459 0.1727685006134056 0 0.03509889171841233 0.160531754299263 0 0.049578801436515788 0.17220694311803381 0 0.029276393408636459 0.1727685006134056 0 0.038001756746661203 0.18639018445241509 0 0.049578801436515788 0.17220694311803381 0 0.038001756746661203 0.18639018445241509 0 0.049578801436515788 0.17220694311803381 0 0.058503998463814613 0.18855208175669089 0 0.049578801436515788 0.17220694311803381 0 0.058503998463814613 0.18855208175669089 0 0.067739128504622118 0.16988426809134671 0 0.049578801436515788 0.17220694311803381 0 0.059049964000553713 0.16441381419280091 0 0.067739128504622118 0.16988426809134671 0 0.049578801436515788 0.17220694311803381 0 0.059049964000553713 0.16441381419280091 0 0.055355213479002893 0.154833821279527 0 0.059049964000553713 0.16441381419280091 0 0.055355213479002893 0.154833821279527 0 0.066978711068410274 0.15788982648827299 0 0.055355213479002893 0.154833821279527 0 0.062415439700837252 0.12898847477781861 0 0.039528830980517883 0.1355940392612521 0 0.03509889171841233 0.160531754299263 0 0.055355213479002893 0.154833821279527 0 0.039528830980517883 0.1355940392612521 0 0.02422070608731507 0.2431816170710068 0 0.029569692995859091 0.2192899396409729 0 0.039600772763563233 0.24227603886401769 0 0.02422070608731507 0.2431816170710068 0 0.0041247767034085416 0.24056210875822209 0 0.0083641153410709476 0.22362239800652561 0 0.02422070608731507 0.2431816170710068 0 0.0093634889625269589 0.2496617538446762 0 0.0041247767034085416 0.24056210875822209 0 -0.0038274845182531859 0.25610840522710399 0 0.0093634889625269589 0.2496617538446762 0 0.0041247767034085416 0.24056210875822209 0 -0.0098376149111197436 0.23007509713247901 0 0.0041247767034085416 0.24056210875822209 0 0.0083641153410709476 0.22362239800652561 0 0.02422070608731507 0.2431816170710068 0 0.0083641153410709476 0.22362239800652561 0 0.029569692995859091 0.2192899396409729 0 0.02422070608731507 0.2431816170710068 0 0.0083641153410709476 0.22362239800652561 0 0.029569692995859091 0.2192899396409729 0 0.02085925129094959 0.19784226819659539 0 0.034952428447801512 0.20196015075537041 0 0.029569692995859091 0.2192899396409729 0 0.009533134808767843 0.20777672876757231 0 0.02085925129094959 0.19784226819659539 0 0.0083641153410709476 0.22362239800652561 0 0.029569692995859091 0.2192899396409729 0 0.009533134808767843 0.20777672876757231 0 -0.0074924754051731712 0.2040631789420444 0 0.0083641153410709476 0.22362239800652561 0 0.009533134808767843 0.20777672876757231 0 -0.0074924754051731712 0.2040631789420444 0 0.0083641153410709476 0.22362239800652561 0 0.017850910624392251 0.18203597775779651 0 0.0071345147498110949 0.1922650087651237 0 0.02085925129094959 0.19784226819659539 0 0.009533134808767843 0.20777672876757231 0 0.0071345147498110949 0.1922650087651237 0 0.02085925129094959 0.19784226819659539 0 -0.0074924754051731712 0.2040631789420444 0 0.009533134808767843 0.20777672876757231 0 0.0071345147498110949 0.1922650087651237 0 0.017850910624392251 0.18203597775779651 0 0.02085925129094959 0.19784226819659539 0 0.017850910624392251 0.18203597775779651 0 0.038001756746661203 0.18639018445241509 0 0.02085925129094959 0.19784226819659539 0 0.038001756746661203 0.18639018445241509 0 0.034952428447801512 0.20196015075537041 0 0.049268868423007123 0.20721989542203501 0 0.038001756746661203 0.18639018445241509 0 0.02085925129094959 0.19784226819659539 0 0.034952428447801512 0.20196015075537041 0 0.058503998463814613 0.18855208175669089 0 0.049268868423007123 0.20721989542203501 0 0.058503998463814613 0.18855208175669089 0 0.049268868423007123 0.20721989542203501 0 0.067872434517263824 0.20500564360142179 0 0.038001756746661203 0.18639018445241509 0 0.058503998463814613 0.18855208175669089 0 0.049268868423007123 0.20721989542203501 0 0.049268868423007123 0.20721989542203501 0 0.061930239214155511 0.22081784513592581 0 0.067872434517263824 0.20500564360142179 0 0.029569692995859091 0.2192899396409729 0 0.034952428447801512 0.20196015075537041 0 0.049268868423007123 0.20721989542203501 0 0.029569692995859091 0.2192899396409729 0 0.049966733224032889 0.23106931806467571 0 0.039600772763563233 0.24227603886401769 0 0.029569692995859091 0.2192899396409729 0 0.049268868423007123 0.20721989542203501 0 0.049966733224032889 0.23106931806467571 0 0.061930239214155511 0.22081784513592581 0 0.049966733224032889 0.23106931806467571 0 0.070280233186512081 0.2435850559551149 0 0.049268868423007123 0.20721989542203501 0 0.061930239214155511 0.22081784513592581 0 0.049966733224032889 0.23106931806467571 0 0.049966733224032889 0.23106931806467571 0 0.070280233186512081 0.2435850559551149 0 0.050290462985241403 0.25636415920806449 0 0.049966733224032889 0.23106931806467571 0 0.039600772763563233 0.24227603886401769 0 0.050290462985241403 0.25636415920806449 0 0.02422070608731507 0.2431816170710068 0 0.039600772763563233 0.24227603886401769 0 0.035575731358766148 0.25586930913125799 0 0.093016762693618998 0.237266507990847 0 0.070280233186512081 0.2435850559551149 0 0.084223624832251223 0.26337459169910332 0 0.093016762693618998 0.237266507990847 0 0.070280233186512081 0.2435850559551149 0 0.061930239214155511 0.22081784513592581 0 0.070280233186512081 0.2435850559551149 0 0.077597493770948517 0.22112024871109781 0 0.093016762693618998 0.237266507990847 0 0.070280233186512081 0.2435850559551149 0 0.077597493770948517 0.22112024871109781 0 0.093016762693618998 0.237266507990847 0 0.077597493770948517 0.22112024871109781 0 0.091915289117131788 0.2203520557431326 0 0.091915289117131788 0.2203520557431326 0 0.084808816087862976 0.20551671985300099 0 0.1025957478990361 0.2062514226909033 0 0.077597493770948517 0.22112024871109781 0 0.091915289117131788 0.2203520557431326 0 0.084808816087862976 0.20551671985300099 0 0.077597493770948517 0.22112024871109781 0 0.084808816087862976 0.20551671985300099 0 0.067872434517263824 0.20500564360142179 0 0.061930239214155511 0.22081784513592581 0 0.077597493770948517 0.22112024871109781 0 0.067872434517263824 0.20500564360142179 0 0.058503998463814613 0.18855208175669089 0 0.067872434517263824 0.20500564360142179 0 0.078758883111942485 0.1893648312982035 0 0.084808816087862976 0.20551671985300099 0 0.067872434517263824 0.20500564360142179 0 0.078758883111942485 0.1893648312982035 0 0.084808816087862976 0.20551671985300099 0 0.092432428373226697 0.19245161914780201 0 0.1025957478990361 0.2062514226909033 0 0.084808816087862976 0.20551671985300099 0 0.078758883111942485 0.1893648312982035 0 0.092432428373226697 0.19245161914780201 0 0.1034671607261524 0.19343632875141359 0 0.1200308440236892 0.19358918120849111 0 0.099433090428064072 0.18122833976371311 0 0.1034671607261524 0.19343632875141359 0 0.1200308440236892 0.19358918120849111 0 0.1025957478990361 0.2062514226909033 0 0.092432428373226697 0.19245161914780201 0 0.1034671607261524 0.19343632875141359 0 0.099433090428064072 0.18122833976371311 0 0.092432428373226697 0.19245161914780201 0 0.1034671607261524 0.19343632875141359 0 0.1025957478990361 0.2062514226909033 0 0.1200308440236892 0.19358918120849111 0 0.12349966069011969 0.2122735997283107 0 0.1025957478990361 0.2062514226909033 0 0.12349966069011969 0.2122735997283107 0 0.1025957478990361 0.2062514226909033 0 0.115753292200726 0.23094796002657911 0 0.091915289117131788 0.2203520557431326 0 0.1025957478990361 0.2062514226909033 0 0.115753292200726 0.23094796002657911 0 0.093016762693618998 0.237266507990847 0 0.115753292200726 0.23094796002657911 0 0.093016762693618998 0.237266507990847 0 0.091915289117131788 0.2203520557431326 0 0.115753292200726 0.23094796002657911 0 0.115753292200726 0.23094796002657911 0 0.105377472720574 0.25878557269549579 0 0.1324145398262134 0.2527133870789714 0 0.093016762693618998 0.237266507990847 0 0.115753292200726 0.23094796002657911 0 0.105377472720574 0.25878557269549579 0 0.07903611334349675 0.14704863859609779 0 0.089352654622587568 0.1696463499033892 0 0.10193902624597111 0.14173018637052229 0 0.07903611334349675 0.14704863859609779 0 0.10193902624597111 0.14173018637052229 0 0.07903611334349675 0.14704863859609779 0 0.079077646626298154 0.15442784595116449 0 0.076974258545428262 0.15121645442600179 0 0.090760787335755017 0.1233484818676871 0 0.07903611334349675 0.14704863859609779 0 0.090760787335755017 0.1233484818676871 0 0.07903611334349675 0.14704863859609779 0 0.10193902624597111 0.14173018637052229 0 0.090760787335755017 0.1233484818676871 0 0.068504967729691016 0.1239808504801205 0 0.07903611334349675 0.14704863859609779 0 0.062415439700837252 0.12898847477781861 0 0.075611535239593214 0.14913588825979021 0 0.068504967729691016 0.1239808504801205 0 0.062415439700837252 0.12898847477781861 0 0.07903611334349675 0.14704863859609779 0 0.068504967729691016 0.1239808504801205 0 0.07903611334349675 0.14704863859609779 0 0.055355213479002893 0.154833821279527 0 0.075611535239593214 0.14913588825979021 0 0.055355213479002893 0.154833821279527 0 0.062415439700837252 0.12898847477781861 0 0.075611535239593214 0.14913588825979021 0 0.062415439700837252 0.12898847477781861 0 0.07903611334349675 0.14704863859609779 0 0.075611535239593214 0.14913588825979021 0 0.055355213479002893 0.154833821279527 0 0.075611535239593214 0.14913588825979021 0 0.066978711068410274 0.15788982648827299 0 0.07903611334349675 0.14704863859609779 0 0.075611535239593214 0.14913588825979021 0 0.076974258545428262 0.15121645442600179 0 0.075611535239593214 0.14913588825979021 0 0.066978711068410274 0.15788982648827299 0 0.079077646626298154 0.15442784595116449 0 0.076974258545428262 0.15121645442600179 0 0.07903611334349675 0.14704863859609779 0 0.076974258545428262 0.15121645442600179 0 0.075611535239593214 0.14913588825979021 0 0.07903611334349675 0.14704863859609779 0 0.076974258545428262 0.15121645442600179 0 0.076974258545428262 0.15121645442600179 0 0.075611535239593214 0.14913588825979021 0 0.076974258545428262 0.15121645442600179 0 0.066978711068410274 0.15788982648827299 0 0.067739128504622118 0.16988426809134671 0 0.079077646626298154 0.15442784595116449 0 0.076974258545428262 0.15121645442600179 0 0.067739128504622118 0.16988426809134671 0 0.076974258545428262 0.15121645442600179 0 0.067739128504622118 0.16988426809134671 0 0.059049964000553713 0.16441381419280091 0 0.066978711068410274 0.15788982648827299 0 0.067739128504622118 0.16988426809134671 0 0.079077646626298154 0.15442784595116449 0 0.067739128504622118 0.16988426809134671 0 0.078835336832438985 0.16886749831893499 0 0.058503998463814613 0.18855208175669089 0 0.067739128504622118 0.16988426809134671 0 0.073878577030694753 0.17952480742086241 0 0.058503998463814613 0.18855208175669089 0 0.078758883111942485 0.1893648312982035 0 0.073878577030694753 0.17952480742086241 0 0.058503998463814613 0.18855208175669089 0 0.067739128504622118 0.16988426809134671 0 0.073878577030694753 0.17952480742086241 0 0.079718656138674016 0.1783502537331261 0 0.078835336832438985 0.16886749831893499 0 0.067739128504622118 0.16988426809134671 0 0.073878577030694753 0.17952480742086241 0 0.078835336832438985 0.16886749831893499 0 0.078758883111942485 0.1893648312982035 0 0.073878577030694753 0.17952480742086241 0 0.079718656138674016 0.1783502537331261 0 0.078835336832438985 0.16886749831893499 0 0.099433090428064072 0.18122833976371311 0 0.086497280428957019 0.17951436506064211 0 0.078835336832438985 0.16886749831893499 0 0.099433090428064072 0.18122833976371311 0 0.078835336832438985 0.16886749831893499 0 0.083912129708558506 0.1706373148310153 0 0.099433090428064072 0.18122833976371311 0 0.078758883111942485 0.1893648312982035 0 0.079718656138674016 0.1783502537331261 0 0.086497280428957019 0.17951436506064211 0 0.078758883111942485 0.1893648312982035 0 0.092432428373226697 0.19245161914780201 0 0.086497280428957019 0.17951436506064211 0 0.079718656138674016 0.1783502537331261 0 0.086497280428957019 0.17951436506064211 0 0.078835336832438985 0.16886749831893499 0 0.091032332542627506 0.17332557491683029 0 0.083912129708558506 0.1706373148310153 0 0.099433090428064072 0.18122833976371311 0 0.092432428373226697 0.19245161914780201 0 0.086497280428957019 0.17951436506064211 0 0.099433090428064072 0.18122833976371311 0 0.07903611334349675 0.14704863859609779 0 0.079077646626298154 0.15442784595116449 0 0.089352654622587568 0.1696463499033892 0 0.079077646626298154 0.15442784595116449 0 0.083912129708558506 0.1706373148310153 0 0.089352654622587568 0.1696463499033892 0 0.079077646626298154 0.15442784595116449 0 0.078835336832438985 0.16886749831893499 0 0.083912129708558506 0.1706373148310153 0 0.07903611334349675 0.14704863859609779 0 0.089352654622587568 0.1696463499033892 0 0.091032332542627506 0.17332557491683029 0 0.083912129708558506 0.1706373148310153 0 0.089352654622587568 0.1696463499033892 0 0.083912129708558506 0.1706373148310153 0 0.089352654622587568 0.1696463499033892 0 0.091032332542627506 0.17332557491683029 0 0.089352654622587568 0.1696463499033892 0 0.091032332542627506 0.17332557491683029 0 0.089352654622587568 0.1696463499033892 0 0.1113860607251231 0.16563307305441499 0 0.089352654622587568 0.1696463499033892 0 0.1113860607251231 0.16563307305441499 0 0.10193902624597111 0.14173018637052229 0 0.089352654622587568 0.1696463499033892 0 0.1113860607251231 0.16563307305441499 0 0.091032332542627506 0.17332557491683029 0 0.099433090428064072 0.18122833976371311 0 0.1113860607251231 0.16563307305441499 0 0.099433090428064072 0.18122833976371311 0 0.115438548627156 0.17970503011179731 0 0.1113860607251231 0.16563307305441499 0 0.1200308440236892 0.19358918120849111 0 0.099433090428064072 0.18122833976371311 0 0.115438548627156 0.17970503011179731 0 0.115438548627156 0.17970503011179731 0 0.1113860607251231 0.16563307305441499 0 0.13090419933174779 0.17836952642057019 0 0.1200308440236892 0.19358918120849111 0 0.099433090428064072 0.18122833976371311 0 0.1200308440236892 0.19358918120849111 0 0.115438548627156 0.17970503011179731 0 0.13090419933174779 0.17836952642057019 0 0.1113860607251231 0.16563307305441499 0 0.1201973795904953 0.1515185917851567 0 0.13341946682765851 0.1616197962054402 0 0.1113860607251231 0.16563307305441499 0 0.13341946682765851 0.1616197962054402 0 0.1201973795904953 0.1515185917851567 0 0.10193902624597111 0.14173018637052229 0 0.1243872186648278 0.13541569856130711 0 0.1113860607251231 0.16563307305441499 0 0.1201973795904953 0.1515185917851567 0 0.10193902624597111 0.14173018637052229 0 0.090760787335755017 0.1233484818676871 0 0.10193902624597111 0.14173018637052229 0 0.108481396965521 0.12516196084622089 0 0.108481396965521 0.12516196084622089 0 0.1243872186648278 0.13541569856130711 0 0.1264974503334684 0.1148734287294892 0 0.10193902624597111 0.14173018637052229 0 0.108481396965521 0.12516196084622089 0 0.1243872186648278 0.13541569856130711 0 0.10193902624597111 0.14173018637052229 0 0.1243872186648278 0.13541569856130711 0 0.1243872186648278 0.13541569856130711 0 0.14683541108368439 0.12910121075209191 0 0.14532248798936229 0.14492201774623689 0 0.1243872186648278 0.13541569856130711 0 0.14683541108368439 0.12910121075209191 0 0.1243872186648278 0.13541569856130711 0 0.14683541108368439 0.12910121075209191 0 0.1264974503334684 0.1148734287294892 0 0.14683541108368439 0.12910121075209191 0 0.14532248798936229 0.14492201774623689 0 0.15929977335792481 0.1435795805515418 0 0.14532248798936229 0.14492201774623689 0 0.13341946682765851 0.1616197962054402 0 0.15545287293019411 0.15760651935646661 0 0.14532248798936229 0.14492201774623689 0 0.15545287293019411 0.15760651935646661 0 0.15929977335792481 0.1435795805515418 0 0.14532248798936229 0.14492201774623689 0 0.15545287293019411 0.15760651935646661 0 0.1201973795904953 0.1515185917851567 0 0.1243872186648278 0.13541569856130711 0 0.14532248798936229 0.14492201774623689 0 0.1201973795904953 0.1515185917851567 0 0.14532248798936229 0.14492201774623689 0 0.13341946682765851 0.1616197962054402 0 0.13341946682765851 0.1616197962054402 0 0.13090419933174779 0.17836952642057019 0 0.1481303754342396 0.17102151910826349 0 0.1113860607251231 0.16563307305441499 0 0.13341946682765851 0.1616197962054402 0 0.13090419933174779 0.17836952642057019 0 0.13090419933174779 0.17836952642057019 0 0.14924811135520019 0.18491503162876061 0 0.1381966344879034 0.19187104433866289 0 0.13090419933174779 0.17836952642057019 0 0.14924811135520019 0.18491503162876061 0 0.1481303754342396 0.17102151910826349 0 0.14924811135520019 0.18491503162876061 0 0.1481303754342396 0.17102151910826349 0 0.16131506287451519 0.1779817543821661 0 0.13341946682765851 0.1616197962054402 0 0.15545287293019411 0.15760651935646661 0 0.1481303754342396 0.17102151910826349 0 0.15545287293019411 0.15760651935646661 0 0.16131506287451519 0.1779817543821661 0 0.13341946682765851 0.1616197962054402 0 0.1481303754342396 0.17102151910826349 0 0.15545287293019411 0.15760651935646661 0 0.15545287293019411 0.15760651935646661 0 0.1737173142348474 0.18047587096471929 0 0.16740380577307251 0.1554297155577801 0 0.1737173142348474 0.18047587096471929 0 0.17150045886869461 0.15163129695379809 0 0.16740380577307251 0.1554297155577801 0 0.15545287293019411 0.15760651935646661 0 0.16740380577307251 0.1554297155577801 0 0.15545287293019411 0.15760651935646661 0 0.1737173142348474 0.18047587096471929 0 0.15545287293019411 0.15760651935646661 0 0.16131506287451519 0.1779817543821661 0 0.1737173142348474 0.18047587096471929 0 0.14924811135520019 0.18491503162876061 0 0.16131506287451519 0.1779817543821661 0 0.16119593719096839 0.1923487163907959 0 0.16131506287451519 0.1779817543821661 0 0.17406695617602869 0.18502523083892619 0 0.1737173142348474 0.18047587096471929 0 0.16131506287451519 0.1779817543821661 0 0.17406695617602869 0.18502523083892619 0 0.16119593719096839 0.1923487163907959 0 0.17406695617602869 0.18502523083892619 0 0.1737173142348474 0.18047587096471929 0 0.18521943658133361 0.19487795837573421 0 0.17406695617602869 0.18502523083892619 0 0.1737173142348474 0.18047587096471929 0 0.1737173142348474 0.18047587096471929 0 0.1775211727348929 0.1704628072893771 0 0.1737173142348474 0.18047587096471929 0 0.18244679492743759 0.17764784816409351 0 0.1775211727348929 0.1704628072893771 0 0.18244679492743759 0.17764784816409351 0 0.1775211727348929 0.1704628072893771 0 0.18810788873434409 0.1680877383361761 0 0.18244679492743759 0.17764784816409351 0 0.18810788873434409 0.1680877383361761 0 0.1900646093342776 0.1789247248272556 0 0.1737173142348474 0.18047587096471929 0 0.18244679492743759 0.17764784816409351 0 0.18551293206904279 0.18463106004243299 0 0.1737173142348474 0.18047587096471929 0 0.18551293206904279 0.18463106004243299 0 0.18521943658133361 0.19487795837573421 0 0.18244679492743759 0.17764784816409351 0 0.18551293206904279 0.18463106004243299 0 0.1900646093342776 0.1789247248272556 0 0.1737173142348474 0.18047587096471929 0 0.1775211727348929 0.1704628072893771 0 0.17150045886869461 0.15163129695379809 0 0.1775211727348929 0.1704628072893771 0 0.18144555011813909 0.1609928341427922 0 0.17150045886869461 0.15163129695379809 0 0.1737173142348474 0.18047587096471929 0 0.17150045886869461 0.15163129695379809 0 0.1775211727348929 0.1704628072893771 0 0.18144555011813909 0.1609928341427922 0 0.18810788873434409 0.1680877383361761 0 0.18144555011813909 0.1609928341427922 0 0.1878294128889175 0.15366533769862109 0 0.18810788873434409 0.1680877383361761 0 0.18144555011813909 0.1609928341427922 0 0.17150045886869461 0.15163129695379809 0 0.1878294128889175 0.15366533769862109 0 0.1841011622612527 0.13747440314217871 0 0.17150045886869461 0.15163129695379809 0 0.1878294128889175 0.15366533769862109 0 0.1841011622612527 0.13747440314217871 0 0.1692836035025411 0.1227867229428769 0 0.1850433559460907 0.1183536370701162 0 0.1841011622612527 0.13747440314217871 0 0.17150045886869461 0.15163129695379809 0 0.1692836035025411 0.1227867229428769 0 0.15929977335792481 0.1435795805515418 0 0.17150045886869461 0.15163129695379809 0 0.1692836035025411 0.1227867229428769 0 0.14683541108368439 0.12910121075209191 0 0.1692836035025411 0.1227867229428769 0 0.14683541108368439 0.12910121075209191 0 0.15929977335792481 0.1435795805515418 0 0.1692836035025411 0.1227867229428769 0 0.17150045886869461 0.15163129695379809 0 0.1692836035025411 0.1227867229428769 0 0.15545287293019411 0.15760651935646661 0 0.15929977335792481 0.1435795805515418 0 0.16740380577307251 0.1554297155577801 0 0.15929977335792481 0.1435795805515418 0 0.17150045886869461 0.15163129695379809 0 0.16740380577307251 0.1554297155577801 0 0.14158325490849649 0.23936608361144421 0 0.1549348028130102 0.23143770777234071 0 0.15945160693185301 0.24664120146244811 0 0.15945160693185301 0.24664120146244811 0 0.1324145398262134 0.2527133870789714 0 0.14158325490849649 0.23936608361144421 0 0.15945160693185301 0.24664120146244811 0 0.1324145398262134 0.2527133870789714 0 0.115753292200726 0.23094796002657911 0 0.14158325490849649 0.23936608361144421 0 0.1324145398262134 0.2527133870789714 0 0.115753292200726 0.23094796002657911 0 0.13848982170783311 0.22462941206231121 0 0.115753292200726 0.23094796002657911 0 0.14158325490849649 0.23936608361144421 0 0.13848982170783311 0.22462941206231121 0 0.12349966069011969 0.2122735997283107 0 0.115753292200726 0.23094796002657911 0 0.13848982170783311 0.22462941206231121 0 0.13848982170783311 0.22462941206231121 0 0.16122635121494061 0.21831086409804501 0 0.13848982170783311 0.22462941206231121 0 0.1549348028130102 0.23143770777234071 0 0.16122635121494061 0.21831086409804501 0 0.14158325490849649 0.23936608361144421 0 0.13848982170783311 0.22462941206231121 0 0.1549348028130102 0.23143770777234071 0 0.14062859761931421 0.20595002265326909 0 0.15017142010956561 0.19653145978222381 0 0.16096834065741919 0.20712150212589481 0 0.13848982170783311 0.22462941206231121 0 0.14062859761931421 0.20595002265326909 0 0.16122635121494061 0.21831086409804501 0 0.14062859761931421 0.20595002265326909 0 0.16096834065741919 0.20712150212589481 0 0.16122635121494061 0.21831086409804501 0 0.14062859761931421 0.20595002265326909 0 0.16122635121494061 0.21831086409804501 0 0.12349966069011969 0.2122735997283107 0 0.13848982170783311 0.22462941206231121 0 0.14062859761931421 0.20595002265326909 0 0.1200308440236892 0.19358918120849111 0 0.12349966069011969 0.2122735997283107 0 0.14062859761931421 0.20595002265326909 0 0.1200308440236892 0.19358918120849111 0 0.14062859761931421 0.20595002265326909 0 0.1200308440236892 0.19358918120849111 0 0.14062859761931421 0.20595002265326909 0 0.1381966344879034 0.19187104433866289 0 0.1200308440236892 0.19358918120849111 0 0.13090419933174779 0.17836952642057019 0 0.1381966344879034 0.19187104433866289 0 0.14924811135520019 0.18491503162876061 0 0.1381966344879034 0.19187104433866289 0 0.15017142010956561 0.19653145978222381 0 0.14062859761931421 0.20595002265326909 0 0.1381966344879034 0.19187104433866289 0 0.15017142010956561 0.19653145978222381 0 0.14924811135520019 0.18491503162876061 0 0.15017142010956561 0.19653145978222381 0 0.16119593719096839 0.1923487163907959 0 0.17406695617602869 0.18502523083892619 0 0.16119593719096839 0.1923487163907959 0 0.17029376316175071 0.2009324080155053 0 0.15017142010956561 0.19653145978222381 0 0.16119593719096839 0.1923487163907959 0 0.16096834065741919 0.20712150212589481 0 0.16119593719096839 0.1923487163907959 0 0.17029376316175071 0.2009324080155053 0 0.16096834065741919 0.20712150212589481 0 0.17406695617602869 0.18502523083892619 0 0.17571831866439391 0.206511904368361 0 0.1737173142348474 0.18047587096471929 0 0.18521943658133361 0.19487795837573421 0 0.17406695617602869 0.18502523083892619 0 0.17029376316175071 0.2009324080155053 0 0.17571831866439391 0.206511904368361 0 0.17406695617602869 0.18502523083892619 0 0.18521943658133361 0.19487795837573421 0 0.17571831866439391 0.206511904368361 0 0.17406695617602869 0.18502523083892619 0 0.17029376316175071 0.2009324080155053 0 0.17571831866439391 0.206511904368361 0 0.18511791688265619 0.2151053844659549 0 0.17736968115275989 0.22799857789779579 0 0.18521943658133361 0.19487795837573421 0 0.17571831866439391 0.206511904368361 0 0.18511791688265619 0.2151053844659549 0 0.17571831866439391 0.206511904368361 0 0.17002792129883709 0.2158648820620169 0 0.17736968115275989 0.22799857789779579 0 0.17571831866439391 0.206511904368361 0 0.17736968115275989 0.22799857789779579 0 0.17029376316175071 0.2009324080155053 0 0.17571831866439391 0.206511904368361 0 0.17002792129883709 0.2158648820620169 0 0.17029376316175071 0.2009324080155053 0 0.17002792129883709 0.2158648820620169 0 0.1665205701474714 0.21683958519208421 0 0.17029376316175071 0.2009324080155053 0 0.1665205701474714 0.21683958519208421 0 0.17029376316175071 0.2009324080155053 0 0.1665205701474714 0.21683958519208421 0 0.16096834065741919 0.20712150212589481 0 0.17002792129883709 0.2158648820620169 0 0.1665205701474714 0.21683958519208421 0 0.17002792129883709 0.2158648820620169 0 0.1665205701474714 0.21683958519208421 0 0.1655553656127377 0.2209087328576145 0 0.1665205701474714 0.21683958519208421 0 0.16122635121494061 0.21831086409804501 0 0.1655553656127377 0.2209087328576145 0 0.1665205701474714 0.21683958519208421 0 0.16096834065741919 0.20712150212589481 0 0.16122635121494061 0.21831086409804501 0 0.1665205701474714 0.21683958519208421 0 0.16122635121494061 0.21831086409804501 0 0.1655553656127377 0.2209087328576145 0 0.17736968115275989 0.22799857789779579 0 0.15945160693185301 0.24664120146244811 0 0.1549348028130102 0.23143770777234071 0 0.1655553656127377 0.2209087328576145 0 0.15945160693185301 0.24664120146244811 0 0.1655553656127377 0.2209087328576145 0 0.15945160693185301 0.24664120146244811 0 0.1549348028130102 0.23143770777234071 0 0.16122635121494061 0.21831086409804501 0 0.1655553656127377 0.2209087328576145 0 0.16122635121494061 0.21831086409804501 0 0.1655553656127377 0.2209087328576145 0 0.17002792129883709 0.2158648820620169 0 0.1655553656127377 0.2209087328576145 0 0.17736968115275989 0.22799857789779579 0 0.1655553656127377 0.2209087328576145 0 0.17736968115275989 0.22799857789779579 0 0.1665205701474714 0.21683958519208421 0 0.1655553656127377 0.2209087328576145 0 0.17736968115275989 0.22799857789779579 0 0.19509559411548019 0.23863600972155641 0 0.18511791688265619 0.2151053844659549 0 0.17736968115275989 0.22799857789779579 0 0.19490021685058551 0.22326056405870159 0 0.17736968115275989 0.22799857789779579 0 0.17847412149305961 0.24236898366391749 0 0.17736968115275989 0.22799857789779579 0 0.17847412149305961 0.24236898366391749 0 0.19509559411548019 0.23863600972155641 0 0.17847412149305961 0.24236898366391749 0 0.19509559411548019 0.23863600972155641 0 0.17847412149305961 0.24236898366391749 0 0.19315560088370559 0.2455780134038858 0 0.1889178768957207 0.25180915899523382 0 0.17847412149305961 0.24236898366391749 0 0.17938803553126451 0.25426035985250911 0 0.1889178768957207 0.25180915899523382 0 0.17847412149305961 0.24236898366391749 0 0.17938803553126451 0.25426035985250911 0 0.17736968115275989 0.22799857789779579 0 0.17847412149305961 0.24236898366391749 0 0.15945160693185301 0.24664120146244811 0 0.17847412149305961 0.24236898366391749 0 0.15945160693185301 0.24664120146244811 0 0.16879582847519559 0.25412737389965251 0 0.17847412149305961 0.24236898366391749 0 0.15945160693185301 0.24664120146244811 0 0.21124374889375841 0.24614057904070669 0 0.22249554373942421 0.2451888046152492 0 0.21707736017569129 0.25515200732638998 0 0.21124374889375841 0.24614057904070669 0 0.2104439198530737 0.23518896857550919 0 0.22249554373942421 0.2451888046152492 0 0.21124374889375841 0.24614057904070669 0 0.2104439198530737 0.23518896857550919 0 0.20014446301310221 0.2416658676926825 0 0.21124374889375841 0.24614057904070669 0 0.20014446301310221 0.2416658676926825 0 0.2031459489011653 0.25341004694603592 0 0.17847412149305961 0.24236898366391749 0 0.19315560088370559 0.2455780134038858 0 0.19509559411548019 0.23863600972155641 0 0.19315560088370559 0.2455780134038858 0 0.20014446301310221 0.2416658676926825 0 0.2031459489011653 0.25341004694603592 0 0.2104439198530737 0.23518896857550919 0 0.19509559411548019 0.23863600972155641 0 0.20141196728599739 0.23086678279070991 0 0.2104439198530737 0.23518896857550919 0 0.19509559411548019 0.23863600972155641 0 0.20014446301310221 0.2416658676926825 0 0.2104439198530737 0.23518896857550919 0 0.19509559411548019 0.23863600972155641 0 0.19509559411548019 0.23863600972155641 0 0.20014446301310221 0.2416658676926825 0 0.19315560088370559 0.2455780134038858 0 0.19509559411548019 0.23863600972155641 0 0.20014446301310221 0.2416658676926825 0 0.19509559411548019 0.23863600972155641 0 0.20141196728599739 0.23086678279070991 0 0.19490021685058551 0.22326056405870159 0 0.17736968115275989 0.22799857789779579 0 0.19509559411548019 0.23863600972155641 0 0.19490021685058551 0.22326056405870159 0 0.20141196728599739 0.23086678279070991 0 0.19490021685058551 0.22326056405870159 0 0.20201086978855759 0.21587427987544039 0 0.20141196728599739 0.23086678279070991 0 0.21024080442868051 0.22220753302124099 0 0.20201086978855759 0.21587427987544039 0 0.2104439198530737 0.23518896857550919 0 0.20141196728599739 0.23086678279070991 0 0.21024080442868051 0.22220753302124099 0 0.2104439198530737 0.23518896857550919 0 0.21024080442868051 0.22220753302124099 0 0.22579224559066749 0.23174192742946309 0 0.2104439198530737 0.23518896857550919 0 0.22579224559066749 0.23174192742946309 0 0.21024080442868051 0.22220753302124099 0 0.20788138041892029 0.19513578756526981 0 0.21024080442868051 0.22220753302124099 0 0.20788138041892029 0.19513578756526981 0 0.2240915049673822 0.20737118364108001 0 0.21024080442868051 0.22220753302124099 0 0.20201086978855759 0.21587427987544039 0 0.20788138041892029 0.19513578756526981 0 0.19490021685058551 0.22326056405870159 0 0.20201086978855759 0.21587427987544039 0 0.1956199799586042 0.20790073194127939 0 0.20201086978855759 0.21587427987544039 0 0.1956199799586042 0.20790073194127939 0 0.20788138041892029 0.19513578756526981 0 0.18521943658133361 0.19487795837573421 0 0.18511791688265619 0.2151053844659549 0 0.1956199799586042 0.20790073194127939 0 0.18511791688265619 0.2151053844659549 0 0.19490021685058551 0.22326056405870159 0 0.1956199799586042 0.20790073194127939 0 0.18521943658133361 0.19487795837573421 0 0.1956199799586042 0.20790073194127939 0 0.1950149262981021 0.18984958403489269 0 0.1956199799586042 0.20790073194127939 0 0.1950149262981021 0.18984958403489269 0 0.20788138041892029 0.19513578756526981 0 0.18521943658133361 0.19487795837573421 0 0.1956199799586042 0.20790073194127939 0 0.18551293206904279 0.18463106004243299 0 0.18521943658133361 0.19487795837573421 0 0.1950149262981021 0.18984958403489269 0 0.20788138041892029 0.19513578756526981 0 0.223675583673585 0.1912139359786903 0 0.2182447606966027 0.17999595784536049 0 0.20788138041892029 0.19513578756526981 0 0.223675583673585 0.1912139359786903 0 0.2240915049673822 0.20737118364108001 0 0.223675583673585 0.1912139359786903 0 0.24150381081586461 0.19375968771741181 0 0.2240915049673822 0.20737118364108001 0 0.24150381081586461 0.19375968771741181 0 0.24096229111526471 0.21942870794114919 0 0.24150381081586461 0.19375968771741181 0 0.2240915049673822 0.20737118364108001 0 0.24096229111526471 0.21942870794114919 0 0.2240915049673822 0.20737118364108001 0 0.22390578042407741 0.21994355744255031 0 0.24096229111526471 0.21942870794114919 0 0.21024080442868051 0.22220753302124099 0 0.2240915049673822 0.20737118364108001 0 0.22390578042407741 0.21994355744255031 0 0.22390578042407741 0.21994355744255031 0 0.22579224559066749 0.23174192742946309 0 0.24096229111526471 0.21942870794114919 0 0.21024080442868051 0.22220753302124099 0 0.22390578042407741 0.21994355744255031 0 0.22579224559066749 0.23174192742946309 0 0.24096229111526471 0.21942870794114919 0 0.24042077141466489 0.2450977281648864 0 0.22579224559066749 0.23174192742946309 0 0.24096229111526471 0.21942870794114919 0 0.24042077141466489 0.2450977281648864 0 0.24042077141466489 0.2450977281648864 0 0.22249554373942421 0.2451888046152492 0 0.22999521650868929 0.25781161715454021 0 0.22579224559066749 0.23174192742946309 0 0.24042077141466489 0.2450977281648864 0 0.22249554373942421 0.2451888046152492 0 0.2104439198530737 0.23518896857550919 0 0.22579224559066749 0.23174192742946309 0 0.22249554373942421 0.2451888046152492 0 0.2031625323993998 0.14099229665332699 0 0.2164576305316242 0.14468749579747059 0 0.21114683888604641 0.15680974539115661 0 0.2031625323993998 0.14099229665332699 0 0.20552195640915999 0.16806404210929851 0 0.21114683888604641 0.15680974539115661 0 0.2031625323993998 0.14099229665332699 0 0.20552195640915999 0.16806404210929851 0 0.2164576305316242 0.14468749579747059 0 0.21114683888604641 0.15680974539115661 0 0.22075789960857431 0.15317436316715591 0 0.2031625323993998 0.14099229665332699 0 0.21214385878087949 0.1308624261829659 0 0.2008031083896403 0.1139205511973555 0 0.2164576305316242 0.14468749579747059 0 0.21214385878087949 0.1308624261829659 0 0.2239377335638584 0.13484233666227941 0 0.21214385878087949 0.1308624261829659 0 0.2239377335638584 0.13484233666227941 0 0.21635828901987489 0.1198694506043969 0 0.2031625323993998 0.14099229665332699 0 0.2164576305316242 0.14468749579747059 0 0.21214385878087949 0.1308624261829659 0 0.1841011622612527 0.13747440314217871 0 0.2031625323993998 0.14099229665332699 0 0.1850433559460907 0.1183536370701162 0 0.2031625323993998 0.14099229665332699 0 0.2008031083896403 0.1139205511973555 0 0.2031625323993998 0.14099229665332699 0 0.1878294128889175 0.15366533769862109 0 0.196390559443232 0.16160086308414259 0 0.1841011622612527 0.13747440314217871 0 0.2031625323993998 0.14099229665332699 0 0.1878294128889175 0.15366533769862109 0 0.2031625323993998 0.14099229665332699 0 0.196390559443232 0.16160086308414259 0 0.20552195640915999 0.16806404210929851 0 0.1878294128889175 0.15366533769862109 0 0.18810788873434409 0.1680877383361761 0 0.196390559443232 0.16160086308414259 0 0.18810788873434409 0.1680877383361761 0 0.196390559443232 0.16160086308414259 0 0.19733100678433879 0.17719490062329041 0 0.196390559443232 0.16160086308414259 0 0.19733100678433879 0.17719490062329041 0 0.20552195640915999 0.16806404210929851 0 0.1950149262981021 0.18984958403489269 0 0.20788138041892029 0.19513578756526981 0 0.19733100678433879 0.17719490062329041 0 0.1950149262981021 0.18984958403489269 0 0.1900646093342776 0.1789247248272556 0 0.19733100678433879 0.17719490062329041 0 0.18551293206904279 0.18463106004243299 0 0.1950149262981021 0.18984958403489269 0 0.1900646093342776 0.1789247248272556 0 0.18810788873434409 0.1680877383361761 0 0.1900646093342776 0.1789247248272556 0 0.19733100678433879 0.17719490062329041 0 0.20788138041892029 0.19513578756526981 0 0.2182447606966027 0.17999595784536049 0 0.20552195640915999 0.16806404210929851 0 0.20788138041892029 0.19513578756526981 0 0.19733100678433879 0.17719490062329041 0 0.20552195640915999 0.16806404210929851 0 0.20788138041892029 0.19513578756526981 0 0.20552195640915999 0.16806404210929851 0 0.2182447606966027 0.17999595784536049 0 0.20552195640915999 0.16806404210929851 0 0.2169341553699905 0.16693934659222401 0 0.2169341553699905 0.16693934659222401 0 0.21114683888604641 0.15680974539115661 0 0.22659608470125489 0.16245020644241609 0 0.20552195640915999 0.16806404210929851 0 0.2169341553699905 0.16693934659222401 0 0.21114683888604641 0.15680974539115661 0 0.22659608470125489 0.16245020644241609 0 0.2420453305164639 0.16809066749367441 0 0.22883104431537149 0.14875000503758029 0 0.21114683888604641 0.15680974539115661 0 0.22659608470125489 0.16245020644241609 0 0.21114683888604641 0.15680974539115661 0 0.22659608470125489 0.16245020644241609 0 0.22075789960857431 0.15317436316715591 0 0.2169341553699905 0.16693934659222401 0 0.22659608470125489 0.16245020644241609 0 0.2281666209622937 0.1770749670116295 0 0.22659608470125489 0.16245020644241609 0 0.2281666209622937 0.1770749670116295 0 0.2420453305164639 0.16809066749367441 0 0.22659608470125489 0.16245020644241609 0 0.2420453305164639 0.16809066749367441 0 0.223675583673585 0.1912139359786903 0 0.24150381081586461 0.19375968771741181 0 0.2281666209622937 0.1770749670116295 0 0.223675583673585 0.1912139359786903 0 0.2182447606966027 0.17999595784536049 0 0.2281666209622937 0.1770749670116295 0 0.2182447606966027 0.17999595784536049 0 0.2169341553699905 0.16693934659222401 0 0.2281666209622937 0.1770749670116295 0 0.24150381081586461 0.19375968771741181 0 0.2420453305164639 0.16809066749367441 0 0.26540358153878202 0.17661867634879039 0 0.24150381081586461 0.19375968771741181 0 0.2420453305164639 0.16809066749367441 0 0.24150381081586461 0.19375968771741181 0 0.2281666209622937 0.1770749670116295 0 0.2420453305164639 0.16809066749367441 0 0.2420453305164639 0.16809066749367441 0 0.24253359996283069 0.14494580631959639 0 0.25066954183599288 0.15677963464844469 0 0.2420453305164639 0.16809066749367441 0 0.24253359996283069 0.14494580631959639 0 0.2420453305164639 0.16809066749367441 0 0.24253359996283069 0.14494580631959639 0 0.22883104431537149 0.14875000503758029 0 0.24253359996283069 0.14494580631959639 0 0.24964923409967291 0.13755644202102979 0 0.25066954183599288 0.15677963464844469 0 0.24253359996283069 0.14494580631959639 0 0.22883104431537149 0.14875000503758029 0 0.23277809022316989 0.14051074311223169 0 0.22883104431537149 0.14875000503758029 0 0.2239377335638584 0.13484233666227941 0 0.23277809022316989 0.14051074311223169 0 0.2164576305316242 0.14468749579747059 0 0.22883104431537149 0.14875000503758029 0 0.2239377335638584 0.13484233666227941 0 0.2164576305316242 0.14468749579747059 0 0.22883104431537149 0.14875000503758029 0 0.22075789960857431 0.15317436316715591 0 0.22659608470125489 0.16245020644241609 0 0.22883104431537149 0.14875000503758029 0 0.22075789960857431 0.15317436316715591 0 0.2239377335638584 0.13484233666227941 0 0.2280067201516239 0.1232706537688989 0 0.21635828901987489 0.1198694506043969 0 0.2239377335638584 0.13484233666227941 0 0.23277809022316989 0.14051074311223169 0 0.23580998305061909 0.13350482442947079 0 0.2239377335638584 0.13484233666227941 0 0.23580998305061909 0.13350482442947079 0 0.2280067201516239 0.1232706537688989 0 0.24964923409967291 0.13755644202102979 0 0.23552223117176299 0.11701193486918041 0 0.2531904451582252 0.1262773160490559 0 0.23580998305061909 0.13350482442947079 0 0.24964923409967291 0.13755644202102979 0 0.23552223117176299 0.11701193486918041 0 0.24964923409967291 0.13755644202102979 0 0.23552223117176299 0.11701193486918041 0 0.24253359996283069 0.14494580631959639 0 0.23277809022316989 0.14051074311223169 0 0.23580998305061909 0.13350482442947079 0 0.24253359996283069 0.14494580631959639 0 0.23580998305061909 0.13350482442947079 0 0.24964923409967291 0.13755644202102979 0 0.24208951639656659 0.1099580091737191 0 0.23552223117176299 0.11701193486918041 0 0.25404594151970039 0.1166901186519909 0 0.23552223117176299 0.11701193486918041 0 0.25404594151970039 0.1166901186519909 0 0.2531904451582252 0.1262773160490559 0 0.24208951639656659 0.1099580091737191 0 0.23552223117176299 0.11701193486918041 0 0.22653100042814769 0.10668351145702031 0 0.24208951639656659 0.1099580091737191 0 0.25225889246665523 0.099446471716684984 0 0.25404594151970039 0.1166901186519909 0 0.22653100042814769 0.10668351145702031 0 0.23566805807700519 0.085839647904930108 0 0.25225889246665523 0.099446471716684984 0 0.22653100042814769 0.10668351145702031 0 0.25225889246665523 0.099446471716684984 0 0.24208951639656659 0.1099580091737191 0 0.22653100042814769 0.10668351145702031 0 0.25225889246665523 0.099446471716684984 0 0.22653100042814769 0.10668351145702031 0 0.21661767198410281 0.091032129718344262 0 0.23566805807700519 0.085839647904930108 0 0.22653100042814769 0.10668351145702031 0 0.2280067201516239 0.1232706537688989 0 0.21635828901987489 0.1198694506043969 0 0.23552223117176299 0.11701193486918041 0 0.22653100042814769 0.10668351145702031 0 0.2280067201516239 0.1232706537688989 0 0.23580998305061909 0.13350482442947079 0 0.23552223117176299 0.11701193486918041 0 0.2280067201516239 0.1232706537688989 0 0.21214385878087949 0.1308624261829659 0 0.21635828901987489 0.1198694506043969 0 0.2008031083896403 0.1139205511973555 0 0.22653100042814769 0.10668351145702031 0 0.21635828901987489 0.1198694506043969 0 0.2008031083896403 0.1139205511973555 0 0.22653100042814769 0.10668351145702031 0 0.2008031083896403 0.1139205511973555 0 0.2008031083896403 0.1139205511973555 0 0.19885728748767401 0.091594437729402595 0 0.21661767198410281 0.091032129718344262 0 0.22653100042814769 0.10668351145702031 0 0.2008031083896403 0.1139205511973555 0 0.21661767198410281 0.091032129718344262 0 0.2008031083896403 0.1139205511973555 0 0.19885728748767401 0.091594437729402595 0 0.18685350757599631 0.1022127208756571 0 0.2008031083896403 0.1139205511973555 0 0.19885728748767401 0.091594437729402595 0 0.2031625323993998 0.14099229665332699 0 0.2008031083896403 0.1139205511973555 0 0.1850433559460907 0.1183536370701162 0 0.2008031083896403 0.1139205511973555 0 0.1850433559460907 0.1183536370701162 0 0.2008031083896403 0.1139205511973555 0 0.1850433559460907 0.1183536370701162 0 0.18685350757599631 0.1022127208756571 0 0.20467291749655511 0.075775528751701807 0 0.18200369197221269 0.08683366745690882 0 0.18098293568109569 0.068429455117078791 0 0.20467291749655511 0.075775528751701807 0 0.2037938805084831 0.055242601177759608 0 0.18098293568109569 0.068429455117078791 0 0.19885728748767401 0.091594437729402595 0 0.20467291749655511 0.075775528751701807 0 0.18200369197221269 0.08683366745690882 0 0.19885728748767401 0.091594437729402595 0 0.18685350757599631 0.1022127208756571 0 0.18200369197221269 0.08683366745690882 0 0.19885728748767401 0.091594437729402595 0 0.21661767198410281 0.091032129718344262 0 0.20467291749655511 0.075775528751701807 0 0.21661767198410281 0.091032129718344262 0 0.20467291749655511 0.075775528751701807 0 0.22387553394144971 0.073899844190410013 0 0.20467291749655511 0.075775528751701807 0 0.22387553394144971 0.073899844190410013 0 0.2037938805084831 0.055242601177759608 0 0.22387553394144971 0.073899844190410013 0 0.23566805807700519 0.085839647904930108 0 0.23976469644175241 0.067647275882470659 0 0.22387553394144971 0.073899844190410013 0 0.23976469644175241 0.067647275882470659 0 0.22722594321853221 0.054744497744532647 0 0.21661767198410281 0.091032129718344262 0 0.22387553394144971 0.073899844190410013 0 0.23566805807700519 0.085839647904930108 0 0.23566805807700519 0.085839647904930108 0 0.25441519576724769 0.076417849690389145 0 0.25225889246665523 0.099446471716684984 0 0.23566805807700519 0.085839647904930108 0 0.23976469644175241 0.067647275882470659 0 0.25441519576724769 0.076417849690389145 0 0.24345656278421651 0.051289098362089107 0 0.23664422515913169 0.039502129739102353 0 0.22722594321853221 0.054744497744532647 0 0.23976469644175241 0.067647275882470659 0 0.24345656278421651 0.051289098362089107 0 0.2580168423114102 0.05857441678840844 0 0.23976469644175241 0.067647275882470659 0 0.24345656278421651 0.051289098362089107 0 0.22722594321853221 0.054744497744532647 0 0.24338654453111791 0.03168340785791441 0 0.23664422515913169 0.039502129739102353 0 0.25298293459882037 0.039555914019193887 0 0.24345656278421651 0.051289098362089107 0 0.23664422515913169 0.039502129739102353 0 0.25298293459882037 0.039555914019193887 0 0.24338654453111791 0.03168340785791441 0 0.23664422515913169 0.039502129739102353 0 0.23320998620250169 0.025324487622061791 0 0.23664422515913169 0.039502129739102353 0 0.22130452840690881 0.037338902636920628 0 0.22722594321853221 0.054744497744532647 0 0.23664422515913169 0.039502129739102353 0 0.22130452840690881 0.037338902636920628 0 0.23320998620250169 0.025324487622061791 0 0.23562848818290119 0.007463702376157233 0 0.254451169109776 0.025181675374316408 0 0.25393590756049139 -0.0071212513700616639 0 0.23562848818290119 0.007463702376157233 0 0.254451169109776 0.025181675374316408 0 0.23562848818290119 0.007463702376157233 0 0.23320998620250169 0.025324487622061791 0 0.254451169109776 0.025181675374316408 0 0.24338654453111791 0.03168340785791441 0 0.23320998620250169 0.025324487622061791 0 0.254451169109776 0.025181675374316408 0 0.22130452840690881 0.037338902636920628 0 0.23320998620250169 0.025324487622061791 0 0.2158199433593404 0.018454570110484628 0 0.23562848818290119 0.007463702376157233 0 0.23320998620250169 0.025324487622061791 0 0.2158199433593404 0.018454570110484628 0 0.23562848818290119 0.007463702376157233 0 0.21458510694514091 0.0045122238706698983 0 0.2158199433593404 0.018454570110484628 0 0.23562848818290119 0.007463702376157233 0 0.21458510694514091 0.0045122238706698983 0 0.21680580725601939 -0.010254270621994931 0 0.21458510694514091 0.0045122238706698983 0 0.2158199433593404 0.018454570110484628 0 0.19946487217365971 0.01109102594190626 0 0.21458510694514091 0.0045122238706698983 0 0.19946487217365971 0.01109102594190626 0 0.20303654763094001 -0.001205050851316176 0 0.22130452840690881 0.037338902636920628 0 0.2158199433593404 0.018454570110484628 0 0.1929642945601123 0.03108233218569359 0 0.1929642945601123 0.03108233218569359 0 0.19946487217365971 0.01109102594190626 0 0.1797152753542928 0.014049688723465421 0 0.2158199433593404 0.018454570110484628 0 0.1929642945601123 0.03108233218569359 0 0.19946487217365971 0.01109102594190626 0 0.19946487217365971 0.01109102594190626 0 0.1797152753542928 0.014049688723465421 0 0.18748862012264211 0.00065758471470461397 0 0.19946487217365971 0.01109102594190626 0 0.18748862012264211 0.00065758471470461397 0 0.20303654763094001 -0.001205050851316176 0 0.22387553394144971 0.073899844190410013 0 0.22722594321853221 0.054744497744532647 0 0.2037938805084831 0.055242601177759608 0 0.22130452840690881 0.037338902636920628 0 0.22722594321853221 0.054744497744532647 0 0.2037938805084831 0.055242601177759608 0 0.22130452840690881 0.037338902636920628 0 0.1929642945601123 0.03108233218569359 0 0.22130452840690881 0.037338902636920628 0 0.1929642945601123 0.03108233218569359 0 0.2037938805084831 0.055242601177759608 0 0.1929642945601123 0.03108233218569359 0 0.2037938805084831 0.055242601177759608 0 0.17541945296838291 0.046640176231934963 0 0.2037938805084831 0.055242601177759608 0 0.17541945296838291 0.046640176231934963 0 0.18098293568109569 0.068429455117078791 0 0.17541945296838291 0.046640176231934963 0 0.18098293568109569 0.068429455117078791 0 0.16094205725825891 0.063806950751833777 0 0.1929642945601123 0.03108233218569359 0 0.17541945296838291 0.046640176231934963 0 0.16462406071331601 0.0248257617344666 0 0.17541945296838291 0.046640176231934963 0 0.16462406071331601 0.0248257617344666 0 0.15236101213269229 0.044973707740487187 0 0.17541945296838291 0.046640176231934963 0 0.15236101213269229 0.044973707740487187 0 0.16094205725825891 0.063806950751833777 0 0.1797152753542928 0.014049688723465421 0 0.18748862012264211 0.00065758471470461397 0 0.17091000867070111 0.0015876281411760619 0 0.1929642945601123 0.03108233218569359 0 0.1797152753542928 0.014049688723465421 0 0.16462406071331601 0.0248257617344666 0 0.1929642945601123 0.03108233218569359 0 0.16462406071331601 0.0248257617344666 0 0.1797152753542928 0.014049688723465421 0 0.16462406071331601 0.0248257617344666 0 0.1623393342310068 0.010162995256211329 0 0.16462406071331601 0.0248257617344666 0 0.1623393342310068 0.010162995256211329 0 0.14913427772135651 0.012733812410646431 0 0.1797152753542928 0.014049688723465421 0 0.1623393342310068 0.010162995256211329 0 0.17091000867070111 0.0015876281411760619 0 0.1623393342310068 0.010162995256211329 0 0.15807637948465569 0.0014301162840097571 0 0.17091000867070111 0.0015876281411760619 0 0.1623393342310068 0.010162995256211329 0 0.15807637948465569 0.0014301162840097571 0 0.152037677835903 0.0066332643755212667 0 0.14242008434549699 0.001929107074739985 0 0.14913427772135651 0.012733812410646431 0 0.13628382686651969 0.018569191283239649 0 0.14242008434549699 0.001929107074739985 0 0.152037677835903 0.0066332643755212667 0 0.14913427772135651 0.012733812410646431 0 0.14242008434549699 0.001929107074739985 0 0.152037677835903 0.0066332643755212667 0 0.14860271220055449 0.001269697410257871 0 0.14242008434549699 0.001929107074739985 0 0.14860271220055449 0.001269697410257871 0 0.15807637948465569 0.0014301162840097571 0 0.152037677835903 0.0066332643755212667 0 0.14860271220055449 0.001269697410257871 0 0.1623393342310068 0.010162995256211329 0 0.152037677835903 0.0066332643755212667 0 0.14913427772135651 0.012733812410646431 0 0.16462406071331601 0.0248257617344666 0 0.14989952084144881 0.029669595273177089 0 0.13628382686651969 0.018569191283239649 0 0.16462406071331601 0.0248257617344666 0 0.14913427772135651 0.012733812410646431 0 0.13628382686651969 0.018569191283239649 0 0.16462406071331601 0.0248257617344666 0 0.13628382686651969 0.018569191283239649 0 0.14989952084144881 0.029669595273177089 0 0.141655373630865 0.0284485635588934 0 0.13628382686651969 0.018569191283239649 0 0.11684120755847591 0.019358845917260979 0 0.13378737012505851 0.025338993649437841 0 0.13460110984558421 0.032166276828874088 0 0.11684120755847591 0.019358845917260979 0 0.13460110984558421 0.032166276828874088 0 0.141655373630865 0.0284485635588934 0 0.13378737012505851 0.025338993649437841 0 0.13628382686651969 0.018569191283239649 0 0.141655373630865 0.0284485635588934 0 0.13378737012505851 0.025338993649437841 0 0.13460110984558421 0.032166276828874088 0 0.1238578153041297 0.01582594586091424 0 0.13628382686651969 0.018569191283239649 0 0.1238578153041297 0.01582594586091424 0 0.13378737012505851 0.025338993649437841 0 0.13628382686651969 0.018569191283239649 0 0.13378737012505851 0.025338993649437841 0 0.13628382686651969 0.018569191283239649 0 0.14242008434549699 0.001929107074739985 0 0.13628382686651969 0.018569191283239649 0 0.1207506948084323 0.0042402610401935043 0 0.14242008434549699 0.001929107074739985 0 0.14242008434549699 0.001929107074739985 0 0.13628382686651969 0.018569191283239649 0 0.13082810533114461 0.010141126314771589 0 0.1207506948084323 0.0042402610401935043 0 0.14242008434549699 0.001929107074739985 0 0.13082810533114461 0.010141126314771589 0 0.1238578153041297 0.01582594586091424 0 0.1207506948084323 0.0042402610401935043 0 0.13082810533114461 0.010141126314771589 0 0.1238578153041297 0.01582594586091424 0 0.13628382686651969 0.018569191283239649 0 0.13082810533114461 0.010141126314771589 0 0.15236101213269229 0.044973707740487187 0 0.13152110067121769 0.055154717829548623 0 0.14461001498202861 0.062736179082959864 0 0.15236101213269229 0.044973707740487187 0 0.14461001498202861 0.062736179082959864 0 0.16094205725825891 0.063806950751833777 0 0.141655373630865 0.0284485635588934 0 0.15236101213269229 0.044973707740487187 0 0.13460110984558421 0.032166276828874088 0 0.15236101213269229 0.044973707740487187 0 0.13460110984558421 0.032166276828874088 0 0.14989952084144881 0.029669595273177089 0 0.141655373630865 0.0284485635588934 0 0.15236101213269229 0.044973707740487187 0 0.16462406071331601 0.0248257617344666 0 0.14989952084144881 0.029669595273177089 0 0.15236101213269229 0.044973707740487187 0 0.15236101213269229 0.044973707740487187 0 0.13460110984558421 0.032166276828874088 0 0.1285822647701555 0.043060418803054917 0 0.12202704021255539 0.030430790806807061 0 0.13460110984558421 0.032166276828874088 0 0.1257802063456222 0.035510630727506737 0 0.13460110984558421 0.032166276828874088 0 0.1257802063456222 0.035510630727506737 0 0.1285822647701555 0.043060418803054917 0 0.12106300125978579 0.047715007938918502 0 0.1285822647701555 0.043060418803054917 0 0.13152110067121769 0.055154717829548623 0 0.11733313067805309 0.057901875845389202 0 0.13152110067121769 0.055154717829548623 0 0.12957546115750859 0.073652613505623687 0 0.15236101213269229 0.044973707740487187 0 0.1285822647701555 0.043060418803054917 0 0.13152110067121769 0.055154717829548623 0 0.13152110067121769 0.055154717829548623 0 0.12957546115750859 0.073652613505623687 0 0.14461001498202861 0.062736179082959864 0 0.12957546115750859 0.073652613505623687 0 0.14865044369046559 0.076092905587306053 0 0.14461001498202861 0.062736179082959864 0 0.14865044369046559 0.076092905587306053 0 0.14461001498202861 0.062736179082959864 0 0.16094205725825891 0.063806950751833777 0 0.12957546115750859 0.073652613505623687 0 0.14865044369046559 0.076092905587306053 0 0.14429046798244671 0.089727998068024728 0 0.14865044369046559 0.076092905587306053 0 0.14429046798244671 0.089727998068024728 0 0.1640642939070362 0.083180529641236609 0 0.12957546115750859 0.073652613505623687 0 0.14429046798244671 0.089727998068024728 0 0.12545604365175661 0.093055420268558287 0 0.12545604365175661 0.093055420268558287 0 0.1264974503334684 0.1148734287294892 0 0.14450495570032079 0.1061691105230107 0 0.14429046798244671 0.089727998068024728 0 0.12545604365175661 0.093055420268558287 0 0.14450495570032079 0.1061691105230107 0 0.14683541108368439 0.12910121075209191 0 0.1264974503334684 0.1148734287294892 0 0.14450495570032079 0.1061691105230107 0 0.14683541108368439 0.12910121075209191 0 0.14450495570032079 0.1061691105230107 0 0.1578050043627871 0.1134901194466435 0 0.14429046798244671 0.089727998068024728 0 0.14450495570032079 0.1061691105230107 0 0.16756009408436379 0.1003613109245023 0 0.14450495570032079 0.1061691105230107 0 0.16756009408436379 0.1003613109245023 0 0.1578050043627871 0.1134901194466435 0 0.16756009408436379 0.1003613109245023 0 0.1692836035025411 0.1227867229428769 0 0.1578050043627871 0.1134901194466435 0 0.16756009408436379 0.1003613109245023 0 0.1692836035025411 0.1227867229428769 0 0.14683541108368439 0.12910121075209191 0 0.1692836035025411 0.1227867229428769 0 0.1578050043627871 0.1134901194466435 0 0.1692836035025411 0.1227867229428769 0 0.1850433559460907 0.1183536370701162 0 0.16756009408436379 0.1003613109245023 0 0.1692836035025411 0.1227867229428769 0 0.1850433559460907 0.1183536370701162 0 0.16756009408436379 0.1003613109245023 0 0.18685350757599631 0.1022127208756571 0 0.18200369197221269 0.08683366745690882 0 0.16756009408436379 0.1003613109245023 0 0.1850433559460907 0.1183536370701162 0 0.18685350757599631 0.1022127208756571 0 0.18200369197221269 0.08683366745690882 0 0.18098293568109569 0.068429455117078791 0 0.1640642939070362 0.083180529641236609 0 0.14865044369046559 0.076092905587306053 0 0.16094205725825891 0.063806950751833777 0 0.1640642939070362 0.083180529641236609 0 0.18098293568109569 0.068429455117078791 0 0.16094205725825891 0.063806950751833777 0 0.1640642939070362 0.083180529641236609 0 0.14429046798244671 0.089727998068024728 0 0.16756009408436379 0.1003613109245023 0 0.1640642939070362 0.083180529641236609 0 0.16756009408436379 0.1003613109245023 0 0.18200369197221269 0.08683366745690882 0 0.1640642939070362 0.083180529641236609 0 0.1084729075990379 0.48763557402773638 0 0.08990649575210162 0.46841661314040239 0 0.091310414291689901 0.48426122912715952 0 0.1084729075990379 0.48763557402773638 0 0.08990649575210162 0.46841661314040239 0 0.1084729075990379 0.48763557402773638 0 0.10237984186071999 0.46715047743120658 0 0.08990649575210162 0.46841661314040239 0 0.1084729075990379 0.48763557402773638 0 0.1129216123720677 0.46533076695416448 0 0.10237984186071999 0.46715047743120658 0 0.1084729075990379 0.48763557402773638 0 0.1134338756733799 0.5 0 0.085904328385745077 0.5 0 0.1084729075990379 0.48763557402773638 0 0.091310414291689901 0.48426122912715952 0 0.085904328385745077 0.5 0 0.1084729075990379 0.48763557402773638 0 0.1134338756733799 0.5 0 0.12719864931719721 0.48729971614704243 0 0.1202048383386727 0.47638006739903671 0 0.1129216123720677 0.46533076695416448 0 0.13222618406638811 0.4652542124672035 0 0.1084729075990379 0.48763557402773638 0 0.1202048383386727 0.47638006739903671 0 0.12719864931719721 0.48729971614704243 0 0.1084729075990379 0.48763557402773638 0 0.1202048383386727 0.47638006739903671 0 0.1129216123720677 0.46533076695416448 0 0.11272834775020429 0.4478241033463205 0 0.13222618406638811 0.4652542124672035 0 0.1129216123720677 0.46533076695416448 0 0.10949420693321089 0.45247254536901038 0 0.11272834775020429 0.4478241033463205 0 0.1129216123720677 0.46533076695416448 0 0.11272834775020429 0.4478241033463205 0 0.13222618406638811 0.4652542124672035 0 0.11272834775020429 0.4478241033463205 0 0.091422712121976821 0.43743605126512541 0 0.11272834775020429 0.4478241033463205 0 0.09595939788412175 0.43050842493442371 0 0.11272834775020429 0.4478241033463205 0 0.097388624273410246 0.44421465722546982 0 0.091422712121976821 0.43743605126512541 0 0.11272834775020429 0.4478241033463205 0 0.091422712121976821 0.43743605126512541 0 0.09595939788412175 0.43050842493442371 0 0.11272834775020429 0.4478241033463205 0 0.1058198732782495 0.44908314774640301 0 0.097388624273410246 0.44421465722546982 0 0.1058198732782495 0.44908314774640301 0 0.1036683141561725 0.45182128504481123 0 0.097388624273410246 0.44421465722546982 0 0.10949420693321089 0.45247254536901038 0 0.1058198732782495 0.44908314774640301 0 0.1036683141561725 0.45182128504481123 0 0.10949420693321089 0.45247254536901038 0 0.11272834775020429 0.4478241033463205 0 0.1058198732782495 0.44908314774640301 0 0.1036683141561725 0.45182128504481123 0 0.097388624273410246 0.44421465722546982 0 0.097736765387152175 0.45591160915023021 0 0.097388624273410246 0.44421465722546982 0 0.097736765387152175 0.45591160915023021 0 0.08766458368321324 0.44878402033526671 0 0.1129216123720677 0.46533076695416448 0 0.10237984186071999 0.46715047743120658 0 0.1051828983498255 0.4581488912796598 0 0.10237984186071999 0.46715047743120658 0 0.1051828983498255 0.4581488912796598 0 0.097736765387152175 0.45591160915023021 0 0.1129216123720677 0.46533076695416448 0 0.10949420693321089 0.45247254536901038 0 0.1051828983498255 0.4581488912796598 0 0.10949420693321089 0.45247254536901038 0 0.1036683141561725 0.45182128504481123 0 0.1051828983498255 0.4581488912796598 0 0.1036683141561725 0.45182128504481123 0 0.1051828983498255 0.4581488912796598 0 0.097736765387152175 0.45591160915023021 0 0.10237984186071999 0.46715047743120658 0 0.097736765387152175 0.45591160915023021 0 0.08990649575210162 0.46841661314040239 0 0.08990649575210162 0.46841661314040239 0 0.071340083905165386 0.44919765225306862 0 0.097736765387152175 0.45591160915023021 0 0.08990649575210162 0.46841661314040239 0 0.08766458368321324 0.44878402033526671 0 0.08990649575210162 0.46841661314040239 0 0.08766458368321324 0.44878402033526671 0 0.071340083905165386 0.44919765225306862 0 0.08766458368321324 0.44878402033526671 0 0.080136114051026205 0.44061643075934781 0 0.071340083905165386 0.44919765225306862 0 0.097388624273410246 0.44421465722546982 0 0.08766458368321324 0.44878402033526671 0 0.091422712121976821 0.43743605126512541 0 0.08766458368321324 0.44878402033526671 0 0.080136114051026205 0.44061643075934781 0 0.091422712121976821 0.43743605126512541 0 0.080136114051026205 0.44061643075934781 0 0.071340083905165386 0.44919765225306862 0 0.070117076493749375 0.42704799918393033 0 0.08990649575210162 0.46841661314040239 0 0.071340083905165386 0.44919765225306862 0 0.070576461292731485 0.47537445691867453 0 0.071340083905165386 0.44919765225306862 0 0.070576461292731485 0.47537445691867453 0 0.05173085033902871 0.44956359571918197 0 0.08990649575210162 0.46841661314040239 0 0.070576461292731485 0.47537445691867453 0 0.091310414291689901 0.48426122912715952 0 0.070576461292731485 0.47537445691867453 0 0.091310414291689901 0.48426122912715952 0 0.085904328385745077 0.5 0 0.070576461292731485 0.47537445691867453 0 0.085904328385745077 0.5 0 0.05837478109811034 0.50000000000000089 0 0.05837478109811034 0.50000000000000089 0 0.044554928559133102 0.47568782042857088 0 0.070576461292731485 0.47537445691867453 0 0.05837478109811034 0.50000000000000089 0 0.044554928559133102 0.47568782042857088 0 0.044554928559133102 0.47568782042857088 0 0.036077692553559033 0.5 0 0.017724693604206671 0.47636210552764219 0 0.05837478109811034 0.50000000000000089 0 0.044554928559133102 0.47568782042857088 0 0.036077692553559033 0.5 0 0.017724693604206671 0.47636210552764219 0 0.01378060400900777 0.49999999999999989 0 0.036077692553559033 0.5 0 0.017724693604206671 0.47636210552764219 0 0.01378060400900777 0.49999999999999989 0 0.017724693604206671 0.47636210552764219 0 0.0042800398734946232 0.48034460908393573 0 0.0085698789479514911 0.49394394483569359 0 0.017724693604206671 0.47636210552764219 0 0.0042800398734946232 0.48034460908393573 0 0.0079441603620794797 0.46840965709104421 0 -0.0072630139926338731 0.47223740661718627 0 0.0042800398734946232 0.48034460908393573 0 0.0079441603620794797 0.46840965709104421 0 0.017724693604206671 0.47636210552764219 0 0.01378060400900777 0.49999999999999989 0 0.0085698789479514911 0.49394394483569359 0 -0.0131088143799748 0.5 0 0.01378060400900777 0.49999999999999989 0 0.0085698789479514911 0.49394394483569359 0 0.017724693604206671 0.47636210552764219 0 0.0085698789479514911 0.49394394483569359 0 -0.0063762823958713691 0.48623483505831849 0 0.0042800398734946232 0.48034460908393573 0 0.0085698789479514911 0.49394394483569359 0 0.01153953232589966 0.44441643664097641 0 0.00267830817649002 0.45667541199681111 0 0.020812395388649679 0.45785675285217498 0 -0.0061968686170758847 0.44062192971803532 0 0.01153953232589966 0.44441643664097641 0 0.00267830817649002 0.45667541199681111 0 0.017724693604206671 0.47636210552764219 0 0.0079441603620794797 0.46840965709104421 0 0.020812395388649679 0.45785675285217498 0 0.00267830817649002 0.45667541199681111 0 0.0079441603620794797 0.46840965709104421 0 0.020812395388649679 0.45785675285217498 0 -0.0072630139926338731 0.47223740661718627 0 0.00267830817649002 0.45667541199681111 0 0.0079441603620794797 0.46840965709104421 0 0.017724693604206671 0.47636210552764219 0 0.020812395388649679 0.45785675285217498 0 0.030735076020156481 0.45137564085714049 0 0.017724693604206671 0.47636210552764219 0 0.020812395388649679 0.45785675285217498 0 0.017724693604206671 0.47636210552764219 0 0.030735076020156481 0.45137564085714049 0 0.044554928559133102 0.47568782042857088 0 0.017724693604206671 0.47636210552764219 0 0.030735076020156481 0.45137564085714049 0 0.020812395388649679 0.45785675285217498 0 0.030735076020156481 0.45137564085714049 0 0.027051448683226481 0.44489532501895829 0 0.020812395388649679 0.45785675285217498 0 0.02390009717309265 0.43935140017670771 0 0.027051448683226481 0.44489532501895829 0 0.01153953232589966 0.44441643664097641 0 0.020812395388649679 0.45785675285217498 0 0.02390009717309265 0.43935140017670771 0 0.020812395388649679 0.45785675285217498 0 0.02390009717309265 0.43935140017670771 0 0.030735076020156481 0.45137564085714049 0 0.027051448683226481 0.44489532501895829 0 0.02390009717309265 0.43935140017670771 0 0.027051448683226481 0.44489532501895829 0 0.030735076020156481 0.45137564085714049 0 0.039773258442839562 0.43401779397993773 0 0.030735076020156481 0.45137564085714049 0 0.027051448683226481 0.44489532501895829 0 0.039773258442839562 0.43401779397993773 0 0.030735076020156481 0.45137564085714049 0 0.05173085033902871 0.44956359571918197 0 0.039773258442839562 0.43401779397993773 0 0.044554928559133102 0.47568782042857088 0 0.030735076020156481 0.45137564085714049 0 0.044554928559133102 0.47568782042857088 0 0.030735076020156481 0.45137564085714049 0 0.05173085033902871 0.44956359571918197 0 0.070576461292731485 0.47537445691867453 0 0.044554928559133102 0.47568782042857088 0 0.05173085033902871 0.44956359571918197 0 0.071340083905165386 0.44919765225306862 0 0.0527736720582292 0.42997869136573469 0 0.05173085033902871 0.44956359571918197 0 0.0527736720582292 0.42997869136573469 0 0.039773258442839562 0.43401779397993773 0 0.071340083905165386 0.44919765225306862 0 0.05173085033902871 0.44956359571918197 0 0.0527736720582292 0.42997869136573469 0 0.0527736720582292 0.42997869136573469 0 0.048811440865522242 0.41665994710273468 0 0.070117076493749375 0.42704799918393033 0 0.0527736720582292 0.42997869136573469 0 0.048811440865522242 0.41665994710273468 0 0.039773258442839562 0.43401779397993773 0 0.048811440865522242 0.41665994710273468 0 0.064328598511232613 0.416442401821566 0 0.070117076493749375 0.42704799918393033 0 0.048811440865522242 0.41665994710273468 0 0.070117076493749375 0.42704799918393033 0 0.061132905511688207 0.41062321822267528 0 0.048811440865522242 0.41665994710273468 0 0.054970859546936902 0.4048307715755578 0 0.061132905511688207 0.41062321822267528 0 0.048811440865522242 0.41665994710273468 0 0.064328598511232613 0.416442401821566 0 0.04114380518863324 0.4129214151884083 0 0.045248088629685962 0.4047943878183069 0 0.054970859546936902 0.4048307715755578 0 0.04114380518863324 0.4129214151884083 0 0.054970859546936902 0.4048307715755578 0 0.048811440865522242 0.41665994710273468 0 0.054970859546936902 0.4048307715755578 0 0.048811440865522242 0.41665994710273468 0 0.04114380518863324 0.4129214151884083 0 0.054970859546936902 0.4048307715755578 0 0.04114380518863324 0.4129214151884083 0 0.037184033908347298 0.40278131902570458 0 0.045248088629685962 0.4047943878183069 0 0.048811440865522242 0.41665994710273468 0 0.04114380518863324 0.4129214151884083 0 0.0358751835190394 0.42297236322549842 0 0.048811440865522242 0.41665994710273468 0 0.04114380518863324 0.4129214151884083 0 0.04114380518863324 0.4129214151884083 0 0.0358751835190394 0.42297236322549842 0 0.026921511263224809 0.42124332588073038 0 0.04114380518863324 0.4129214151884083 0 0.026921511263224809 0.42124332588073038 0 0.04114380518863324 0.4129214151884083 0 0.026921511263224809 0.42124332588073038 0 0.029275584057200991 0.40713479134034741 0 0.04114380518863324 0.4129214151884083 0 0.029275584057200991 0.40713479134034741 0 0.04114380518863324 0.4129214151884083 0 0.029275584057200991 0.40713479134034741 0 0.037184033908347298 0.40278131902570458 0 0.048811440865522242 0.41665994710273468 0 0.039773258442839562 0.43401779397993773 0 0.048811440865522242 0.41665994710273468 0 0.039773258442839562 0.43401779397993773 0 0.0358751835190394 0.42297236322549842 0 0.039773258442839562 0.43401779397993773 0 0.0358751835190394 0.42297236322549842 0 0.032382229136952413 0.43119579609549652 0 0.0358751835190394 0.42297236322549842 0 0.032382229136952413 0.43119579609549652 0 0.026626237497921999 0.42301297384034919 0 0.027051448683226481 0.44489532501895829 0 0.039773258442839562 0.43401779397993773 0 0.032382229136952413 0.43119579609549652 0 0.027051448683226481 0.44489532501895829 0 0.032382229136952413 0.43119579609549652 0 0.026626237497921999 0.42301297384034919 0 0.02390009717309265 0.43935140017670771 0 0.016930092288452939 0.42708961880884089 0 0.026626237497921999 0.42301297384034919 0 0.027051448683226481 0.44489532501895829 0 0.026626237497921999 0.42301297384034919 0 0.01153953232589966 0.44441643664097641 0 0.02390009717309265 0.43935140017670771 0 0.016930092288452939 0.42708961880884089 0 0.02390009717309265 0.43935140017670771 0 0.027051448683226481 0.44489532501895829 0 0.026626237497921999 0.42301297384034919 0 0.02390009717309265 0.43935140017670771 0 0.026626237497921999 0.42301297384034919 0 0.02390009717309265 0.43935140017670771 0 0.016930092288452939 0.42708961880884089 0 0.016930092288452939 0.42708961880884089 0 0.026921511263224809 0.42124332588073038 0 0.0358751835190394 0.42297236322549842 0 0.026626237497921999 0.42301297384034919 0 0.026921511263224809 0.42124332588073038 0 0.016930092288452939 0.42708961880884089 0 0.026626237497921999 0.42301297384034919 0 0.026921511263224809 0.42124332588073038 0 0.026626237497921999 0.42301297384034919 0 0.026921511263224809 0.42124332588073038 0 0.026921511263224809 0.42124332588073038 0 0.029275584057200991 0.40713479134034741 0 0.026123801973996452 0.40559806758329647 0 0.026921511263224809 0.42124332588073038 0 0.026123801973996452 0.40559806758329647 0 0.026921511263224809 0.42124332588073038 0 0.018808850420626529 0.41596810785190408 0 0.026123801973996452 0.40559806758329647 0 0.026921511263224809 0.42124332588073038 0 0.029275584057200991 0.40713479134034741 0 0.029275584057200991 0.40713479134034741 0 0.026123801973996452 0.40559806758329647 0 0.018808850420626529 0.41596810785190408 0 0.01373352101082791 0.40913966869976409 0 0.026123801973996452 0.40559806758329647 0 0.016930092288452939 0.42708961880884089 0 0.026921511263224809 0.42124332588073038 0 0.018808850420626529 0.41596810785190408 0 0.016930092288452939 0.42708961880884089 0 0.018808850420626529 0.41596810785190408 0 0.0114568858801441 0.41746103726970968 0 0.018808850420626529 0.41596810785190408 0 0.0114568858801441 0.41746103726970968 0 0.01373352101082791 0.40913966869976409 0 0.0114568858801441 0.41746103726970968 0 0.01373352101082791 0.40913966869976409 0 0.0035782602563921109 0.4120149883411493 0 0.01373352101082791 0.40913966869976409 0 0.0035782602563921109 0.4120149883411493 0 0.012448511273466139 0.39893036545502469 0 0.0114568858801441 0.41746103726970968 0 0.0035782602563921109 0.4120149883411493 0 0.0026267493146783991 0.42351412466293631 0 -0.0061968686170758847 0.44062192971803532 0 0.016930092288452939 0.42708961880884089 0 0.0026267493146783991 0.42351412466293631 0 -0.0061968686170758847 0.44062192971803532 0 0.01153953232589966 0.44441643664097641 0 0.016930092288452939 0.42708961880884089 0 -0.0061968686170758847 0.44062192971803532 0 0.016930092288452939 0.42708961880884089 0 0.016930092288452939 0.42708961880884089 0 0.0114568858801441 0.41746103726970968 0 0.0026267493146783991 0.42351412466293631 0 0.016930092288452939 0.42708961880884089 0 0.0114568858801441 0.41746103726970968 0 0.0049146154486653122 0.37652028813430138 0 0.012448511273466139 0.39893036545502469 0 0.017184330421078638 0.38526595445311018 0 -0.01245310243245489 0.38678901165564461 0 0.0049146154486653122 0.37652028813430138 0 0.012448511273466139 0.39893036545502469 0 0.0049146154486653122 0.37652028813430138 0 0.017184330421078638 0.38526595445311018 0 0.017347316402997168 0.37560544589356643 0 -0.0085007316976855873 0.40343903386619551 0 0.0035782602563921109 0.4120149883411493 0 0.012448511273466139 0.39893036545502469 0 -0.0085007316976855873 0.40343903386619551 0 0.012448511273466139 0.39893036545502469 0 0.012448511273466139 0.39893036545502469 0 0.025848230631324021 0.39604649554762539 0 0.012448511273466139 0.39893036545502469 0 0.025848230631324021 0.39604649554762539 0 0.017184330421078638 0.38526595445311018 0 0.012448511273466139 0.39893036545502469 0 0.026123801973996452 0.40559806758329647 0 0.025848230631324021 0.39604649554762539 0 0.01373352101082791 0.40913966869976409 0 0.012448511273466139 0.39893036545502469 0 0.026123801973996452 0.40559806758329647 0 0.012448511273466139 0.39893036545502469 0 0.026123801973996452 0.40559806758329647 0 0.026123801973996452 0.40559806758329647 0 0.025848230631324021 0.39604649554762539 0 0.029275584057200991 0.40713479134034741 0 0.031322291015134347 0.3948683754996965 0 0.026123801973996452 0.40559806758329647 0 0.025848230631324021 0.39604649554762539 0 0.031322291015134347 0.3948683754996965 0 0.029275584057200991 0.40713479134034741 0 0.026123801973996452 0.40559806758329647 0 0.031322291015134347 0.3948683754996965 0 0.025848230631324021 0.39604649554762539 0 0.031322291015134347 0.3948683754996965 0 0.02536297834893942 0.37922717723502719 0 0.031322291015134347 0.3948683754996965 0 0.035103772170519403 0.37220503321415388 0 0.025848230631324021 0.39604649554762539 0 0.02536297834893942 0.37922717723502719 0 0.025848230631324021 0.39604649554762539 0 0.02536297834893942 0.37922717723502719 0 0.031322291015134347 0.3948683754996965 0 0.025848230631324021 0.39604649554762539 0 0.017184330421078638 0.38526595445311018 0 0.02536297834893942 0.37922717723502719 0 0.017347316402997168 0.37560544589356643 0 0.02536297834893942 0.37922717723502719 0 0.02513243223793175 0.37123622372989318 0 0.017184330421078638 0.38526595445311018 0 0.017347316402997168 0.37560544589356643 0 0.02536297834893942 0.37922717723502719 0 0.02536297834893942 0.37922717723502719 0 0.02513243223793175 0.37123622372989318 0 0.045606129172312118 0.38226693015601948 0 0.031322291015134347 0.3948683754996965 0 0.035103772170519403 0.37220503321415388 0 0.031322291015134347 0.3948683754996965 0 0.035103772170519403 0.37220503321415388 0 0.045606129172312118 0.38226693015601948 0 0.031322291015134347 0.3948683754996965 0 0.043823065208094258 0.39217797538373789 0 0.045606129172312118 0.38226693015601948 0 0.043823065208094258 0.39217797538373789 0 0.045606129172312118 0.38226693015601948 0 0.035103772170519403 0.37220503321415388 0 0.029275584057200991 0.40713479134034741 0 0.037184033908347298 0.40278131902570458 0 0.031322291015134347 0.3948683754996965 0 0.038365955490166637 0.39725809665102491 0 0.031322291015134347 0.3948683754996965 0 0.043823065208094258 0.39217797538373789 0 0.031322291015134347 0.3948683754996965 0 0.043823065208094258 0.39217797538373789 0 0.037184033908347298 0.40278131902570458 0 0.038365955490166637 0.39725809665102491 0 0.031322291015134347 0.3948683754996965 0 0.043823065208094258 0.39217797538373789 0 0.043094158716847041 0.39622955476995719 0 0.043823065208094258 0.39217797538373789 0 0.043094158716847041 0.39622955476995719 0 0.04793494559659154 0.39507334252541071 0 0.043094158716847041 0.39622955476995719 0 0.047571203437570257 0.39983916836324851 0 0.04793494559659154 0.39507334252541071 0 0.038365955490166637 0.39725809665102491 0 0.043094158716847041 0.39622955476995719 0 0.042160704641139773 0.40018168813395311 0 0.038365955490166637 0.39725809665102491 0 0.043823065208094258 0.39217797538373789 0 0.043094158716847041 0.39622955476995719 0 0.037184033908347298 0.40278131902570458 0 0.042160704641139773 0.40018168813395311 0 0.045248088629685962 0.4047943878183069 0 0.037184033908347298 0.40278131902570458 0 0.038365955490166637 0.39725809665102491 0 0.042160704641139773 0.40018168813395311 0 0.043094158716847041 0.39622955476995719 0 0.042160704641139773 0.40018168813395311 0 0.047571203437570257 0.39983916836324851 0 0.042160704641139773 0.40018168813395311 0 0.045248088629685962 0.4047943878183069 0 0.047571203437570257 0.39983916836324851 0 0.045248088629685962 0.4047943878183069 0 0.047571203437570257 0.39983916836324851 0 0.054970859546936902 0.4048307715755578 0 0.047571203437570257 0.39983916836324851 0 0.052480838312504309 0.39707949378338259 0 0.054970859546936902 0.4048307715755578 0 0.043823065208094258 0.39217797538373789 0 0.04793494559659154 0.39507334252541071 0 0.053726356636468658 0.39004660207868158 0 0.043823065208094258 0.39217797538373789 0 0.053726356636468658 0.39004660207868158 0 0.047571203437570257 0.39983916836324851 0 0.052480838312504309 0.39707949378338259 0 0.04793494559659154 0.39507334252541071 0 0.052480838312504309 0.39707949378338259 0 0.04793494559659154 0.39507334252541071 0 0.053726356636468658 0.39004660207868158 0 0.059692611701855233 0.39576263740164402 0 0.063797551346081588 0.38787909285114641 0 0.059692611701855233 0.39576263740164402 0 0.053726356636468658 0.39004660207868158 0 0.063797551346081588 0.38787909285114641 0 0.059692611701855233 0.39576263740164402 0 0.053726356636468658 0.39004660207868158 0 0.052480838312504309 0.39707949378338259 0 0.059692611701855233 0.39576263740164402 0 0.053726356636468658 0.39004660207868158 0 0.052480838312504309 0.39707949378338259 0 0.059692611701855233 0.39576263740164402 0 0.054970859546936902 0.4048307715755578 0 0.061132905511688207 0.41062321822267528 0 0.05972762384176164 0.40204743944548482 0 0.054970859546936902 0.4048307715755578 0 0.059692611701855233 0.39576263740164402 0 0.054970859546936902 0.4048307715755578 0 0.059692611701855233 0.39576263740164402 0 0.05972762384176164 0.40204743944548482 0 0.054970859546936902 0.4048307715755578 0 0.05972762384176164 0.40204743944548482 0 0.054970859546936902 0.4048307715755578 0 0.045606129172312118 0.38226693015601948 0 0.052752550260460288 0.37545191120732552 0 0.055488233008729099 0.38143149112296371 0 0.045606129172312118 0.38226693015601948 0 0.053726356636468658 0.39004660207868158 0 0.055488233008729099 0.38143149112296371 0 0.045606129172312118 0.38226693015601948 0 0.053726356636468658 0.39004660207868158 0 0.045606129172312118 0.38226693015601948 0 0.043823065208094258 0.39217797538373789 0 0.053726356636468658 0.39004660207868158 0 0.053726356636468658 0.39004660207868158 0 0.063797551346081588 0.38787909285114641 0 0.053726356636468658 0.39004660207868158 0 0.055488233008729099 0.38143149112296371 0 0.063797551346081588 0.38787909285114641 0 0.055488233008729099 0.38143149112296371 0 0.063797551346081588 0.38787909285114641 0 0.06148559241416883 0.37254966467414019 0 0.052752550260460288 0.37545191120732552 0 0.055488233008729099 0.38143149112296371 0 0.06148559241416883 0.37254966467414019 0 0.063797551346081588 0.38787909285114641 0 0.077134409260413456 0.36226563135263717 0 0.063797551346081588 0.38787909285114641 0 0.089726458904690859 0.38229870760254059 0 0.063797551346081588 0.38787909285114641 0 0.079438737931724845 0.37547555873497213 0 0.089726458904690859 0.38229870760254059 0 0.063797551346081588 0.38787909285114641 0 0.079438737931724845 0.37547555873497213 0 0.077134409260413456 0.36226563135263717 0 0.063797551346081588 0.38787909285114641 0 0.089726458904690859 0.38229870760254059 0 0.074987254363951289 0.39770049746292868 0 0.079438737931724845 0.37547555873497213 0 0.089726458904690859 0.38229870760254059 0 0.087096532215714173 0.36945880313356738 0 0.089726458904690859 0.38229870760254059 0 0.09180011207716178 0.3998535473585646 0 0.074987254363951289 0.39770049746292868 0 0.09180011207716178 0.3998535473585646 0 0.074987254363951289 0.39770049746292868 0 0.077826004792988623 0.41313553116803381 0 0.059692611701855233 0.39576263740164402 0 0.077826004792988623 0.41313553116803381 0 0.059692611701855233 0.39576263740164402 0 0.05972762384176164 0.40204743944548482 0 0.077826004792988623 0.41313553116803381 0 0.059692611701855233 0.39576263740164402 0 0.074987254363951289 0.39770049746292868 0 0.077826004792988623 0.41313553116803381 0 0.059692611701855233 0.39576263740164402 0 0.063797551346081588 0.38787909285114641 0 0.074987254363951289 0.39770049746292868 0 0.061132905511688207 0.41062321822267528 0 0.05972762384176164 0.40204743944548482 0 0.077826004792988623 0.41313553116803381 0 0.061132905511688207 0.41062321822267528 0 0.064328598511232613 0.416442401821566 0 0.077826004792988623 0.41313553116803381 0 0.064328598511232613 0.416442401821566 0 0.077826004792988623 0.41313553116803381 0 0.070117076493749375 0.42704799918393033 0 0.071340083905165386 0.44919765225306862 0 0.0527736720582292 0.42997869136573469 0 0.070117076493749375 0.42704799918393033 0 0.077826004792988623 0.41313553116803381 0 0.070117076493749375 0.42704799918393033 0 0.083257639952343476 0.42713972097896541 0 0.080136114051026205 0.44061643075934781 0 0.070117076493749375 0.42704799918393033 0 0.091422712121976821 0.43743605126512541 0 0.070117076493749375 0.42704799918393033 0 0.083257639952343476 0.42713972097896541 0 0.091422712121976821 0.43743605126512541 0 0.077826004792988623 0.41313553116803381 0 0.083257639952343476 0.42713972097896541 0 0.09595939788412175 0.43050842493442371 0 0.070117076493749375 0.42704799918393033 0 0.091422712121976821 0.43743605126512541 0 0.083257639952343476 0.42713972097896541 0 0.091422712121976821 0.43743605126512541 0 0.09595939788412175 0.43050842493442371 0 0.077826004792988623 0.41313553116803381 0 0.09595939788412175 0.43050842493442371 0 0.077826004792988623 0.41313553116803381 0 0.1005289988783061 0.41624951023139012 0 0.09595939788412175 0.43050842493442371 0 0.09180011207716178 0.3998535473585646 0 0.077826004792988623 0.41313553116803381 0 0.1005289988783061 0.41624951023139012 0 0.09180011207716178 0.3998535473585646 0 0.1005289988783061 0.41624951023139012 0 0.1066836024710882 0.40312265174990869 0 0.1005289988783061 0.41624951023139012 0 0.1064489845394701 0.43241382939701872 0 0.1153444394675152 0.41173883976996561 0 0.1005289988783061 0.41624951023139012 0 0.1153444394675152 0.41173883976996561 0 0.1066836024710882 0.40312265174990869 0 0.1005289988783061 0.41624951023139012 0 0.1064489845394701 0.43241382939701872 0 0.09595939788412175 0.43050842493442371 0 0.11272834775020429 0.4478241033463205 0 0.1064489845394701 0.43241382939701872 0 0.09595939788412175 0.43050842493442371 0 0.1064489845394701 0.43241382939701872 0 0.12860869473890171 0.4252497729375323 0 0.1064489845394701 0.43241382939701872 0 0.1153444394675152 0.41173883976996561 0 0.12860869473890171 0.4252497729375323 0 0.11272834775020429 0.4478241033463205 0 0.1064489845394701 0.43241382939701872 0 0.12860869473890171 0.4252497729375323 0 0.1153444394675152 0.41173883976996561 0 0.1156171652315857 0.39587110664029052 0 0.13224028612847269 0.39862893056120541 0 0.1153444394675152 0.41173883976996561 0 0.1156171652315857 0.39587110664029052 0 0.1066836024710882 0.40312265174990869 0 0.1156171652315857 0.39587110664029052 0 0.11565536646330089 0.37671832235393821 0 0.13224028612847269 0.39862893056120541 0 0.1156171652315857 0.39587110664029052 0 0.11565536646330089 0.37671832235393821 0 0.10428432199301881 0.39135231456153818 0 0.089726458904690859 0.38229870760254059 0 0.11565536646330089 0.37671832235393821 0 0.10428432199301881 0.39135231456153818 0 0.089726458904690859 0.38229870760254059 0 0.11565536646330089 0.37671832235393821 0 0.089726458904690859 0.38229870760254059 0 0.11565536646330089 0.37671832235393821 0 0.09993345225376897 0.36850664903225477 0 0.09180011207716178 0.3998535473585646 0 0.1066836024710882 0.40312265174990869 0 0.10428432199301881 0.39135231456153818 0 0.089726458904690859 0.38229870760254059 0 0.09180011207716178 0.3998535473585646 0 0.10428432199301881 0.39135231456153818 0 0.1156171652315857 0.39587110664029052 0 0.1066836024710882 0.40312265174990869 0 0.10428432199301881 0.39135231456153818 0 0.1123059066110586 0.35103016884712118 0 0.090975094442034471 0.35642622971146959 0 0.1123059066110586 0.35103016884712118 0 0.091881590117386239 0.3392333036544512 0 0.090975094442034471 0.35642622971146959 0 0.09993345225376897 0.36850664903225477 0 0.1123059066110586 0.35103016884712118 0 0.090975094442034471 0.35642622971146959 0 0.11565536646330089 0.37671832235393821 0 0.09993345225376897 0.36850664903225477 0 0.1123059066110586 0.35103016884712118 0 0.11565536646330089 0.37671832235393821 0 0.1123059066110586 0.35103016884712118 0 0.12736296513087361 0.36129085835453217 0 0.1123059066110586 0.35103016884712118 0 0.10784476722404369 0.33161945253693981 0 0.12610210318896031 0.33094968501571548 0 0.1126590493317618 0.31639201671847328 0 0.10784476722404369 0.33161945253693981 0 0.12610210318896031 0.33094968501571548 0 0.1126590493317618 0.31639201671847328 0 0.13431802507833049 0.31488974235985162 0 0.12610210318896031 0.33094968501571548 0 0.1126590493317618 0.31639201671847328 0 0.10784476722404369 0.33161945253693981 0 0.092980025491079712 0.32046339512549249 0 0.1126590493317618 0.31639201671847328 0 0.092980025491079712 0.32046339512549249 0 0.1012728976582518 0.30257962561352453 0 0.10784476722404369 0.33161945253693981 0 0.091881590117386239 0.3392333036544512 0 0.092980025491079712 0.32046339512549249 0 0.1123059066110586 0.35103016884712118 0 0.10784476722404369 0.33161945253693981 0 0.091881590117386239 0.3392333036544512 0 0.091881590117386239 0.3392333036544512 0 0.084136969237958006 0.32951957695613471 0 0.092980025491079712 0.32046339512549249 0 0.091881590117386239 0.3392333036544512 0 0.075273557776718014 0.33675464174541692 0 0.079172371141125936 0.34822431646527607 0 0.091881590117386239 0.3392333036544512 0 0.084136969237958006 0.32951957695613471 0 0.075273557776718014 0.33675464174541692 0 0.084136969237958006 0.32951957695613471 0 0.076739188457008833 0.32068398103103368 0 0.075273557776718014 0.33675464174541692 0 0.092980025491079712 0.32046339512549249 0 0.076739188457008833 0.32068398103103368 0 0.080256435549392713 0.30191436937611732 0 0.084136969237958006 0.32951957695613471 0 0.092980025491079712 0.32046339512549249 0 0.076739188457008833 0.32068398103103368 0 0.076739188457008833 0.32068398103103368 0 0.06655250916496 0.32439268237003982 0 0.075273557776718014 0.33675464174541692 0 0.076739188457008833 0.32068398103103368 0 0.06655250916496 0.32439268237003982 0 0.068102077894784549 0.31263177956792559 0 0.06655250916496 0.32439268237003982 0 0.068102077894784549 0.31263177956792559 0 0.056800384459310072 0.32004438925588141 0 0.06655250916496 0.32439268237003982 0 0.075273557776718014 0.33675464174541692 0 0.063538113838228924 0.33476051040458671 0 0.075273557776718014 0.33675464174541692 0 0.063538113838228924 0.33476051040458671 0 0.066451560156983294 0.34774509566704648 0 0.066451560156983294 0.34774509566704648 0 0.069644282273010394 0.36182229057581811 0 0.05876158816945927 0.35581211912620919 0 0.066451560156983294 0.34774509566704648 0 0.079172371141125936 0.34822431646527607 0 0.069644282273010394 0.36182229057581811 0 0.075273557776718014 0.33675464174541692 0 0.066451560156983294 0.34774509566704648 0 0.079172371141125936 0.34822431646527607 0 0.090975094442034471 0.35642622971146959 0 0.069644282273010394 0.36182229057581811 0 0.091881590117386239 0.3392333036544512 0 0.079172371141125936 0.34822431646527607 0 0.090975094442034471 0.35642622971146959 0 0.079172371141125936 0.34822431646527607 0 0.090975094442034471 0.35642622971146959 0 0.069644282273010394 0.36182229057581811 0 0.090975094442034471 0.35642622971146959 0 0.077134409260413456 0.36226563135263717 0 0.069644282273010394 0.36182229057581811 0 0.089726458904690859 0.38229870760254059 0 0.09993345225376897 0.36850664903225477 0 0.087096532215714173 0.36945880313356738 0 0.09993345225376897 0.36850664903225477 0 0.090975094442034471 0.35642622971146959 0 0.087096532215714173 0.36945880313356738 0 0.090975094442034471 0.35642622971146959 0 0.087096532215714173 0.36945880313356738 0 0.077134409260413456 0.36226563135263717 0 0.079438737931724845 0.37547555873497213 0 0.087096532215714173 0.36945880313356738 0 0.077134409260413456 0.36226563135263717 0 0.077134409260413456 0.36226563135263717 0 0.069644282273010394 0.36182229057581811 0 0.06148559241416883 0.37254966467414019 0 0.063797551346081588 0.38787909285114641 0 0.077134409260413456 0.36226563135263717 0 0.06148559241416883 0.37254966467414019 0 0.069644282273010394 0.36182229057581811 0 0.06148559241416883 0.37254966467414019 0 0.048313470103985873 0.36721835144016512 0 0.069644282273010394 0.36182229057581811 0 0.048313470103985873 0.36721835144016512 0 0.069644282273010394 0.36182229057581811 0 0.048313470103985873 0.36721835144016512 0 0.05876158816945927 0.35581211912620919 0 0.045606129172312118 0.38226693015601948 0 0.048313470103985873 0.36721835144016512 0 0.052752550260460288 0.37545191120732552 0 0.06148559241416883 0.37254966467414019 0 0.048313470103985873 0.36721835144016512 0 0.045606129172312118 0.38226693015601948 0 0.052752550260460288 0.37545191120732552 0 0.048313470103985873 0.36721835144016512 0 0.048313470103985873 0.36721835144016512 0 0.052556927281647681 0.34363137034802321 0 0.048313470103985873 0.36721835144016512 0 0.05876158816945927 0.35581211912620919 0 0.052556927281647681 0.34363137034802321 0 0.066451560156983294 0.34774509566704648 0 0.05876158816945927 0.35581211912620919 0 0.052556927281647681 0.34363137034802321 0 0.048313470103985873 0.36721835144016512 0 0.039154684291203681 0.34792692519615231 0 0.052556927281647681 0.34363137034802321 0 0.039154684291203681 0.34792692519615231 0 0.035103772170519403 0.37220503321415388 0 0.039154684291203681 0.34792692519615231 0 0.035103772170519403 0.37220503321415388 0 0.02487772606655805 0.36240785892242899 0 0.039154684291203681 0.34792692519615231 0 0.035103772170519403 0.37220503321415388 0 0.037992654999058739 0.36982921060645513 0 0.048313470103985873 0.36721835144016512 0 0.039154684291203681 0.34792692519615231 0 0.037992654999058739 0.36982921060645513 0 0.048313470103985873 0.36721835144016512 0 0.037992654999058739 0.36982921060645513 0 0.045606129172312118 0.38226693015601948 0 0.035103772170519403 0.37220503321415388 0 0.037992654999058739 0.36982921060645513 0 0.045606129172312118 0.38226693015601948 0 0.048313470103985873 0.36721835144016512 0 0.037992654999058739 0.36982921060645513 0 0.02536297834893942 0.37922717723502719 0 0.035103772170519403 0.37220503321415388 0 0.02513243223793175 0.37123622372989318 0 0.035103772170519403 0.37220503321415388 0 0.02487772606655805 0.36240785892242899 0 0.035103772170519403 0.37220503321415388 0 0.02513243223793175 0.37123622372989318 0 0.02487772606655805 0.36240785892242899 0 0.017347316402997168 0.37560544589356643 0 0.02513243223793175 0.37123622372989318 0 0.01353638326544104 0.36767798962043419 0 0.02513243223793175 0.37123622372989318 0 0.019557437901885261 0.35731069918918462 0 0.02513243223793175 0.37123622372989318 0 0.02487772606655805 0.36240785892242899 0 0.019557437901885261 0.35731069918918462 0 0.02513243223793175 0.37123622372989318 0 0.019557437901885261 0.35731069918918462 0 0.01353638326544104 0.36767798962043419 0 0.02487772606655805 0.36240785892242899 0 0.019557437901885261 0.35731069918918462 0 0.02513243223793175 0.37123622372989318 0 0.02487772606655805 0.36240785892242899 0 0.02487772606655805 0.36240785892242899 0 0.024181941178332039 0.3382912747504126 0 0.039154684291203681 0.34792692519615231 0 0.02487772606655805 0.36240785892242899 0 0.024181941178332039 0.3382912747504126 0 0.02487772606655805 0.36240785892242899 0 0.019557437901885261 0.35731069918918462 0 0.024181941178332039 0.3382912747504126 0 0.019557437901885261 0.35731069918918462 0 0.01026343814702921 0.33345220086411181 0 0.019557437901885261 0.35731069918918462 0 0.00070230099522694545 0.33924633093864048 0 0.019557437901885261 0.35731069918918462 0 0.0027322885737161859 0.35924298728223708 0 0.00070230099522694545 0.33924633093864048 0 0.0049146154486653122 0.37652028813430138 0 0.0027322885737161859 0.35924298728223708 0 0.01353638326544104 0.36767798962043419 0 0.019557437901885261 0.35731069918918462 0 0.0027322885737161859 0.35924298728223708 0 0.01353638326544104 0.36767798962043419 0 0.0049146154486653122 0.37652028813430138 0 0.017347316402997168 0.37560544589356643 0 0.01353638326544104 0.36767798962043419 0 0.01026343814702921 0.33345220086411181 0 0.00096943839217269144 0.30959370253903917 0 0.012384111296469529 0.31550752885868277 0 0.01026343814702921 0.33345220086411181 0 0.023486156290092739 0.31417469057839659 0 -0.0017605313984799041 0.32439662603566699 0 0.01026343814702921 0.33345220086411181 0 0.00096943839217269144 0.30959370253903917 0 0.012384111296469529 0.31550752885868277 0 0.01026343814702921 0.33345220086411181 0 0.00096943839217269144 0.30959370253903917 0 -0.0017605313984799041 0.32439662603566699 0 0.00070230099522694545 0.33924633093864048 0 0.01026343814702921 0.33345220086411181 0 0.019557437901885261 0.35731069918918462 0 0.00070230099522694545 0.33924633093864048 0 0.01026343814702921 0.33345220086411181 0 0.019557437901885261 0.35731069918918462 0 0.01026343814702921 0.33345220086411181 0 0.024181941178332039 0.3382912747504126 0 0.01026343814702921 0.33345220086411181 0 0.024181941178332039 0.3382912747504126 0 0.023486156290092739 0.31417469057839659 0 0.024181941178332039 0.3382912747504126 0 0.033625642698963648 0.32595048647572961 0 0.035404597018464531 0.33632102850813189 0 0.024181941178332039 0.3382912747504126 0 0.023486156290092739 0.31417469057839659 0 0.033625642698963648 0.32595048647572961 0 0.024181941178332039 0.3382912747504126 0 0.023486156290092739 0.31417469057839659 0 0.023486156290092739 0.31417469057839659 0 0.032083646655616603 0.31719364373728692 0 0.028764672159495411 0.31083922972572442 0 0.023486156290092739 0.31417469057839659 0 0.032083646655616603 0.31719364373728692 0 0.033625642698963648 0.32595048647572961 0 0.035652434962868539 0.31395097609346301 0 0.032083646655616603 0.31719364373728692 0 0.028764672159495411 0.31083922972572442 0 0.047639257644014749 0.31667672110599138 0 0.048153760006736851 0.32043574612437042 0 0.027544814383389252 0.30104980449780577 0 0.035652434962868539 0.31395097609346301 0 0.032083646655616603 0.31719364373728692 0 0.038889327166662623 0.32105283581312077 0 0.032083646655616603 0.31719364373728692 0 0.033625642698963648 0.32595048647572961 0 0.038889327166662623 0.32105283581312077 0 0.033625642698963648 0.32595048647572961 0 0.038889327166662623 0.32105283581312077 0 0.044104489364711411 0.32614101664970829 0 0.038889327166662623 0.32105283581312077 0 0.044104489364711411 0.32614101664970829 0 0.048153760006736851 0.32043574612437042 0 0.035652434962868539 0.31395097609346301 0 0.038889327166662623 0.32105283581312077 0 0.048153760006736851 0.32043574612437042 0 0.039154684291203681 0.34792692519615231 0 0.024181941178332039 0.3382912747504126 0 0.035404597018464531 0.33632102850813189 0 0.033625642698963648 0.32595048647572961 0 0.035404597018464531 0.33632102850813189 0 0.044656119905358747 0.33311542761023311 0 0.033625642698963648 0.32595048647572961 0 0.044104489364711411 0.32614101664970829 0 0.044656119905358747 0.33311542761023311 0 0.039154684291203681 0.34792692519615231 0 0.044656119905358747 0.33311542761023311 0 0.052556927281647681 0.34363137034802321 0 0.039154684291203681 0.34792692519615231 0 0.035404597018464531 0.33632102850813189 0 0.044656119905358747 0.33311542761023311 0 0.052556927281647681 0.34363137034802321 0 0.056800384459310072 0.32004438925588141 0 0.063538113838228924 0.33476051040458671 0 0.052556927281647681 0.34363137034802321 0 0.056800384459310072 0.32004438925588141 0 0.044656119905358747 0.33311542761023311 0 0.052556927281647681 0.34363137034802321 0 0.056800384459310072 0.32004438925588141 0 0.063538113838228924 0.33476051040458671 0 0.066451560156983294 0.34774509566704648 0 0.052556927281647681 0.34363137034802321 0 0.047639257644014749 0.31667672110599138 0 0.048153760006736851 0.32043574612437042 0 0.056800384459310072 0.32004438925588141 0 0.044104489364711411 0.32614101664970829 0 0.048153760006736851 0.32043574612437042 0 0.056800384459310072 0.32004438925588141 0 0.044104489364711411 0.32614101664970829 0 0.044656119905358747 0.33311542761023311 0 0.056800384459310072 0.32004438925588141 0 0.06655250916496 0.32439268237003982 0 0.063538113838228924 0.33476051040458671 0 0.056800384459310072 0.32004438925588141 0 0.068102077894784549 0.31263177956792559 0 0.056800384459310072 0.32004438925588141 0 0.061043841636972448 0.29645740816373978 0 0.047639257644014749 0.31667672110599138 0 0.061043841636972448 0.29645740816373978 0 0.045768071140240278 0.30088319629588212 0 0.047639257644014749 0.31667672110599138 0 0.056800384459310072 0.32004438925588141 0 0.061043841636972448 0.29645740816373978 0 0.056800384459310072 0.32004438925588141 0 0.061043841636972448 0.29645740816373978 0 0.061043841636972448 0.29645740816373978 0 0.042567384337148517 0.28720052910230348 0 0.045768071140240278 0.30088319629588212 0 0.061043841636972448 0.29645740816373978 0 0.051590492117951019 0.2766672291391169 0 0.065287298814634825 0.27287042707159809 0 0.061043841636972448 0.29645740816373978 0 0.042567384337148517 0.28720052910230348 0 0.051590492117951019 0.2766672291391169 0 0.042567384337148517 0.28720052910230348 0 0.030483676923258769 0.29648728247969558 0 0.030029174484124239 0.27950207718971998 0 0.042567384337148517 0.28720052910230348 0 0.045768071140240278 0.30088319629588212 0 0.030483676923258769 0.29648728247969558 0 0.047639257644014749 0.31667672110599138 0 0.030483676923258769 0.29648728247969558 0 0.048153760006736851 0.32043574612437042 0 0.027544814383389252 0.30104980449780577 0 0.047639257644014749 0.31667672110599138 0 0.045768071140240278 0.30088319629588212 0 0.030483676923258769 0.29648728247969558 0 0.047639257644014749 0.31667672110599138 0 0.027544814383389252 0.30104980449780577 0 0.030483676923258769 0.29648728247969558 0 0.035652434962868539 0.31395097609346301 0 0.048153760006736851 0.32043574612437042 0 0.027544814383389252 0.30104980449780577 0 0.028764672159495411 0.31083922972572442 0 0.024322493451172301 0.30682300331515883 0 0.027544814383389252 0.30104980449780577 0 0.01814203227209878 0.30533212679856919 0 0.027544814383389252 0.30104980449780577 0 0.0090535184890037021 0.29667494018412438 0 0.035652434962868539 0.31395097609346301 0 0.028764672159495411 0.31083922972572442 0 0.027544814383389252 0.30104980449780577 0 0.023486156290092739 0.31417469057839659 0 0.028764672159495411 0.31083922972572442 0 0.024322493451172301 0.30682300331515883 0 0.012384111296469529 0.31550752885868277 0 0.023486156290092739 0.31417469057839659 0 0.01814203227209878 0.30533212679856919 0 0.023486156290092739 0.31417469057839659 0 0.024322493451172301 0.30682300331515883 0 0.01814203227209878 0.30533212679856919 0 0.024322493451172301 0.30682300331515883 0 0.01814203227209878 0.30533212679856919 0 0.027544814383389252 0.30104980449780577 0 0.030483676923258769 0.29648728247969558 0 0.006935868760041649 0.28166386287124129 0 0.0133280962025028 0.27629784385339978 0 0.027544814383389252 0.30104980449780577 0 0.030483676923258769 0.29648728247969558 0 0.006935868760041649 0.28166386287124129 0 0.030483676923258769 0.29648728247969558 0 0.0133280962025028 0.27629784385339978 0 0.027544814383389252 0.30104980449780577 0 0.006935868760041649 0.28166386287124129 0 0.030483676923258769 0.29648728247969558 0 0.0133280962025028 0.27629784385339978 0 0.030029174484124239 0.27950207718971998 0 -0.0083245613626838667 0.28573520421396642 0 0.0090535184890037021 0.29667494018412438 0 0.006935868760041649 0.28166386287124129 0 0.027544814383389252 0.30104980449780577 0 0.0090535184890037021 0.29667494018412438 0 0.006935868760041649 0.28166386287124129 0 0.01814203227209878 0.30533212679856919 0 0.0090535184890037021 0.29667494018412438 0 0.00096943839217269144 0.30959370253903917 0 0.012384111296469529 0.31550752885868277 0 0.01814203227209878 0.30533212679856919 0 0.00096943839217269144 0.30959370253903917 0 -0.0083245613626838667 0.28573520421396642 0 0.0090535184890037021 0.29667494018412438 0 0.00096943839217269144 0.30959370253903917 0 -0.0038274845182531859 0.25610840522710399 0 0.01293595757763741 0.25879488432237191 0 0.0133280962025028 0.27629784385339978 0 -0.0038274845182531859 0.25610840522710399 0 0.0093634889625269589 0.2496617538446762 0 0.01293595757763741 0.25879488432237191 0 0.02422070608731507 0.2431816170710068 0 0.0093634889625269589 0.2496617538446762 0 0.01293595757763741 0.25879488432237191 0 -0.0038274845182531859 0.25610840522710399 0 0.0024176515686851661 0.26939382453048488 0 0.0133280962025028 0.27629784385339978 0 -0.0038274845182531859 0.25610840522710399 0 0.0133280962025028 0.27629784385339978 0 -0.0039651939046341919 0.26537462149238011 0 0.006935868760041649 0.28166386287124129 0 0.0024176515686851661 0.26939382453048488 0 0.006935868760041649 0.28166386287124129 0 0.0024176515686851661 0.26939382453048488 0 0.0133280962025028 0.27629784385339978 0 0.0133280962025028 0.27629784385339978 0 0.030029174484124239 0.27950207718971998 0 0.025003242141953201 0.26708110836332261 0 0.01293595757763741 0.25879488432237191 0 0.0133280962025028 0.27629784385339978 0 0.025003242141953201 0.26708110836332261 0 0.02422070608731507 0.2431816170710068 0 0.01293595757763741 0.25879488432237191 0 0.025003242141953201 0.26708110836332261 0 0.02422070608731507 0.2431816170710068 0 0.025003242141953201 0.26708110836332261 0 0.035575731358766148 0.25586930913125799 0 0.025003242141953201 0.26708110836332261 0 0.035575731358766148 0.25586930913125799 0 0.038763472815757899 0.27044362214987849 0 0.035575731358766148 0.25586930913125799 0 0.038763472815757899 0.27044362214987849 0 0.050290462985241403 0.25636415920806449 0 0.039600772763563233 0.24227603886401769 0 0.035575731358766148 0.25586930913125799 0 0.050290462985241403 0.25636415920806449 0 0.042567384337148517 0.28720052910230348 0 0.030029174484124239 0.27950207718971998 0 0.038763472815757899 0.27044362214987849 0 0.042567384337148517 0.28720052910230348 0 0.038763472815757899 0.27044362214987849 0 0.051590492117951019 0.2766672291391169 0 0.030029174484124239 0.27950207718971998 0 0.025003242141953201 0.26708110836332261 0 0.038763472815757899 0.27044362214987849 0 0.051590492117951019 0.2766672291391169 0 0.050290462985241403 0.25636415920806449 0 0.065287298814634825 0.27287042707159809 0 0.038763472815757899 0.27044362214987849 0 0.051590492117951019 0.2766672291391169 0 0.050290462985241403 0.25636415920806449 0 0.070280233186512081 0.2435850559551149 0 0.050290462985241403 0.25636415920806449 0 0.065287298814634825 0.27287042707159809 0 0.070280233186512081 0.2435850559551149 0 0.084223624832251223 0.26337459169910332 0 0.065287298814634825 0.27287042707159809 0 0.084223624832251223 0.26337459169910332 0 0.077493958462877932 0.28405823299570532 0 0.093156399861118913 0.28315738106951438 0 0.084223624832251223 0.26337459169910332 0 0.065287298814634825 0.27287042707159809 0 0.077493958462877932 0.28405823299570532 0 0.061043841636972448 0.29645740816373978 0 0.077493958462877932 0.28405823299570532 0 0.080256435549392713 0.30191436937611732 0 0.061043841636972448 0.29645740816373978 0 0.065287298814634825 0.27287042707159809 0 0.061043841636972448 0.29645740816373978 0 0.065287298814634825 0.27287042707159809 0 0.077493958462877932 0.28405823299570532 0 0.068102077894784549 0.31263177956792559 0 0.061043841636972448 0.29645740816373978 0 0.080256435549392713 0.30191436937611732 0 0.076739188457008833 0.32068398103103368 0 0.068102077894784549 0.31263177956792559 0 0.080256435549392713 0.30191436937611732 0 0.092980025491079712 0.32046339512549249 0 0.080256435549392713 0.30191436937611732 0 0.1012728976582518 0.30257962561352453 0 0.077493958462877932 0.28405823299570532 0 0.080256435549392713 0.30191436937611732 0 0.093156399861118913 0.28315738106951438 0 0.080256435549392713 0.30191436937611732 0 0.093156399861118913 0.28315738106951438 0 0.1012728976582518 0.30257962561352453 0 0.093156399861118913 0.28315738106951438 0 0.1012728976582518 0.30257962561352453 0 0.11116979151437049 0.28655815703448451 0 0.1012728976582518 0.30257962561352453 0 0.1238218798145725 0.30193069164933672 0 0.11116979151437049 0.28655815703448451 0 0.1126590493317618 0.31639201671847328 0 0.1238218798145725 0.30193069164933672 0 0.13431802507833049 0.31488974235985162 0 0.1126590493317618 0.31639201671847328 0 0.1012728976582518 0.30257962561352453 0 0.1238218798145725 0.30193069164933672 0 0.1238218798145725 0.30193069164933672 0 0.11116979151437049 0.28655815703448451 0 0.12674256385385199 0.27708187062289408 0 0.11116979151437049 0.28655815703448451 0 0.105377472720574 0.25878557269549579 0 0.12674256385385199 0.27708187062289408 0 0.105377472720574 0.25878557269549579 0 0.1324145398262134 0.2527133870789714 0 0.12674256385385199 0.27708187062289408 0 0.105377472720574 0.25878557269549579 0 0.1324145398262134 0.2527133870789714 0 0.093016762693618998 0.237266507990847 0 0.084223624832251223 0.26337459169910332 0 0.105377472720574 0.25878557269549579 0 0.093156399861118913 0.28315738106951438 0 0.11116979151437049 0.28655815703448451 0 0.105377472720574 0.25878557269549579 0 0.084223624832251223 0.26337459169910332 0 0.093156399861118913 0.28315738106951438 0 0.105377472720574 0.25878557269549579 0 0.1516366170573071 0.27958794659241809 0 0.15554411199458121 0.26311457402743338 0 0.14021209059891651 0.26817792482970709 0 0.1516366170573071 0.27958794659241809 0 0.14021209059891651 0.26817792482970709 0 0.1381340807084494 0.28881979259416229 0 0.1516366170573071 0.27958794659241809 0 0.15554411199458121 0.26311457402743338 0 0.15945160693185301 0.24664120146244811 0 0.15554411199458121 0.26311457402743338 0 0.1324145398262134 0.2527133870789714 0 0.15554411199458121 0.26311457402743338 0 0.1324145398262134 0.2527133870789714 0 0.14021209059891651 0.26817792482970709 0 0.12674256385385199 0.27708187062289408 0 0.14021209059891651 0.26817792482970709 0 0.1381340807084494 0.28881979259416229 0 0.1324145398262134 0.2527133870789714 0 0.12674256385385199 0.27708187062289408 0 0.14021209059891651 0.26817792482970709 0 0.1238218798145725 0.30193069164933672 0 0.12674256385385199 0.27708187062289408 0 0.1381340807084494 0.28881979259416229 0 0.1238218798145725 0.30193069164933672 0 0.1381340807084494 0.28881979259416229 0 0.14657540001092681 0.30263078790907161 0 0.1238218798145725 0.30193069164933672 0 0.14657540001092681 0.30263078790907161 0 0.13431802507833049 0.31488974235985162 0 0.1516366170573071 0.27958794659241809 0 0.1381340807084494 0.28881979259416229 0 0.14657540001092681 0.30263078790907161 0 0.1516366170573071 0.27958794659241809 0 0.14657540001092681 0.30263078790907161 0 0.16486856258071231 0.29640496281775108 0 0.1516366170573071 0.27958794659241809 0 0.16486856258071231 0.29640496281775108 0 0.16929356489312969 0.28003708216597439 0 0.16486856258071231 0.29640496281775108 0 0.1811090941868414 0.29287583705583031 0 0.16929356489312969 0.28003708216597439 0 0.16486856258071231 0.29640496281775108 0 0.18185490136390739 0.3111911792135818 0 0.16309898118386029 0.3130019245886948 0 0.14657540001092681 0.30263078790907161 0 0.16486856258071231 0.29640496281775108 0 0.16309898118386029 0.3130019245886948 0 0.16486856258071231 0.29640496281775108 0 0.18185490136390739 0.3111911792135818 0 0.1811090941868414 0.29287583705583031 0 0.18185490136390739 0.3111911792135818 0 0.1811090941868414 0.29287583705583031 0 0.19670631492968271 0.29979899017498679 0 0.1811090941868414 0.29287583705583031 0 0.16929356489312969 0.28003708216597439 0 0.19282212716677491 0.27694697090685738 0 0.16929356489312969 0.28003708216597439 0 0.1711212664252193 0.26425175049195321 0 0.18548460593871119 0.26359275304400381 0 0.16929356489312969 0.28003708216597439 0 0.18548460593871119 0.26359275304400381 0 0.19282212716677491 0.27694697090685738 0 0.16929356489312969 0.28003708216597439 0 0.19282212716677491 0.27694697090685738 0 0.1516366170573071 0.27958794659241809 0 0.15554411199458121 0.26311457402743338 0 0.16929356489312969 0.28003708216597439 0 0.15554411199458121 0.26311457402743338 0 0.16929356489312969 0.28003708216597439 0 0.1711212664252193 0.26425175049195321 0 0.15945160693185301 0.24664120146244811 0 0.15554411199458121 0.26311457402743338 0 0.16879582847519559 0.25412737389965251 0 0.15945160693185301 0.24664120146244811 0 0.15554411199458121 0.26311457402743338 0 0.15554411199458121 0.26311457402743338 0 0.1711212664252193 0.26425175049195321 0 0.16879582847519559 0.25412737389965251 0 0.1711212664252193 0.26425175049195321 0 0.16879582847519559 0.25412737389965251 0 0.17938803553126451 0.25426035985250911 0 0.17847412149305961 0.24236898366391749 0 0.16879582847519559 0.25412737389965251 0 0.17938803553126451 0.25426035985250911 0 0.1711212664252193 0.26425175049195321 0 0.17938803553126451 0.25426035985250911 0 0.18548460593871119 0.26359275304400381 0 0.17938803553126451 0.25426035985250911 0 0.18548460593871119 0.26359275304400381 0 0.1889178768957207 0.25180915899523382 0 0.19315560088370559 0.2455780134038858 0 0.1889178768957207 0.25180915899523382 0 0.2031459489011653 0.25341004694603592 0 0.18548460593871119 0.26359275304400381 0 0.1889178768957207 0.25180915899523382 0 0.2031459489011653 0.25341004694603592 0 0.18548460593871119 0.26359275304400381 0 0.19282212716677491 0.27694697090685738 0 0.2031459489011653 0.25341004694603592 0 0.19282212716677491 0.27694697090685738 0 0.21635068944041999 0.27385685964774042 0 0.19282212716677491 0.27694697090685738 0 0.21635068944041999 0.27385685964774042 0 0.2031459489011653 0.25341004694603592 0 0.19282212716677491 0.27694697090685738 0 0.21635068944041999 0.27385685964774042 0 0.20966909690659369 0.28920610348199521 0 0.21635068944041999 0.27385685964774042 0 0.2031459489011653 0.25341004694603592 0 0.21707736017569129 0.25515200732638998 0 0.21124374889375841 0.24614057904070669 0 0.2031459489011653 0.25341004694603592 0 0.21707736017569129 0.25515200732638998 0 0.21635068944041999 0.27385685964774042 0 0.21707736017569129 0.25515200732638998 0 0.22999521650868929 0.25781161715454021 0 0.22249554373942421 0.2451888046152492 0 0.21707736017569129 0.25515200732638998 0 0.22999521650868929 0.25781161715454021 0 0.21635068944041999 0.27385685964774042 0 0.2398792517140651 0.27076674838862352 0 0.2396502534162061 0.28162168484326061 0 0.21635068944041999 0.27385685964774042 0 0.22999521650868929 0.25781161715454021 0 0.2398792517140651 0.27076674838862352 0 0.21635068944041999 0.27385685964774042 0 0.2398792517140651 0.27076674838862352 0 0.2398792517140651 0.27076674838862352 0 0.25658548118012198 0.26857264459383778 0 0.2398792517140651 0.27076674838862352 0 0.2396502534162061 0.28162168484326061 0 0.2398792517140651 0.27076674838862352 0 0.2396502534162061 0.28162168484326061 0 0.25379398063890612 0.2819538714848881 0 0.24042077141466489 0.2450977281648864 0 0.22999521650868929 0.25781161715454021 0 0.2398792517140651 0.27076674838862352 0 0.24042077141466489 0.2450977281648864 0 0.2398792517140651 0.27076674838862352 0 0.24042077141466489 0.2450977281648864 0 0.2398792517140651 0.27076674838862352 0 0.25658548118012198 0.26857264459383778 0 0.23875552059484581 0.30321263314572899 0 0.2461413102973915 0.29166396738641759 0 0.25355095781732401 0.31025849895018209 0 0.23875552059484581 0.30321263314572899 0 0.2409591188778441 0.32224351719063687 0 0.25355095781732401 0.31025849895018209 0 0.23875552059484581 0.30321263314572899 0 0.2461413102973915 0.29166396738641759 0 0.22954139808155741 0.2919737853772123 0 0.2461413102973915 0.29166396738641759 0 0.2396502534162061 0.28162168484326061 0 0.22954139808155741 0.2919737853772123 0 0.2461413102973915 0.29166396738641759 0 0.2396502534162061 0.28162168484326061 0 0.25379398063890612 0.2819538714848881 0 0.22954139808155741 0.2919737853772123 0 0.21971671813908131 0.30259596056263521 0 0.20966909690659369 0.28920610348199521 0 0.21635068944041999 0.27385685964774042 0 0.2396502534162061 0.28162168484326061 0 0.22954139808155741 0.2919737853772123 0 0.23875552059484581 0.30321263314572899 0 0.21971671813908131 0.30259596056263521 0 0.2298834277550944 0.3128845656882151 0 0.23875552059484581 0.30321263314572899 0 0.22954139808155741 0.2919737853772123 0 0.21971671813908131 0.30259596056263521 0 0.21971671813908131 0.30259596056263521 0 0.20966909690659369 0.28920610348199521 0 0.19670631492968271 0.29979899017498679 0 0.21971671813908131 0.30259596056263521 0 0.19670631492968271 0.29979899017498679 0 0.20402235828119539 0.31469250852507552 0 0.21635068944041999 0.27385685964774042 0 0.22954139808155741 0.2919737853772123 0 0.20966909690659369 0.28920610348199521 0 0.19282212716677491 0.27694697090685738 0 0.20966909690659369 0.28920610348199521 0 0.19670631492968271 0.29979899017498679 0 0.1811090941868414 0.29287583705583031 0 0.19282212716677491 0.27694697090685738 0 0.19670631492968271 0.29979899017498679 0 0.18185490136390739 0.3111911792135818 0 0.19670631492968271 0.29979899017498679 0 0.20402235828119539 0.31469250852507552 0 0.18185490136390739 0.3111911792135818 0 0.19624984355574321 0.33065879870547632 0 0.20402235828119539 0.31469250852507552 0 0.19624984355574321 0.33065879870547632 0 0.21205198304408249 0.34260956705965501 0 0.19586250414956111 0.35502506699000858 0 0.19624984355574321 0.33065879870547632 0 0.19586250414956111 0.35502506699000858 0 0.18143423011197379 0.34550546049797298 0 0.19624984355574321 0.33065879870547632 0 0.19586250414956111 0.35502506699000858 0 0.19624984355574321 0.33065879870547632 0 0.21205198304408249 0.34260956705965501 0 0.22010235340860651 0.32348615185385932 0 0.21971671813908131 0.30259596056263521 0 0.20402235828119539 0.31469250852507552 0 0.22010235340860651 0.32348615185385932 0 0.19624984355574321 0.33065879870547632 0 0.20402235828119539 0.31469250852507552 0 0.22010235340860651 0.32348615185385932 0 0.21971671813908131 0.30259596056263521 0 0.2298834277550944 0.3128845656882151 0 0.22010235340860651 0.32348615185385932 0 0.2298834277550944 0.3128845656882151 0 0.22010235340860651 0.32348615185385932 0 0.2409591188778441 0.32224351719063687 0 0.21205198304408249 0.34260956705965501 0 0.22010235340860651 0.32348615185385932 0 0.23178244009217031 0.34081025015101329 0 0.22010235340860651 0.32348615185385932 0 0.23178244009217031 0.34081025015101329 0 0.2409591188778441 0.32224351719063687 0 0.23178244009217031 0.34081025015101329 0 0.2409591188778441 0.32224351719063687 0 0.23178244009217031 0.34081025015101329 0 0.2409591188778441 0.32224351719063687 0 0.25209343493711761 0.34384360721826118 0 0.23875552059484581 0.30321263314572899 0 0.2298834277550944 0.3128845656882151 0 0.2409591188778441 0.32224351719063687 0 0.24284653065676939 0.37423963861494253 0 0.23838506899231041 0.35799929310989698 0 0.23108204470733831 0.37228109501875128 0 0.24284653065676939 0.37423963861494253 0 0.23838506899231041 0.35799929310989698 0 0.25098865196977682 0.36368094920390459 0 0.24284653065676939 0.37423963861494253 0 0.25550852075644759 0.38132082153267183 0 0.25098865196977682 0.36368094920390459 0 0.23838506899231041 0.35799929310989698 0 0.25209343493711761 0.34384360721826118 0 0.25098865196977682 0.36368094920390459 0 0.23178244009217031 0.34081025015101329 0 0.23838506899231041 0.35799929310989698 0 0.25209343493711761 0.34384360721826118 0 0.21205198304408249 0.34260956705965501 0 0.23178244009217031 0.34081025015101329 0 0.22260576130649659 0.35937698311138988 0 0.23178244009217031 0.34081025015101329 0 0.23838506899231041 0.35799929310989698 0 0.22260576130649659 0.35937698311138988 0 0.23178244009217031 0.34081025015101329 0 0.22260576130649659 0.35937698311138988 0 0.23108204470733831 0.37228109501875128 0 0.22260576130649659 0.35937698311138988 0 0.21342908252082199 0.37794371607176591 0 0.23838506899231041 0.35799929310989698 0 0.23108204470733831 0.37228109501875128 0 0.22260576130649659 0.35937698311138988 0 0.22260576130649659 0.35937698311138988 0 0.21160271834850619 0.3770371868284545 0 0.21342908252082199 0.37794371607176591 0 0.22260576130649659 0.35937698311138988 0 0.19586250414956111 0.35502506699000858 0 0.21160271834850619 0.3770371868284545 0 0.22260576130649659 0.35937698311138988 0 0.21342908252082199 0.37794371607176591 0 0.21205198304408249 0.34260956705965501 0 0.22260576130649659 0.35937698311138988 0 0.19586250414956111 0.35502506699000858 0 0.19586250414956111 0.35502506699000858 0 0.19547516474337889 0.37939133527454089 0 0.21160271834850619 0.3770371868284545 0 0.19586250414956111 0.35502506699000858 0 0.17952381702567649 0.36695155118540801 0 0.19547516474337889 0.37939133527454089 0 0.19586250414956111 0.35502506699000858 0 0.19547516474337889 0.37939133527454089 0 0.17952381702567649 0.36695155118540801 0 0.1579403339120499 0.36350251992152249 0 0.16545139662895211 0.38399061650993899 0 0.17952381702567649 0.36695155118540801 0 0.1579403339120499 0.36350251992152249 0 0.16352065142687619 0.34743640684394128 0 0.17952381702567649 0.36695155118540801 0 0.16352065142687619 0.34743640684394128 0 0.18143423011197379 0.34550546049797298 0 0.19586250414956111 0.35502506699000858 0 0.17952381702567649 0.36695155118540801 0 0.18143423011197379 0.34550546049797298 0 0.19624984355574321 0.33065879870547632 0 0.18143423011197379 0.34550546049797298 0 0.17216158405447721 0.32879292108577701 0 0.16352065142687619 0.34743640684394128 0 0.18143423011197379 0.34550546049797298 0 0.17216158405447721 0.32879292108577701 0 0.18185490136390739 0.3111911792135818 0 0.17216158405447721 0.32879292108577701 0 0.16309898118386029 0.3130019245886948 0 0.18185490136390739 0.3111911792135818 0 0.19624984355574321 0.33065879870547632 0 0.17216158405447721 0.32879292108577701 0 0.17216158405447721 0.32879292108577701 0 0.16309898118386029 0.3130019245886948 0 0.15003445790927819 0.32598977191729278 0 0.16352065142687619 0.34743640684394128 0 0.17216158405447721 0.32879292108577701 0 0.15003445790927819 0.32598977191729278 0 0.16352065142687619 0.34743640684394128 0 0.15003445790927819 0.32598977191729278 0 0.13962153045683359 0.34799608796298831 0 0.14657540001092681 0.30263078790907161 0 0.16309898118386029 0.3130019245886948 0 0.15003445790927819 0.32598977191729278 0 0.14657540001092681 0.30263078790907161 0 0.15003445790927819 0.32598977191729278 0 0.13431802507833049 0.31488974235985162 0 0.15003445790927819 0.32598977191729278 0 0.13431802507833049 0.31488974235985162 0 0.12610210318896031 0.33094968501571548 0 0.15003445790927819 0.32598977191729278 0 0.12610210318896031 0.33094968501571548 0 0.13962153045683359 0.34799608796298831 0 0.1123059066110586 0.35103016884712118 0 0.12610210318896031 0.33094968501571548 0 0.13962153045683359 0.34799608796298831 0 0.1123059066110586 0.35103016884712118 0 0.13962153045683359 0.34799608796298831 0 0.12736296513087361 0.36129085835453217 0 0.11565536646330089 0.37671832235393821 0 0.12736296513087361 0.36129085835453217 0 0.14158427402191079 0.37113793710533582 0 0.11565536646330089 0.37671832235393821 0 0.14158427402191079 0.37113793710533582 0 0.13962153045683359 0.34799608796298831 0 0.12736296513087361 0.36129085835453217 0 0.14158427402191079 0.37113793710533582 0 0.1579403339120499 0.36350251992152249 0 0.13962153045683359 0.34799608796298831 0 0.14158427402191079 0.37113793710533582 0 0.1579403339120499 0.36350251992152249 0 0.14158427402191079 0.37113793710533582 0 0.16545139662895211 0.38399061650993899 0 0.1579403339120499 0.36350251992152249 0 0.16352065142687619 0.34743640684394128 0 0.13962153045683359 0.34799608796298831 0 0.15277877661618811 0.39762101797007288 0 0.13224028612847269 0.39862893056120541 0 0.15076840493833329 0.41808571647804582 0 0.14158427402191079 0.37113793710533582 0 0.15277877661618811 0.39762101797007288 0 0.16545139662895211 0.38399061650993899 0 0.14158427402191079 0.37113793710533582 0 0.15277877661618811 0.39762101797007288 0 0.13224028612847269 0.39862893056120541 0 0.11565536646330089 0.37671832235393821 0 0.14158427402191079 0.37113793710533582 0 0.13224028612847269 0.39862893056120541 0 0.12860869473890171 0.4252497729375323 0 0.15076840493833329 0.41808571647804582 0 0.13224028612847269 0.39862893056120541 0 0.12860869473890171 0.4252497729375323 0 0.15076840493833329 0.41808571647804582 0 0.1153444394675152 0.41173883976996561 0 0.13224028612847269 0.39862893056120541 0 0.12860869473890171 0.4252497729375323 0 0.12860869473890171 0.4252497729375323 0 0.15076840493833329 0.41808571647804582 0 0.1439075142388048 0.44303002393322027 0 0.15076840493833329 0.41808571647804582 0 0.16742968281928841 0.43139605890354032 0 0.1439075142388048 0.44303002393322027 0 0.15277877661618811 0.39762101797007288 0 0.15076840493833329 0.41808571647804582 0 0.1729281151377649 0.41092166001855929 0 0.15076840493833329 0.41808571647804582 0 0.1729281151377649 0.41092166001855929 0 0.15076840493833329 0.41808571647804582 0 0.16742968281928841 0.43139605890354032 0 0.1729281151377649 0.41092166001855929 0 0.16742968281928841 0.43139605890354032 0 0.1729281151377649 0.41092166001855929 0 0.19464969642215749 0.43131887544794267 0 0.1729281151377649 0.41092166001855929 0 0.19508782533719671 0.40375760355907309 0 0.1729281151377649 0.41092166001855929 0 0.182735571783326 0.39137503262133178 0 0.19508782533719671 0.40375760355907309 0 0.1729281151377649 0.41092166001855929 0 0.182735571783326 0.39137503262133178 0 0.16545139662895211 0.38399061650993899 0 0.15277877661618811 0.39762101797007288 0 0.1729281151377649 0.41092166001855929 0 0.16545139662895211 0.38399061650993899 0 0.17952381702567649 0.36695155118540801 0 0.182735571783326 0.39137503262133178 0 0.19547516474337889 0.37939133527454089 0 0.17952381702567649 0.36695155118540801 0 0.182735571783326 0.39137503262133178 0 0.16545139662895211 0.38399061650993899 0 0.182735571783326 0.39137503262133178 0 0.19547516474337889 0.37939133527454089 0 0.19508782533719671 0.40375760355907309 0 0.19547516474337889 0.37939133527454089 0 0.19508782533719671 0.40375760355907309 0 0.20669820009460521 0.39156198685513199 0 0.19547516474337889 0.37939133527454089 0 0.19508782533719671 0.40375760355907309 0 0.19508782533719671 0.40375760355907309 0 0.21023481737109459 0.39886070260027678 0 0.21023481737109459 0.39886070260027678 0 0.20669820009460521 0.39156198685513199 0 0.21491823232037219 0.39318843481261878 0 0.19508782533719671 0.40375760355907309 0 0.21023481737109459 0.39886070260027678 0 0.20669820009460521 0.39156198685513199 0 0.21023481737109459 0.39886070260027678 0 0.21491823232037219 0.39318843481261878 0 0.22538180940499261 0.39396380164148093 0 0.21023481737109459 0.39886070260027678 0 0.22538180940499261 0.39396380164148093 0 0.20669820009460521 0.39156198685513199 0 0.21491823232037219 0.39318843481261878 0 0.21735810241079631 0.38836724815358531 0 0.19547516474337889 0.37939133527454089 0 0.20669820009460521 0.39156198685513199 0 0.21160271834850619 0.3770371868284545 0 0.20669820009460521 0.39156198685513199 0 0.21160271834850619 0.3770371868284545 0 0.21342908252082199 0.37794371607176591 0 0.20669820009460521 0.39156198685513199 0 0.21342908252082199 0.37794371607176591 0 0.20669820009460521 0.39156198685513199 0 0.21735810241079631 0.38836724815358531 0 0.21342908252082199 0.37794371607176591 0 0.21160271834850619 0.3770371868284545 0 0.21342908252082199 0.37794371607176591 0 0.21735810241079631 0.38836724815358531 0 0.21342908252082199 0.37794371607176591 0 0.23847271397753189 0.39037430610323498 0 0.23108204470733831 0.37228109501875128 0 0.21342908252082199 0.37794371607176591 0 0.23847271397753189 0.39037430610323498 0 0.21342908252082199 0.37794371607176591 0 0.23847271397753189 0.39037430610323498 0 0.21491823232037219 0.39318843481261878 0 0.21735810241079631 0.38836724815358531 0 0.22538180940499261 0.39396380164148093 0 0.22538180940499261 0.39396380164148093 0 0.23847271397753189 0.39037430610323498 0 0.2381042992274385 0.40755696205751019 0 0.22538180940499261 0.39396380164148093 0 0.2381042992274385 0.40755696205751019 0 0.22225255160315399 0.40840427085932041 0 0.21735810241079631 0.38836724815358531 0 0.22538180940499261 0.39396380164148093 0 0.23847271397753189 0.39037430610323498 0 0.21023481737109459 0.39886070260027678 0 0.22538180940499261 0.39396380164148093 0 0.22225255160315399 0.40840427085932041 0 0.23847271397753189 0.39037430610323498 0 0.2381042992274385 0.40755696205751019 0 0.26351634543424057 0.40280489613470588 0 0.24284653065676939 0.37423963861494253 0 0.23108204470733831 0.37228109501875128 0 0.23847271397753189 0.39037430610323498 0 0.24284653065676939 0.37423963861494253 0 0.23847271397753189 0.39037430610323498 0 0.25550852075644759 0.38132082153267183 0 0.22808488411326669 0.42406388257362382 0 0.2400969255897405 0.45064728888418448 0 0.25180663551199051 0.42672609250944532 0 0.2381042992274385 0.40755696205751019 0 0.22808488411326669 0.42406388257362382 0 0.25180663551199051 0.42672609250944532 0 0.2381042992274385 0.40755696205751019 0 0.22225255160315399 0.40840427085932041 0 0.22808488411326669 0.42406388257362382 0 0.22225255160315399 0.40840427085932041 0 0.22808488411326669 0.42406388257362382 0 0.20945694789897801 0.41757600542371009 0 0.22808488411326669 0.42406388257362382 0 0.20945694789897801 0.41757600542371009 0 0.217213219991919 0.44326575520628603 0 0.20945694789897801 0.41757600542371009 0 0.19464969642215749 0.43131887544794267 0 0.217213219991919 0.44326575520628603 0 0.21023481737109459 0.39886070260027678 0 0.22225255160315399 0.40840427085932041 0 0.20945694789897801 0.41757600542371009 0 0.19508782533719671 0.40375760355907309 0 0.21023481737109459 0.39886070260027678 0 0.20945694789897801 0.41757600542371009 0 0.19508782533719671 0.40375760355907309 0 0.20945694789897801 0.41757600542371009 0 0.19464969642215749 0.43131887544794267 0 0.1729281151377649 0.41092166001855929 0 0.19508782533719671 0.40375760355907309 0 0.19464969642215749 0.43131887544794267 0 0.19508782533719671 0.40375760355907309 0 0.19464969642215749 0.43131887544794267 0 0.19464969642215749 0.43131887544794267 0 0.217213219991919 0.44326575520628603 0 0.18628135156237091 0.45225525466708433 0 0.20712082442392679 0.4650899292576649 0 0.17977689232663549 0.4749340119867308 0 0.18628135156237091 0.45225525466708433 0 0.20712082442392679 0.4650899292576649 0 0.217213219991919 0.44326575520628603 0 0.2312385461274104 0.4736971926873122 0 0.20712082442392679 0.4650899292576649 0 0.217213219991919 0.44326575520628603 0 0.18628135156237091 0.45225525466708433 0 0.22808488411326669 0.42406388257362382 0 0.217213219991919 0.44326575520628603 0 0.2400969255897405 0.45064728888418448 0 0.217213219991919 0.44326575520628603 0 0.2400969255897405 0.45064728888418448 0 0.2312385461274104 0.4736971926873122 0 0.2400969255897405 0.45064728888418448 0 0.2312385461274104 0.4736971926873122 0 0.2576664792696387 0.46686423680556938 0 0.2400969255897405 0.45064728888418448 0 0.25180663551199051 0.42672609250944532 0 0.2312385461274104 0.4736971926873122 0 0.25800039529403612 0.5 0 0.2576664792696387 0.46686423680556938 0 0.2312385461274104 0.4736971926873122 0 0.22816458694557379 0.5 0 0.25800039529403612 0.5 0 0.2312385461274104 0.4736971926873122 0 0.22816458694557379 0.5 0 0.21294937977924841 0.48512000841381991 0 0.21294937977924841 0.48512000841381991 0 0.19832877859711151 0.5 0 0.17977689232663549 0.4749340119867308 0 0.20712082442392679 0.4650899292576649 0 0.21294937977924841 0.48512000841381991 0 0.17977689232663549 0.4749340119867308 0 0.22816458694557379 0.5 0 0.21294937977924841 0.48512000841381991 0 0.19832877859711151 0.5 0 0.20712082442392679 0.4650899292576649 0 0.2312385461274104 0.4736971926873122 0 0.21294937977924841 0.48512000841381991 0 0.19832877859711151 0.5 0 0.16849297024864909 0.49999999999998912 0 0.17977689232663549 0.4749340119867308 0 0.16849297024864909 0.49999999999998912 0 0.1503595771575213 0.48262710623359351 0 0.16849297024864909 0.49999999999998912 0 0.17977689232663549 0.4749340119867308 0 0.1503595771575213 0.48262710623359351 0 0.17977689232663549 0.4749340119867308 0 0.1508746035749835 0.46393949596821721 0 0.1503595771575213 0.48262710623359351 0 0.17977689232663549 0.4749340119867308 0 0.18628135156237091 0.45225525466708433 0 0.163807653269267 0.45044030135348279 0 0.16742968281928841 0.43139605890354032 0 0.19464969642215749 0.43131887544794267 0 0.18628135156237091 0.45225525466708433 0 0.16742968281928841 0.43139605890354032 0 0.18628135156237091 0.45225525466708433 0 0.163807653269267 0.45044030135348279 0 0.16742968281928841 0.43139605890354032 0 0.163807653269267 0.45044030135348279 0 0.1439075142388048 0.44303002393322027 0 0.17977689232663549 0.4749340119867308 0 0.163807653269267 0.45044030135348279 0 0.1508746035749835 0.46393949596821721 0 0.1508746035749835 0.46393949596821721 0 0.1439075142388048 0.44303002393322027 0 0.13222618406638811 0.4652542124672035 0 0.163807653269267 0.45044030135348279 0 0.1508746035749835 0.46393949596821721 0 0.1439075142388048 0.44303002393322027 0 0.11272834775020429 0.4478241033463205 0 0.12860869473890171 0.4252497729375323 0 0.1439075142388048 0.44303002393322027 0 0.11272834775020429 0.4478241033463205 0 0.1439075142388048 0.44303002393322027 0 0.13222618406638811 0.4652542124672035 0 0.13222618406638811 0.4652542124672035 0 0.12719864931719721 0.48729971614704243 0 0.1503595771575213 0.48262710623359351 0 0.1202048383386727 0.47638006739903671 0 0.13222618406638811 0.4652542124672035 0 0.12719864931719721 0.48729971614704243 0 0.12719864931719721 0.48729971614704243 0 0.1409634229610145 0.5 0 0.1503595771575213 0.48262710623359351 0 0.1134338756733799 0.5 0 0.12719864931719721 0.48729971614704243 0 0.1409634229610145 0.5 0 0.16849297024864909 0.49999999999998912 0 0.1409634229610145 0.5 0 0.1503595771575213 0.48262710623359351 0 0.13222618406638811 0.4652542124672035 0 0.1503595771575213 0.48262710623359351 0 0.1508746035749835 0.46393949596821721 0 0.13222618406638811 0.4652542124672035 0 0.1503595771575213 0.48262710623359351 0 0.34658806684986271 0.48271503281661121 0 0.34566831336030163 0.46543006563322509 0 0.3539697943771144 0.4739749941026753 0 0.34658806684986271 0.48271503281661121 0 0.34566831336030163 0.46543006563322509 0 0.3539697943771144 0.4739749941026753 0 0.3592354546149667 0.48707449769753919 0 0.36390362944109711 0.47407770612772182 0 0.3539697943771144 0.4739749941026753 0 0.34658806684986271 0.48271503281661121 0 0.3592354546149667 0.48707449769753919 0 0.34750782033942329 0.49999999999999728 0 0.3592354546149667 0.48707449769753919 0 0.365734215281663 0.49999999999999822 0 0.34658806684986271 0.48271503281661121 0 0.34750782033942329 0.49999999999999728 0 0.34658806684986271 0.48271503281661121 0 0.34750782033942329 0.49999999999999728 0 0.3592354546149667 0.48707449769753919 0 0.365734215281663 0.49999999999999822 0 0.37115422865298009 0.48626720755300729 0 0.38711279838635848 0.49279208880339048 0 0.3592354546149667 0.48707449769753919 0 0.365734215281663 0.49999999999999822 0 0.37115422865298009 0.48626720755300729 0 0.36390362944109711 0.47407770612772182 0 0.37296059007537108 0.46156091037435348 0 0.37978504554081582 0.47739174513638832 0 0.37115422865298009 0.48626720755300729 0 0.36390362944109711 0.47407770612772182 0 0.37978504554081582 0.47739174513638832 0 0.3592354546149667 0.48707449769753919 0 0.37115422865298009 0.48626720755300729 0 0.36390362944109711 0.47407770612772182 0 0.3539697943771144 0.4739749941026753 0 0.36390362944109711 0.47407770612772182 0 0.36370308700353832 0.46287332256584363 0 0.36830493758813199 0.46018527666177428 0 0.36370308700353832 0.46287332256584363 0 0.36329548718110199 0.44010056281557169 0 0.37296059007537108 0.46156091037435348 0 0.36370308700353832 0.46287332256584363 0 0.37296059007537108 0.46156091037435348 0 0.36830493758813199 0.46018527666177428 0 0.36370308700353832 0.46287332256584363 0 0.37296059007537108 0.46156091037435348 0 0.36830493758813199 0.46018527666177428 0 0.37670907973754941 0.45010306536266548 0 0.37296059007537108 0.46156091037435348 0 0.36830493758813199 0.46018527666177428 0 0.36390362944109711 0.47407770612772182 0 0.37296059007537108 0.46156091037435348 0 0.36370308700353832 0.46287332256584363 0 0.36390362944109711 0.47407770612772182 0 0.36370308700353832 0.46287332256584363 0 0.36830493758813199 0.46018527666177428 0 0.36329548718110199 0.44010056281557169 0 0.37670907973754941 0.45010306536266548 0 0.36370308700353832 0.46287332256584363 0 0.36329548718110199 0.44010056281557169 0 0.36370308700353832 0.46287332256584363 0 0.36329548718110199 0.44010056281557169 0 0.35432756304617119 0.45364302773252158 0 0.36329548718110199 0.44010056281557169 0 0.3446433646397426 0.44616815991544612 0 0.35432756304617119 0.45364302773252158 0 0.36329548718110199 0.44010056281557169 0 0.3446433646397426 0.44616815991544612 0 0.34361841591918341 0.42690625419766698 0 0.36370308700353832 0.46287332256584363 0 0.35432756304617119 0.45364302773252158 0 0.34566831336030163 0.46543006563322509 0 0.3446433646397426 0.44616815991544612 0 0.34566831336030163 0.46543006563322509 0 0.3539697943771144 0.4739749941026753 0 0.36370308700353832 0.46287332256584363 0 0.34566831336030163 0.46543006563322509 0 0.36370308700353832 0.46287332256584363 0 0.34566831336030163 0.46543006563322509 0 0.3446433646397426 0.44616815991544612 0 0.35432756304617119 0.45364302773252158 0 0.34566831336030163 0.46543006563322509 0 0.33517298090465442 0.4562790502819204 0 0.32455710407542188 0.44527451142645308 0 0.32582314154315117 0.4682434641525573 0 0.3446433646397426 0.44616815991544612 0 0.34566831336030163 0.46543006563322509 0 0.33517298090465442 0.4562790502819204 0 0.34566831336030163 0.46543006563322509 0 0.33517298090465442 0.4562790502819204 0 0.32582314154315117 0.4682434641525573 0 0.34566831336030163 0.46543006563322509 0 0.32582314154315117 0.4682434641525573 0 0.3446433646397426 0.44616815991544612 0 0.32455710407542188 0.44527451142645308 0 0.34361841591918341 0.42690625419766698 0 0.3446433646397426 0.44616815991544612 0 0.33517298090465442 0.4562790502819204 0 0.32455710407542188 0.44527451142645308 0 0.32455710407542188 0.44527451142645308 0 0.29855547723173259 0.44661295707409859 0 0.31454280907048898 0.42813225536031307 0 0.32455710407542188 0.44527451142645308 0 0.32582314154315117 0.4682434641525573 0 0.30597796972600128 0.47105686267189251 0 0.32582314154315117 0.4682434641525573 0 0.30597796972600128 0.47105686267189251 0 0.32582314154315117 0.4682434641525573 0 0.32871380208987988 0.48440307192821169 0 0.30597796972600128 0.47105686267189251 0 0.34658806684986271 0.48271503281661121 0 0.32582314154315117 0.4682434641525573 0 0.32871380208987988 0.48440307192821169 0 0.34658806684986271 0.48271503281661121 0 0.34566831336030163 0.46543006563322509 0 0.32582314154315117 0.4682434641525573 0 0.34658806684986271 0.48271503281661121 0 0.34750782033942329 0.49999999999999728 0 0.32871380208987988 0.48440307192821169 0 0.34750782033942329 0.49999999999999728 0 0.32871380208987988 0.48440307192821169 0 0.31767201199096079 0.5 0 0.32871380208987988 0.48440307192821169 0 0.31767201199096079 0.5 0 0.30597796972600128 0.47105686267189251 0 0.31767201199096079 0.5 0 0.30597796972600128 0.47105686267189251 0 0.2878362036424984 0.5 0 0.30597796972600128 0.47105686267189251 0 0.28231182089634022 0.47638001404969488 0 0.29082709028812331 0.46226694693855552 0 0.30597796972600128 0.47105686267189251 0 0.28231182089634022 0.47638001404969488 0 0.2878362036424984 0.5 0 0.28231182089634022 0.47638001404969488 0 0.2878362036424984 0.5 0 0.25800039529403612 0.5 0 0.28231182089634022 0.47638001404969488 0 0.25800039529403612 0.5 0 0.2576664792696387 0.46686423680556938 0 0.2400969255897405 0.45064728888418448 0 0.25979454324143431 0.44622929117476318 0 0.25180663551199051 0.42672609250944532 0 0.25979454324143431 0.44622929117476318 0 0.2576664792696387 0.46686423680556938 0 0.27646309329841923 0.45501795395853611 0 0.2400969255897405 0.45064728888418448 0 0.25979454324143431 0.44622929117476318 0 0.2576664792696387 0.46686423680556938 0 0.28231182089634022 0.47638001404969488 0 0.2576664792696387 0.46686423680556938 0 0.27646309329841923 0.45501795395853611 0 0.25979454324143431 0.44622929117476318 0 0.27646309329841923 0.45501795395853611 0 0.27293958253738271 0.43189088371608092 0 0.27646309329841923 0.45501795395853611 0 0.29855547723173259 0.44661295707409859 0 0.27293958253738271 0.43189088371608092 0 0.27646309329841923 0.45501795395853611 0 0.29082709028812331 0.46226694693855552 0 0.29855547723173259 0.44661295707409859 0 0.28231182089634022 0.47638001404969488 0 0.27646309329841923 0.45501795395853611 0 0.29082709028812331 0.46226694693855552 0 0.32455710407542188 0.44527451142645308 0 0.30597796972600128 0.47105686267189251 0 0.29855547723173259 0.44661295707409859 0 0.30597796972600128 0.47105686267189251 0 0.29082709028812331 0.46226694693855552 0 0.29855547723173259 0.44661295707409859 0 0.29855547723173259 0.44661295707409859 0 0.28902957725236522 0.41546857574750851 0 0.31454280907048898 0.42813225536031307 0 0.28902957725236522 0.41546857574750851 0 0.31288040525516009 0.40288160908190879 0 0.31454280907048898 0.42813225536031307 0 0.28902957725236522 0.41546857574750851 0 0.31454280907048898 0.42813225536031307 0 0.29855547723173259 0.44661295707409859 0 0.28902957725236522 0.41546857574750851 0 0.27293958253738271 0.43189088371608092 0 0.28902957725236522 0.41546857574750851 0 0.26351634543424057 0.40280489613470588 0 0.28902957725236522 0.41546857574750851 0 0.27293958253738271 0.43189088371608092 0 0.26351634543424057 0.40280489613470588 0 0.2381042992274385 0.40755696205751019 0 0.25180663551199051 0.42672609250944532 0 0.26351634543424057 0.40280489613470588 0 0.27293958253738271 0.43189088371608092 0 0.25180663551199051 0.42672609250944532 0 0.26351634543424057 0.40280489613470588 0 0.25180663551199051 0.42672609250944532 0 0.26351634543424057 0.40280489613470588 0 0.25979454324143431 0.44622929117476318 0 0.27293958253738271 0.43189088371608092 0 0.25180663551199051 0.42672609250944532 0 0.25550852075644759 0.38132082153267183 0 0.26351634543424057 0.40280489613470588 0 0.27365433582920801 0.38209448907138222 0 0.23847271397753189 0.39037430610323498 0 0.25550852075644759 0.38132082153267183 0 0.26351634543424057 0.40280489613470588 0 0.23847271397753189 0.39037430610323498 0 0.26351634543424057 0.40280489613470588 0 0.28902957725236522 0.41546857574750851 0 0.26351634543424057 0.40280489613470588 0 0.29079829698043552 0.39261952455749333 0 0.26351634543424057 0.40280489613470588 0 0.27365433582920801 0.38209448907138222 0 0.29079829698043552 0.39261952455749333 0 0.26351634543424057 0.40280489613470588 0 0.27365433582920801 0.38209448907138222 0 0.27365433582920801 0.38209448907138222 0 0.29079829698043552 0.39261952455749333 0 0.29231663131353802 0.37487522424859621 0 0.29079829698043552 0.39261952455749333 0 0.30911811385825122 0.38129880976332409 0 0.31288040525516009 0.40288160908190879 0 0.28902957725236522 0.41546857574750851 0 0.29079829698043552 0.39261952455749333 0 0.31288040525516009 0.40288160908190879 0 0.29079829698043552 0.39261952455749333 0 0.30911811385825122 0.38129880976332409 0 0.29231663131353802 0.37487522424859621 0 0.30911811385825122 0.38129880976332409 0 0.32624277911344551 0.38323800094880639 0 0.31288040525516009 0.40288160908190879 0 0.30911811385825122 0.38129880976332409 0 0.32624277911344551 0.38323800094880639 0 0.31654394740993669 0.36623312187276369 0 0.32624277911344551 0.38323800094880639 0 0.34316204080021723 0.37628836649195457 0 0.34174790725079129 0.39286567930231092 0 0.32624277911344551 0.38323800094880639 0 0.34174790725079129 0.39286567930231092 0 0.33026892074606162 0.401543604672911 0 0.34174790725079129 0.39286567930231092 0 0.33026892074606162 0.401543604672911 0 0.34658550805799881 0.40870338108285492 0 0.32624277911344551 0.38323800094880639 0 0.33026892074606162 0.401543604672911 0 0.31288040525516009 0.40288160908190879 0 0.33026892074606162 0.401543604672911 0 0.31288040525516009 0.40288160908190879 0 0.32870935600488371 0.41871460754799628 0 0.31288040525516009 0.40288160908190879 0 0.31454280907048898 0.42813225536031307 0 0.32870935600488371 0.41871460754799628 0 0.32455710407542188 0.44527451142645308 0 0.31454280907048898 0.42813225536031307 0 0.32870935600488371 0.41871460754799628 0 0.32455710407542188 0.44527451142645308 0 0.34361841591918341 0.42690625419766698 0 0.32870935600488371 0.41871460754799628 0 0.33026892074606162 0.401543604672911 0 0.32870935600488371 0.41871460754799628 0 0.34658550805799881 0.40870338108285492 0 0.34361841591918341 0.42690625419766698 0 0.32870935600488371 0.41871460754799628 0 0.34658550805799881 0.40870338108285492 0 0.34658550805799881 0.40870338108285492 0 0.36288788735866773 0.41732780306529982 0 0.36248028753623351 0.39455504331502778 0 0.34361841591918341 0.42690625419766698 0 0.34658550805799881 0.40870338108285492 0 0.36288788735866773 0.41732780306529982 0 0.3446433646397426 0.44616815991544612 0 0.34361841591918341 0.42690625419766698 0 0.36329548718110199 0.44010056281557169 0 0.34361841591918341 0.42690625419766698 0 0.36288788735866773 0.41732780306529982 0 0.36329548718110199 0.44010056281557169 0 0.36288788735866773 0.41732780306529982 0 0.37895606280837352 0.4217128084349212 0 0.36329548718110199 0.44010056281557169 0 0.36288788735866773 0.41732780306529982 0 0.36288788735866773 0.41732780306529982 0 0.37540024324941379 0.40658488030696083 0 0.37895606280837352 0.4217128084349212 0 0.36248028753623351 0.39455504331502778 0 0.38557234876117491 0.39019183481600772 0 0.37540024324941379 0.40658488030696083 0 0.36288788735866773 0.41732780306529982 0 0.36248028753623351 0.39455504331502778 0 0.36288788735866773 0.41732780306529982 0 0.36248028753623351 0.39455504331502778 0 0.37540024324941379 0.40658488030696083 0 0.36248028753623351 0.39455504331502778 0 0.36207268771379919 0.37178228356475579 0 0.37649031642695507 0.37649810736321893 0 0.36248028753623351 0.39455504331502778 0 0.36207268771379919 0.37178228356475579 0 0.36248028753623351 0.39455504331502778 0 0.38557234876117491 0.39019183481600772 0 0.37649031642695507 0.37649810736321893 0 0.34316204080021723 0.37628836649195457 0 0.34174790725079129 0.39286567930231092 0 0.36248028753623351 0.39455504331502778 0 0.34316204080021723 0.37628836649195457 0 0.36248028753623351 0.39455504331502778 0 0.36207268771379919 0.37178228356475579 0 0.34174790725079129 0.39286567930231092 0 0.34658550805799881 0.40870338108285492 0 0.36248028753623351 0.39455504331502778 0 0.34316204080021723 0.37628836649195457 0 0.34958184699290951 0.35386012739356598 0 0.36207268771379919 0.37178228356475579 0 0.34958184699290951 0.35386012739356598 0 0.36207268771379919 0.37178228356475579 0 0.37137520868688728 0.35735691989580309 0 0.36207268771379919 0.37178228356475579 0 0.37137520868688728 0.35735691989580309 0 0.37649031642695507 0.37649810736321893 0 0.37137520868688728 0.35735691989580309 0 0.36461921953740062 0.33552865615458072 0 0.3859078394783137 0.34078964197741879 0 0.34958184699290951 0.35386012739356598 0 0.37137520868688728 0.35735691989580309 0 0.36461921953740062 0.33552865615458072 0 0.36461921953740062 0.33552865615458072 0 0.37242381502201288 0.31848563209975028 0 0.3859078394783137 0.34078964197741879 0 0.36461921953740062 0.33552865615458072 0 0.37242381502201288 0.31848563209975028 0 0.35388008703093032 0.31254881783171862 0 0.36461921953740062 0.33552865615458072 0 0.35388008703093032 0.31254881783171862 0 0.34674157940773198 0.33163446743946962 0 0.35388008703093032 0.31254881783171862 0 0.34674157940773198 0.33163446743946962 0 0.33772701652066212 0.32091031048231761 0 0.34958184699290951 0.35386012739356598 0 0.36461921953740062 0.33552865615458072 0 0.34674157940773198 0.33163446743946962 0 0.34674157940773198 0.33163446743946962 0 0.32898793111918789 0.33034678133196438 0 0.32929306308787343 0.34701446147284959 0 0.34674157940773198 0.33163446743946962 0 0.32898793111918789 0.33034678133196438 0 0.33772701652066212 0.32091031048231761 0 0.35388008703093032 0.31254881783171862 0 0.33772701652066212 0.32091031048231761 0 0.33451445720559092 0.30716288212349518 0 0.32898793111918789 0.33034678133196438 0 0.33772701652066212 0.32091031048231761 0 0.32667330410293027 0.31735953843879772 0 0.33772701652066212 0.32091031048231761 0 0.32667330410293027 0.31735953843879772 0 0.33451445720559092 0.30716288212349518 0 0.32898793111918789 0.33034678133196438 0 0.32667330410293027 0.31735953843879772 0 0.31284200704116932 0.32087349576743551 0 0.32667330410293027 0.31735953843879772 0 0.31284200704116932 0.32087349576743551 0 0.32171634026658108 0.30608154596985138 0 0.31284200704116932 0.32087349576743551 0 0.32142955733559048 0.33600308966053188 0 0.31459522809413148 0.34577762006987811 0 0.32898793111918789 0.33034678133196438 0 0.31284200704116932 0.32087349576743551 0 0.32142955733559048 0.33600308966053188 0 0.32898793111918789 0.33034678133196438 0 0.32142955733559048 0.33600308966053188 0 0.32929306308787343 0.34701446147284959 0 0.31284200704116932 0.32087349576743551 0 0.31459522809413148 0.34577762006987811 0 0.32142955733559048 0.33600308966053188 0 0.31459522809413148 0.34577762006987811 0 0.32929306308787343 0.34701446147284959 0 0.31393538259539933 0.34720253677873109 0 0.31459522809413148 0.34577762006987811 0 0.32929306308787343 0.34701446147284959 0 0.31393538259539933 0.34720253677873109 0 0.32854871169780819 0.36174545163534277 0 0.31654394740993669 0.36623312187276369 0 0.31393538259539933 0.34720253677873109 0 0.32929306308787343 0.34701446147284959 0 0.32854871169780819 0.36174545163534277 0 0.31393538259539933 0.34720253677873109 0 0.32854871169780819 0.36174545163534277 0 0.34958184699290951 0.35386012739356598 0 0.34674157940773198 0.33163446743946962 0 0.32929306308787343 0.34701446147284959 0 0.34958184699290951 0.35386012739356598 0 0.32929306308787343 0.34701446147284959 0 0.32854871169780819 0.36174545163534277 0 0.32624277911344551 0.38323800094880639 0 0.34316204080021723 0.37628836649195457 0 0.32854871169780819 0.36174545163534277 0 0.34316204080021723 0.37628836649195457 0 0.34958184699290951 0.35386012739356598 0 0.32854871169780819 0.36174545163534277 0 0.34316204080021723 0.37628836649195457 0 0.32854871169780819 0.36174545163534277 0 0.32624277911344551 0.38323800094880639 0 0.32854871169780819 0.36174545163534277 0 0.31654394740993669 0.36623312187276369 0 0.30911811385825122 0.38129880976332409 0 0.30422008367561959 0.35697921584272257 0 0.30911811385825122 0.38129880976332409 0 0.30422008367561959 0.35697921584272257 0 0.29231663131353802 0.37487522424859621 0 0.30911811385825122 0.38129880976332409 0 0.31654394740993669 0.36623312187276369 0 0.30422008367561959 0.35697921584272257 0 0.31393538259539933 0.34720253677873109 0 0.30422008367561959 0.35697921584272257 0 0.29932205349298918 0.33265962192212062 0 0.30422008367561959 0.35697921584272257 0 0.29932205349298918 0.33265962192212062 0 0.31393538259539933 0.34720253677873109 0 0.31654394740993669 0.36623312187276369 0 0.30422008367561959 0.35697921584272257 0 0.30422008367561959 0.35697921584272257 0 0.2837923262241755 0.36138408200805872 0 0.29393031661914287 0.34067367494473499 0 0.2837923262241755 0.36138408200805872 0 0.28285572945417758 0.33947549503717461 0 0.29393031661914287 0.34067367494473499 0 0.2837923262241755 0.36138408200805872 0 0.29393031661914287 0.34067367494473499 0 0.27365433582920801 0.38209448907138222 0 0.29231663131353802 0.37487522424859621 0 0.2837923262241755 0.36138408200805872 0 0.30422008367561959 0.35697921584272257 0 0.29231663131353802 0.37487522424859621 0 0.2837923262241755 0.36138408200805872 0 0.27365433582920801 0.38209448907138222 0 0.2837923262241755 0.36138408200805872 0 0.26700170043095228 0.35902174870511799 0 0.27365433582920801 0.38209448907138222 0 0.2837923262241755 0.36138408200805872 0 0.2837923262241755 0.36138408200805872 0 0.27225610983453291 0.34290043005614262 0 0.28285572945417758 0.33947549503717461 0 0.2837923262241755 0.36138408200805872 0 0.26700170043095228 0.35902174870511799 0 0.27225610983453291 0.34290043005614262 0 0.26700170043095228 0.35902174870511799 0 0.25209343493711761 0.34384360721826118 0 0.25098865196977682 0.36368094920390459 0 0.26700170043095228 0.35902174870511799 0 0.25209343493711761 0.34384360721826118 0 0.27225610983453291 0.34290043005614262 0 0.25550852075644759 0.38132082153267183 0 0.27365433582920801 0.38209448907138222 0 0.26700170043095228 0.35902174870511799 0 0.25550852075644759 0.38132082153267183 0 0.26700170043095228 0.35902174870511799 0 0.25098865196977682 0.36368094920390459 0 0.2409591188778441 0.32224351719063687 0 0.26373447507715608 0.32284771405231688 0 0.25355095781732401 0.31025849895018209 0 0.2409591188778441 0.32224351719063687 0 0.25209343493711761 0.34384360721826118 0 0.26373447507715608 0.32284771405231688 0 0.25209343493711761 0.34384360721826118 0 0.26373447507715608 0.32284771405231688 0 0.27225610983453291 0.34290043005614262 0 0.26373447507715608 0.32284771405231688 0 0.27225610983453291 0.34290043005614262 0 0.28378854756504052 0.3293746493535058 0 0.27225610983453291 0.34290043005614262 0 0.28285572945417758 0.33947549503717461 0 0.28378854756504052 0.3293746493535058 0 0.26373447507715608 0.32284771405231688 0 0.28011819829676959 0.31354830039639842 0 0.26373447507715608 0.32284771405231688 0 0.28011819829676959 0.31354830039639842 0 0.28378854756504052 0.3293746493535058 0 0.26373447507715608 0.32284771405231688 0 0.28011819829676959 0.31354830039639842 0 0.25355095781732401 0.31025849895018209 0 0.28011819829676959 0.31354830039639842 0 0.29932205349298918 0.33265962192212062 0 0.29932205349298918 0.33265962192212062 0 0.29389775530587159 0.30572701344561531 0 0.28011819829676959 0.31354830039639842 0 0.28378854756504052 0.3293746493535058 0 0.29932205349298918 0.33265962192212062 0 0.28011819829676959 0.31354830039639842 0 0.29932205349298918 0.33265962192212062 0 0.29389775530587159 0.30572701344561531 0 0.28285572945417758 0.33947549503717461 0 0.28378854756504052 0.3293746493535058 0 0.29393031661914287 0.34067367494473499 0 0.28378854756504052 0.3293746493535058 0 0.29393031661914287 0.34067367494473499 0 0.29932205349298918 0.33265962192212062 0 0.31284200704116932 0.32087349576743551 0 0.31459522809413148 0.34577762006987811 0 0.29932205349298918 0.33265962192212062 0 0.30422008367561959 0.35697921584272257 0 0.29393031661914287 0.34067367494473499 0 0.29932205349298918 0.33265962192212062 0 0.31393538259539933 0.34720253677873109 0 0.29932205349298918 0.33265962192212062 0 0.31393538259539933 0.34720253677873109 0 0.31459522809413148 0.34577762006987811 0 0.29932205349298918 0.33265962192212062 0 0.31284200704116932 0.32087349576743551 0 0.29932205349298918 0.33265962192212062 0 0.29389775530587159 0.30572701344561531 0 0.31284200704116932 0.32087349576743551 0 0.31108878598820811 0.29596937146499308 0 0.29389775530587159 0.30572701344561531 0 0.31284200704116932 0.32087349576743551 0 0.31108878598820811 0.29596937146499308 0 0.31108878598820811 0.29596937146499308 0 0.29389775530587159 0.30572701344561531 0 0.31108878598820811 0.29596937146499308 0 0.30036456332891559 0.29257450236898158 0 0.29389775530587159 0.30572701344561531 0 0.31108878598820811 0.29596937146499308 0 0.30036456332891559 0.29257450236898158 0 0.30923413416193951 0.26962444505592259 0 0.31108878598820811 0.29596937146499308 0 0.30923413416193951 0.26962444505592259 0 0.30036456332891559 0.29257450236898158 0 0.28733546864494541 0.29000082131294658 0 0.2931715884997943 0.28026939818129049 0 0.30036456332891559 0.29257450236898158 0 0.29060933247765969 0.2959124630418466 0 0.29295305193470189 0.30103639262344511 0 0.30036456332891559 0.29257450236898158 0 0.29060933247765969 0.2959124630418466 0 0.28733546864494541 0.29000082131294658 0 0.29060933247765969 0.2959124630418466 0 0.28733546864494541 0.29000082131294658 0 0.28394673273545878 0.29872331963069759 0 0.28733546864494541 0.29000082131294658 0 0.28394673273545878 0.29872331963069759 0 0.27688091416439198 0.29010874052946017 0 0.28733546864494541 0.29000082131294658 0 0.27688091416439198 0.29010874052946017 0 0.28094511788239518 0.2803597398392379 0 0.28733546864494541 0.29000082131294658 0 0.28094511788239518 0.2803597398392379 0 0.2931715884997943 0.28026939818129049 0 0.30036456332891559 0.29257450236898158 0 0.29389775530587159 0.30572701344561531 0 0.29295305193470189 0.30103639262344511 0 0.29060933247765969 0.2959124630418466 0 0.29295305193470189 0.30103639262344511 0 0.28394673273545878 0.29872331963069759 0 0.29389775530587159 0.30572701344561531 0 0.29295305193470189 0.30103639262344511 0 0.29389775530587159 0.30572701344561531 0 0.29295305193470189 0.30103639262344511 0 0.28394673273545878 0.29872331963069759 0 0.28011819829676959 0.31354830039639842 0 0.29389775530587159 0.30572701344561531 0 0.28011819829676959 0.31354830039639842 0 0.29389775530587159 0.30572701344561531 0 0.28394673273545878 0.29872331963069759 0 0.28011819829676959 0.31354830039639842 0 0.28394673273545878 0.29872331963069759 0 0.26114136392625231 0.29466290579777921 0 0.28011819829676959 0.31354830039639842 0 0.26114136392625231 0.29466290579777921 0 0.28394673273545878 0.29872331963069759 0 0.27688091416439198 0.29010874052946017 0 0.26114136392625231 0.29466290579777921 0 0.27688091416439198 0.29010874052946017 0 0.26905360177949023 0.28372872748443712 0 0.26114136392625231 0.29466290579777921 0 0.27688091416439198 0.29010874052946017 0 0.26905360177949023 0.28372872748443712 0 0.28094511788239518 0.2803597398392379 0 0.26905360177949023 0.28372872748443712 0 0.26114136392625231 0.29466290579777921 0 0.25379398063890612 0.2819538714848881 0 0.2461413102973915 0.29166396738641759 0 0.26114136392625231 0.29466290579777921 0 0.25379398063890612 0.2819538714848881 0 0.2461413102973915 0.29166396738641759 0 0.26114136392625231 0.29466290579777921 0 0.25355095781732401 0.31025849895018209 0 0.28011819829676959 0.31354830039639842 0 0.26114136392625231 0.29466290579777921 0 0.25355095781732401 0.31025849895018209 0 0.25658548118012198 0.26857264459383778 0 0.27329171064617902 0.2663785407990521 0 0.27066233427704572 0.23645858598229849 0 0.24042077141466489 0.2450977281648864 0 0.25658548118012198 0.26857264459383778 0 0.27066233427704572 0.23645858598229849 0 0.25658548118012198 0.26857264459383778 0 0.26534232196502261 0.2749844452210588 0 0.27329171064617902 0.2663785407990521 0 0.25658548118012198 0.26857264459383778 0 0.27329171064617902 0.2663785407990521 0 0.2398792517140651 0.27076674838862352 0 0.25379398063890612 0.2819538714848881 0 0.25658548118012198 0.26857264459383778 0 0.26905360177949023 0.28372872748443712 0 0.25379398063890612 0.2819538714848881 0 0.26534232196502261 0.2749844452210588 0 0.25379398063890612 0.2819538714848881 0 0.25658548118012198 0.26857264459383778 0 0.26534232196502261 0.2749844452210588 0 0.26534232196502261 0.2749844452210588 0 0.27329171064617902 0.2663785407990521 0 0.27398683558041548 0.27428844174307859 0 0.26905360177949023 0.28372872748443712 0 0.26534232196502261 0.2749844452210588 0 0.27398683558041548 0.27428844174307859 0 0.26905360177949023 0.28372872748443712 0 0.27398683558041548 0.27428844174307859 0 0.28094511788239518 0.2803597398392379 0 0.27398683558041548 0.27428844174307859 0 0.28094511788239518 0.2803597398392379 0 0.27881358774318887 0.27092902804413449 0 0.27329171064617902 0.2663785407990521 0 0.27398683558041548 0.27428844174307859 0 0.27881358774318887 0.27092902804413449 0 0.27329171064617902 0.2663785407990521 0 0.27398683558041548 0.27428844174307859 0 0.27329171064617902 0.2663785407990521 0 0.27648578252568601 0.26595904906120171 0 0.27881358774318887 0.27092902804413449 0 0.27329171064617902 0.2663785407990521 0 0.27648578252568601 0.26595904906120171 0 0.27648578252568601 0.26595904906120171 0 0.27881358774318887 0.27092902804413449 0 0.28191690603924979 0.26800175890168909 0 0.27329171064617902 0.2663785407990521 0 0.27648578252568601 0.26595904906120171 0 0.27066233427704572 0.23645858598229849 0 0.27648578252568601 0.26595904906120171 0 0.28609255408280621 0.2630981448794143 0 0.27066233427704572 0.23645858598229849 0 0.27329171064617902 0.2663785407990521 0 0.27066233427704572 0.23645858598229849 0 0.28609255408280621 0.2630981448794143 0 0.2936730814525067 0.25351417328678588 0 0.27066233427704572 0.23645858598229849 0 0.28609255408280621 0.2630981448794143 0 0.2936730814525067 0.25351417328678588 0 0.29459087410746448 0.26815091733426971 0 0.28094511788239518 0.2803597398392379 0 0.28627569980531831 0.27202081362200592 0 0.2931715884997943 0.28026939818129049 0 0.28094511788239518 0.2803597398392379 0 0.27881358774318887 0.27092902804413449 0 0.28627569980531831 0.27202081362200592 0 0.28609255408280621 0.2630981448794143 0 0.28627569980531831 0.27202081362200592 0 0.29459087410746448 0.26815091733426971 0 0.27648578252568601 0.26595904906120171 0 0.28609255408280621 0.2630981448794143 0 0.28191690603924979 0.26800175890168909 0 0.28609255408280621 0.2630981448794143 0 0.28627569980531831 0.27202081362200592 0 0.28191690603924979 0.26800175890168909 0 0.27881358774318887 0.27092902804413449 0 0.28627569980531831 0.27202081362200592 0 0.28191690603924979 0.26800175890168909 0 0.28627569980531831 0.27202081362200592 0 0.29459087410746448 0.26815091733426971 0 0.2931715884997943 0.28026939818129049 0 0.29459087410746448 0.26815091733426971 0 0.2931715884997943 0.28026939818129049 0 0.30923413416193951 0.26962444505592259 0 0.30036456332891559 0.29257450236898158 0 0.2931715884997943 0.28026939818129049 0 0.30923413416193951 0.26962444505592259 0 0.2936730814525067 0.25351417328678588 0 0.29459087410746448 0.26815091733426971 0 0.30923413416193951 0.26962444505592259 0 0.2936730814525067 0.25351417328678588 0 0.30923413416193951 0.26962444505592259 0 0.30737948233567181 0.24327951864685221 0 0.30923413416193951 0.26962444505592259 0 0.30737948233567181 0.24327951864685221 0 0.30923413416193951 0.26962444505592259 0 0.30737948233567181 0.24327951864685221 0 0.32752165000527478 0.2494506367322406 0 0.30923413416193951 0.26962444505592259 0 0.32856292501340317 0.26519058862431549 0 0.32752165000527478 0.2494506367322406 0 0.32856292501340317 0.26519058862431549 0 0.33739194932947308 0.25606288144976419 0 0.32752165000527478 0.2494506367322406 0 0.32856292501340317 0.26519058862431549 0 0.33886480615030068 0.26425122585030519 0 0.33739194932947308 0.25606288144976419 0 0.33886480615030068 0.26425122585030519 0 0.33739194932947308 0.25606288144976419 0 0.34521489598246757 0.25925364839075349 0 0.33739194932947308 0.25606288144976419 0 0.34521489598246757 0.25925364839075349 0 0.34313496122551251 0.24720233694186791 0 0.33739194932947308 0.25606288144976419 0 0.34313496122551251 0.24720233694186791 0 0.32752165000527478 0.2494506367322406 0 0.33430913438313081 0.27349244921816018 0 0.32830561027208671 0.2861970890166875 0 0.34552243455596432 0.27642480656837992 0 0.34120766825394983 0.27087722507928519 0 0.33430913438313081 0.27349244921816018 0 0.34552243455596432 0.27642480656837992 0 0.33886480615030068 0.26425122585030519 0 0.34120766825394983 0.27087722507928519 0 0.33430913438313081 0.27349244921816018 0 0.33886480615030068 0.26425122585030519 0 0.34120766825394983 0.27087722507928519 0 0.34800573718580602 0.26909421430621699 0 0.32856292501340317 0.26519058862431549 0 0.33886480615030068 0.26425122585030519 0 0.33430913438313081 0.27349244921816018 0 0.32856292501340317 0.26519058862431549 0 0.33430913438313081 0.27349244921816018 0 0.32268247378220632 0.27562338342233028 0 0.33430913438313081 0.27349244921816018 0 0.32268247378220632 0.27562338342233028 0 0.32830561027208671 0.2861970890166875 0 0.30923413416193951 0.26962444505592259 0 0.32856292501340317 0.26519058862431549 0 0.32268247378220632 0.27562338342233028 0 0.31108878598820811 0.29596937146499308 0 0.30923413416193951 0.26962444505592259 0 0.32268247378220632 0.27562338342233028 0 0.31108878598820811 0.29596937146499308 0 0.32830561027208671 0.2861970890166875 0 0.31108878598820811 0.29596937146499308 0 0.32268247378220632 0.27562338342233028 0 0.32830561027208671 0.2861970890166875 0 0.31108878598820811 0.29596937146499308 0 0.32171634026658108 0.30608154596985138 0 0.32830561027208671 0.2861970890166875 0 0.31284200704116932 0.32087349576743551 0 0.31108878598820811 0.29596937146499308 0 0.32171634026658108 0.30608154596985138 0 0.32667330410293027 0.31735953843879772 0 0.32171634026658108 0.30608154596985138 0 0.33451445720559092 0.30716288212349518 0 0.32171634026658108 0.30608154596985138 0 0.33451445720559092 0.30716288212349518 0 0.32830561027208671 0.2861970890166875 0 0.33451445720559092 0.30716288212349518 0 0.32830561027208671 0.2861970890166875 0 0.34505481773457231 0.29493376226711532 0 0.32830561027208671 0.2861970890166875 0 0.34552243455596432 0.27642480656837992 0 0.32830561027208671 0.2861970890166875 0 0.34269345959784819 0.28538368188026891 0 0.34505481773457231 0.29493376226711532 0 0.32830561027208671 0.2861970890166875 0 0.34269345959784819 0.28538368188026891 0 0.34552243455596432 0.27642480656837992 0 0.34269345959784819 0.28538368188026891 0 0.34505481773457231 0.29493376226711532 0 0.35189097582876988 0.28397906966889291 0 0.34269345959784819 0.28538368188026891 0 0.35189097582876988 0.28397906966889291 0 0.34552243455596432 0.27642480656837992 0 0.34505481773457231 0.29493376226711532 0 0.35189097582876988 0.28397906966889291 0 0.36239523109635591 0.29291196706278622 0 0.35189097582876988 0.28397906966889291 0 0.36239523109635591 0.29291196706278622 0 0.36274600908310478 0.27904758609522279 0 0.35388008703093032 0.31254881783171862 0 0.33451445720559092 0.30716288212349518 0 0.34505481773457231 0.29493376226711532 0 0.35388008703093032 0.31254881783171862 0 0.34505481773457231 0.29493376226711532 0 0.36239523109635591 0.29291196706278622 0 0.37242381502201288 0.31848563209975028 0 0.35388008703093032 0.31254881783171862 0 0.37758584201708162 0.30180839083820632 0 0.35388008703093032 0.31254881783171862 0 0.36239523109635591 0.29291196706278622 0 0.37758584201708162 0.30180839083820632 0 0.36239523109635591 0.29291196706278622 0 0.38374152899958403 0.28430458803924302 0 0.37758584201708162 0.30180839083820632 0 0.36239523109635591 0.29291196706278622 0 0.36274600908310478 0.27904758609522279 0 0.38374152899958403 0.28430458803924302 0 0.36274600908310478 0.27904758609522279 0 0.36473573690279898 0.26693898170179509 0 0.38374152899958403 0.28430458803924302 0 0.36473573690279898 0.26693898170179509 0 0.38374152899958403 0.28430458803924302 0 0.36473573690279898 0.26693898170179509 0 0.37239092357773612 0.26344076936216931 0 0.38374152899958403 0.28430458803924302 0 0.36274600908310478 0.27904758609522279 0 0.36024199529852541 0.26899249953208171 0 0.36473573690279898 0.26693898170179509 0 0.36024199529852541 0.26899249953208171 0 0.36473573690279898 0.26693898170179509 0 0.35712244509868379 0.26626362415317228 0 0.36024199529852541 0.26899249953208171 0 0.36473573690279898 0.26693898170179509 0 0.36205211341359528 0.25720370919929242 0 0.35129337289024398 0.25071331902328869 0 0.37433246422177069 0.24680817574415501 0 0.37239092357773612 0.26344076936216931 0 0.36205211341359528 0.25720370919929242 0 0.37433246422177069 0.24680817574415501 0 0.37239092357773612 0.26344076936216931 0 0.36205211341359528 0.25720370919929242 0 0.36473573690279898 0.26693898170179509 0 0.37239092357773612 0.26344076936216931 0 0.36205211341359528 0.25720370919929242 0 0.37433246422177069 0.24680817574415501 0 0.36473573690279898 0.26693898170179509 0 0.37239092357773612 0.26344076936216931 0 0.36205211341359528 0.25720370919929242 0 0.36473573690279898 0.26693898170179509 0 0.36205211341359528 0.25720370919929242 0 0.3579144201315772 0.26070633950783501 0 0.36205211341359528 0.25720370919929242 0 0.3579144201315772 0.26070633950783501 0 0.36473573690279898 0.26693898170179509 0 0.3579144201315772 0.26070633950783501 0 0.35712244509868379 0.26626362415317228 0 0.36473573690279898 0.26693898170179509 0 0.3579144201315772 0.26070633950783501 0 0.3579144201315772 0.26070633950783501 0 0.34800573718580602 0.26909421430621699 0 0.3579144201315772 0.26070633950783501 0 0.34800573718580602 0.26909421430621699 0 0.35712244509868379 0.26626362415317228 0 0.36205211341359528 0.25720370919929242 0 0.35129337289024398 0.25071331902328869 0 0.36205211341359528 0.25720370919929242 0 0.3579144201315772 0.26070633950783501 0 0.35129337289024398 0.25071331902328869 0 0.3579144201315772 0.26070633950783501 0 0.34313496122551251 0.24720233694186791 0 0.3579144201315772 0.26070633950783501 0 0.34521489598246757 0.25925364839075349 0 0.34313496122551251 0.24720233694186791 0 0.3579144201315772 0.26070633950783501 0 0.35129337289024398 0.25071331902328869 0 0.34313496122551251 0.24720233694186791 0 0.3579144201315772 0.26070633950783501 0 0.34521489598246757 0.25925364839075349 0 0.34800573718580602 0.26909421430621699 0 0.33886480615030068 0.26425122585030519 0 0.34521489598246757 0.25925364839075349 0 0.34800573718580602 0.26909421430621699 0 0.34120766825394983 0.27087722507928519 0 0.34800573718580602 0.26909421430621699 0 0.34552243455596432 0.27642480656837992 0 0.34800573718580602 0.26909421430621699 0 0.34552243455596432 0.27642480656837992 0 0.3541756276167734 0.27527023541701712 0 0.35189097582876988 0.28397906966889291 0 0.34552243455596432 0.27642480656837992 0 0.3541756276167734 0.27527023541701712 0 0.36274600908310478 0.27904758609522279 0 0.36024199529852541 0.26899249953208171 0 0.3541756276167734 0.27527023541701712 0 0.35189097582876988 0.28397906966889291 0 0.36274600908310478 0.27904758609522279 0 0.3541756276167734 0.27527023541701712 0 0.34800573718580602 0.26909421430621699 0 0.35712244509868379 0.26626362415317228 0 0.35487793073929191 0.26969132861775619 0 0.36024199529852541 0.26899249953208171 0 0.3541756276167734 0.27527023541701712 0 0.35487793073929191 0.26969132861775619 0 0.36024199529852541 0.26899249953208171 0 0.35712244509868379 0.26626362415317228 0 0.35487793073929191 0.26969132861775619 0 0.34800573718580602 0.26909421430621699 0 0.3541756276167734 0.27527023541701712 0 0.35487793073929191 0.26969132861775619 0 0.39234967427857032 0.27548121956104138 0 0.4123084249794039 0.28752166975991439 0 0.40638701440777703 0.26988153576049562 0 0.39234967427857032 0.27548121956104138 0 0.39747553955862802 0.26445692624988271 0 0.40638701440777703 0.26988153576049562 0 0.40136623305981051 0.25524699454130362 0 0.39747553955862802 0.26445692624988271 0 0.40638701440777703 0.26988153576049562 0 0.38819983573514899 0.25621652599183392 0 0.40988895625210908 0.24630518715062241 0 0.40136623305981051 0.25524699454130362 0 0.38819983573514899 0.25621652599183392 0 0.40988895625210908 0.24630518715062241 0 0.39234967427857032 0.27548121956104138 0 0.39747553955862802 0.26445692624988271 0 0.38819983573514899 0.25621652599183392 0 0.40136623305981051 0.25524699454130362 0 0.39747553955862802 0.26445692624988271 0 0.38819983573514899 0.25621652599183392 0 0.37239092357773612 0.26344076936216931 0 0.38819983573514899 0.25621652599183392 0 0.37433246422177069 0.24680817574415501 0 0.37239092357773612 0.26344076936216931 0 0.39234967427857032 0.27548121956104138 0 0.38819983573514899 0.25621652599183392 0 0.37239092357773612 0.26344076936216931 0 0.38819983573514899 0.25621652599183392 0 0.38819983573514899 0.25621652599183392 0 0.37433246422177069 0.24680817574415501 0 0.37239092357773612 0.26344076936216931 0 0.39234967427857032 0.27548121956104138 0 0.38374152899958403 0.28430458803924302 0 0.37239092357773612 0.26344076936216931 0 0.39234967427857032 0.27548121956104138 0 0.38374152899958403 0.28430458803924302 0 0.37758584201708162 0.30180839083820632 0 0.4027473210963689 0.30167019437669101 0 0.37758584201708162 0.30180839083820632 0 0.4027473210963689 0.30167019437669101 0 0.39475226344503528 0.31986153454831351 0 0.39234967427857032 0.27548121956104138 0 0.38374152899958403 0.28430458803924302 0 0.40124862018476132 0.28852958314741939 0 0.39234967427857032 0.27548121956104138 0 0.4123084249794039 0.28752166975991439 0 0.38374152899958403 0.28430458803924302 0 0.4027473210963689 0.30167019437669101 0 0.38374152899958403 0.28430458803924302 0 0.4027473210963689 0.30167019437669101 0 0.40124862018476132 0.28852958314741939 0 0.39234967427857032 0.27548121956104138 0 0.40124862018476132 0.28852958314741939 0 0.4123084249794039 0.28752166975991439 0 0.4027473210963689 0.30167019437669101 0 0.40124862018476132 0.28852958314741939 0 0.40762855244611779 0.29487775289484719 0 0.4123084249794039 0.28752166975991439 0 0.42587183906764448 0.29570402617610769 0 0.41809756493663969 0.27445117550591253 0 0.4123084249794039 0.28752166975991439 0 0.40762855244611779 0.29487775289484719 0 0.41477867241230132 0.30050528463175907 0 0.40124862018476132 0.28852958314741939 0 0.4123084249794039 0.28752166975991439 0 0.40762855244611779 0.29487775289484719 0 0.4123084249794039 0.28752166975991439 0 0.42587183906764448 0.29570402617610769 0 0.4123084249794039 0.28752166975991439 0 0.41477867241230132 0.30050528463175907 0 0.42587183906764448 0.29570402617610769 0 0.4027473210963689 0.30167019437669101 0 0.42175311319315378 0.31903580071413878 0 0.4027473210963689 0.30167019437669101 0 0.41477867241230132 0.30050528463175907 0 0.42175311319315378 0.31903580071413878 0 0.41477867241230132 0.30050528463175907 0 0.42587183906764448 0.29570402617610769 0 0.42175311319315378 0.31903580071413878 0 0.4027473210963689 0.30167019437669101 0 0.40762855244611779 0.29487775289484719 0 0.41477867241230132 0.30050528463175907 0 0.42587183906764448 0.29570402617610769 0 0.43331537217879168 0.31605271661384698 0 0.42587183906764448 0.29570402617610769 0 0.43331537217879168 0.31605271661384698 0 0.42175311319315378 0.31903580071413878 0 0.43502198273305359 0.30122400339147831 0 0.42587183906764448 0.29570402617610769 0 0.43331537217879168 0.31605271661384698 0 0.43502198273305359 0.30122400339147831 0 0.42587183906764448 0.29570402617610769 0 0.43502198273305359 0.30122400339147831 0 0.44120383393604778 0.30665068379945642 0 0.43331537217879168 0.31605271661384698 0 0.42587183906764448 0.29570402617610769 0 0.41809756493663969 0.27445117550591253 0 0.42958983924355798 0.2845593316833136 0 0.42587183906764448 0.29570402617610769 0 0.41809756493663969 0.27445117550591253 0 0.43502198273305359 0.30122400339147831 0 0.43452169060029783 0.29230176998389701 0 0.44277947735781531 0.29500013123726992 0 0.43502198273305359 0.30122400339147831 0 0.42587183906764448 0.29570402617610769 0 0.43452169060029783 0.29230176998389701 0 0.42958983924355798 0.2845593316833136 0 0.42587183906764448 0.29570402617610769 0 0.43452169060029783 0.29230176998389701 0 0.42958983924355798 0.2845593316833136 0 0.43052317084723352 0.2752303394152934 0 0.43934531459941922 0.28502135743131479 0 0.42958983924355798 0.2845593316833136 0 0.43452169060029783 0.29230176998389701 0 0.43934531459941922 0.28502135743131479 0 0.43052317084723352 0.2752303394152934 0 0.41809756493663969 0.27445117550591253 0 0.42944117757820288 0.2488400096079757 0 0.42958983924355798 0.2845593316833136 0 0.43052317084723352 0.2752303394152934 0 0.41809756493663969 0.27445117550591253 0 0.4123084249794039 0.28752166975991439 0 0.41809756493663969 0.27445117550591253 0 0.4123084249794039 0.28752166975991439 0 0.41809756493663969 0.27445117550591253 0 0.40638701440777703 0.26988153576049562 0 0.41809756493663969 0.27445117550591253 0 0.41279103691012498 0.25994450313697859 0 0.41809756493663969 0.27445117550591253 0 0.40638701440777703 0.26988153576049562 0 0.41279103691012498 0.25994450313697859 0 0.41809756493663969 0.27445117550591253 0 0.41279103691012498 0.25994450313697859 0 0.41916099293097348 0.25146074686672809 0 0.40136623305981051 0.25524699454130362 0 0.41279103691012498 0.25994450313697859 0 0.40988895625210908 0.24630518715062241 0 0.41279103691012498 0.25994450313697859 0 0.41916099293097348 0.25146074686672809 0 0.40988895625210908 0.24630518715062241 0 0.40136623305981051 0.25524699454130362 0 0.40638701440777703 0.26988153576049562 0 0.41279103691012498 0.25994450313697859 0 0.43052317084723352 0.2752303394152934 0 0.43899177796242839 0.26610425196384252 0 0.42944117757820288 0.2488400096079757 0 0.41809756493663969 0.27445117550591253 0 0.42944117757820288 0.2488400096079757 0 0.41809756493663969 0.27445117550591253 0 0.41916099293097348 0.25146074686672809 0 0.42944117757820288 0.2488400096079757 0 0.43899177796242839 0.26610425196384252 0 0.42944117757820288 0.2488400096079757 0 0.4452637393375507 0.24893853495298651 0 0.43899177796242839 0.26610425196384252 0 0.45855194777639302 0.26477027616114007 0 0.46148640446645939 0.24613030425673829 0 0.43899177796242839 0.26610425196384252 0 0.46148640446645939 0.24613030425673829 0 0.4452637393375507 0.24893853495298651 0 0.43899177796242839 0.26610425196384252 0 0.46148640446645939 0.24613030425673829 0 0.43899177796242839 0.26610425196384252 0 0.44789714637868888 0.27619540030012502 0 0.45855194777639302 0.26477027616114007 0 0.43052317084723352 0.2752303394152934 0 0.43899177796242839 0.26610425196384252 0 0.44789714637868888 0.27619540030012502 0 0.43052317084723352 0.2752303394152934 0 0.44789714637868888 0.27619540030012502 0 0.43934531459941922 0.28502135743131479 0 0.46655677330970818 0.27936704884189378 0 0.45855194777639302 0.26477027616114007 0 0.47402991043764547 0.26000673938364371 0 0.44789714637868888 0.27619540030012502 0 0.46655677330970818 0.27936704884189378 0 0.45855194777639302 0.26477027616114007 0 0.45855194777639302 0.26477027616114007 0 0.47402991043764547 0.26000673938364371 0 0.46148640446645939 0.24613030425673829 0 0.47402991043764547 0.26000673938364371 0 0.46148640446645939 0.24613030425673829 0 0.46655677330970818 0.27936704884189378 0 0.47402991043764547 0.26000673938364371 0 0.48657341640883478 0.27388317451054628 0 0.47402991043764547 0.26000673938364371 0 0.48657341640883478 0.27388317451054628 0 0.5 0.27252785499931792 0 0.48657341640883478 0.27388317451054628 0 0.4999999999999975 0.28873652704266378 0 0.5 0.27252785499931792 0 0.48657341640883478 0.27388317451054628 0 0.50000000000007749 0.25631918295597189 0 0.48657341640883478 0.27388317451054628 0 0.49329297654361298 0.25000579641114579 0 0.48657341640883478 0.27388317451054628 0 0.50000000000007749 0.25631918295597189 0 0.49329297654361298 0.25000579641114579 0 0.47402991043764547 0.26000673938364371 0 0.48657341640883478 0.27388317451054628 0 0.49329297654361298 0.25000579641114579 0 0.50000000000007749 0.25631918295597189 0 0.49329297654361298 0.25000579641114579 0 0.49389594506739071 0.24786319970320819 0 0.50000000000007749 0.25631918295597189 0 0.49329297654361298 0.25000579641114579 0 0.50000000000000044 0.31130203096599329 0 0.48106887080233901 0.29344310314801259 0 0.47556432519583758 0.31300303178547728 0 0.50000000000000044 0.31130203096599329 0 0.47556432519583758 0.31300303178547728 0 0.50000000000000044 0.31130203096599329 0 0.4999999999999975 0.28873652704266378 0 0.48106887080233901 0.29344310314801259 0 0.48657341640883478 0.27388317451054628 0 0.4999999999999975 0.28873652704266378 0 0.48106887080233901 0.29344310314801259 0 0.48657341640883478 0.27388317451054628 0 0.4999999999999975 0.28873652704266378 0 0.48657341640883478 0.27388317451054628 0 0.48106887080233901 0.29344310314801259 0 0.46655677330970818 0.27936704884189378 0 0.48106887080233901 0.29344310314801259 0 0.46493288144562928 0.29934496471893007 0 0.46655677330970818 0.27936704884189378 0 0.48657341640883478 0.27388317451054628 0 0.48106887080233901 0.29344310314801259 0 0.48106887080233901 0.29344310314801259 0 0.47556432519583758 0.31300303178547728 0 0.48106887080233901 0.29344310314801259 0 0.46493288144562928 0.29934496471893007 0 0.47556432519583758 0.31300303178547728 0 0.46493288144562928 0.29934496471893007 0 0.45243563001948578 0.28881608058770741 0 0.44925563633071558 0.30323073023211949 0 0.46493288144562928 0.29934496471893007 0 0.45856110140877188 0.31418664950127489 0 0.47556432519583758 0.31300303178547728 0 0.46493288144562928 0.29934496471893007 0 0.44925563633071558 0.30323073023211949 0 0.45856110140877188 0.31418664950127489 0 0.44789714637868888 0.27619540030012502 0 0.46655677330970818 0.27936704884189378 0 0.45243563001948578 0.28881608058770741 0 0.46655677330970818 0.27936704884189378 0 0.46493288144562928 0.29934496471893007 0 0.45243563001948578 0.28881608058770741 0 0.44789714637868888 0.27619540030012502 0 0.45243563001948578 0.28881608058770741 0 0.43934531459941922 0.28502135743131479 0 0.45243563001948578 0.28881608058770741 0 0.44277947735781531 0.29500013123726992 0 0.44925563633071558 0.30323073023211949 0 0.45243563001948578 0.28881608058770741 0 0.44277947735781531 0.29500013123726992 0 0.43934531459941922 0.28502135743131479 0 0.43452169060029783 0.29230176998389701 0 0.44277947735781531 0.29500013123726992 0 0.43934531459941922 0.28502135743131479 0 0.44925563633071558 0.30323073023211949 0 0.44155787762170617 0.31537026721707229 0 0.45856110140877188 0.31418664950127489 0 0.44277947735781531 0.29500013123726992 0 0.44925563633071558 0.30323073023211949 0 0.44120383393604778 0.30665068379945642 0 0.43502198273305359 0.30122400339147831 0 0.44277947735781531 0.29500013123726992 0 0.44120383393604778 0.30665068379945642 0 0.44925563633071558 0.30323073023211949 0 0.44120383393604778 0.30665068379945642 0 0.44155787762170617 0.31537026721707229 0 0.44155787762170617 0.31537026721707229 0 0.45146605454401051 0.32587356726360739 0 0.45856110140877188 0.31418664950127489 0 0.44155787762170617 0.31537026721707229 0 0.44075890528993927 0.33640140705158611 0 0.43331537217879168 0.31605271661384698 0 0.44155787762170617 0.31537026721707229 0 0.45146605454401051 0.32587356726360739 0 0.44075890528993927 0.33640140705158611 0 0.44120383393604778 0.30665068379945642 0 0.44155787762170617 0.31537026721707229 0 0.43331537217879168 0.31605271661384698 0 0.44155787762170617 0.31537026721707229 0 0.45856110140877188 0.31418664950127489 0 0.45146605454401051 0.32587356726360739 0 0.44075890528993927 0.33640140705158611 0 0.45805007710280682 0.3369223983317936 0 0.45805007710280682 0.3369223983317936 0 0.47058631262408812 0.33720026933607422 0 0.46117282047840102 0.35505361650245482 0 0.44075890528993927 0.33640140705158611 0 0.45805007710280682 0.3369223983317936 0 0.46117282047840102 0.35505361650245482 0 0.45146605454401051 0.32587356726360739 0 0.45805007710280682 0.3369223983317936 0 0.46147871109123861 0.32694892394476449 0 0.46147871109123861 0.32694892394476449 0 0.47208110575930701 0.32538035200000831 0 0.47058631262408812 0.33720026933607422 0 0.45805007710280682 0.3369223983317936 0 0.46147871109123861 0.32694892394476449 0 0.47058631262408812 0.33720026933607422 0 0.45856110140877188 0.31418664950127489 0 0.47556432519583758 0.31300303178547728 0 0.45856110140877188 0.31418664950127489 0 0.47556432519583758 0.31300303178547728 0 0.47208110575930701 0.32538035200000831 0 0.45146605454401051 0.32587356726360739 0 0.45856110140877188 0.31418664950127489 0 0.46147871109123861 0.32694892394476449 0 0.45856110140877188 0.31418664950127489 0 0.46147871109123861 0.32694892394476449 0 0.47208110575930701 0.32538035200000831 0 0.47556432519583758 0.31300303178547728 0 0.47208110575930701 0.32538035200000831 0 0.47556432519583758 0.31300303178547728 0 0.47208110575930701 0.32538035200000831 0 0.48500228227780029 0.32753183580512402 0 0.47058631262408812 0.33720026933607422 0 0.48500228227780029 0.32753183580512402 0 0.48324129394839349 0.34837948323780232 0 0.47208110575930701 0.32538035200000831 0 0.47058631262408812 0.33720026933607422 0 0.48500228227780029 0.32753183580512402 0 0.5 0.33998792978980141 0 0.48500228227780029 0.32753183580512402 0 0.48324129394839349 0.34837948323780232 0 0.50000000000000044 0.31130203096599329 0 0.47556432519583758 0.31300303178547728 0 0.48500228227780029 0.32753183580512402 0 0.50000000000000044 0.31130203096599329 0 0.5 0.33998792978980141 0 0.48500228227780029 0.32753183580512402 0 0.5 0.36867382861360948 0 0.47912774158541571 0.36602195366492202 0 0.47746745865156709 0.38808319056337381 0 0.5 0.36867382861360948 0 0.48324129394839349 0.34837948323780232 0 0.47912774158541571 0.36602195366492202 0 0.5 0.33998792978980141 0 0.5 0.36867382861360948 0 0.48324129394839349 0.34837948323780232 0 0.47058631262408812 0.33720026933607422 0 0.48324129394839349 0.34837948323780232 0 0.46117282047840102 0.35505361650245482 0 0.48324129394839349 0.34837948323780232 0 0.47912774158541571 0.36602195366492202 0 0.46117282047840102 0.35505361650245482 0 0.44979370558567522 0.3611002095744556 0 0.45882850588141022 0.38579901209732548 0 0.46422767234280871 0.37214312732492699 0 0.44979370558567522 0.3611002095744556 0 0.45882850588141022 0.38579901209732548 0 0.47912774158541571 0.36602195366492202 0 0.46422767234280871 0.37214312732492699 0 0.46117282047840102 0.35505361650245482 0 0.46422767234280871 0.37214312732492699 0 0.46117282047840102 0.35505361650245482 0 0.44979370558567522 0.3611002095744556 0 0.44075890528993927 0.33640140705158611 0 0.44979370558567522 0.3611002095744556 0 0.43483828726554541 0.35187316339851438 0 0.44075890528993927 0.33640140705158611 0 0.44979370558567522 0.3611002095744556 0 0.44075890528993927 0.33640140705158611 0 0.46117282047840102 0.35505361650245482 0 0.44979370558567522 0.3611002095744556 0 0.44075890528993927 0.33640140705158611 0 0.46117282047840102 0.35505361650245482 0 0.44979370558567522 0.3611002095744556 0 0.43648588796058291 0.36613557916244188 0 0.45882850588141022 0.38579901209732548 0 0.44979370558567522 0.3611002095744556 0 0.43648588796058291 0.36613557916244188 0 0.43483828726554541 0.35187316339851438 0 0.43648588796058291 0.36613557916244188 0 0.41960292257366838 0.3725677488658054 0 0.43298996322746641 0.37992802155277772 0 0.43648588796058291 0.36613557916244188 0 0.41960292257366838 0.3725677488658054 0 0.42173944792527929 0.35509894011838611 0 0.41960292257366838 0.3725677488658054 0 0.42173944792527929 0.35509894011838611 0 0.4044953033561417 0.35818227392217072 0 0.41960292257366838 0.3725677488658054 0 0.4044953033561417 0.35818227392217072 0 0.40676419074506648 0.3823745547728854 0 0.42173944792527929 0.35509894011838611 0 0.40835519815695343 0.33848997737759379 0 0.4044953033561417 0.35818227392217072 0 0.42173944792527929 0.35509894011838611 0 0.42541348956625058 0.34062968108570191 0 0.40835519815695343 0.33848997737759379 0 0.42173944792527929 0.35509894011838611 0 0.43483828726554541 0.35187316339851438 0 0.42541348956625058 0.34062968108570191 0 0.43648588796058291 0.36613557916244188 0 0.42173944792527929 0.35509894011838611 0 0.43483828726554541 0.35187316339851438 0 0.44075890528993927 0.33640140705158611 0 0.42541348956625058 0.34062968108570191 0 0.42175311319315378 0.31903580071413878 0 0.44075890528993927 0.33640140705158611 0 0.43483828726554541 0.35187316339851438 0 0.42541348956625058 0.34062968108570191 0 0.44075890528993927 0.33640140705158611 0 0.43331537217879168 0.31605271661384698 0 0.44075890528993927 0.33640140705158611 0 0.42175311319315378 0.31903580071413878 0 0.44075890528993927 0.33640140705158611 0 0.43331537217879168 0.31605271661384698 0 0.42175311319315378 0.31903580071413878 0 0.42175311319315378 0.31903580071413878 0 0.40835519815695343 0.33848997737759379 0 0.39475226344503528 0.31986153454831351 0 0.4027473210963689 0.30167019437669101 0 0.42175311319315378 0.31903580071413878 0 0.39475226344503528 0.31986153454831351 0 0.42541348956625058 0.34062968108570191 0 0.42175311319315378 0.31903580071413878 0 0.40835519815695343 0.33848997737759379 0 0.40835519815695343 0.33848997737759379 0 0.39475226344503528 0.31986153454831351 0 0.3859078394783137 0.34078964197741879 0 0.37242381502201288 0.31848563209975028 0 0.37758584201708162 0.30180839083820632 0 0.39475226344503528 0.31986153454831351 0 0.37242381502201288 0.31848563209975028 0 0.39475226344503528 0.31986153454831351 0 0.3859078394783137 0.34078964197741879 0 0.37137520868688728 0.35735691989580309 0 0.3859078394783137 0.34078964197741879 0 0.38822431756124842 0.36594375669041818 0 0.37137520868688728 0.35735691989580309 0 0.38822431756124842 0.36594375669041818 0 0.37649031642695507 0.37649810736321893 0 0.38822431756124842 0.36594375669041818 0 0.4044953033561417 0.35818227392217072 0 0.40676419074506648 0.3823745547728854 0 0.3859078394783137 0.34078964197741879 0 0.38822431756124842 0.36594375669041818 0 0.4044953033561417 0.35818227392217072 0 0.40835519815695343 0.33848997737759379 0 0.3859078394783137 0.34078964197741879 0 0.4044953033561417 0.35818227392217072 0 0.40091388840723408 0.39753443003096961 0 0.39021237260837283 0.40765978390943097 0 0.40601124969011448 0.41210618327503518 0 0.40091388840723408 0.39753443003096961 0 0.38557234876117491 0.39019183481600772 0 0.39021237260837283 0.40765978390943097 0 0.40091388840723408 0.39753443003096961 0 0.38557234876117491 0.39019183481600772 0 0.40676419074506648 0.3823745547728854 0 0.38822431756124842 0.36594375669041818 0 0.38557234876117491 0.39019183481600772 0 0.40676419074506648 0.3823745547728854 0 0.38822431756124842 0.36594375669041818 0 0.38557234876117491 0.39019183481600772 0 0.37649031642695507 0.37649810736321893 0 0.38557234876117491 0.39019183481600772 0 0.37540024324941379 0.40658488030696083 0 0.39021237260837283 0.40765978390943097 0 0.37895606280837352 0.4217128084349212 0 0.39021237260837283 0.40765978390943097 0 0.39751118544502129 0.42344691932928907 0 0.37540024324941379 0.40658488030696083 0 0.37895606280837352 0.4217128084349212 0 0.39021237260837283 0.40765978390943097 0 0.37895606280837352 0.4217128084349212 0 0.38739537447183092 0.43655577246576188 0 0.39751118544502129 0.42344691932928907 0 0.36329548718110199 0.44010056281557169 0 0.37895606280837352 0.4217128084349212 0 0.38739537447183092 0.43655577246576188 0 0.38739537447183092 0.43655577246576188 0 0.39751118544502129 0.42344691932928907 0 0.40884781766167261 0.43672981045528081 0 0.39021237260837283 0.40765978390943097 0 0.39751118544502129 0.42344691932928907 0 0.40601124969011448 0.41210618327503518 0 0.39751118544502129 0.42344691932928907 0 0.40601124969011448 0.41210618327503518 0 0.41300533849746462 0.42430898931228023 0 0.40601124969011448 0.41210618327503518 0 0.41300533849746462 0.42430898931228023 0 0.42399489549413832 0.41732652535980219 0 0.40601124969011448 0.41210618327503518 0 0.42399489549413832 0.41732652535980219 0 0.41589719376367618 0.40325693115777311 0 0.40884781766167261 0.43672981045528081 0 0.41300533849746462 0.42430898931228023 0 0.42905578315566972 0.43304953116286588 0 0.39751118544502129 0.42344691932928907 0 0.40884781766167261 0.43672981045528081 0 0.41300533849746462 0.42430898931228023 0 0.42905578315566972 0.43304953116286588 0 0.42399489549413832 0.41732652535980219 0 0.44375850314640031 0.42366765872825812 0 0.41300533849746462 0.42430898931228023 0 0.42905578315566972 0.43304953116286588 0 0.42399489549413832 0.41732652535980219 0 0.42399489549413832 0.41732652535980219 0 0.43750673651758581 0.40912570731251863 0 0.44375850314640031 0.42366765872825812 0 0.42399489549413832 0.41732652535980219 0 0.41589719376367618 0.40325693115777311 0 0.43750673651758581 0.40912570731251863 0 0.42963395158912188 0.39539539094585402 0 0.41589719376367618 0.40325693115777311 0 0.43750673651758581 0.40912570731251863 0 0.40091388840723408 0.39753443003096961 0 0.41589719376367618 0.40325693115777311 0 0.40676419074506648 0.3823745547728854 0 0.42963395158912188 0.39539539094585402 0 0.41589719376367618 0.40325693115777311 0 0.40676419074506648 0.3823745547728854 0 0.40091388840723408 0.39753443003096961 0 0.40601124969011448 0.41210618327503518 0 0.41589719376367618 0.40325693115777311 0 0.41960292257366838 0.3725677488658054 0 0.42963395158912188 0.39539539094585402 0 0.40676419074506648 0.3823745547728854 0 0.41960292257366838 0.3725677488658054 0 0.42963395158912188 0.39539539094585402 0 0.43298996322746641 0.37992802155277772 0 0.43648588796058291 0.36613557916244188 0 0.43298996322746641 0.37992802155277772 0 0.45882850588141022 0.38579901209732548 0 0.42963395158912188 0.39539539094585402 0 0.43298996322746641 0.37992802155277772 0 0.45882850588141022 0.38579901209732548 0 0.45882850588141022 0.38579901209732548 0 0.45973644262290991 0.40916737974842632 0 0.43750673651758581 0.40912570731251863 0 0.42963395158912188 0.39539539094585402 0 0.45882850588141022 0.38579901209732548 0 0.43750673651758581 0.40912570731251863 0 0.45882850588141022 0.38579901209732548 0 0.47746745865156709 0.38808319056337381 0 0.45973644262290991 0.40916737974842632 0 0.46422767234280871 0.37214312732492699 0 0.45882850588141022 0.38579901209732548 0 0.47746745865156709 0.38808319056337381 0 0.47912774158541571 0.36602195366492202 0 0.46422767234280871 0.37214312732492699 0 0.47746745865156709 0.38808319056337381 0 0.47746745865156709 0.38808319056337381 0 0.48035184812842591 0.41741730505698948 0 0.45973644262290991 0.40916737974842632 0 0.47746745865156709 0.38808319056337381 0 0.5 0.39735972743741771 0 0.48035184812842591 0.41741730505698948 0 0.5 0.36867382861360948 0 0.47746745865156709 0.38808319056337381 0 0.5 0.39735972743741771 0 0.5 0.42604562626122572 0 0.48502778091310639 0.43602176549804939 0 0.48035184812842591 0.41741730505698948 0 0.5 0.39735972743741771 0 0.5 0.42604562626122572 0 0.48035184812842591 0.41741730505698948 0 0.48035184812842591 0.41741730505698948 0 0.47249645044822852 0.43322847842103762 0 0.45944762773326409 0.425392676792057 0 0.48502778091310639 0.43602176549804939 0 0.48035184812842591 0.41741730505698948 0 0.47249645044822852 0.43322847842103762 0 0.47249645044822852 0.43322847842103762 0 0.45944762773326409 0.425392676792057 0 0.46271642418023151 0.44082831675488632 0 0.45944762773326409 0.425392676792057 0 0.45069527309130331 0.43784530099889191 0 0.46271642418023151 0.44082831675488632 0 0.45944762773326409 0.425392676792057 0 0.45973644262290991 0.40916737974842632 0 0.44375850314640031 0.42366765872825812 0 0.48035184812842591 0.41741730505698948 0 0.45944762773326409 0.425392676792057 0 0.45973644262290991 0.40916737974842632 0 0.45973644262290991 0.40916737974842632 0 0.43750673651758581 0.40912570731251863 0 0.44375850314640031 0.42366765872825812 0 0.45944762773326409 0.425392676792057 0 0.44375850314640031 0.42366765872825812 0 0.45069527309130331 0.43784530099889191 0 0.42905578315566972 0.43304953116286588 0 0.44375850314640031 0.42366765872825812 0 0.45069527309130331 0.43784530099889191 0 0.45069527309130331 0.43784530099889191 0 0.44501387277879217 0.45651561446216732 0 0.45975159242777403 0.4529471748684924 0 0.45069527309130331 0.43784530099889191 0 0.44501387277879217 0.45651561446216732 0 0.43328249549546538 0.44844953564670431 0 0.42905578315566972 0.43304953116286588 0 0.45069527309130331 0.43784530099889191 0 0.43328249549546538 0.44844953564670431 0 0.45069527309130331 0.43784530099889191 0 0.44501387277879217 0.45651561446216732 0 0.44501387277879217 0.45651561446216732 0 0.45570861699790699 0.46966461741816429 0 0.43933247246628232 0.4751859279254429 0 0.44501387277879217 0.45651561446216732 0 0.43933247246628232 0.4751859279254429 0 0.4296941225198076 0.46222670588621939 0 0.44501387277879217 0.45651561446216732 0 0.43933247246628232 0.4751859279254429 0 0.45975159242777403 0.4529471748684924 0 0.47208476152953083 0.46414330691088312 0 0.45570861699790699 0.46966461741816429 0 0.44501387277879217 0.45651561446216732 0 0.45975159242777403 0.4529471748684924 0 0.45570861699790699 0.46966461741816429 0 0.47208476152953083 0.46414330691088312 0 0.45570861699790699 0.46966461741816429 0 0.45975159242777403 0.4529471748684924 0 0.47229060598887962 0.44868589266596037 0 0.47208476152953083 0.46414330691088312 0 0.45069527309130331 0.43784530099889191 0 0.45975159242777403 0.4529471748684924 0 0.46271642418023151 0.44082831675488632 0 0.45975159242777403 0.4529471748684924 0 0.46271642418023151 0.44082831675488632 0 0.47229060598887962 0.44868589266596037 0 0.47249645044822852 0.43322847842103762 0 0.46271642418023151 0.44082831675488632 0 0.47229060598887962 0.44868589266596037 0 0.47249645044822852 0.43322847842103762 0 0.47229060598887962 0.44868589266596037 0 0.48502778091310639 0.43602176549804939 0 0.47249645044822852 0.43322847842103762 0 0.47229060598887962 0.44868589266596037 0 0.47229060598887962 0.44868589266596037 0 0.47208476152953083 0.46414330691088312 0 0.49999999999999828 0.45473152508503401 0 0.47208476152953083 0.46414330691088312 0 0.49999999999999828 0.45473152508503401 0 0.47184601197265069 0.48207165345544217 0 0.47229060598887962 0.44868589266596037 0 0.47208476152953083 0.46414330691088312 0 0.47208476152953083 0.46414330691088312 0 0.49999999999999828 0.45473152508503401 0 0.5 0.42604562626122572 0 0.48502778091310639 0.43602176549804939 0 0.49999999999999828 0.45473152508503401 0 0.48502778091310639 0.43602176549804939 0 0.47229060598887962 0.44868589266596037 0 0.49999999999999828 0.45473152508503401 0 0.49999999999999828 0.45473152508503401 0 0.5 0.5 0 0.47184601197265069 0.48207165345544217 0 0.47208476152953083 0.46414330691088312 0 0.47184601197265069 0.48207165345544217 0 0.5 0.5 0 0.47184601197265069 0.48207165345544217 0 0.47160726241577078 0.50000000000000144 0 0.47184601197265069 0.48207165345544217 0 0.47160726241577078 0.50000000000000144 0 0.47160726241577078 0.50000000000000144 0 0.45914047960617038 0.48889221317797721 0 0.45169439047551191 0.5 0 0.47184601197265069 0.48207165345544217 0 0.47160726241577078 0.50000000000000144 0 0.45914047960617038 0.48889221317797721 0 0.47208476152953083 0.46414330691088312 0 0.47184601197265069 0.48207165345544217 0 0.45570861699790699 0.46966461741816429 0 0.47184601197265069 0.48207165345544217 0 0.45570861699790699 0.46966461741816429 0 0.45436975669511298 0.47978077736239499 0 0.47184601197265069 0.48207165345544217 0 0.45914047960617038 0.48889221317797721 0 0.45436975669511298 0.47978077736239499 0 0.45570861699790699 0.46966461741816429 0 0.45436975669511298 0.47978077736239499 0 0.43933247246628232 0.4751859279254429 0 0.45570861699790699 0.46966461741816429 0 0.43933247246628232 0.4751859279254429 0 0.45914047960617038 0.48889221317797721 0 0.45436975669511298 0.47978077736239499 0 0.44582120243255557 0.48308947483494852 0 0.45436975669511298 0.47978077736239499 0 0.44582120243255557 0.48308947483494852 0 0.43933247246628232 0.4751859279254429 0 0.44582120243255557 0.48308947483494852 0 0.43766111678752889 0.4806783651265687 0 0.44582120243255557 0.48308947483494852 0 0.43766111678752889 0.4806783651265687 0 0.43933247246628232 0.4751859279254429 0 0.43766111678752889 0.4806783651265687 0 0.43933247246628232 0.4751859279254429 0 0.44582120243255557 0.48308947483494852 0 0.45169439047551191 0.5 0 0.43178151853525298 0.49999999999999828 0 0.44582120243255557 0.48308947483494852 0 0.43766111678752889 0.4806783651265687 0 0.43178151853525298 0.49999999999999828 0 0.45914047960617038 0.48889221317797721 0 0.44582120243255557 0.48308947483494852 0 0.45169439047551191 0.5 0 0.43766111678752889 0.4806783651265687 0 0.43178151853525298 0.49999999999999828 0 0.42351394643872858 0.4889277618287059 0 0.43766111678752889 0.4806783651265687 0 0.43178151853525298 0.49999999999999828 0 0.43178151853525298 0.49999999999999828 0 0.42351394643872858 0.4889277618287059 0 0.40976575078405619 0.5 0 0.42351394643872858 0.4889277618287059 0 0.40849138149105468 0.48558417760678441 0 0.40976575078405619 0.5 0 0.42351394643872858 0.4889277618287059 0 0.40849138149105468 0.48558417760678441 0 0.42986996459575039 0.47837626641017739 0 0.40849138149105468 0.48558417760678441 0 0.42986996459575039 0.47837626641017739 0 0.40141527733556098 0.46996858839226457 0 0.42986996459575039 0.47837626641017739 0 0.40141527733556098 0.46996858839226457 0 0.40849138149105468 0.48558417760678441 0 0.42986996459575039 0.47837626641017739 0 0.42986996459575039 0.47837626641017739 0 0.41329674883483958 0.46130861627631092 0 0.40141527733556098 0.46996858839226457 0 0.43933247246628232 0.4751859279254429 0 0.42986996459575039 0.47837626641017739 0 0.4296941225198076 0.46222670588621939 0 0.43766111678752889 0.4806783651265687 0 0.43933247246628232 0.4751859279254429 0 0.42986996459575039 0.47837626641017739 0 0.43933247246628232 0.4751859279254429 0 0.42986996459575039 0.47837626641017739 0 0.43766111678752889 0.4806783651265687 0 0.42351394643872858 0.4889277618287059 0 0.42986996459575039 0.47837626641017739 0 0.43766111678752889 0.4806783651265687 0 0.42986996459575039 0.47837626641017739 0 0.42986996459575039 0.47837626641017739 0 0.4296941225198076 0.46222670588621939 0 0.41329674883483958 0.46130861627631092 0 0.44501387277879217 0.45651561446216732 0 0.4296941225198076 0.46222670588621939 0 0.43328249549546538 0.44844953564670431 0 0.4296941225198076 0.46222670588621939 0 0.43328249549546538 0.44844953564670431 0 0.41991339988020782 0.44901390082018239 0 0.42905578315566972 0.43304953116286588 0 0.43328249549546538 0.44844953564670431 0 0.41991339988020782 0.44901390082018239 0 0.40884781766167261 0.43672981045528081 0 0.41991339988020782 0.44901390082018239 0 0.40180593932961067 0.44888001500888841 0 0.40884781766167261 0.43672981045528081 0 0.42905578315566972 0.43304953116286588 0 0.41991339988020782 0.44901390082018239 0 0.41991339988020782 0.44901390082018239 0 0.41329674883483958 0.46130861627631092 0 0.40180593932961067 0.44888001500888841 0 0.4296941225198076 0.46222670588621939 0 0.41991339988020782 0.44901390082018239 0 0.41329674883483958 0.46130861627631092 0 0.41329674883483958 0.46130861627631092 0 0.39749640298689909 0.45882181358866941 0 0.40141527733556098 0.46996858839226457 0 0.41329674883483958 0.46130861627631092 0 0.39749640298689909 0.45882181358866941 0 0.40180593932961067 0.44888001500888841 0 0.39749640298689909 0.45882181358866941 0 0.3856526723473338 0.45976158680083068 0 0.40141527733556098 0.46996858839226457 0 0.39749640298689909 0.45882181358866941 0 0.3889268080174777 0.44926862761629133 0 0.3856526723473338 0.45976158680083068 0 0.38739537447183092 0.43655577246576188 0 0.40884781766167261 0.43672981045528081 0 0.40180593932961067 0.44888001500888841 0 0.39749640298689909 0.45882181358866941 0 0.40180593932961067 0.44888001500888841 0 0.3889268080174777 0.44926862761629133 0 0.38739537447183092 0.43655577246576188 0 0.40180593932961067 0.44888001500888841 0 0.3889268080174777 0.44926862761629133 0 0.36329548718110199 0.44010056281557169 0 0.38739537447183092 0.43655577246576188 0 0.37670907973754941 0.45010306536266548 0 0.38739537447183092 0.43655577246576188 0 0.3889268080174777 0.44926862761629133 0 0.37670907973754941 0.45010306536266548 0 0.3889268080174777 0.44926862761629133 0 0.37670907973754941 0.45010306536266548 0 0.3856526723473338 0.45976158680083068 0 0.37296059007537108 0.46156091037435348 0 0.40141527733556098 0.46996858839226457 0 0.37296059007537108 0.46156091037435348 0 0.3856526723473338 0.45976158680083068 0 0.40141527733556098 0.46996858839226457 0 0.37296059007537108 0.46156091037435348 0 0.37670907973754941 0.45010306536266548 0 0.3856526723473338 0.45976158680083068 0 0.37296059007537108 0.46156091037435348 0 0.3856526723473338 0.45976158680083068 0 0.37978504554081582 0.47739174513638832 0 0.38711279838635848 0.49279208880339048 0 0.40141527733556098 0.46996858839226457 0 0.37296059007537108 0.46156091037435348 0 0.37978504554081582 0.47739174513638832 0 0.40141527733556098 0.46996858839226457 0 0.365734215281663 0.49999999999999822 0 0.38774998303285962 0.5 0 0.38711279838635848 0.49279208880339048 0 0.37115422865298009 0.48626720755300729 0 0.37978504554081582 0.47739174513638832 0 0.38711279838635848 0.49279208880339048 0 0.365734215281663 0.49999999999999822 0 0.38711279838635848 0.49279208880339048 0 0.40849138149105468 0.48558417760678441 0 0.38711279838635848 0.49279208880339048 0 0.40976575078405619 0.5 0 0.38774998303285962 0.5 0 0.38711279838635848 0.49279208880339048 0 0.40849138149105468 0.48558417760678441 0 0.40976575078405619 0.5 0 0.38711279838635848 0.49279208880339048 0 0.40849138149105468 0.48558417760678441 0 0.38711279838635848 0.49279208880339048 0 0.40141527733556098 0.46996858839226457 0 0.34337586717847701 0.088899961153642293 0 0.330328276180749 0.077486210394199062 0 0.35558077631054802 0.070382894401240723 0 0.330328276180749 0.077486210394199062 0 0.32932500645589857 0.095661148172029475 0 0.34337586717847701 0.088899961153642293 0 0.330328276180749 0.077486210394199062 0 0.32932500645589857 0.095661148172029475 0 0.330328276180749 0.077486210394199062 0 0.34043198949819459 0.064966859054829282 0 0.33176761929920728 0.051411495916403448 0 0.330328276180749 0.077486210394199062 0 0.35558077631054802 0.070382894401240723 0 0.330328276180749 0.077486210394199062 0 0.33176761929920728 0.051411495916403448 0 0.330328276180749 0.077486210394199062 0 0.34043198949819459 0.064966859054829282 0 0.35558077631054802 0.070382894401240723 0 0.330328276180749 0.077486210394199062 0 0.33176761929920728 0.051411495916403448 0 0.31711129764958929 0.061424037515189343 0 0.330328276180749 0.077486210394199062 0 0.31469004257314742 0.081885114040059478 0 0.31711129764958929 0.061424037515189343 0 0.330328276180749 0.077486210394199062 0 0.31469004257314742 0.081885114040059478 0 0.31469004257314742 0.081885114040059478 0 0.3197981329751563 0.099804894017166357 0 0.32932500645589857 0.095661148172029475 0 0.330328276180749 0.077486210394199062 0 0.31469004257314742 0.081885114040059478 0 0.32932500645589857 0.095661148172029475 0 0.31469004257314742 0.081885114040059478 0 0.3197981329751563 0.099804894017166357 0 0.310869902990632 0.09613821362538337 0 0.31469004257314742 0.081885114040059478 0 0.32932500645589857 0.095661148172029475 0 0.3197981329751563 0.099804894017166357 0 0.31413083077536019 0.1026889284388252 0 0.310869902990632 0.09613821362538337 0 0.31413083077536019 0.1026889284388252 0 0.31697482611706501 0.1095722832931556 0 0.30888046101858763 0.10524032281959531 0 0.3197981329751563 0.099804894017166357 0 0.31413083077536019 0.1026889284388252 0 0.31697482611706501 0.1095722832931556 0 0.3197981329751563 0.099804894017166357 0 0.31697482611706501 0.1095722832931556 0 0.32852096310418621 0.11022695986460759 0 0.3197981329751563 0.099804894017166357 0 0.32852096310418621 0.11022695986460759 0 0.32932500645589857 0.095661148172029475 0 0.31267534109137762 0.1154487308544684 0 0.31697482611706501 0.1095722832931556 0 0.32767790405847852 0.12549956833638221 0 0.31697482611706501 0.1095722832931556 0 0.32852096310418621 0.11022695986460759 0 0.32767790405847852 0.12549956833638221 0 0.31267534109137762 0.1154487308544684 0 0.32767790405847852 0.12549956833638221 0 0.31744865181930748 0.12863234995493561 0 0.31267534109137762 0.1154487308544684 0 0.32767790405847852 0.12549956833638221 0 0.31267534109137762 0.1154487308544684 0 0.31697482611706501 0.1095722832931556 0 0.30888046101858763 0.10524032281959531 0 0.31697482611706501 0.1095722832931556 0 0.32852096310418621 0.11022695986460759 0 0.32852096310418621 0.11022695986460759 0 0.32767790405847852 0.12549956833638221 0 0.33396797525835348 0.11756505691613579 0 0.34048897133811401 0.1237021320680724 0 0.32767790405847852 0.12549956833638221 0 0.33396797525835348 0.11756505691613579 0 0.32852096310418621 0.11022695986460759 0 0.32767790405847852 0.12549956833638221 0 0.32852096310418621 0.11022695986460759 0 0.33918406253263522 0.1108315673954809 0 0.33396797525835348 0.11756505691613579 0 0.32852096310418621 0.11022695986460759 0 0.33918406253263522 0.1108315673954809 0 0.33918406253263522 0.1108315673954809 0 0.34584236558372172 0.11120909929362301 0 0.33396797525835348 0.11756505691613579 0 0.33918406253263522 0.1108315673954809 0 0.34048897133811401 0.1237021320680724 0 0.32932500645589857 0.095661148172029475 0 0.33305635204164119 0.1040526989276017 0 0.34584236558372172 0.11120909929362301 0 0.34337586717847701 0.088899961153642293 0 0.32932500645589857 0.095661148172029475 0 0.34584236558372172 0.11120909929362301 0 0.32932500645589857 0.095661148172029475 0 0.34584236558372172 0.11120909929362301 0 0.32852096310418621 0.11022695986460759 0 0.32932500645589857 0.095661148172029475 0 0.32852096310418621 0.11022695986460759 0 0.32932500645589857 0.095661148172029475 0 0.33305635204164119 0.1040526989276017 0 0.32852096310418621 0.11022695986460759 0 0.33918406253263522 0.1108315673954809 0 0.33305635204164119 0.1040526989276017 0 0.33918406253263522 0.1108315673954809 0 0.33305635204164119 0.1040526989276017 0 0.34584236558372172 0.11120909929362301 0 0.33918406253263522 0.1108315673954809 0 0.33305635204164119 0.1040526989276017 0 0.34584236558372172 0.11120909929362301 0 0.36361802806087817 0.11221699568174601 0 0.35919824932085481 0.093104588206362054 0 0.34337586717847701 0.088899961153642293 0 0.34584236558372172 0.11120909929362301 0 0.35919824932085481 0.093104588206362054 0 0.34584236558372172 0.11120909929362301 0 0.35827589064171561 0.12291289760507471 0 0.36361802806087817 0.11221699568174601 0 0.34584236558372172 0.11120909929362301 0 0.36361802806087817 0.11221699568174601 0 0.33918406253263522 0.1108315673954809 0 0.35316284647255403 0.1262957995599869 0 0.33918406253263522 0.1108315673954809 0 0.34048897133811401 0.1237021320680724 0 0.35316284647255403 0.1262957995599869 0 0.33918406253263522 0.1108315673954809 0 0.34584236558372172 0.11120909929362301 0 0.35316284647255403 0.1262957995599869 0 0.34584236558372172 0.11120909929362301 0 0.35827589064171561 0.12291289760507471 0 0.34584236558372172 0.11120909929362301 0 0.35827589064171561 0.12291289760507471 0 0.35316284647255403 0.1262957995599869 0 0.35827589064171561 0.12291289760507471 0 0.36361802806087817 0.11221699568174601 0 0.37070941569971771 0.13461669591651809 0 0.36361802806087817 0.11221699568174601 0 0.37070941569971771 0.13461669591651809 0 0.38139369053803568 0.113224892069849 0 0.36361802806087817 0.11221699568174601 0 0.38139369053803568 0.113224892069849 0 0.36361802806087817 0.11221699568174601 0 0.37394462786892352 0.098078513275383444 0 0.35919824932085481 0.093104588206362054 0 0.36361802806087817 0.11221699568174601 0 0.37394462786892352 0.098078513275383444 0 0.38139369053803568 0.113224892069849 0 0.37394462786892352 0.098078513275383444 0 0.35919824932085481 0.093104588206362054 0 0.37510436938741182 0.080035225213356459 0 0.35919824932085481 0.093104588206362054 0 0.35558077631054802 0.070382894401240723 0 0.37510436938741182 0.080035225213356459 0 0.34337586717847701 0.088899961153642293 0 0.35919824932085481 0.093104588206362054 0 0.35558077631054802 0.070382894401240723 0 0.34043198949819459 0.064966859054829282 0 0.35558077631054802 0.070382894401240723 0 0.3458364422980813 0.053998370626204023 0 0.35558077631054802 0.070382894401240723 0 0.3808332764403457 0.063279578408277942 0 0.37510436938741182 0.080035225213356459 0 0.35558077631054802 0.070382894401240723 0 0.36596075236496872 0.058845665328185248 0 0.3808332764403457 0.063279578408277942 0 0.35558077631054802 0.070382894401240723 0 0.3808332764403457 0.063279578408277942 0 0.35686429745502618 0.046271641881178778 0 0.3848299442887218 0.051590306048612089 0 0.36596075236496872 0.058845665328185248 0 0.35686429745502618 0.046271641881178778 0 0.3848299442887218 0.051590306048612089 0 0.35686429745502618 0.046271641881178778 0 0.37809433254753289 0.037110187729147807 0 0.3848299442887218 0.051590306048612089 0 0.35686429745502618 0.046271641881178778 0 0.36788917665649318 0.030653652072919351 0 0.35526224576745202 0.03019747586357556 0 0.35686429745502618 0.046271641881178778 0 0.36788917665649318 0.030653652072919351 0 0.37809433254753289 0.037110187729147807 0 0.35686429745502618 0.046271641881178778 0 0.35526224576745202 0.03019747586357556 0 0.34358015102274642 0.032989604475298973 0 0.35558077631054802 0.070382894401240723 0 0.36596075236496872 0.058845665328185248 0 0.3458364422980813 0.053998370626204023 0 0.36596075236496872 0.058845665328185248 0 0.35686429745502618 0.046271641881178778 0 0.3458364422980813 0.053998370626204023 0 0.35686429745502618 0.046271641881178778 0 0.3458364422980813 0.053998370626204023 0 0.32889865062133111 0.040952977713743448 0 0.37307929389423378 0.01346855421861138 0 0.35759465081349762 0.003873602199559787 0 0.38191166615011468 0.0008555688800514999 0 0.37307929389423378 0.01346855421861138 0 0.35957349929849047 0.018115538966421828 0 0.35759465081349762 0.003873602199559787 0 0.37307929389423378 0.01346855421861138 0 0.35957349929849047 0.018115538966421828 0 0.37374739976458188 0.022925203692140041 0 0.37374739976458188 0.022925203692140041 0 0.36788917665649318 0.030653652072919351 0 0.38069331263637418 0.028981271374124509 0 0.35957349929849047 0.018115538966421828 0 0.36788917665649318 0.030653652072919351 0 0.35526224576745202 0.03019747586357556 0 0.35957349929849047 0.018115538966421828 0 0.37374739976458188 0.022925203692140041 0 0.36788917665649318 0.030653652072919351 0 0.35957349929849047 0.018115538966421828 0 0.34439459028510261 0.023218039995042541 0 0.34295603395579938 0.01229670568246 0 0.35957349929849047 0.018115538966421828 0 0.35526224576745202 0.03019747586357556 0 0.34439459028510261 0.023218039995042541 0 0.35526224576745202 0.03019747586357556 0 0.34439459028510261 0.023218039995042541 0 0.34358015102274642 0.032989604475298973 0 0.35957349929849047 0.018115538966421828 0 0.35759465081349762 0.003873602199559787 0 0.34295603395579938 0.01229670568246 0 0.35759465081349762 0.003873602199559787 0 0.34295603395579938 0.01229670568246 0 0.34174193563151511 -0.0047193800505618642 0 0.34295603395579938 0.01229670568246 0 0.33047621392511978 0.02443843595944634 0 0.32395531378107162 0.0088539970248513542 0 0.34295603395579938 0.01229670568246 0 0.32395531378107162 0.0088539970248513542 0 0.34174193563151511 -0.0047193800505618642 0 0.34439459028510261 0.023218039995042541 0 0.34295603395579938 0.01229670568246 0 0.33047621392511978 0.02443843595944634 0 0.34439459028510261 0.023218039995042541 0 0.33047621392511978 0.02443843595944634 0 0.34358015102274642 0.032989604475298973 0 0.33047621392511978 0.02443843595944634 0 0.3164575997730501 0.031012579320665409 0 0.32395531378107162 0.0088539970248513542 0 0.3164575997730501 0.031012579320665409 0 0.32395531378107162 0.0088539970248513542 0 0.30264806310792741 0.010501227529212301 0 0.32395531378107162 0.0088539970248513542 0 0.30264806310792741 0.010501227529212301 0 0.32077218724054229 -0.0087890081025024103 0 0.3458364422980813 0.053998370626204023 0 0.33176761929920728 0.051411495916403448 0 0.32889865062133111 0.040952977713743448 0 0.34043198949819459 0.064966859054829282 0 0.3458364422980813 0.053998370626204023 0 0.33176761929920728 0.051411495916403448 0 0.35686429745502618 0.046271641881178778 0 0.32889865062133111 0.040952977713743448 0 0.33047621392511978 0.02443843595944634 0 0.34358015102274642 0.032989604475298973 0 0.32889865062133111 0.040952977713743448 0 0.35686429745502618 0.046271641881178778 0 0.34358015102274642 0.032989604475298973 0 0.32889865062133111 0.040952977713743448 0 0.33047621392511978 0.02443843595944634 0 0.3164575997730501 0.031012579320665409 0 0.32889865062133111 0.040952977713743448 0 0.3164575997730501 0.031012579320665409 0 0.32889865062133111 0.040952977713743448 0 0.32101052790618489 0.048739603653859001 0 0.3164575997730501 0.031012579320665409 0 0.32101052790618489 0.048739603653859001 0 0.30795351385012248 0.046669417602683547 0 0.32101052790618489 0.048739603653859001 0 0.31711129764958929 0.061424037515189343 0 0.30795351385012248 0.046669417602683547 0 0.33176761929920728 0.051411495916403448 0 0.32889865062133111 0.040952977713743448 0 0.32101052790618489 0.048739603653859001 0 0.33176761929920728 0.051411495916403448 0 0.32101052790618489 0.048739603653859001 0 0.31711129764958929 0.061424037515189343 0 0.31711129764958929 0.061424037515189343 0 0.30795351385012248 0.046669417602683547 0 0.29461041808534377 0.062983967818159292 0 0.30795351385012248 0.046669417602683547 0 0.29240786619257492 0.044840675987331588 0 0.29461041808534377 0.062983967818159292 0 0.3164575997730501 0.031012579320665409 0 0.30795351385012248 0.046669417602683547 0 0.30055238817131918 0.031370582959646072 0 0.30795351385012248 0.046669417602683547 0 0.30055238817131918 0.031370582959646072 0 0.29240786619257492 0.044840675987331588 0 0.29240786619257492 0.044840675987331588 0 0.28146919642505103 0.025538909458332391 0 0.27453079359756227 0.044082821596235111 0 0.30055238817131918 0.031370582959646072 0 0.29240786619257492 0.044840675987331588 0 0.28146919642505103 0.025538909458332391 0 0.27453079359756227 0.044082821596235111 0 0.29461041808534377 0.062983967818159292 0 0.27453079359756227 0.044082821596235111 0 0.27575868858002528 0.07074671648401254 0 0.29461041808534377 0.062983967818159292 0 0.29240786619257492 0.044840675987331588 0 0.27453079359756227 0.044082821596235111 0 0.29461041808534377 0.062983967818159292 0 0.3164575997730501 0.031012579320665409 0 0.30055238817131918 0.031370582959646072 0 0.30264806310792741 0.010501227529212301 0 0.30055238817131918 0.031370582959646072 0 0.30264806310792741 0.010501227529212301 0 0.28146919642505103 0.025538909458332391 0 0.30264806310792741 0.010501227529212301 0 0.27554573180288799 0.0066463003731703479 0 0.29664029449594892 -0.011889074628033579 0 0.30264806310792741 0.010501227529212301 0 0.28146919642505103 0.025538909458332391 0 0.27554573180288799 0.0066463003731703479 0 0.27554573180288799 0.0066463003731703479 0 0.254451169109776 0.025181675374316408 0 0.25393590756049139 -0.0071212513700616639 0 0.28146919642505103 0.025538909458332391 0 0.27554573180288799 0.0066463003731703479 0 0.254451169109776 0.025181675374316408 0 0.27554573180288799 0.0066463003731703479 0 0.254451169109776 0.025181675374316408 0 0.27453079359756227 0.044082821596235111 0 0.2580168423114102 0.05857441678840844 0 0.27575868858002528 0.07074671648401254 0 0.28146919642505103 0.025538909458332391 0 0.254451169109776 0.025181675374316408 0 0.27453079359756227 0.044082821596235111 0 0.254451169109776 0.025181675374316408 0 0.27453079359756227 0.044082821596235111 0 0.25298293459882037 0.039555914019193887 0 0.254451169109776 0.025181675374316408 0 0.27453079359756227 0.044082821596235111 0 0.24338654453111791 0.03168340785791441 0 0.254451169109776 0.025181675374316408 0 0.25298293459882037 0.039555914019193887 0 0.27453079359756227 0.044082821596235111 0 0.25298293459882037 0.039555914019193887 0 0.2580168423114102 0.05857441678840844 0 0.24345656278421651 0.051289098362089107 0 0.25298293459882037 0.039555914019193887 0 0.2580168423114102 0.05857441678840844 0 0.23976469644175241 0.067647275882470659 0 0.2580168423114102 0.05857441678840844 0 0.25441519576724769 0.076417849690389145 0 0.2580168423114102 0.05857441678840844 0 0.25441519576724769 0.076417849690389145 0 0.27575868858002528 0.07074671648401254 0 0.25441519576724769 0.076417849690389145 0 0.27798678450516301 0.092209431976350634 0 0.25225889246665523 0.099446471716684984 0 0.25441519576724769 0.076417849690389145 0 0.27798678450516301 0.092209431976350634 0 0.25441519576724769 0.076417849690389145 0 0.27798678450516301 0.092209431976350634 0 0.27575868858002528 0.07074671648401254 0 0.27575868858002528 0.07074671648401254 0 0.29461041808534377 0.062983967818159292 0 0.29633841353914647 0.087047273008174136 0 0.27798678450516301 0.092209431976350634 0 0.29633841353914647 0.087047273008174136 0 0.29364018250787621 0.093834612896699282 0 0.27798678450516301 0.092209431976350634 0 0.29633841353914647 0.087047273008174136 0 0.27798678450516301 0.092209431976350634 0 0.27575868858002528 0.07074671648401254 0 0.29633841353914647 0.087047273008174136 0 0.31469004257314742 0.081885114040059478 0 0.29633841353914647 0.087047273008174136 0 0.30278213437716872 0.093800105790829327 0 0.31469004257314742 0.081885114040059478 0 0.29633841353914647 0.087047273008174136 0 0.29633841353914647 0.087047273008174136 0 0.30278213437716872 0.093800105790829327 0 0.29364018250787621 0.093834612896699282 0 0.31469004257314742 0.081885114040059478 0 0.310869902990632 0.09613821362538337 0 0.30278213437716872 0.093800105790829327 0 0.31469004257314742 0.081885114040059478 0 0.29461041808534377 0.062983967818159292 0 0.31469004257314742 0.081885114040059478 0 0.29461041808534377 0.062983967818159292 0 0.29633841353914647 0.087047273008174136 0 0.31469004257314742 0.081885114040059478 0 0.31711129764958929 0.061424037515189343 0 0.29461041808534377 0.062983967818159292 0 0.29767277812427828 0.1053978933725523 0 0.29967191164389873 0.13379515085793861 0 0.31267534109137762 0.1154487308544684 0 0.29767277812427828 0.1053978933725523 0 0.29967191164389873 0.13379515085793861 0 0.31267534109137762 0.1154487308544684 0 0.29767277812427828 0.1053978933725523 0 0.31267534109137762 0.1154487308544684 0 0.30888046101858763 0.10524032281959531 0 0.29767277812427828 0.1053978933725523 0 0.31413083077536019 0.1026889284388252 0 0.30888046101858763 0.10524032281959531 0 0.310869902990632 0.09613821362538337 0 0.30888046101858763 0.10524032281959531 0 0.310869902990632 0.09613821362538337 0 0.30353173482413842 0.100571635283961 0 0.310869902990632 0.09613821362538337 0 0.30278213437716872 0.093800105790829327 0 0.30353173482413842 0.100571635283961 0 0.30278213437716872 0.093800105790829327 0 0.30353173482413842 0.100571635283961 0 0.29745339761002709 0.1022816408114425 0 0.30278213437716872 0.093800105790829327 0 0.29745339761002709 0.1022816408114425 0 0.29364018250787621 0.093834612896699282 0 0.30888046101858763 0.10524032281959531 0 0.30353173482413842 0.100571635283961 0 0.29767277812427828 0.1053978933725523 0 0.30353173482413842 0.100571635283961 0 0.29745339761002709 0.1022816408114425 0 0.29767277812427828 0.1053978933725523 0 0.29745339761002709 0.1022816408114425 0 0.29767277812427828 0.1053978933725523 0 0.27798678450516301 0.092209431976350634 0 0.29767277812427828 0.1053978933725523 0 0.27798678450516301 0.092209431976350634 0 0.29745339761002709 0.1022816408114425 0 0.29767277812427828 0.1053978933725523 0 0.27798678450516301 0.092209431976350634 0 0.29767277812427828 0.1053978933725523 0 0.28189158469921899 0.10875652226231421 0 0.27798678450516301 0.092209431976350634 0 0.29745339761002709 0.1022816408114425 0 0.29364018250787621 0.093834612896699282 0 0.29767277812427828 0.1053978933725523 0 0.2879999469635714 0.1194304210222349 0 0.29967191164389873 0.13379515085793861 0 0.29767277812427828 0.1053978933725523 0 0.28189158469921899 0.10875652226231421 0 0.2879999469635714 0.1194304210222349 0 0.28189158469921899 0.10875652226231421 0 0.2879999469635714 0.1194304210222349 0 0.27679178057040749 0.1203721824429974 0 0.2879999469635714 0.1194304210222349 0 0.27679178057040749 0.1203721824429974 0 0.28364992649968662 0.13052385719377291 0 0.28189158469921899 0.10875652226231421 0 0.27679178057040749 0.1203721824429974 0 0.26790924497095792 0.1099986181090319 0 0.27679178057040749 0.1203721824429974 0 0.26790924497095792 0.1099986181090319 0 0.26393179188374399 0.1243299494096524 0 0.27798678450516301 0.092209431976350634 0 0.28189158469921899 0.10875652226231421 0 0.26790924497095792 0.1099986181090319 0 0.27798678450516301 0.092209431976350634 0 0.26790924497095792 0.1099986181090319 0 0.25225889246665523 0.099446471716684984 0 0.26790924497095792 0.1099986181090319 0 0.25225889246665523 0.099446471716684984 0 0.25404594151970039 0.1166901186519909 0 0.27798678450516301 0.092209431976350634 0 0.25225889246665523 0.099446471716684984 0 0.26790924497095792 0.1099986181090319 0 0.26393179188374399 0.1243299494096524 0 0.25404594151970039 0.1166901186519909 0 0.26393179188374399 0.1243299494096524 0 0.25404594151970039 0.1166901186519909 0 0.2531904451582252 0.1262773160490559 0 0.24964923409967291 0.13755644202102979 0 0.2531904451582252 0.1262773160490559 0 0.26280302711624559 0.13579813529342599 0 0.26393179188374399 0.1243299494096524 0 0.2531904451582252 0.1262773160490559 0 0.26280302711624559 0.13579813529342599 0 0.27679178057040749 0.1203721824429974 0 0.26393179188374399 0.1243299494096524 0 0.27365631558350911 0.1330943705365035 0 0.26393179188374399 0.1243299494096524 0 0.26280302711624559 0.13579813529342599 0 0.27365631558350911 0.1330943705365035 0 0.26280302711624559 0.13579813529342599 0 0.27365631558350911 0.1330943705365035 0 0.27146907309482332 0.14292768273750359 0 0.27365631558350911 0.1330943705365035 0 0.27146907309482332 0.14292768273750359 0 0.2832922943361475 0.14461441614166859 0 0.27365631558350911 0.1330943705365035 0 0.28364992649968662 0.13052385719377291 0 0.2832922943361475 0.14461441614166859 0 0.27679178057040749 0.1203721824429974 0 0.27365631558350911 0.1330943705365035 0 0.28364992649968662 0.13052385719377291 0 0.27455854447639488 0.15255047415446091 0 0.28197854477289502 0.1621187965080545 0 0.2832922943361475 0.14461441614166859 0 0.27455854447639488 0.15255047415446091 0 0.27146907309482332 0.14292768273750359 0 0.2832922943361475 0.14461441614166859 0 0.27455854447639488 0.15255047415446091 0 0.27146907309482332 0.14292768273750359 0 0.26297342424674608 0.1489656567092654 0 0.26280302711624559 0.13579813529342599 0 0.27146907309482332 0.14292768273750359 0 0.26297342424674608 0.1489656567092654 0 0.27455854447639488 0.15255047415446091 0 0.26297342424674608 0.1489656567092654 0 0.26377623702758252 0.15810094917287931 0 0.24964923409967291 0.13755644202102979 0 0.26297342424674608 0.1489656567092654 0 0.26377623702758252 0.15810094917287931 0 0.24964923409967291 0.13755644202102979 0 0.25066954183599288 0.15677963464844469 0 0.26377623702758252 0.15810094917287931 0 0.24964923409967291 0.13755644202102979 0 0.26377623702758252 0.15810094917287931 0 0.26297342424674608 0.1489656567092654 0 0.26377623702758252 0.15810094917287931 0 0.24964923409967291 0.13755644202102979 0 0.26280302711624559 0.13579813529342599 0 0.26297342424674608 0.1489656567092654 0 0.26377623702758252 0.15810094917287931 0 0.26540358153878202 0.17661867634879039 0 0.25066954183599288 0.15677963464844469 0 0.26377623702758252 0.15810094917287931 0 0.26540358153878202 0.17661867634879039 0 0.2420453305164639 0.16809066749367441 0 0.25066954183599288 0.15677963464844469 0 0.26540358153878202 0.17661867634879039 0 0.2420453305164639 0.16809066749367441 0 0.26540358153878202 0.17661867634879039 0 0.26540358153878202 0.17661867634879039 0 0.28023233828165123 0.1820325991931282 0 0.27906593381480288 0.19585537290520061 0 0.26377623702758252 0.15810094917287931 0 0.26540358153878202 0.17661867634879039 0 0.28023233828165123 0.1820325991931282 0 0.26540358153878202 0.17661867634879039 0 0.28023233828165123 0.1820325991931282 0 0.26377623702758252 0.15810094917287931 0 0.28023233828165123 0.1820325991931282 0 0.28197854477289502 0.1621187965080545 0 0.27455854447639488 0.15255047415446091 0 0.26377623702758252 0.15810094917287931 0 0.28197854477289502 0.1621187965080545 0 0.26377623702758252 0.15810094917287931 0 0.28023233828165123 0.1820325991931282 0 0.28023233828165123 0.1820325991931282 0 0.28197854477289502 0.1621187965080545 0 0.30167104516351761 0.16219240834332499 0 0.28197854477289502 0.1621187965080545 0 0.30167104516351761 0.16219240834332499 0 0.2832922943361475 0.14461441614166859 0 0.28023233828165123 0.1820325991931282 0 0.30167104516351761 0.16219240834332499 0 0.30367017868313723 0.19058966582871131 0 0.28023233828165123 0.1820325991931282 0 0.30367017868313723 0.19058966582871131 0 0.28023233828165123 0.1820325991931282 0 0.28428793964605631 0.18793054737514919 0 0.30367017868313723 0.19058966582871131 0 0.28023233828165123 0.1820325991931282 0 0.28428793964605631 0.18793054737514919 0 0.30167104516351761 0.16219240834332499 0 0.30367017868313723 0.19058966582871131 0 0.31215284320998671 0.18112625430950549 0 0.30167104516351761 0.16219240834332499 0 0.32001953366099978 0.17336361454848481 0 0.31215284320998671 0.18112625430950549 0 0.30167104516351761 0.16219240834332499 0 0.30367017868313723 0.19058966582871131 0 0.30167104516351761 0.16219240834332499 0 0.29967191164389873 0.13379515085793861 0 0.30167104516351761 0.16219240834332499 0 0.29967191164389873 0.13379515085793861 0 0.31812306975027799 0.14115687208223471 0 0.31267534109137762 0.1154487308544684 0 0.29967191164389873 0.13379515085793861 0 0.31744865181930748 0.12863234995493561 0 0.29967191164389873 0.13379515085793861 0 0.31744865181930748 0.12863234995493561 0 0.31812306975027799 0.14115687208223471 0 0.2879999469635714 0.1194304210222349 0 0.29967191164389873 0.13379515085793861 0 0.28364992649968662 0.13052385719377291 0 0.29967191164389873 0.13379515085793861 0 0.28364992649968662 0.13052385719377291 0 0.2832922943361475 0.14461441614166859 0 0.30167104516351761 0.16219240834332499 0 0.29967191164389873 0.13379515085793861 0 0.2832922943361475 0.14461441614166859 0 0.24096229111526471 0.21942870794114919 0 0.24042077141466489 0.2450977281648864 0 0.27066233427704572 0.23645858598229849 0 0.24096229111526471 0.21942870794114919 0 0.27066233427704572 0.23645858598229849 0 0.2680329579079137 0.20653863116554441 0 0.27066233427704572 0.23645858598229849 0 0.2680329579079137 0.20653863116554441 0 0.28457226976422462 0.2173534076776838 0 0.27066233427704572 0.23645858598229849 0 0.2680329579079137 0.20653863116554441 0 0.2680329579079137 0.20653863116554441 0 0.27906593381480288 0.19585537290520061 0 0.28457226976422462 0.2173534076776838 0 0.24150381081586461 0.19375968771741181 0 0.24096229111526471 0.21942870794114919 0 0.2680329579079137 0.20653863116554441 0 0.24150381081586461 0.19375968771741181 0 0.26540358153878202 0.17661867634879039 0 0.2680329579079137 0.20653863116554441 0 0.26540358153878202 0.17661867634879039 0 0.2680329579079137 0.20653863116554441 0 0.26540358153878202 0.17661867634879039 0 0.2680329579079137 0.20653863116554441 0 0.27906593381480288 0.19585537290520061 0 0.28023233828165123 0.1820325991931282 0 0.27906593381480288 0.19585537290520061 0 0.28428793964605631 0.18793054737514919 0 0.27906593381480288 0.19585537290520061 0 0.28428793964605631 0.18793054737514919 0 0.29186651575019018 0.20465837567090811 0 0.28428793964605631 0.18793054737514919 0 0.30367017868313723 0.19058966582871131 0 0.29186651575019018 0.20465837567090811 0 0.30367017868313723 0.19058966582871131 0 0.31432087211873699 0.20679520075694671 0 0.31377012355070971 0.19427711739280679 0 0.31215284320998671 0.18112625430950549 0 0.30367017868313723 0.19058966582871131 0 0.31377012355070971 0.19427711739280679 0 0.30367017868313723 0.19058966582871131 0 0.31377012355070971 0.19427711739280679 0 0.30552483050940421 0.21693459223778169 0 0.31710928084273698 0.22508614504142629 0 0.31432087211873699 0.20679520075694671 0 0.30367017868313723 0.19058966582871131 0 0.30552483050940421 0.21693459223778169 0 0.30367017868313723 0.19058966582871131 0 0.30552483050940421 0.21693459223778169 0 0.29186651575019018 0.20465837567090811 0 0.30367017868313723 0.19058966582871131 0 0.30552483050940421 0.21693459223778169 0 0.31432087211873699 0.20679520075694671 0 0.30552483050940421 0.21693459223778169 0 0.28457226976422462 0.2173534076776838 0 0.29186651575019018 0.20465837567090811 0 0.27906593381480288 0.19585537290520061 0 0.28457226976422462 0.2173534076776838 0 0.29186651575019018 0.20465837567090811 0 0.27066233427704572 0.23645858598229849 0 0.28457226976422462 0.2173534076776838 0 0.29236239966777061 0.2335080555662804 0 0.30552483050940421 0.21693459223778169 0 0.28457226976422462 0.2173534076776838 0 0.29236239966777061 0.2335080555662804 0 0.30552483050940421 0.21693459223778169 0 0.30737948233567181 0.24327951864685221 0 0.30552483050940421 0.21693459223778169 0 0.29236239966777061 0.2335080555662804 0 0.30737948233567181 0.24327951864685221 0 0.30552483050940421 0.21693459223778169 0 0.30737948233567181 0.24327951864685221 0 0.31710928084273698 0.22508614504142629 0 0.2936730814525067 0.25351417328678588 0 0.29236239966777061 0.2335080555662804 0 0.30737948233567181 0.24327951864685221 0 0.2936730814525067 0.25351417328678588 0 0.27066233427704572 0.23645858598229849 0 0.29236239966777061 0.2335080555662804 0 0.34313496122551251 0.24720233694186791 0 0.32752165000527478 0.2494506367322406 0 0.32835550231944738 0.2336983343759011 0 0.34313496122551251 0.24720233694186791 0 0.32835550231944738 0.2336983343759011 0 0.34943844436760912 0.22991877044953221 0 0.34313496122551251 0.24720233694186791 0 0.32835550231944738 0.2336983343759011 0 0.30737948233567181 0.24327951864685221 0 0.32752165000527478 0.2494506367322406 0 0.32835550231944738 0.2336983343759011 0 0.31710928084273698 0.22508614504142629 0 0.32835550231944738 0.2336983343759011 0 0.32454442451344823 0.21302936515490831 0 0.30737948233567181 0.24327951864685221 0 0.31710928084273698 0.22508614504142629 0 0.32835550231944738 0.2336983343759011 0 0.32835550231944738 0.2336983343759011 0 0.32454442451344823 0.21302936515490831 0 0.34943844436760912 0.22991877044953221 0 0.32454442451344823 0.21302936515490831 0 0.34943844436760912 0.22991877044953221 0 0.33747778568994108 0.20407219279456321 0 0.32454442451344823 0.21302936515490831 0 0.3520329798896254 0.21302741152871221 0 0.32454442451344823 0.21302936515490831 0 0.3520329798896254 0.21302741152871221 0 0.34943844436760912 0.22991877044953221 0 0.33747778568994108 0.20407219279456321 0 0.32454442451344823 0.21302936515490831 0 0.32306471315390772 0.20180415608547911 0 0.31710928084273698 0.22508614504142629 0 0.32454442451344823 0.21302936515490831 0 0.31432087211873699 0.20679520075694671 0 0.32454442451344823 0.21302936515490831 0 0.31432087211873699 0.20679520075694671 0 0.32306471315390772 0.20180415608547911 0 0.32306471315390772 0.20180415608547911 0 0.31377012355070971 0.19427711739280679 0 0.32872699697854679 0.1927465787270374 0 0.31432087211873699 0.20679520075694671 0 0.32306471315390772 0.20180415608547911 0 0.31377012355070971 0.19427711739280679 0 0.31377012355070971 0.19427711739280679 0 0.32872699697854679 0.1927465787270374 0 0.32163333499156921 0.18520846543419961 0 0.32872699697854679 0.1927465787270374 0 0.34566963849816518 0.19064137670624209 0 0.33440150654238943 0.18014682175346131 0 0.33747778568994108 0.20407219279456321 0 0.32872699697854679 0.1927465787270374 0 0.34566963849816518 0.19064137670624209 0 0.33747778568994108 0.20407219279456321 0 0.32306471315390772 0.20180415608547911 0 0.32872699697854679 0.1927465787270374 0 0.34566963849816518 0.19064137670624209 0 0.36119754497893469 0.19860311371250011 0 0.35533928554104038 0.18128640469707419 0 0.33747778568994108 0.20407219279456321 0 0.36119754497893469 0.19860311371250011 0 0.33747778568994108 0.20407219279456321 0 0.34566963849816518 0.19064137670624209 0 0.36119754497893469 0.19860311371250011 0 0.36119754497893469 0.19860311371250011 0 0.36887242777252621 0.18196257545256481 0 0.37653470654504662 0.18677359377701219 0 0.36119754497893469 0.19860311371250011 0 0.38491730426792842 0.19313403463043691 0 0.36119754497893469 0.19860311371250011 0 0.37653470654504662 0.18677359377701219 0 0.38491730426792842 0.19313403463043691 0 0.36119754497893469 0.19860311371250011 0 0.37659456647150258 0.21322497771924581 0 0.38491730426792842 0.19313403463043691 0 0.3520329798896254 0.21302741152871221 0 0.36860550780498519 0.2271984270359681 0 0.37659456647150258 0.21322497771924581 0 0.36119754497893469 0.19860311371250011 0 0.3520329798896254 0.21302741152871221 0 0.37659456647150258 0.21322497771924581 0 0.33747778568994108 0.20407219279456321 0 0.36119754497893469 0.19860311371250011 0 0.3520329798896254 0.21302741152871221 0 0.3520329798896254 0.21302741152871221 0 0.34943844436760912 0.22991877044953221 0 0.36860550780498519 0.2271984270359681 0 0.34943844436760912 0.22991877044953221 0 0.37433246422177069 0.24680817574415501 0 0.34943844436760912 0.22991877044953221 0 0.36860550780498519 0.2271984270359681 0 0.37433246422177069 0.24680817574415501 0 0.35129337289024398 0.25071331902328869 0 0.34313496122551251 0.24720233694186791 0 0.34943844436760912 0.22991877044953221 0 0.35129337289024398 0.25071331902328869 0 0.34943844436760912 0.22991877044953221 0 0.37433246422177069 0.24680817574415501 0 0.33292059459990209 0.14230530009745049 0 0.32594194026722911 0.15616292017066091 0 0.34561853793660702 0.15314640221132611 0 0.33292059459990209 0.14230530009745049 0 0.34561853793660702 0.15314640221132611 0 0.34550530047737338 0.13744287859109669 0 0.32767790405847852 0.12549956833638221 0 0.34550530047737338 0.13744287859109669 0 0.32767790405847852 0.12549956833638221 0 0.32753480354363063 0.1280919349642137 0 0.34550530047737338 0.13744287859109669 0 0.34048897133811401 0.1237021320680724 0 0.32767790405847852 0.12549956833638221 0 0.34550530047737338 0.13744287859109669 0 0.33292059459990209 0.14230530009745049 0 0.32753480354363063 0.1280919349642137 0 0.34550530047737338 0.13744287859109669 0 0.33292059459990209 0.14230530009745049 0 0.32753480354363063 0.1280919349642137 0 0.31812306975027799 0.14115687208223471 0 0.32753480354363063 0.1280919349642137 0 0.31744865181930748 0.12863234995493561 0 0.31812306975027799 0.14115687208223471 0 0.32767790405847852 0.12549956833638221 0 0.32753480354363063 0.1280919349642137 0 0.31744865181930748 0.12863234995493561 0 0.32767790405847852 0.12549956833638221 0 0.32753480354363063 0.1280919349642137 0 0.30167104516351761 0.16219240834332499 0 0.31812306975027799 0.14115687208223471 0 0.32594194026722911 0.15616292017066091 0 0.33292059459990209 0.14230530009745049 0 0.31812306975027799 0.14115687208223471 0 0.32594194026722911 0.15616292017066091 0 0.30167104516351761 0.16219240834332499 0 0.32594194026722911 0.15616292017066091 0 0.32001953366099978 0.17336361454848481 0 0.31215284320998671 0.18112625430950549 0 0.31377012355070971 0.19427711739280679 0 0.32163333499156921 0.18520846543419961 0 0.31215284320998671 0.18112625430950549 0 0.32001953366099978 0.17336361454848481 0 0.32163333499156921 0.18520846543419961 0 0.32001953366099978 0.17336361454848481 0 0.32163333499156921 0.18520846543419961 0 0.33440150654238943 0.18014682175346131 0 0.32001953366099978 0.17336361454848481 0 0.33440150654238943 0.18014682175346131 0 0.33879251293912838 0.16570522048742001 0 0.32872699697854679 0.1927465787270374 0 0.32163333499156921 0.18520846543419961 0 0.33440150654238943 0.18014682175346131 0 0.32594194026722911 0.15616292017066091 0 0.33879251293912838 0.16570522048742001 0 0.34561853793660702 0.15314640221132611 0 0.33440150654238943 0.18014682175346131 0 0.33879251293912838 0.16570522048742001 0 0.35414599296927002 0.16777959142854501 0 0.32594194026722911 0.15616292017066091 0 0.32001953366099978 0.17336361454848481 0 0.33879251293912838 0.16570522048742001 0 0.33879251293912838 0.16570522048742001 0 0.35414599296927002 0.16777959142854501 0 0.34561853793660702 0.15314640221132611 0 0.35414599296927002 0.16777959142854501 0 0.36333269689626863 0.1493861888458107 0 0.34561853793660702 0.15314640221132611 0 0.35414599296927002 0.16777959142854501 0 0.36333269689626863 0.1493861888458107 0 0.34566963849816518 0.19064137670624209 0 0.33440150654238943 0.18014682175346131 0 0.35533928554104038 0.18128640469707419 0 0.33440150654238943 0.18014682175346131 0 0.35414599296927002 0.16777959142854501 0 0.35533928554104038 0.18128640469707419 0 0.35414599296927002 0.16777959142854501 0 0.35533928554104038 0.18128640469707419 0 0.36774860248495711 0.16858494912913191 0 0.36119754497893469 0.19860311371250011 0 0.35533928554104038 0.18128640469707419 0 0.36887242777252621 0.18196257545256481 0 0.35533928554104038 0.18128640469707419 0 0.36887242777252621 0.18196257545256481 0 0.36774860248495711 0.16858494912913191 0 0.36887242777252621 0.18196257545256481 0 0.36774860248495711 0.16858494912913191 0 0.38003303904383379 0.1749636773610104 0 0.36774860248495711 0.16858494912913191 0 0.36333269689626863 0.1493861888458107 0 0.37684228818636539 0.15843682284758809 0 0.36774860248495711 0.16858494912913191 0 0.37684228818636539 0.15843682284758809 0 0.38003303904383379 0.1749636773610104 0 0.35414599296927002 0.16777959142854501 0 0.36774860248495711 0.16858494912913191 0 0.36333269689626863 0.1493861888458107 0 0.3671416304124725 0.14176003172449339 0 0.36333269689626863 0.1493861888458107 0 0.3787593782643216 0.15461233352569859 0 0.36333269689626863 0.1493861888458107 0 0.3787593782643216 0.15461233352569859 0 0.37684228818636539 0.15843682284758809 0 0.36333269689626863 0.1493861888458107 0 0.37684228818636539 0.15843682284758809 0 0.3671416304124725 0.14176003172449339 0 0.37070941569971771 0.13461669591651809 0 0.3787593782643216 0.15461233352569859 0 0.3671416304124725 0.14176003172449339 0 0.3787593782643216 0.15461233352569859 0 0.3671416304124725 0.14176003172449339 0 0.36333269689626863 0.1493861888458107 0 0.3671416304124725 0.14176003172449339 0 0.36333269689626863 0.1493861888458107 0 0.34550530047737338 0.13744287859109669 0 0.36333269689626863 0.1493861888458107 0 0.34561853793660702 0.15314640221132611 0 0.34550530047737338 0.13744287859109669 0 0.36333269689626863 0.1493861888458107 0 0.34550530047737338 0.13744287859109669 0 0.3671416304124725 0.14176003172449339 0 0.34550530047737338 0.13744287859109669 0 0.35316284647255403 0.1262957995599869 0 0.34048897133811401 0.1237021320680724 0 0.34550530047737338 0.13744287859109669 0 0.35316284647255403 0.1262957995599869 0 0.35827589064171561 0.12291289760507471 0 0.37070941569971771 0.13461669591651809 0 0.35827589064171561 0.12291289760507471 0 0.35316284647255403 0.1262957995599869 0 0.37070941569971771 0.13461669591651809 0 0.3671416304124725 0.14176003172449339 0 0.35316284647255403 0.1262957995599869 0 0.37070941569971771 0.13461669591651809 0 0.3671416304124725 0.14176003172449339 0 0.35316284647255403 0.1262957995599869 0 0.3671416304124725 0.14176003172449339 0 0.37070941569971771 0.13461669591651809 0 0.37070941569971771 0.13461669591651809 0 0.38895770972943178 0.1293772856782342 0 0.38960554776971568 0.1524038091915646 0 0.37070941569971771 0.13461669591651809 0 0.38895770972943178 0.1293772856782342 0 0.38139369053803568 0.113224892069849 0 0.38895770972943178 0.1293772856782342 0 0.40531253737249529 0.13532985999946309 0 0.39829908926758228 0.1141834437041893 0 0.38895770972943178 0.1293772856782342 0 0.40531253737249529 0.13532985999946309 0 0.38960554776971568 0.1524038091915646 0 0.40531253737249529 0.13532985999946309 0 0.38960554776971568 0.1524038091915646 0 0.41200343933918138 0.15067031384164439 0 0.37070941569971771 0.13461669591651809 0 0.38960554776971568 0.1524038091915646 0 0.3787593782643216 0.15461233352569859 0 0.37070941569971771 0.13461669591651809 0 0.38960554776971568 0.1524038091915646 0 0.37684228818636539 0.15843682284758809 0 0.39035187947646233 0.16748745684936539 0 0.38003303904383379 0.1749636773610104 0 0.3787593782643216 0.15461233352569859 0 0.37684228818636539 0.15843682284758809 0 0.39035187947646233 0.16748745684936539 0 0.37684228818636539 0.15843682284758809 0 0.39035187947646233 0.16748745684936539 0 0.3787593782643216 0.15461233352569859 0 0.39035187947646233 0.16748745684936539 0 0.38960554776971568 0.1524038091915646 0 0.3787593782643216 0.15461233352569859 0 0.39035187947646233 0.16748745684936539 0 0.36887242777252621 0.18196257545256481 0 0.37653470654504662 0.18677359377701219 0 0.38003303904383379 0.1749636773610104 0 0.37653470654504662 0.18677359377701219 0 0.38003303904383379 0.1749636773610104 0 0.38765321666200991 0.18520456772854901 0 0.39035187947646233 0.16748745684936539 0 0.38003303904383379 0.1749636773610104 0 0.38926358160781949 0.1761693570434722 0 0.38003303904383379 0.1749636773610104 0 0.38926358160781949 0.1761693570434722 0 0.38765321666200991 0.18520456772854901 0 0.38765321666200991 0.18520456772854901 0 0.3990161912489717 0.17702172623496409 0 0.40863706355692259 0.18766495554837589 0 0.3990161912489717 0.17702172623496409 0 0.40850167983972208 0.1701909224666025 0 0.40863706355692259 0.18766495554837589 0 0.38765321666200991 0.18520456772854901 0 0.3990161912489717 0.17702172623496409 0 0.39035187947646233 0.16748745684936539 0 0.3990161912489717 0.17702172623496409 0 0.38926358160781949 0.1761693570434722 0 0.38765321666200991 0.18520456772854901 0 0.3990161912489717 0.17702172623496409 0 0.39035187947646233 0.16748745684936539 0 0.38926358160781949 0.1761693570434722 0 0.3990161912489717 0.17702172623496409 0 0.3990161912489717 0.17702172623496409 0 0.40850167983972208 0.1701909224666025 0 0.3990161912489717 0.17702172623496409 0 0.40863706355692259 0.18766495554837589 0 0.38960554776971568 0.1524038091915646 0 0.40850167983972208 0.1701909224666025 0 0.41200343933918138 0.15067031384164439 0 0.39035187947646233 0.16748745684936539 0 0.3990161912489717 0.17702172623496409 0 0.40850167983972208 0.1701909224666025 0 0.38960554776971568 0.1524038091915646 0 0.40850167983972208 0.1701909224666025 0 0.38960554776971568 0.1524038091915646 0 0.39035187947646233 0.16748745684936539 0 0.40850167983972208 0.1701909224666025 0 0.40850167983972208 0.1701909224666025 0 0.43151885644463689 0.15361551729031339 0 0.40850167983972208 0.1701909224666025 0 0.43151885644463689 0.15361551729031339 0 0.41200343933918138 0.15067031384164439 0 0.40850167983972208 0.1701909224666025 0 0.4234394238512168 0.18425196648453429 0 0.43035739287819869 0.17095606849720479 0 0.40850167983972208 0.1701909224666025 0 0.4234394238512168 0.18425196648453429 0 0.40863706355692259 0.18766495554837589 0 0.40850167983972208 0.1701909224666025 0 0.4234394238512168 0.18425196648453429 0 0.4234394238512168 0.18425196648453429 0 0.40863706355692259 0.18766495554837589 0 0.43694649754628179 0.18440377806836539 0 0.4234394238512168 0.18425196648453429 0 0.44509902082651198 0.17925790025895841 0 0.4234394238512168 0.18425196648453429 0 0.44509902082651198 0.17925790025895841 0 0.4234394238512168 0.18425196648453429 0 0.43035739287819869 0.17095606849720479 0 0.44509902082651198 0.17925790025895841 0 0.40850167983972208 0.1701909224666025 0 0.43035739287819869 0.17095606849720479 0 0.43151885644463689 0.15361551729031339 0 0.43035739287819869 0.17095606849720479 0 0.43151885644463689 0.15361551729031339 0 0.44322798342890218 0.16746403598561899 0 0.43151885644463689 0.15361551729031339 0 0.43472404308937002 0.12774099622123741 0 0.42055895756179618 0.13695859841742289 0 0.43472404308937002 0.12774099622123741 0 0.42055895756179618 0.13695859841742289 0 0.41520448799712889 0.1151419953385293 0 0.40531253737249529 0.13532985999946309 0 0.42055895756179618 0.13695859841742289 0 0.41520448799712889 0.1151419953385293 0 0.40531253737249529 0.13532985999946309 0 0.42055895756179618 0.13695859841742289 0 0.41200343933918138 0.15067031384164439 0 0.43151885644463689 0.15361551729031339 0 0.42055895756179618 0.13695859841742289 0 0.41200343933918138 0.15067031384164439 0 0.38819983573514899 0.25621652599183392 0 0.39423125621563249 0.2439901966951199 0 0.40988895625210908 0.24630518715062241 0 0.40389140633919862 0.23490957210507521 0 0.39423125621563249 0.2439901966951199 0 0.40988895625210908 0.24630518715062241 0 0.40389140633919862 0.23490957210507521 0 0.39423125621563249 0.2439901966951199 0 0.39062908407441821 0.23301279973819569 0 0.37433246422177069 0.24680817574415501 0 0.39423125621563249 0.2439901966951199 0 0.39062908407441821 0.23301279973819569 0 0.38819983573514899 0.25621652599183392 0 0.37433246422177069 0.24680817574415501 0 0.39423125621563249 0.2439901966951199 0 0.36860550780498519 0.2271984270359681 0 0.37433246422177069 0.24680817574415501 0 0.39062908407441821 0.23301279973819569 0 0.37433246422177069 0.24680817574415501 0 0.39062908407441821 0.23301279973819569 0 0.39062908407441821 0.23301279973819569 0 0.39258763299420169 0.21699315581666609 0 0.37659456647150258 0.21322497771924581 0 0.36860550780498519 0.2271984270359681 0 0.39062908407441821 0.23301279973819569 0 0.37659456647150258 0.21322497771924581 0 0.40389140633919862 0.23490957210507521 0 0.39062908407441821 0.23301279973819569 0 0.40692570392706612 0.2192174237322366 0 0.39062908407441821 0.23301279973819569 0 0.40692570392706612 0.2192174237322366 0 0.39062908407441821 0.23301279973819569 0 0.39258763299420169 0.21699315581666609 0 0.40692570392706612 0.2192174237322366 0 0.39258763299420169 0.21699315581666609 0 0.3996829375835953 0.20300194179005041 0 0.40692570392706612 0.2192174237322366 0 0.39258763299420169 0.21699315581666609 0 0.38847829659589711 0.20707962197496621 0 0.3996829375835953 0.20300194179005041 0 0.37659456647150258 0.21322497771924581 0 0.38847829659589711 0.20707962197496621 0 0.38491730426792842 0.19313403463043691 0 0.39258763299420169 0.21699315581666609 0 0.37659456647150258 0.21322497771924581 0 0.38847829659589711 0.20707962197496621 0 0.37653470654504662 0.18677359377701219 0 0.38765321666200991 0.18520456772854901 0 0.38491730426792842 0.19313403463043691 0 0.38491730426792842 0.19313403463043691 0 0.40863706355692259 0.18766495554837589 0 0.38491730426792842 0.19313403463043691 0 0.3996829375835953 0.20300194179005041 0 0.40863706355692259 0.18766495554837589 0 0.38765321666200991 0.18520456772854901 0 0.38491730426792842 0.19313403463043691 0 0.40863706355692259 0.18766495554837589 0 0.38847829659589711 0.20707962197496621 0 0.38491730426792842 0.19313403463043691 0 0.3996829375835953 0.20300194179005041 0 0.40863706355692259 0.18766495554837589 0 0.42471092688834428 0.2054468996292079 0 0.3996829375835953 0.20300194179005041 0 0.40863706355692259 0.18766495554837589 0 0.42471092688834428 0.2054468996292079 0 0.4234394238512168 0.18425196648453429 0 0.40863706355692259 0.18766495554837589 0 0.42471092688834428 0.2054468996292079 0 0.4234394238512168 0.18425196648453429 0 0.44087129361512117 0.2006607553804558 0 0.4234394238512168 0.18425196648453429 0 0.42471092688834428 0.2054468996292079 0 0.44087129361512117 0.2006607553804558 0 0.43694649754628179 0.18440377806836539 0 0.4234394238512168 0.18425196648453429 0 0.44087129361512117 0.2006607553804558 0 0.42471092688834428 0.2054468996292079 0 0.42495995248588242 0.22331022738608 0 0.44078479021976658 0.22322884371003901 0 0.42471092688834428 0.2054468996292079 0 0.44078479021976658 0.22322884371003901 0 0.44553139915573031 0.21251213530744709 0 0.42471092688834428 0.2054468996292079 0 0.44553139915573031 0.21251213530744709 0 0.44087129361512117 0.2006607553804558 0 0.42471092688834428 0.2054468996292079 0 0.44078479021976658 0.22322884371003901 0 0.3996829375835953 0.20300194179005041 0 0.42471092688834428 0.2054468996292079 0 0.40692570392706612 0.2192174237322366 0 0.42471092688834428 0.2054468996292079 0 0.40692570392706612 0.2192174237322366 0 0.42495995248588242 0.22331022738608 0 0.40389140633919862 0.23490957210507521 0 0.40692570392706612 0.2192174237322366 0 0.41640893411271512 0.2318859739731432 0 0.40692570392706612 0.2192174237322366 0 0.41640893411271512 0.2318859739731432 0 0.42495995248588242 0.22331022738608 0 0.42495995248588242 0.22331022738608 0 0.43157807676906901 0.23639384830941049 0 0.44078479021976658 0.22322884371003901 0 0.41640893411271512 0.2318859739731432 0 0.42495995248588242 0.22331022738608 0 0.43157807676906901 0.23639384830941049 0 0.43157807676906901 0.23639384830941049 0 0.42944117757820288 0.2488400096079757 0 0.44078479021976658 0.22322884371003901 0 0.42944117757820288 0.2488400096079757 0 0.44078479021976658 0.22322884371003901 0 0.41916099293097348 0.25146074686672809 0 0.43157807676906901 0.23639384830941049 0 0.42944117757820288 0.2488400096079757 0 0.41640893411271512 0.2318859739731432 0 0.43157807676906901 0.23639384830941049 0 0.40988895625210908 0.24630518715062241 0 0.43157807676906901 0.23639384830941049 0 0.40988895625210908 0.24630518715062241 0 0.41916099293097348 0.25146074686672809 0 0.43157807676906901 0.23639384830941049 0 0.40988895625210908 0.24630518715062241 0 0.40389140633919862 0.23490957210507521 0 0.41640893411271512 0.2318859739731432 0 0.40988895625210908 0.24630518715062241 0 0.46148640446645939 0.24613030425673829 0 0.47573503314293952 0.23347833317228939 0 0.46148640446645939 0.24613030425673829 0 0.46064985725867441 0.23195282445986301 0 0.47573503314293952 0.23347833317228939 0 0.46148640446645939 0.24613030425673829 0 0.4511355973431127 0.23467957398338901 0 0.46148640446645939 0.24613030425673829 0 0.4511355973431127 0.23467957398338901 0 0.46064985725867441 0.23195282445986301 0 0.42944117757820288 0.2488400096079757 0 0.4511355973431127 0.23467957398338901 0 0.44078479021976658 0.22322884371003901 0 0.46148640446645939 0.24613030425673829 0 0.4452637393375507 0.24893853495298651 0 0.4511355973431127 0.23467957398338901 0 0.42944117757820288 0.2488400096079757 0 0.4452637393375507 0.24893853495298651 0 0.4511355973431127 0.23467957398338901 0 0.4511355973431127 0.23467957398338901 0 0.44078479021976658 0.22322884371003901 0 0.4511355973431127 0.23467957398338901 0 0.44078479021976658 0.22322884371003901 0 0.45102883392613469 0.22437244722427011 0 0.44078479021976658 0.22322884371003901 0 0.45102883392613469 0.22437244722427011 0 0.44553139915573031 0.21251213530744709 0 0.46064985725867441 0.23195282445986301 0 0.4583031633790331 0.21706954427637001 0 0.47573503314293952 0.23347833317228939 0 0.45102883392613469 0.22437244722427011 0 0.46064985725867441 0.23195282445986301 0 0.4583031633790331 0.21706954427637001 0 0.4583031633790331 0.21706954427637001 0 0.47573503314293952 0.23347833317228939 0 0.4511355973431127 0.23467957398338901 0 0.45102883392613469 0.22437244722427011 0 0.46064985725867441 0.23195282445986301 0 0.4583031633790331 0.21706954427637001 0 0.46786049374937849 0.20042835391190181 0 0.47441939156038798 0.2155866447630998 0 0.4583031633790331 0.21706954427637001 0 0.45454164945538272 0.19922239077497411 0 0.46786049374937849 0.20042835391190181 0 0.45102883392613469 0.22437244722427011 0 0.4583031633790331 0.21706954427637001 0 0.44553139915573031 0.21251213530744709 0 0.4583031633790331 0.21706954427637001 0 0.44553139915573031 0.21251213530744709 0 0.44087129361512117 0.2006607553804558 0 0.4583031633790331 0.21706954427637001 0 0.44087129361512117 0.2006607553804558 0 0.4583031633790331 0.21706954427637001 0 0.44087129361512117 0.2006607553804558 0 0.45454164945538272 0.19922239077497411 0 0.44078479021976658 0.22322884371003901 0 0.44553139915573031 0.21251213530744709 0 0.44087129361512117 0.2006607553804558 0 0.44770896483585992 0.19311222892773119 0 0.45454164945538272 0.19922239077497411 0 0.43694649754628179 0.18440377806836539 0 0.44087129361512117 0.2006607553804558 0 0.44770896483585992 0.19311222892773119 0 0.45454164945538272 0.19922239077497411 0 0.46786049374937849 0.20042835391190181 0 0.45796433169752099 0.18484107137841169 0 0.46786049374937849 0.20042835391190181 0 0.45796433169752099 0.18484107137841169 0 0.47898216584876019 0.1852783646884579 0 0.44770896483585992 0.19311222892773119 0 0.45454164945538272 0.19922239077497411 0 0.45796433169752099 0.18484107137841169 0 0.49032822920196217 0.19679451514118459 0 0.48233075095908379 0.20425161385975821 0 0.47898216584876019 0.1852783646884579 0 0.46786049374937849 0.20042835391190181 0 0.48233075095908379 0.20425161385975821 0 0.47898216584876019 0.1852783646884579 0 0.49032822920196217 0.19679451514118459 0 0.50000000000000333 0.21193242401801629 0 0.4999999999999995 0.1857156579985042 0 0.49032822920196217 0.19679451514118459 0 0.47898216584876019 0.1852783646884579 0 0.4999999999999995 0.1857156579985042 0 0.50000000000000333 0.21193242401801629 0 0.48233075095908379 0.20425161385975821 0 0.48786751657150002 0.22270537859518499 0 0.49032822920196217 0.19679451514118459 0 0.50000000000000333 0.21193242401801629 0 0.48233075095908379 0.20425161385975821 0 0.50000000000000333 0.21193242401801629 0 0.48786751657150002 0.22270537859518499 0 0.48233075095908379 0.20425161385975821 0 0.47441939156038798 0.2155866447630998 0 0.48786751657150002 0.22270537859518499 0 0.46786049374937849 0.20042835391190181 0 0.48233075095908379 0.20425161385975821 0 0.47441939156038798 0.2155866447630998 0 0.4583031633790331 0.21706954427637001 0 0.47441939156038798 0.2155866447630998 0 0.47573503314293952 0.23347833317228939 0 0.47441939156038798 0.2155866447630998 0 0.47573503314293952 0.23347833317228939 0 0.48786751657150002 0.22270537859518499 0 0.47573503314293952 0.23347833317228939 0 0.48786751657150002 0.22270537859518499 0 0.48778424756318273 0.23692270518427089 0 0.47573503314293952 0.23347833317228939 0 0.48786751657150002 0.22270537859518499 0 0.50000000000000333 0.21193242401801629 0 0.48786751657150002 0.22270537859518499 0 0.5 0.23412580348699411 0 0.48786751657150002 0.22270537859518499 0 0.5 0.23412580348699411 0 0.48778424756318273 0.23692270518427089 0 0.49329297654361298 0.25000579641114579 0 0.47573503314293952 0.23347833317228939 0 0.48778424756318273 0.23692270518427089 0 0.49329297654361298 0.25000579641114579 0 0.47573503314293952 0.23347833317228939 0 0.50000000000007749 0.25631918295597189 0 0.5 0.23412580348699411 0 0.49506520967400008 0.24106694935053199 0 0.5 0.23412580348699411 0 0.48778424756318273 0.23692270518427089 0 0.49506520967400008 0.24106694935053199 0 0.48778424756318273 0.23692270518427089 0 0.49506520967400008 0.24106694935053199 0 0.49389594506739071 0.24786319970320819 0 0.50000000000007749 0.25631918295597189 0 0.49506520967400008 0.24106694935053199 0 0.49389594506739071 0.24786319970320819 0 0.49329297654361298 0.25000579641114579 0 0.49389594506739071 0.24786319970320819 0 0.49329297654361298 0.25000579641114579 0 0.48778424756318273 0.23692270518427089 0 0.49389594506739071 0.24786319970320819 0 0.47402991043764547 0.26000673938364371 0 0.46148640446645939 0.24613030425673829 0 0.47573503314293952 0.23347833317228939 0 0.47402991043764547 0.26000673938364371 0 0.49329297654361298 0.25000579641114579 0 0.47573503314293952 0.23347833317228939 0 0.45453603304950568 0.1370401121139608 0 0.4543745622626556 0.1591426233845844 0 0.47583586388097299 0.15057589139930519 0 0.43472404308937002 0.12774099622123741 0 0.45453603304950568 0.1370401121139608 0 0.45382503719733769 0.1120436741417979 0 0.43151885644463689 0.15361551729031339 0 0.43472404308937002 0.12774099622123741 0 0.45453603304950568 0.1370401121139608 0 0.43151885644463689 0.15361551729031339 0 0.45453603304950568 0.1370401121139608 0 0.43151885644463689 0.15361551729031339 0 0.45453603304950568 0.1370401121139608 0 0.4543745622626556 0.1591426233845844 0 0.43151885644463689 0.15361551729031339 0 0.44322798342890218 0.16746403598561899 0 0.4543745622626556 0.1591426233845844 0 0.44322798342890218 0.16746403598561899 0 0.4523650460799703 0.17003209841564049 0 0.4543745622626556 0.1591426233845844 0 0.43694649754628179 0.18440377806836539 0 0.45796433169752099 0.18484107137841169 0 0.43694649754628179 0.18440377806836539 0 0.44509902082651198 0.17925790025895841 0 0.45796433169752099 0.18484107137841169 0 0.43694649754628179 0.18440377806836539 0 0.44770896483585992 0.19311222892773119 0 0.45796433169752099 0.18484107137841169 0 0.43035739287819869 0.17095606849720479 0 0.44322798342890218 0.16746403598561899 0 0.44509902082651198 0.17925790025895841 0 0.44322798342890218 0.16746403598561899 0 0.4523650460799703 0.17003209841564049 0 0.44509902082651198 0.17925790025895841 0 0.4523650460799703 0.17003209841564049 0 0.44509902082651198 0.17925790025895841 0 0.46675861780181133 0.1742638340334004 0 0.44509902082651198 0.17925790025895841 0 0.45796433169752099 0.18484107137841169 0 0.46675861780181133 0.1742638340334004 0 0.45796433169752099 0.18484107137841169 0 0.47898216584876019 0.1852783646884579 0 0.45796433169752099 0.18484107137841169 0 0.46675861780181133 0.1742638340334004 0 0.47898216584876019 0.1852783646884579 0 0.44509902082651198 0.17925790025895841 0 0.46675861780181133 0.1742638340334004 0 0.46675861780181133 0.1742638340334004 0 0.4543745622626556 0.1591426233845844 0 0.47583586388097299 0.15057589139930519 0 0.4523650460799703 0.17003209841564049 0 0.46675861780181133 0.1742638340334004 0 0.4543745622626556 0.1591426233845844 0 0.46675861780181133 0.1742638340334004 0 0.48421155717120529 0.1698680995371106 0 0.47583586388097299 0.15057589139930519 0 0.46675861780181133 0.1742638340334004 0 0.48421155717120529 0.1698680995371106 0 0.47898216584876019 0.1852783646884579 0 0.48421155717120529 0.1698680995371106 0 0.47898216584876019 0.1852783646884579 0 0.4999999999999995 0.1857156579985042 0 0.47898216584876019 0.1852783646884579 0 0.4999999999999995 0.1857156579985042 0 0.48421155717120529 0.1698680995371106 0 0.4999999999999995 0.1857156579985042 0 0.5 0.15829700707094649 0 0.48421155717120529 0.1698680995371106 0 0.5 0.15829700707094649 0 0.47583586388097299 0.15057589139930519 0 0.5 0.15829700707094649 0 0.47583586388097299 0.15057589139930519 0 0.5 0.13087835614338869 0 0.47583586388097299 0.15057589139930519 0 0.5 0.13087835614338869 0 0.47595873479387502 0.1242988156333944 0 0.45453603304950568 0.1370401121139608 0 0.47583586388097299 0.15057589139930519 0 0.47595873479387502 0.1242988156333944 0 0.5 0.13087835614338869 0 0.5 0.10345970521583139 0 0.47595873479387502 0.1242988156333944 0 0.5 0.10345970521583139 0 0.47425025455369307 0.1005016256070195 0 0.48546579483231561 0.087226466785827378 0 0.5 0.10345970521583139 0 0.47425025455369307 0.1005016256070195 0 0.47595873479387502 0.1242988156333944 0 0.5 0.076041054288273902 0 0.48027778257330078 0.073789940367415485 0 0.48123307784285768 0.057521852739158753 0 0.5 0.10345970521583139 0 0.5 0.076041054288273902 0 0.48546579483231561 0.087226466785827378 0 0.5 0.076041054288273902 0 0.48546579483231561 0.087226466785827378 0 0.48027778257330078 0.073789940367415485 0 0.48546579483231561 0.087226466785827378 0 0.46980497978695168 0.084060072709987582 0 0.48027778257330078 0.073789940367415485 0 0.47425025455369307 0.1005016256070195 0 0.48546579483231561 0.087226466785827378 0 0.46980497978695168 0.084060072709987582 0 0.48027778257330078 0.073789940367415485 0 0.4651492776979223 0.070454685655887223 0 0.48123307784285768 0.057521852739158753 0 0.46980497978695168 0.084060072709987582 0 0.48027778257330078 0.073789940367415485 0 0.4651492776979223 0.070454685655887223 0 0.4651492776979223 0.070454685655887223 0 0.44508859906953052 0.071378336461602326 0 0.45925913835144239 0.055500244079181853 0 0.4651492776979223 0.070454685655887223 0 0.45523208856345082 0.080477667577977363 0 0.44508859906953052 0.071378336461602326 0 0.47425025455369307 0.1005016256070195 0 0.46980497978695168 0.084060072709987582 0 0.45986601411235578 0.093788015446079398 0 0.46980497978695168 0.084060072709987582 0 0.4651492776979223 0.070454685655887223 0 0.45523208856345082 0.080477667577977363 0 0.46980497978695168 0.084060072709987582 0 0.45523208856345082 0.080477667577977363 0 0.45986601411235578 0.093788015446079398 0 0.45523208856345082 0.080477667577977363 0 0.44548626427773758 0.093415187934823368 0 0.45986601411235578 0.093788015446079398 0 0.44548626427773758 0.093415187934823368 0 0.44492924450000598 0.082293780479814782 0 0.43391002608930551 0.083903929944856154 0 0.44492924450000598 0.082293780479814782 0 0.44508859906953052 0.071378336461602326 0 0.43391002608930551 0.083903929944856154 0 0.45523208856345082 0.080477667577977363 0 0.44548626427773758 0.093415187934823368 0 0.44492924450000598 0.082293780479814782 0 0.44508859906953052 0.071378336461602326 0 0.45925913835144239 0.055500244079181853 0 0.45523208856345082 0.080477667577977363 0 0.44508859906953052 0.071378336461602326 0 0.45523208856345082 0.080477667577977363 0 0.44492924450000598 0.082293780479814782 0 0.44508859906953052 0.071378336461602326 0 0.44508859906953052 0.071378336461602326 0 0.43391002608930551 0.083903929944856154 0 0.47425025455369307 0.1005016256070195 0 0.47595873479387502 0.1242988156333944 0 0.45382503719733769 0.1120436741417979 0 0.45453603304950568 0.1370401121139608 0 0.47595873479387502 0.1242988156333944 0 0.45382503719733769 0.1120436741417979 0 0.47425025455369307 0.1005016256070195 0 0.45382503719733769 0.1120436741417979 0 0.45986601411235578 0.093788015446079398 0 0.44548626427773758 0.093415187934823368 0 0.45382503719733769 0.1120436741417979 0 0.45986601411235578 0.093788015446079398 0 0.44548626427773758 0.093415187934823368 0 0.45382503719733769 0.1120436741417979 0 0.43439425713413071 0.1089542754128994 0 0.43472404308937002 0.12774099622123741 0 0.45382503719733769 0.1120436741417979 0 0.43439425713413071 0.1089542754128994 0 0.43472404308937002 0.12774099622123741 0 0.41520448799712889 0.1151419953385293 0 0.43439425713413071 0.1089542754128994 0 0.41520448799712889 0.1151419953385293 0 0.39829908926758228 0.1141834437041893 0 0.40531253737249529 0.13532985999946309 0 0.41520448799712889 0.1151419953385293 0 0.39829908926758228 0.1141834437041893 0 0.41520448799712889 0.1151419953385293 0 0.40771131106785119 0.1010042645505867 0 0.39829908926758228 0.1141834437041893 0 0.41520448799712889 0.1151419953385293 0 0.40771131106785119 0.1010042645505867 0 0.42273145310907922 0.096429523428108829 0 0.40771131106785119 0.1010042645505867 0 0.42273145310907922 0.096429523428108829 0 0.4111449961330968 0.086059030409111711 0 0.44548626427773758 0.093415187934823368 0 0.43439425713413071 0.1089542754128994 0 0.42273145310907922 0.096429523428108829 0 0.41520448799712889 0.1151419953385293 0 0.43439425713413071 0.1089542754128994 0 0.42273145310907922 0.096429523428108829 0 0.42273145310907922 0.096429523428108829 0 0.43391002608930551 0.083903929944856154 0 0.4111449961330968 0.086059030409111711 0 0.44548626427773758 0.093415187934823368 0 0.42273145310907922 0.096429523428108829 0 0.43391002608930551 0.083903929944856154 0 0.42273145310907922 0.096429523428108829 0 0.43391002608930551 0.083903929944856154 0 0.44508859906953052 0.071378336461602326 0 0.4314895828756557 0.070870064927897658 0 0.42799115844469249 0.056040885421582143 0 0.4314895828756557 0.070870064927897658 0 0.41896854789909432 0.072157107883550023 0 0.42799115844469249 0.056040885421582143 0 0.44508859906953052 0.071378336461602326 0 0.42799115844469249 0.056040885421582143 0 0.44508859906953052 0.071378336461602326 0 0.43391002608930551 0.083903929944856154 0 0.4314895828756557 0.070870064927897658 0 0.43391002608930551 0.083903929944856154 0 0.4314895828756557 0.070870064927897658 0 0.41896854789909432 0.072157107883550023 0 0.41896854789909432 0.072157107883550023 0 0.40041691431602727 0.074207514370569133 0 0.40723313752289492 0.05585107147268293 0 0.41896854789909432 0.072157107883550023 0 0.4111449961330968 0.086059030409111711 0 0.40041691431602727 0.074207514370569133 0 0.43391002608930551 0.083903929944856154 0 0.41896854789909432 0.072157107883550023 0 0.4111449961330968 0.086059030409111711 0 0.39156654100773608 0.092857050067974345 0 0.40041691431602727 0.074207514370569133 0 0.38721379432713787 0.073382771068024946 0 0.40771131106785119 0.1010042645505867 0 0.4111449961330968 0.086059030409111711 0 0.39156654100773608 0.092857050067974345 0 0.4111449961330968 0.086059030409111711 0 0.39156654100773608 0.092857050067974345 0 0.40041691431602727 0.074207514370569133 0 0.40041691431602727 0.074207514370569133 0 0.39580233101262052 0.062684029016174592 0 0.40723313752289492 0.05585107147268293 0 0.40041691431602727 0.074207514370569133 0 0.3920454240601432 0.068113132336092508 0 0.38721379432713787 0.073382771068024946 0 0.40041691431602727 0.074207514370569133 0 0.39580233101262052 0.062684029016174592 0 0.3920454240601432 0.068113132336092508 0 0.39580233101262052 0.062684029016174592 0 0.3920454240601432 0.068113132336092508 0 0.38474865658478702 0.062178214889601402 0 0.38721379432713787 0.073382771068024946 0 0.3808332764403457 0.063279578408277942 0 0.37510436938741182 0.080035225213356459 0 0.3808332764403457 0.063279578408277942 0 0.37510436938741182 0.080035225213356459 0 0.3920454240601432 0.068113132336092508 0 0.38721379432713787 0.073382771068024946 0 0.38474865658478702 0.062178214889601402 0 0.38721379432713787 0.073382771068024946 0 0.3808332764403457 0.063279578408277942 0 0.38474865658478702 0.062178214889601402 0 0.3808332764403457 0.063279578408277942 0 0.38474865658478702 0.062178214889601402 0 0.39156654100773608 0.092857050067974345 0 0.38721379432713787 0.073382771068024946 0 0.37510436938741182 0.080035225213356459 0 0.37394462786892352 0.098078513275383444 0 0.39156654100773608 0.092857050067974345 0 0.37510436938741182 0.080035225213356459 0 0.39156654100773608 0.092857050067974345 0 0.38139369053803568 0.113224892069849 0 0.39156654100773608 0.092857050067974345 0 0.38139369053803568 0.113224892069849 0 0.39829908926758228 0.1141834437041893 0 0.37394462786892352 0.098078513275383444 0 0.39156654100773608 0.092857050067974345 0 0.38139369053803568 0.113224892069849 0 0.37070941569971771 0.13461669591651809 0 0.38139369053803568 0.113224892069849 0 0.38895770972943178 0.1293772856782342 0 0.38139369053803568 0.113224892069849 0 0.39829908926758228 0.1141834437041893 0 0.38139369053803568 0.113224892069849 0 0.39829908926758228 0.1141834437041893 0 0.40771131106785119 0.1010042645505867 0 0.39156654100773608 0.092857050067974345 0 0.39829908926758228 0.1141834437041893 0 0.39379627719501609 0.025365983341542091 0 0.40094374819495082 0.0044613852186972461 0 0.41461507385513519 0.02023072374658132 0 0.39379627719501609 0.025365983341542091 0 0.39132072552861202 0.01238644150855007 0 0.38803593200103292 0.020383466810328779 0 0.39111599808217401 0.025690956264143999 0 0.39379627719501609 0.025365983341542091 0 0.38931451675017309 0.024442875027914951 0 0.39111599808217401 0.025690956264143999 0 0.39379627719501609 0.025365983341542091 0 0.390131055097233 0.028820840695279411 0 0.40094374819495082 0.0044613852186972461 0 0.39132072552861202 0.01238644150855007 0 0.38191166615011468 0.0008555688800514999 0 0.39379627719501609 0.025365983341542091 0 0.40094374819495082 0.0044613852186972461 0 0.39379627719501609 0.025365983341542091 0 0.40094374819495082 0.0044613852186972461 0 0.39132072552861202 0.01238644150855007 0 0.39132072552861202 0.01238644150855007 0 0.38191166615011468 0.0008555688800514999 0 0.3826210548250108 0.01268454387340081 0 0.39132072552861202 0.01238644150855007 0 0.3826210548250108 0.01268454387340081 0 0.38803593200103292 0.020383466810328779 0 0.37307929389423378 0.01346855421861138 0 0.38191166615011468 0.0008555688800514999 0 0.3826210548250108 0.01268454387340081 0 0.37307929389423378 0.01346855421861138 0 0.3826210548250108 0.01268454387340081 0 0.38224468237027232 0.021241520385009819 0 0.37307929389423378 0.01346855421861138 0 0.37374739976458188 0.022925203692140041 0 0.38224468237027232 0.021241520385009819 0 0.3826210548250108 0.01268454387340081 0 0.38224468237027232 0.021241520385009819 0 0.38803593200103292 0.020383466810328779 0 0.38224468237027232 0.021241520385009819 0 0.38803593200103292 0.020383466810328779 0 0.38581666035621848 0.02587739568543072 0 0.39379627719501609 0.025365983341542091 0 0.38803593200103292 0.020383466810328779 0 0.38931451675017309 0.024442875027914951 0 0.38581666035621848 0.02587739568543072 0 0.38069331263637418 0.028981271374124509 0 0.38406794599840233 0.034286313414105513 0 0.390131055097233 0.028820840695279411 0 0.38581666035621848 0.02587739568543072 0 0.38406794599840233 0.034286313414105513 0 0.39111599808217401 0.025690956264143999 0 0.390131055097233 0.028820840695279411 0 0.38931451675017309 0.024442875027914951 0 0.390131055097233 0.028820840695279411 0 0.38931451675017309 0.024442875027914951 0 0.38581666035621848 0.02587739568543072 0 0.38803593200103292 0.020383466810328779 0 0.38931451675017309 0.024442875027914951 0 0.38581666035621848 0.02587739568543072 0 0.38224468237027232 0.021241520385009819 0 0.38581666035621848 0.02587739568543072 0 0.38069331263637418 0.028981271374124509 0 0.37374739976458188 0.022925203692140041 0 0.38224468237027232 0.021241520385009819 0 0.38069331263637418 0.028981271374124509 0 0.37809433254753289 0.037110187729147807 0 0.38406794599840233 0.034286313414105513 0 0.3848299442887218 0.051590306048612089 0 0.38069331263637418 0.028981271374124509 0 0.37809433254753289 0.037110187729147807 0 0.38406794599840233 0.034286313414105513 0 0.390131055097233 0.028820840695279411 0 0.38406794599840233 0.034286313414105513 0 0.3848299442887218 0.051590306048612089 0 0.36788917665649318 0.030653652072919351 0 0.38069331263637418 0.028981271374124509 0 0.37809433254753289 0.037110187729147807 0 0.39379627719501609 0.025365983341542091 0 0.3848299442887218 0.051590306048612089 0 0.39379627719501609 0.025365983341542091 0 0.390131055097233 0.028820840695279411 0 0.3848299442887218 0.051590306048612089 0 0.36596075236496872 0.058845665328185248 0 0.3808332764403457 0.063279578408277942 0 0.3848299442887218 0.051590306048612089 0 0.39580233101262052 0.062684029016174592 0 0.3848299442887218 0.051590306048612089 0 0.38474865658478702 0.062178214889601402 0 0.3808332764403457 0.063279578408277942 0 0.3848299442887218 0.051590306048612089 0 0.38474865658478702 0.062178214889601402 0 0.3808332764403457 0.063279578408277942 0 0.3848299442887218 0.051590306048612089 0 0.39580233101262052 0.062684029016174592 0 0.3848299442887218 0.051590306048612089 0 0.40723313752289492 0.05585107147268293 0 0.3848299442887218 0.051590306048612089 0 0.39986581840557739 0.047236041870818313 0 0.40723313752289492 0.05585107147268293 0 0.3848299442887218 0.051590306048612089 0 0.40723313752289492 0.05585107147268293 0 0.39986581840557739 0.047236041870818313 0 0.41089371781985451 0.040703434381561883 0 0.40723313752289492 0.05585107147268293 0 0.39379627719501609 0.025365983341542091 0 0.3848299442887218 0.051590306048612089 0 0.39650647399083849 0.040799355580416363 0 0.39379627719501609 0.025365983341542091 0 0.41089371781985451 0.040703434381561883 0 0.39379627719501609 0.025365983341542091 0 0.39650647399083849 0.040799355580416363 0 0.41089371781985451 0.040703434381561883 0 0.3848299442887218 0.051590306048612089 0 0.39986581840557739 0.047236041870818313 0 0.39650647399083849 0.040799355580416363 0 0.39986581840557739 0.047236041870818313 0 0.39650647399083849 0.040799355580416363 0 0.41089371781985451 0.040703434381561883 0 0.41089371781985451 0.040703434381561883 0 0.42836563471254141 0.035111375925398529 0 0.41461507385513519 0.02023072374658132 0 0.41089371781985451 0.040703434381561883 0 0.40723313752289492 0.05585107147268293 0 0.42799115844469249 0.056040885421582143 0 0.41089371781985451 0.040703434381561883 0 0.42799115844469249 0.056040885421582143 0 0.41896854789909432 0.072157107883550023 0 0.40723313752289492 0.05585107147268293 0 0.42799115844469249 0.056040885421582143 0 0.42799115844469249 0.056040885421582143 0 0.42836563471254141 0.035111375925398529 0 0.44372977059791768 0.046131779510771187 0 0.41089371781985451 0.040703434381561883 0 0.42799115844469249 0.056040885421582143 0 0.42836563471254141 0.035111375925398529 0 0.42836563471254141 0.035111375925398529 0 0.43280404676660039 0.01698507222265953 0 0.44184164911934498 0.02932912440820273 0 0.42836563471254141 0.035111375925398529 0 0.43280404676660039 0.01698507222265953 0 0.41461507385513519 0.02023072374658132 0 0.39379627719501609 0.025365983341542091 0 0.41089371781985451 0.040703434381561883 0 0.41461507385513519 0.02023072374658132 0 0.40094374819495082 0.0044613852186972461 0 0.41461507385513519 0.02023072374658132 0 0.42162103764939318 7.3940415165497236e-06 0 0.43280404676660039 0.01698507222265953 0 0.42162103764939318 7.3940415165497236e-06 0 0.44443731959015681 0.001200742426242848 0 0.43280404676660039 0.01698507222265953 0 0.41461507385513519 0.02023072374658132 0 0.42162103764939318 7.3940415165497236e-06 0 0.44443731959015681 0.001200742426242848 0 0.45169771105620637 0.015054427969936231 0 0.46234180780265471 0.00015855932447281031 0 0.43280404676660039 0.01698507222265953 0 0.44443731959015681 0.001200742426242848 0 0.45169771105620637 0.015054427969936231 0 0.43280404676660039 0.01698507222265953 0 0.45169771105620637 0.015054427969936231 0 0.44184164911934498 0.02932912440820273 0 0.45169771105620637 0.015054427969936231 0 0.44184164911934498 0.02932912440820273 0 0.45983244388995448 0.02943071076865959 0 0.45169771105620637 0.015054427969936231 0 0.45983244388995448 0.02943071076865959 0 0.46853722378197282 0.013664265463097409 0 0.45169771105620637 0.015054427969936231 0 0.46234180780265471 0.00015855932447281031 0 0.46853722378197282 0.013664265463097409 0 0.44508859906953052 0.071378336461602326 0 0.42799115844469249 0.056040885421582143 0 0.44372977059791768 0.046131779510771187 0 0.44508859906953052 0.071378336461602326 0 0.44372977059791768 0.046131779510771187 0 0.45925913835144239 0.055500244079181853 0 0.44184164911934498 0.02932912440820273 0 0.45983244388995448 0.02943071076865959 0 0.44372977059791768 0.046131779510771187 0 0.42836563471254141 0.035111375925398529 0 0.44184164911934498 0.02932912440820273 0 0.44372977059791768 0.046131779510771187 0 0.45983244388995448 0.02943071076865959 0 0.44372977059791768 0.046131779510771187 0 0.45925913835144239 0.055500244079181853 0 0.45983244388995448 0.02943071076865959 0 0.45925913835144239 0.055500244079181853 0 0.47342967763335297 0.039622151696760213 0 0.4651492776979223 0.070454685655887223 0 0.45925913835144239 0.055500244079181853 0 0.48123307784285768 0.057521852739158753 0 0.45925913835144239 0.055500244079181853 0 0.47342967763335297 0.039622151696760213 0 0.45925913835144239 0.055500244079181853 0 0.48123307784285768 0.057521852739158753 0 0.47342967763335297 0.039622151696760213 0 0.45983244388995448 0.02943071076865959 0 0.47342967763335297 0.039622151696760213 0 0.4832027491415174 0.025346423018976581 0 0.5 0.048622403360716548 0 0.4832027491415174 0.025346423018976581 0 0.5 0.021203752433159081 0 0.47342967763335297 0.039622151696760213 0 0.5 0.048622403360716548 0 0.4832027491415174 0.025346423018976581 0 0.48123307784285768 0.057521852739158753 0 0.47342967763335297 0.039622151696760213 0 0.5 0.048622403360716548 0 0.5 0.076041054288273902 0 0.48123307784285768 0.057521852739158753 0 0.5 0.048622403360716548 0 0.46853722378197282 0.013664265463097409 0 0.48157029308885152 0.001767358195074211 0 0.4832027491415174 0.025346423018976581 0 0.46234180780265471 0.00015855932447281031 0 0.46853722378197282 0.013664265463097409 0 0.48157029308885152 0.001767358195074211 0 0.45983244388995448 0.02943071076865959 0 0.46853722378197282 0.013664265463097409 0 0.4832027491415174 0.025346423018976581 0 0.48157029308885152 0.001767358195074211 0 0.4832027491415174 0.025346423018976581 0 0.5 0.021203752433159081 0 0.48157029308885152 0.001767358195074211 0 0.5 0.021203752433159081 0 0.5 -0.0062148984943983243 0 0.48157029308885152 0.001767358195074211 0 0.5 -0.0062148984943983243 0 0.48226795753057677 -0.02362819207344001 0 0.48157029308885152 0.001767358195074211 0 0.46997432276691442 -0.013127443872270951 0 0.48226795753057677 -0.02362819207344001 0 0.46234180780265471 0.00015855932447281031 0 0.48157029308885152 0.001767358195074211 0 0.46997432276691442 -0.013127443872270951 0 0.48226795753057677 -0.02362819207344001 0 0.47057319727751129 -0.040134524783157252 0 0.46248037649411228 -0.025799346159064498 0 0.46997432276691442 -0.013127443872270951 0 0.48226795753057677 -0.02362819207344001 0 0.46248037649411228 -0.025799346159064498 0 0.5 -0.0062148984943983243 0 0.48226795753057677 -0.02362819207344001 0 0.5 -0.033633549421955733 0 0.48226795753057677 -0.02362819207344001 0 0.5 -0.033633549421955733 0 0.48975029336815901 -0.046615992963893398 0 0.49831302154891821 -0.060768025060410527 0 0.4773377902132282 -0.057548974798107368 0 0.48975029336815901 -0.046615992963893398 0 0.49831302154891821 -0.060768025060410527 0 0.4773377902132282 -0.057548974798107368 0 0.5 -0.033633549421955733 0 0.48975029336815901 -0.046615992963893398 0 0.5 -0.061052200349513142 0 0.48975029336815901 -0.046615992963893398 0 0.49831302154891821 -0.060768025060410527 0 0.5 -0.061052200349513142 0 0.48975029336815901 -0.046615992963893398 0 0.4773377902132282 -0.057548974798107368 0 0.47057319727751129 -0.040134524783157252 0 0.4773377902132282 -0.057548974798107368 0 0.47057319727751129 -0.040134524783157252 0 0.48226795753057677 -0.02362819207344001 0 0.48975029336815901 -0.046615992963893398 0 0.47057319727751129 -0.040134524783157252 0 0.47057319727751129 -0.040134524783157252 0 0.45392548083517359 -0.037040543901532677 0 0.46248037649411228 -0.025799346159064498 0 0.47057319727751129 -0.040134524783157252 0 0.45392548083517359 -0.037040543901532677 0 0.44970366954183788 -0.05330799065961872 0 0.4773377902132282 -0.057548974798107368 0 0.47057319727751129 -0.040134524783157252 0 0.44970366954183788 -0.05330799065961872 0 0.44970366954183788 -0.05330799065961872 0 0.47186954768029987 -0.065643995542664604 0 0.44421261160644998 -0.067959077046331334 0 0.4773377902132282 -0.057548974798107368 0 0.44970366954183788 -0.05330799065961872 0 0.4773377902132282 -0.057548974798107368 0 0.44970366954183788 -0.05330799065961872 0 0.47186954768029987 -0.065643995542664604 0 0.44970366954183788 -0.05330799065961872 0 0.44421261160644998 -0.067959077046331334 0 0.42206954887044762 -0.049067006521130767 0 0.44021651924014432 -0.039533898365996523 0 0.44665364162226251 -0.026426959539826399 0 0.42943938718876651 -0.030200818450009579 0 0.45392548083517359 -0.037040543901532677 0 0.44970366954183788 -0.05330799065961872 0 0.44021651924014432 -0.039533898365996523 0 0.45392548083517359 -0.037040543901532677 0 0.44021651924014432 -0.039533898365996523 0 0.44665364162226251 -0.026426959539826399 0 0.44665364162226251 -0.026426959539826399 0 0.45373443888691878 -0.01298388154578283 0 0.43612738965885778 -0.01346693466053327 0 0.44443731959015681 0.001200742426242848 0 0.45373443888691878 -0.01298388154578283 0 0.43612738965885778 -0.01346693466053327 0 0.44443731959015681 0.001200742426242848 0 0.46234180780265471 0.00015855932447281031 0 0.45373443888691878 -0.01298388154578283 0 0.46234180780265471 0.00015855932447281031 0 0.46997432276691442 -0.013127443872270951 0 0.45373443888691878 -0.01298388154578283 0 0.46997432276691442 -0.013127443872270951 0 0.45373443888691878 -0.01298388154578283 0 0.46248037649411228 -0.025799346159064498 0 0.45392548083517359 -0.037040543901532677 0 0.44665364162226251 -0.026426959539826399 0 0.46248037649411228 -0.025799346159064498 0 0.44665364162226251 -0.026426959539826399 0 0.45373443888691878 -0.01298388154578283 0 0.46248037649411228 -0.025799346159064498 0 0.47248303026737842 -0.1243033271675323 0 0.48203681066070447 -0.1103253619410826 0 0.46693941681308287 -0.1068804447195227 0 0.47248303026737842 -0.1243033271675323 0 0.48203681066070447 -0.1103253619410826 0 0.48579424544581451 -0.1255384987959963 0 0.48203681066070447 -0.1103253619410826 0 0.49999999999999939 -0.115889502204628 0 0.48579424544581451 -0.1255384987959963 0 0.49999999999999939 -0.115889502204628 0 0.4924459300710749 -0.096442659735788111 0 0.5 -0.08847085127707055 0 0.48203681066070447 -0.1103253619410826 0 0.49999999999999939 -0.115889502204628 0 0.4924459300710749 -0.096442659735788111 0 0.49999999999999939 -0.115889502204628 0 0.4924459300710749 -0.096442659735788111 0 0.48203681066070447 -0.1103253619410826 0 0.4924459300710749 -0.096442659735788111 0 0.47576826627402929 -0.091938463325768077 0 0.48203681066070447 -0.1103253619410826 0 0.47576826627402929 -0.091938463325768077 0 0.46693941681308287 -0.1068804447195227 0 0.4924459300710749 -0.096442659735788111 0 0.47576826627402929 -0.091938463325768077 0 0.48489186014215091 -0.076995817266948027 0 0.47576826627402929 -0.091938463325768077 0 0.47121928548493841 -0.078750357478472241 0 0.48489186014215091 -0.076995817266948027 0 0.4924459300710749 -0.096442659735788111 0 0.48489186014215091 -0.076995817266948027 0 0.4924459300710749 -0.096442659735788111 0 0.5 -0.08847085127707055 0 0.48489186014215091 -0.076995817266948027 0 0.49831302154891821 -0.060768025060410527 0 0.5 -0.061052200349513142 0 0.48489186014215091 -0.076995817266948027 0 0.5 -0.061052200349513142 0 0.5 -0.08847085127707055 0 0.48489186014215091 -0.076995817266948027 0 0.49831302154891821 -0.060768025060410527 0 0.4773377902132282 -0.057548974798107368 0 0.48489186014215091 -0.076995817266948027 0 0.4773377902132282 -0.057548974798107368 0 0.48489186014215091 -0.076995817266948027 0 0.47186954768029987 -0.065643995542664604 0 0.4773377902132282 -0.057548974798107368 0 0.48489186014215091 -0.076995817266948027 0 0.47121928548493841 -0.078750357478472241 0 0.48489186014215091 -0.076995817266948027 0 0.47186954768029987 -0.065643995542664604 0 0.47186954768029987 -0.065643995542664604 0 0.44421261160644998 -0.067959077046331334 0 0.47186954768029987 -0.065643995542664604 0 0.46149380023571063 -0.074269227896209128 0 0.44421261160644998 -0.067959077046331334 0 0.46149380023571063 -0.074269227896209128 0 0.44421261160644998 -0.067959077046331334 0 0.45867375617115402 -0.08472348151736836 0 0.47121928548493841 -0.078750357478472241 0 0.47186954768029987 -0.065643995542664604 0 0.46149380023571063 -0.074269227896209128 0 0.45867375617115402 -0.08472348151736836 0 0.44040879300384173 -0.098783554542634225 0 0.43125076498115461 -0.083460828468712625 0 0.44421261160644998 -0.067959077046331334 0 0.45867375617115402 -0.08472348151736836 0 0.43125076498115461 -0.083460828468712625 0 0.45867375617115402 -0.08472348151736836 0 0.43125076498115461 -0.083460828468712625 0 0.47576826627402929 -0.091938463325768077 0 0.47121928548493841 -0.078750357478472241 0 0.45867375617115402 -0.08472348151736836 0 0.47121928548493841 -0.078750357478472241 0 0.46149380023571063 -0.074269227896209128 0 0.45867375617115402 -0.08472348151736836 0 0.46693941681308287 -0.1068804447195227 0 0.44040879300384173 -0.098783554542634225 0 0.45867375617115402 -0.08472348151736836 0 0.46693941681308287 -0.1068804447195227 0 0.44040879300384173 -0.098783554542634225 0 0.47576826627402929 -0.091938463325768077 0 0.45867375617115402 -0.08472348151736836 0 0.46693941681308287 -0.1068804447195227 0 0.44040879300384173 -0.098783554542634225 0 0.44667812697974052 -0.1145895264555708 0 0.43356021013268692 -0.1106361839801249 0 0.46693941681308287 -0.1068804447195227 0 0.44040879300384173 -0.098783554542634225 0 0.44667812697974052 -0.1145895264555708 0 0.44667812697974052 -0.1145895264555708 0 0.43534357205828828 -0.1202272884263767 0 0.43356021013268692 -0.1106361839801249 0 0.44667812697974052 -0.1145895264555708 0 0.43534357205828828 -0.1202272884263767 0 0.44485782204426522 -0.1277556596500008 0 0.44667812697974052 -0.1145895264555708 0 0.45851381436091748 -0.1254103918179823 0 0.44485782204426522 -0.1277556596500008 0 0.46693941681308287 -0.1068804447195227 0 0.44667812697974052 -0.1145895264555708 0 0.45851381436091748 -0.1254103918179823 0 0.47248303026737842 -0.1243033271675323 0 0.46693941681308287 -0.1068804447195227 0 0.45851381436091748 -0.1254103918179823 0 0.40798003263654842 -0.1213381821689118 0 0.41344960592280777 -0.1112149723934167 0 0.40232797044669011 -0.1109429890374819 0 0.41344960592280777 -0.1112149723934167 0 0.42238159970668132 -0.1188424737486755 0 0.42209869198416111 -0.10505080553380131 0 0.40798003263654842 -0.1213381821689118 0 0.41344960592280777 -0.1112149723934167 0 0.42238159970668132 -0.1188424737486755 0 0.40798003263654842 -0.1213381821689118 0 0.42238159970668132 -0.1188424737486755 0 0.41461599889441059 -0.13114781728339761 0 0.42238159970668132 -0.1188424737486755 0 0.43534357205828828 -0.1202272884263767 0 0.42917795285250537 -0.13443843085791621 0 0.42238159970668132 -0.1188424737486755 0 0.43534357205828828 -0.1202272884263767 0 0.43356021013268692 -0.1106361839801249 0 0.42238159970668132 -0.1188424737486755 0 0.43356021013268692 -0.1106361839801249 0 0.42209869198416111 -0.10505080553380131 0 0.44040879300384173 -0.098783554542634225 0 0.42209869198416111 -0.10505080553380131 0 0.41387816919460041 -0.090686664365745739 0 0.44040879300384173 -0.098783554542634225 0 0.43356021013268692 -0.1106361839801249 0 0.42209869198416111 -0.10505080553380131 0 0.44040879300384173 -0.098783554542634225 0 0.41387816919460041 -0.090686664365745739 0 0.42209869198416111 -0.10505080553380131 0 0.40844845650912998 -0.10084739888147751 0 0.41387816919460041 -0.090686664365745739 0 0.41344960592280777 -0.1112149723934167 0 0.42209869198416111 -0.10505080553380131 0 0.40844845650912998 -0.10084739888147751 0 0.41344960592280777 -0.1112149723934167 0 0.40844845650912998 -0.10084739888147751 0 0.40232797044669011 -0.1109429890374819 0 0.43125076498115461 -0.083460828468712625 0 0.40382777379115531 -0.08219817542005689 0 0.43125076498115461 -0.083460828468712625 0 0.41655567553260009 -0.07027415854999805 0 0.40382777379115531 -0.08219817542005689 0 0.41387816919460041 -0.090686664365745739 0 0.43125076498115461 -0.083460828468712625 0 0.40382777379115531 -0.08219817542005689 0 0.40844845650912998 -0.10084739888147751 0 0.41387816919460041 -0.090686664365745739 0 0.39900474425690752 -0.087390790731025167 0 0.44040879300384173 -0.098783554542634225 0 0.41387816919460041 -0.090686664365745739 0 0.43125076498115461 -0.083460828468712625 0 0.44421261160644998 -0.067959077046331334 0 0.43125076498115461 -0.083460828468712625 0 0.41655567553260009 -0.07027415854999805 0 0.44421261160644998 -0.067959077046331334 0 0.41655567553260009 -0.07027415854999805 0 0.41655567553260009 -0.07027415854999805 0 0.38889873945875009 -0.07258924005366478 0 0.41655567553260009 -0.07027415854999805 0 0.38889873945875009 -0.07258924005366478 0 0.40224218769021203 -0.059658985564000913 0 0.41655567553260009 -0.07027415854999805 0 0.38889873945875009 -0.07258924005366478 0 0.40382777379115531 -0.08219817542005689 0 0.38889873945875009 -0.07258924005366478 0 0.40224218769021203 -0.059658985564000913 0 0.38925154639020548 -0.061538500312568127 0 0.38889873945875009 -0.07258924005366478 0 0.38925154639020548 -0.061538500312568127 0 0.37302430359205191 -0.080226578980805541 0 0.38925154639020548 -0.061538500312568127 0 0.37302430359205191 -0.080226578980805541 0 0.38889873945875009 -0.07258924005366478 0 0.37634757413551989 -0.081142984294472101 0 0.37302430359205191 -0.080226578980805541 0 0.38925154639020548 -0.061538500312568127 0 0.37006822837534181 -0.06018706734466929 0 0.37302430359205191 -0.080226578980805541 0 0.37634757413551989 -0.081142984294472101 0 0.40382777379115531 -0.08219817542005689 0 0.38299572183851438 -0.090916444790570705 0 0.39900474425690752 -0.087390790731025167 0 0.38849903379629741 -0.097420444577360155 0 0.38889873945875009 -0.07258924005366478 0 0.37634757413551989 -0.081142984294472101 0 0.40382777379115531 -0.08219817542005689 0 0.38734754538535898 -0.082589774188857198 0 0.37634757413551989 -0.081142984294472101 0 0.40382777379115531 -0.08219817542005689 0 0.37634757413551989 -0.081142984294472101 0 0.37941326140140658 -0.086509382528217924 0 0.39900474425690752 -0.087390790731025167 0 0.37634757413551989 -0.081142984294472101 0 0.39900474425690752 -0.087390790731025167 0 0.38734754538535898 -0.082589774188857198 0 0.37634757413551989 -0.081142984294472101 0 0.39900474425690752 -0.087390790731025167 0 0.37941326140140658 -0.086509382528217924 0 0.38299572183851438 -0.090916444790570705 0 0.39900474425690752 -0.087390790731025167 0 0.37634757413551989 -0.081142984294472101 0 0.37941326140140658 -0.086509382528217924 0 0.37302430359205191 -0.080226578980805541 0 0.37608769471746278 -0.089806029984084018 0 0.37941326140140658 -0.086509382528217924 0 0.37094866889179517 -0.088669067194659362 0 0.37579293422873078 -0.093392830329496246 0 0.37608769471746278 -0.089806029984084018 0 0.38299572183851438 -0.090916444790570705 0 0.37608769471746278 -0.089806029984084018 0 0.37941326140140658 -0.086509382528217924 0 0.38299572183851438 -0.090916444790570705 0 0.37579293422873078 -0.093392830329496246 0 0.38299572183851438 -0.090916444790570705 0 0.38075184165049902 -0.096146550236421296 0 0.41387816919460041 -0.090686664365745739 0 0.38734754538535898 -0.082589774188857198 0 0.41387816919460041 -0.090686664365745739 0 0.38734754538535898 -0.082589774188857198 0 0.39900474425690752 -0.087390790731025167 0 0.41387816919460041 -0.090686664365745739 0 0.38734754538535898 -0.082589774188857198 0 0.40382777379115531 -0.08219817542005689 0 0.40844845650912998 -0.10084739888147751 0 0.39900474425690752 -0.087390790731025167 0 0.39756564196184502 -0.1020678267098455 0 0.40844845650912998 -0.10084739888147751 0 0.39756564196184502 -0.1020678267098455 0 0.40232797044669011 -0.1109429890374819 0 0.39756564196184502 -0.1020678267098455 0 0.38849903379629741 -0.097420444577360155 0 0.38921227376092982 -0.10774566664155261 0 0.39756564196184502 -0.1020678267098455 0 0.38921227376092982 -0.10774566664155261 0 0.40232797044669011 -0.1109429890374819 0 0.39900474425690752 -0.087390790731025167 0 0.39756564196184502 -0.1020678267098455 0 0.38849903379629741 -0.097420444577360155 0 0.38849903379629741 -0.097420444577360155 0 0.38075184165049902 -0.096146550236421296 0 0.38191625156418418 -0.10128201359634011 0 0.38299572183851438 -0.090916444790570705 0 0.38849903379629741 -0.097420444577360155 0 0.38075184165049902 -0.096146550236421296 0 0.38075184165049902 -0.096146550236421296 0 0.38191625156418418 -0.10128201359634011 0 0.37411609536863588 -0.099501529148432327 0 0.37579293422873078 -0.093392830329496246 0 0.38075184165049902 -0.096146550236421296 0 0.37411609536863588 -0.099501529148432327 0 0.38191625156418418 -0.10128201359634011 0 0.3760761514737721 -0.1087695735119799 0 0.37411609536863588 -0.099501529148432327 0 0.38191625156418418 -0.10128201359634011 0 0.3760761514737721 -0.1087695735119799 0 0.38921227376092982 -0.10774566664155261 0 0.38849903379629741 -0.097420444577360155 0 0.38191625156418418 -0.10128201359634011 0 0.38921227376092982 -0.10774566664155261 0 0.3760761514737721 -0.1087695735119799 0 0.38921227376092982 -0.10774566664155261 0 0.38348492311321603 -0.1151172931169832 0 0.38921227376092982 -0.10774566664155261 0 0.38348492311321603 -0.1151172931169832 0 0.39530040230939639 -0.1190351290627169 0 0.3760761514737721 -0.1087695735119799 0 0.38348492311321603 -0.1151172931169832 0 0.37681308654527212 -0.115446470408546 0 0.38348492311321603 -0.1151172931169832 0 0.37704306452831288 -0.12188954488483381 0 0.38679125217496191 -0.12465128093994569 0 0.38348492311321603 -0.1151172931169832 0 0.37681308654527212 -0.115446470408546 0 0.37704306452831288 -0.12188954488483381 0 0.38348492311321603 -0.1151172931169832 0 0.38679125217496191 -0.12465128093994569 0 0.39530040230939639 -0.1190351290627169 0 0.38679125217496191 -0.12465128093994569 0 0.39530040230939639 -0.1190351290627169 0 0.39954594010793137 -0.1291537097541243 0 0.38921227376092982 -0.10774566664155261 0 0.39530040230939639 -0.1190351290627169 0 0.40232797044669011 -0.1109429890374819 0 0.40798003263654842 -0.1213381821689118 0 0.39530040230939639 -0.1190351290627169 0 0.40232797044669011 -0.1109429890374819 0 0.40798003263654842 -0.1213381821689118 0 0.39530040230939639 -0.1190351290627169 0 0.39954594010793137 -0.1291537097541243 0 0.41839085180502927 -0.019585854258285591 0 0.42943938718876651 -0.030200818450009579 0 0.41317837193585799 -0.03312425735428489 0 0.41839085180502927 -0.019585854258285591 0 0.41317837193585799 -0.03312425735428489 0 0.39827307989519528 -0.025113173458307131 0 0.41839085180502927 -0.019585854258285591 0 0.39827307989519528 -0.025113173458307131 0 0.40218760952271571 -0.0094772137084793047 0 0.42162103764939318 7.3940415165497236e-06 0 0.41839085180502927 -0.019585854258285591 0 0.40218760952271571 -0.0094772137084793047 0 0.40094374819495082 0.0044613852186972461 0 0.42162103764939318 7.3940415165497236e-06 0 0.40218760952271571 -0.0094772137084793047 0 0.42162103764939318 7.3940415165497236e-06 0 0.41839085180502927 -0.019585854258285591 0 0.43612738965885778 -0.01346693466053327 0 0.42162103764939318 7.3940415165497236e-06 0 0.44443731959015681 0.001200742426242848 0 0.43612738965885778 -0.01346693466053327 0 0.44665364162226251 -0.026426959539826399 0 0.43612738965885778 -0.01346693466053327 0 0.42943938718876651 -0.030200818450009579 0 0.41839085180502927 -0.019585854258285591 0 0.43612738965885778 -0.01346693466053327 0 0.42943938718876651 -0.030200818450009579 0 0.44021651924014432 -0.039533898365996523 0 0.42943938718876651 -0.030200818450009579 0 0.42206954887044762 -0.049067006521130767 0 0.44970366954183788 -0.05330799065961872 0 0.42206954887044762 -0.049067006521130767 0 0.44970366954183788 -0.05330799065961872 0 0.44021651924014432 -0.039533898365996523 0 0.42206954887044762 -0.049067006521130767 0 0.44421261160644998 -0.067959077046331334 0 0.41655567553260009 -0.07027415854999805 0 0.42206954887044762 -0.049067006521130767 0 0.42206954887044762 -0.049067006521130767 0 0.39443542819905708 -0.044826022382642827 0 0.41655567553260009 -0.07027415854999805 0 0.42206954887044762 -0.049067006521130767 0 0.40224218769021203 -0.059658985564000913 0 0.42943938718876651 -0.030200818450009579 0 0.42206954887044762 -0.049067006521130767 0 0.41317837193585799 -0.03312425735428489 0 0.42206954887044762 -0.049067006521130767 0 0.41317837193585799 -0.03312425735428489 0 0.39443542819905708 -0.044826022382642827 0 0.41317837193585799 -0.03312425735428489 0 0.39443542819905708 -0.044826022382642827 0 0.39827307989519528 -0.025113173458307131 0 0.39443542819905708 -0.044826022382642827 0 0.38221656315966518 -0.032291739496852503 0 0.39827307989519528 -0.025113173458307131 0 0.42206954887044762 -0.049067006521130767 0 0.39443542819905708 -0.044826022382642827 0 0.40224218769021203 -0.059658985564000913 0 0.39443542819905708 -0.044826022382642827 0 0.40224218769021203 -0.059658985564000913 0 0.38925154639020548 -0.061538500312568127 0 0.39443542819905708 -0.044826022382642827 0 0.38925154639020548 -0.061538500312568127 0 0.37006822837534181 -0.06018706734466929 0 0.39443542819905708 -0.044826022382642827 0 0.36680130752766671 -0.040585038244154867 0 0.37006822837534181 -0.06018706734466929 0 0.39443542819905708 -0.044826022382642827 0 0.38221656315966518 -0.032291739496852503 0 0.36680130752766671 -0.040585038244154867 0 0.39443542819905708 -0.044826022382642827 0 0.36680130752766671 -0.040585038244154867 0 0.38221656315966518 -0.032291739496852503 0 0.38352903813512002 -0.01519558611802352 0 0.36510111723647998 -0.016159848813032372 0 0.38221656315966518 -0.032291739496852503 0 0.39827307989519528 -0.025113173458307131 0 0.38352903813512002 -0.01519558611802352 0 0.39827307989519528 -0.025113173458307131 0 0.40218760952271571 -0.0094772137084793047 0 0.38352903813512002 -0.01519558611802352 0 0.40094374819495082 0.0044613852186972461 0 0.38191166615011468 0.0008555688800514999 0 0.40218760952271571 -0.0094772137084793047 0 0.38191166615011468 0.0008555688800514999 0 0.40218760952271571 -0.0094772137084793047 0 0.38352903813512002 -0.01519558611802352 0 0.38191166615011468 0.0008555688800514999 0 0.38352903813512002 -0.01519558611802352 0 0.36510111723647998 -0.016159848813032372 0 0.35759465081349762 0.003873602199559787 0 0.38191166615011468 0.0008555688800514999 0 0.36510111723647998 -0.016159848813032372 0 0.38221656315966518 -0.032291739496852503 0 0.36510111723647998 -0.016159848813032372 0 0.36680130752766671 -0.040585038244154867 0 0.36510111723647998 -0.016159848813032372 0 0.34191265923778108 -0.025056368861245171 0 0.36680130752766671 -0.040585038244154867 0 0.35759465081349762 0.003873602199559787 0 0.36510111723647998 -0.016159848813032372 0 0.34174193563151511 -0.0047193800505618642 0 0.36510111723647998 -0.016159848813032372 0 0.34174193563151511 -0.0047193800505618642 0 0.34191265923778108 -0.025056368861245171 0 0.32395531378107162 0.0088539970248513542 0 0.34174193563151511 -0.0047193800505618642 0 0.32077218724054229 -0.0087890081025024103 0 0.34174193563151511 -0.0047193800505618642 0 0.34191265923778108 -0.025056368861245171 0 0.32077218724054229 -0.0087890081025024103 0 0.34191265923778108 -0.025056368861245171 0 0.31773485718900979 -0.030424449629237519 0 0.32077218724054229 -0.0087890081025024103 0 0.31596452736461772 -0.049949182716008081 0 0.339346327152799 -0.048452571134438682 0 0.32352664306893492 -0.066577398595362283 0 0.31596452736461772 -0.049949182716008081 0 0.32352664306893492 -0.066577398595362283 0 0.2987778128073767 -0.059752808402639537 0 0.31773485718900979 -0.030424449629237519 0 0.31596452736461772 -0.049949182716008081 0 0.339346327152799 -0.048452571134438682 0 0.34191265923778108 -0.025056368861245171 0 0.31773485718900979 -0.030424449629237519 0 0.339346327152799 -0.048452571134438682 0 0.339346327152799 -0.048452571134438682 0 0.35426859351155388 -0.057863988664645948 0 0.36680130752766671 -0.040585038244154867 0 0.339346327152799 -0.048452571134438682 0 0.35426859351155388 -0.057863988664645948 0 0.34827547333049308 -0.073401988788084988 0 0.34191265923778108 -0.025056368861245171 0 0.339346327152799 -0.048452571134438682 0 0.36680130752766671 -0.040585038244154867 0 0.35426859351155388 -0.057863988664645948 0 0.36680130752766671 -0.040585038244154867 0 0.37006822837534181 -0.06018706734466929 0 0.37302430359205191 -0.080226578980805541 0 0.34827547333049308 -0.073401988788084988 0 0.37006822837534181 -0.06018706734466929 0 0.37302430359205191 -0.080226578980805541 0 0.34827547333049308 -0.073401988788084988 0 0.37302430359205191 -0.080226578980805541 0 0.35494920541968111 -0.10104273738694911 0 0.37941326140140658 -0.086509382528217924 0 0.37302430359205191 -0.080226578980805541 0 0.37094866889179517 -0.088669067194659362 0 0.37302430359205191 -0.080226578980805541 0 0.37094866889179517 -0.088669067194659362 0 0.35494920541968111 -0.10104273738694911 0 0.37302430359205191 -0.080226578980805541 0 0.35590056952698829 -0.085406669354987003 0 0.35494920541968111 -0.10104273738694911 0 0.37634757413551989 -0.081142984294472101 0 0.37302430359205191 -0.080226578980805541 0 0.37579293422873078 -0.093392830329496246 0 0.37248530105050742 -0.091346010258510982 0 0.36908508834192932 -0.09397258659256269 0 0.37608769471746278 -0.089806029984084018 0 0.37248530105050742 -0.091346010258510982 0 0.37094866889179517 -0.088669067194659362 0 0.37579293422873078 -0.093392830329496246 0 0.37608769471746278 -0.089806029984084018 0 0.37248530105050742 -0.091346010258510982 0 0.37248530105050742 -0.091346010258510982 0 0.37094866889179517 -0.088669067194659362 0 0.36908508834192932 -0.09397258659256269 0 0.37302430359205191 -0.080226578980805541 0 0.35590056952698829 -0.085406669354987003 0 0.34827547333049308 -0.073401988788084988 0 0.35590056952698829 -0.085406669354987003 0 0.34827547333049308 -0.073401988788084988 0 0.33117479068559191 -0.085418084376852499 0 0.35590056952698829 -0.085406669354987003 0 0.35494920541968111 -0.10104273738694911 0 0.33117479068559191 -0.085418084376852499 0 0.35426859351155388 -0.057863988664645948 0 0.37006822837534181 -0.06018706734466929 0 0.34827547333049308 -0.073401988788084988 0 0.3643528686968267 -0.1221563697865591 0 0.35856531500366529 -0.12135151646326151 0 0.3579546713816249 -0.1276855402581076 0 0.36404587591655868 -0.11551256751014539 0 0.35859417642689351 -0.1155483866784492 0 0.35856531500366529 -0.12135151646326151 0 0.3643528686968267 -0.1221563697865591 0 0.36404587591655868 -0.11551256751014539 0 0.35856531500366529 -0.12135151646326151 0 0.3643528686968267 -0.1221563697865591 0 0.37064820706578733 -0.116009470120387 0 0.36404587591655868 -0.11551256751014539 0 0.37704306452831288 -0.12188954488483381 0 0.37053786972134728 -0.1241186545116425 0 0.37064820706578733 -0.116009470120387 0 0.3643528686968267 -0.1221563697865591 0 0.37053786972134728 -0.1241186545116425 0 0.37064820706578733 -0.116009470120387 0 0.37681308654527212 -0.115446470408546 0 0.37704306452831288 -0.12188954488483381 0 0.37064820706578733 -0.116009470120387 0 0.37064820706578733 -0.116009470120387 0 0.36801396515820789 -0.1100630306330086 0 0.36404587591655868 -0.11551256751014539 0 0.3760761514737721 -0.1087695735119799 0 0.37064820706578733 -0.116009470120387 0 0.36801396515820789 -0.1100630306330086 0 0.3760761514737721 -0.1087695735119799 0 0.37681308654527212 -0.115446470408546 0 0.37064820706578733 -0.116009470120387 0 0.36801396515820789 -0.1100630306330086 0 0.36404587591655868 -0.11551256751014539 0 0.36190061716548311 -0.1099785615579173 0 0.36404587591655868 -0.11551256751014539 0 0.36190061716548311 -0.1099785615579173 0 0.35859417642689351 -0.1155483866784492 0 0.37094866889179517 -0.088669067194659362 0 0.36908508834192932 -0.09397258659256269 0 0.35494920541968111 -0.10104273738694911 0 0.36190061716548311 -0.1099785615579173 0 0.35966965154791891 -0.107052203845766 0 0.36329049935086799 -0.10475983006690801 0 0.35966965154791891 -0.107052203845766 0 0.36329049935086799 -0.10475983006690801 0 0.35807572377293628 -0.10309749940509309 0 0.36329049935086799 -0.10475983006690801 0 0.36390396433285671 -0.10036625586312931 0 0.35807572377293628 -0.10309749940509309 0 0.36329049935086799 -0.10475983006690801 0 0.36883045199765102 -0.1040015141091441 0 0.36390396433285671 -0.10036625586312931 0 0.36801396515820789 -0.1100630306330086 0 0.36329049935086799 -0.10475983006690801 0 0.36883045199765102 -0.1040015141091441 0 0.36801396515820789 -0.1100630306330086 0 0.36190061716548311 -0.1099785615579173 0 0.36329049935086799 -0.10475983006690801 0 0.3760761514737721 -0.1087695735119799 0 0.36883045199765102 -0.1040015141091441 0 0.37411609536863588 -0.099501529148432327 0 0.3760761514737721 -0.1087695735119799 0 0.36801396515820789 -0.1100630306330086 0 0.36883045199765102 -0.1040015141091441 0 0.36883045199765102 -0.1040015141091441 0 0.36900277102197682 -0.099225571364912765 0 0.36390396433285671 -0.10036625586312931 0 0.36900277102197682 -0.099225571364912765 0 0.36908508834192932 -0.09397258659256269 0 0.36390396433285671 -0.10036625586312931 0 0.36883045199765102 -0.1040015141091441 0 0.36900277102197682 -0.099225571364912765 0 0.37411609536863588 -0.099501529148432327 0 0.37579293422873078 -0.093392830329496246 0 0.37411609536863588 -0.099501529148432327 0 0.36908508834192932 -0.09397258659256269 0 0.36900277102197682 -0.099225571364912765 0 0.37411609536863588 -0.099501529148432327 0 0.36908508834192932 -0.09397258659256269 0 0.36908508834192932 -0.09397258659256269 0 0.36390396433285671 -0.10036625586312931 0 0.35494920541968111 -0.10104273738694911 0 0.35494920541968111 -0.10104273738694911 0 0.34054333954510713 -0.11763323018334269 0 0.36390396433285671 -0.10036625586312931 0 0.35494920541968111 -0.10104273738694911 0 0.35807572377293628 -0.10309749940509309 0 0.35494920541968111 -0.10104273738694911 0 0.35807572377293628 -0.10309749940509309 0 0.35541176590238821 -0.1103729243531457 0 0.35494920541968111 -0.10104273738694911 0 0.35807572377293628 -0.10309749940509309 0 0.36190061716548311 -0.1099785615579173 0 0.35966965154791891 -0.107052203845766 0 0.35541176590238821 -0.1103729243531457 0 0.35966965154791891 -0.107052203845766 0 0.35807572377293628 -0.10309749940509309 0 0.35541176590238821 -0.1103729243531457 0 0.35494920541968111 -0.10104273738694911 0 0.35541176590238821 -0.1103729243531457 0 0.34054333954510713 -0.11763323018334269 0 0.35494920541968111 -0.10104273738694911 0 0.34054333954510713 -0.11763323018334269 0 0.340837007060252 -0.1137262786630415 0 0.35859417642689351 -0.1155483866784492 0 0.35541176590238821 -0.1103729243531457 0 0.35268573755206012 -0.1215664171757451 0 0.36190061716548311 -0.1099785615579173 0 0.35859417642689351 -0.1155483866784492 0 0.35541176590238821 -0.1103729243531457 0 0.35541176590238821 -0.1103729243531457 0 0.35268573755206012 -0.1215664171757451 0 0.34054333954510713 -0.11763323018334269 0 0.35268573755206012 -0.1215664171757451 0 0.34054333954510713 -0.11763323018334269 0 0.34600244444464789 -0.127577776264617 0 0.35859417642689351 -0.1155483866784492 0 0.35268573755206012 -0.1215664171757451 0 0.35856531500366529 -0.12135151646326151 0 0.35268573755206012 -0.1215664171757451 0 0.35856531500366529 -0.12135151646326151 0 0.3579546713816249 -0.1276855402581076 0 0.34054333954510713 -0.11763323018334269 0 0.33198877288007078 -0.1150257103105113 0 0.32574036812042489 -0.1224619833665794 0 0.34054333954510713 -0.11763323018334269 0 0.340837007060252 -0.1137262786630415 0 0.33198877288007078 -0.1150257103105113 0 0.34054333954510713 -0.11763323018334269 0 0.340837007060252 -0.1137262786630415 0 0.340837007060252 -0.1137262786630415 0 0.33198877288007078 -0.1150257103105113 0 0.33169188849784531 -0.1026567413539605 0 0.35494920541968111 -0.10104273738694911 0 0.340837007060252 -0.1137262786630415 0 0.33169188849784531 -0.1026567413539605 0 0.35494920541968111 -0.10104273738694911 0 0.33169188849784531 -0.1026567413539605 0 0.33117479068559191 -0.085418084376852499 0 0.33169188849784531 -0.1026567413539605 0 0.33117479068559191 -0.085418084376852499 0 0.31178350971651869 -0.096876086604931355 0 0.33169188849784531 -0.1026567413539605 0 0.32054598607414442 -0.1127522101817557 0 0.31178350971651869 -0.096876086604931355 0 0.32054598607414442 -0.1127522101817557 0 0.3062501996237193 -0.1178031970131307 0 0.31178350971651869 -0.096876086604931355 0 0.33198877288007078 -0.1150257103105113 0 0.33169188849784531 -0.1026567413539605 0 0.32054598607414442 -0.1127522101817557 0 0.33198877288007078 -0.1150257103105113 0 0.32054598607414442 -0.1127522101817557 0 0.32574036812042489 -0.1224619833665794 0 0.32054598607414442 -0.1127522101817557 0 0.3172552224627434 -0.12373413889121369 0 0.3062501996237193 -0.1178031970131307 0 0.32054598607414442 -0.1127522101817557 0 0.3172552224627434 -0.12373413889121369 0 0.32574036812042489 -0.1224619833665794 0 0.34827547333049308 -0.073401988788084988 0 0.33117479068559191 -0.085418084376852499 0 0.32352664306893492 -0.066577398595362283 0 0.339346327152799 -0.048452571134438682 0 0.34827547333049308 -0.073401988788084988 0 0.32352664306893492 -0.066577398595362283 0 0.34827547333049308 -0.073401988788084988 0 0.32352664306893492 -0.066577398595362283 0 0.35494920541968111 -0.10104273738694911 0 0.33117479068559191 -0.085418084376852499 0 0.33117479068559191 -0.085418084376852499 0 0.30740037595150083 -0.069793431366758571 0 0.31178350971651869 -0.096876086604931355 0 0.33117479068559191 -0.085418084376852499 0 0.30740037595150083 -0.069793431366758571 0 0.33117479068559191 -0.085418084376852499 0 0.32352664306893492 -0.066577398595362283 0 0.30740037595150083 -0.069793431366758571 0 0.32352664306893492 -0.066577398595362283 0 0.2987778128073767 -0.059752808402639537 0 0.32352664306893492 -0.066577398595362283 0 0.30740037595150083 -0.069793431366758571 0 0.2987778128073767 -0.059752808402639537 0 0.30740037595150083 -0.069793431366758571 0 0.29216058301390579 -0.091526092166297313 0 0.31178350971651869 -0.096876086604931355 0 0.30740037595150083 -0.069793431366758571 0 0.29216058301390579 -0.091526092166297313 0 0.27823340684454351 -0.078317135869342594 0 0.30740037595150083 -0.069793431366758571 0 0.27823340684454351 -0.078317135869342594 0 0.28362596121741063 -0.05416877835666363 0 0.29216058301390579 -0.091526092166297313 0 0.31178350971651869 -0.096876086604931355 0 0.29054477008529023 -0.1101783136084325 0 0.3062501996237193 -0.1178031970131307 0 0.31178350971651869 -0.096876086604931355 0 0.29054477008529023 -0.1101783136084325 0 0.29216058301390579 -0.091526092166297313 0 0.29054477008529023 -0.1101783136084325 0 0.272840852471676 -0.1024654933820215 0 0.3062501996237193 -0.1178031970131307 0 0.29054477008529023 -0.1101783136084325 0 0.29147994086106832 -0.13040337811910671 0 0.29054477008529023 -0.1101783136084325 0 0.26744829809880849 -0.1266138508947004 0 0.29147994086106832 -0.13040337811910671 0 0.29054477008529023 -0.1101783136084325 0 0.272840852471676 -0.1024654933820215 0 0.26744829809880849 -0.1266138508947004 0 0.272840852471676 -0.1024654933820215 0 0.26744829809880849 -0.1266138508947004 0 0.272840852471676 -0.1024654933820215 0 0.25882594822644989 -0.11369121689113849 0 0.26744829809880849 -0.1266138508947004 0 0.272840852471676 -0.1024654933820215 0 0.25192110618928332 -0.099996921955621557 0 0.25882594822644989 -0.11369121689113849 0 0.272840852471676 -0.1024654933820215 0 0.25192110618928332 -0.099996921955621557 0 0.25849401419737361 -0.082762074489352258 0 0.25192110618928332 -0.099996921955621557 0 0.25882594822644989 -0.11369121689113849 0 0.2462637847765401 -0.1146255311343863 0 0.25882594822644989 -0.11369121689113849 0 0.25565569959594148 -0.124754287088963 0 0.2462637847765401 -0.1146255311343863 0 0.25882594822644989 -0.11369121689113849 0 0.25565569959594148 -0.124754287088963 0 0.26744829809880849 -0.1266138508947004 0 0.27823340684454351 -0.078317135869342594 0 0.25849401419737361 -0.082762074489352258 0 0.26532395492464261 -0.064546514192554999 0 0.27823340684454351 -0.078317135869342594 0 0.26532395492464261 -0.064546514192554999 0 0.28362596121741063 -0.05416877835666363 0 0.27823340684454351 -0.078317135869342594 0 0.28362596121741063 -0.05416877835666363 0 0.29216058301390579 -0.091526092166297313 0 0.272840852471676 -0.1024654933820215 0 0.27823340684454351 -0.078317135869342594 0 0.272840852471676 -0.1024654933820215 0 0.27823340684454351 -0.078317135869342594 0 0.25849401419737361 -0.082762074489352258 0 0.272840852471676 -0.1024654933820215 0 0.27823340684454351 -0.078317135869342594 0 0.25849401419737361 -0.082762074489352258 0 0.26532395492464261 -0.064546514192554999 0 0.24491381580027 -0.067953973135644483 0 0.26532395492464261 -0.064546514192554999 0 0.26135257656361488 -0.039530609111771933 0 0.24491381580027 -0.067953973135644483 0 0.26532395492464261 -0.064546514192554999 0 0.26135257656361488 -0.039530609111771933 0 0.28362596121741063 -0.05416877835666363 0 0.26135257656361488 -0.039530609111771933 0 0.28362596121741063 -0.05416877835666363 0 0.28765652417145687 -0.036119544457162957 0 0.26135257656361488 -0.039530609111771933 0 0.28362596121741063 -0.05416877835666363 0 0.26135257656361488 -0.039530609111771933 0 0.23907919190981999 -0.024892439866879199 0 0.26135257656361488 -0.039530609111771933 0 0.25393590756049139 -0.0071212513700616639 0 0.23907919190981999 -0.024892439866879199 0 0.26135257656361488 -0.039530609111771933 0 0.25393590756049139 -0.0071212513700616639 0 0.27469860153394121 -0.017602710210988491 0 0.27554573180288799 0.0066463003731703479 0 0.25393590756049139 -0.0071212513700616639 0 0.27469860153394121 -0.017602710210988491 0 0.26135257656361488 -0.039530609111771933 0 0.27469860153394121 -0.017602710210988491 0 0.28765652417145687 -0.036119544457162957 0 0.27469860153394121 -0.017602710210988491 0 0.29664029449594892 -0.011889074628033579 0 0.28765652417145687 -0.036119544457162957 0 0.27554573180288799 0.0066463003731703479 0 0.27469860153394121 -0.017602710210988491 0 0.29664029449594892 -0.011889074628033579 0 0.27554573180288799 0.0066463003731703479 0 0.29664029449594892 -0.011889074628033579 0 0.30264806310792741 0.010501227529212301 0 0.32077218724054229 -0.0087890081025024103 0 0.29664029449594892 -0.011889074628033579 0 0.31773485718900979 -0.030424449629237519 0 0.29664029449594892 -0.011889074628033579 0 0.31773485718900979 -0.030424449629237519 0 0.32077218724054229 -0.0087890081025024103 0 0.29664029449594892 -0.011889074628033579 0 0.31773485718900979 -0.030424449629237519 0 0.29664029449594892 -0.011889074628033579 0 0.28765652417145687 -0.036119544457162957 0 0.31773485718900979 -0.030424449629237519 0 0.31596452736461772 -0.049949182716008081 0 0.30075193654997417 -0.046082952712342563 0 0.31773485718900979 -0.030424449629237519 0 0.30075193654997417 -0.046082952712342563 0 0.28765652417145687 -0.036119544457162957 0 0.31596452736461772 -0.049949182716008081 0 0.30075193654997417 -0.046082952712342563 0 0.2987778128073767 -0.059752808402639537 0 0.30740037595150083 -0.069793431366758571 0 0.2987778128073767 -0.059752808402639537 0 0.28362596121741063 -0.05416877835666363 0 0.30740037595150083 -0.069793431366758571 0 0.28362596121741063 -0.05416877835666363 0 0.30075193654997417 -0.046082952712342563 0 0.2987778128073767 -0.059752808402639537 0 0.28362596121741063 -0.05416877835666363 0 0.28362596121741063 -0.05416877835666363 0 0.28765652417145687 -0.036119544457162957 0 0.30075193654997417 -0.046082952712342563 0 0.28362596121741063 -0.05416877835666363 0 0.28765652417145687 -0.036119544457162957 0 0.28884958237297931 -0.2123224082831012 0 0.28981061688788612 -0.19704064108441971 0 0.30375555739241622 -0.2200072621758879 0 0.28884958237297931 -0.2123224082831012 0 0.28705666549884967 -0.22565291632226531 0 0.27477548971276539 -0.20658881354983211 0 0.28981061688788612 -0.19704064108441971 0 0.30375555739241622 -0.2200072621758879 0 0.28884958237297931 -0.2123224082831012 0 0.28981061688788612 -0.19704064108441971 0 0.27477548971276539 -0.20658881354983211 0 0.28981061688788612 -0.19704064108441971 0 0.30414916244292117 -0.17952521898294549 0 0.31345231936271861 -0.1982316206333968 0 0.28981061688788612 -0.19704064108441971 0 0.30375555739241622 -0.2200072621758879 0 0.31345231936271861 -0.1982316206333968 0 0.30375555739241622 -0.2200072621758879 0 0.31770049789694632 -0.24297388326735619 0 0.30375555739241622 -0.2200072621758879 0 0.29933784128493401 -0.2447170190946984 0 0.31770049789694632 -0.24297388326735619 0 0.29933784128493401 -0.2447170190946984 0 0.28705666549884967 -0.22565291632226531 0 0.27713039462404843 -0.23736342982447781 0 0.29933784128493401 -0.2447170190946984 0 0.27713039462404843 -0.23736342982447781 0 0.27823253526396019 -0.25419110429537578 0 0.29933784128493401 -0.2447170190946984 0 0.28705666549884967 -0.22565291632226531 0 0.28884958237297931 -0.2123224082831012 0 0.30375555739241622 -0.2200072621758879 0 0.28705666549884967 -0.22565291632226531 0 0.30375555739241622 -0.2200072621758879 0 0.29933784128493401 -0.2447170190946984 0 0.28705666549884967 -0.22565291632226531 0 0.27036594757608162 -0.2225653687374797 0 0.27713039462404843 -0.23736342982447781 0 0.26091947436685747 -0.23670431096910191 0 0.28705666549884967 -0.22565291632226531 0 0.27036594757608162 -0.2225653687374797 0 0.27713039462404843 -0.23736342982447781 0 0.27713039462404843 -0.23736342982447781 0 0.26091947436685747 -0.23670431096910191 0 0.27823253526396019 -0.25419110429537578 0 0.26091947436685747 -0.23670431096910191 0 0.27823253526396019 -0.25419110429537578 0 0.25441055206166929 -0.25410101406412589 0 0.26091947436685747 -0.23670431096910191 0 0.25441055206166929 -0.25410101406412589 0 0.2471058769318851 -0.24117551597347309 0 0.26091947436685747 -0.23670431096910191 0 0.2471058769318851 -0.24117551597347309 0 0.2455123617744509 -0.22725303801874311 0 0.27036594757608162 -0.2225653687374797 0 0.26091947436685747 -0.23670431096910191 0 0.25720362854392742 -0.2211924188983255 0 0.26091947436685747 -0.23670431096910191 0 0.25720362854392742 -0.2211924188983255 0 0.2455123617744509 -0.22725303801874311 0 0.25720362854392742 -0.2211924188983255 0 0.26006681258403852 -0.2077115691590076 0 0.24549924850961299 -0.21003360274459151 0 0.26006681258403852 -0.2077115691590076 0 0.25670511353435138 -0.19334825677869591 0 0.24549924850961299 -0.21003360274459151 0 0.27036594757608162 -0.2225653687374797 0 0.25720362854392742 -0.2211924188983255 0 0.26006681258403852 -0.2077115691590076 0 0.27036594757608162 -0.2225653687374797 0 0.26006681258403852 -0.2077115691590076 0 0.27477548971276539 -0.20658881354983211 0 0.28705666549884967 -0.22565291632226531 0 0.27036594757608162 -0.2225653687374797 0 0.27477548971276539 -0.20658881354983211 0 0.28705666549884967 -0.22565291632226531 0 0.27477548971276539 -0.20658881354983211 0 0.27477548971276539 -0.20658881354983211 0 0.27573652422767231 -0.19130704635115051 0 0.26249431392668132 -0.18752471077739899 0 0.27477548971276539 -0.20658881354983211 0 0.26249431392668132 -0.18752471077739899 0 0.28981061688788612 -0.19704064108441971 0 0.27477548971276539 -0.20658881354983211 0 0.27573652422767231 -0.19130704635115051 0 0.26006681258403852 -0.2077115691590076 0 0.27477548971276539 -0.20658881354983211 0 0.25670511353435138 -0.19334825677869591 0 0.26249431392668132 -0.18752471077739899 0 0.25670511353435138 -0.19334825677869591 0 0.2461476167172941 -0.18531213172095071 0 0.27477548971276539 -0.20658881354983211 0 0.26249431392668132 -0.18752471077739899 0 0.25670511353435138 -0.19334825677869591 0 0.26249431392668132 -0.18752471077739899 0 0.25670511353435138 -0.19334825677869591 0 0.26249431392668132 -0.18752471077739899 0 0.24917058809000561 -0.1668422547091522 0 0.26249431392668132 -0.18752471077739899 0 0.26611637308218472 -0.1777538116792276 0 0.24917058809000561 -0.1668422547091522 0 0.26249431392668132 -0.18752471077739899 0 0.24917058809000561 -0.1668422547091522 0 0.2461476167172941 -0.18531213172095071 0 0.2650926594402862 -0.16880185238055931 0 0.26683549239750759 -0.15984961543083701 0 0.24917058809000561 -0.1668422547091522 0 0.26683549239750759 -0.15984961543083701 0 0.25669419121068737 -0.15095137560431071 0 0.24917058809000561 -0.1668422547091522 0 0.2650926594402862 -0.16880185238055931 0 0.26611637308218472 -0.1777538116792276 0 0.24917058809000561 -0.1668422547091522 0 0.27219559703986962 -0.1646839218065238 0 0.26997165795823552 -0.16858573181208589 0 0.26683549239750759 -0.15984961543083701 0 0.2650926594402862 -0.16880185238055931 0 0.26997165795823552 -0.16858573181208589 0 0.26683549239750759 -0.15984961543083701 0 0.2650926594402862 -0.16880185238055931 0 0.26997165795823552 -0.16858573181208589 0 0.26978268405599881 -0.17226378912317011 0 0.26997165795823552 -0.16858573181208589 0 0.27387837668483528 -0.17080103656528539 0 0.26978268405599881 -0.17226378912317011 0 0.27219559703986962 -0.1646839218065238 0 0.26997165795823552 -0.16858573181208589 0 0.27387837668483528 -0.17080103656528539 0 0.26683549239750759 -0.15984961543083701 0 0.27681519771220059 -0.1625124992412787 0 0.27642741376429331 -0.15153293898384229 0 0.27219559703986962 -0.1646839218065238 0 0.26683549239750759 -0.15984961543083701 0 0.27681519771220059 -0.1625124992412787 0 0.27681519771220059 -0.1625124992412787 0 0.27387837668483528 -0.17080103656528539 0 0.27586567638335602 -0.17407401999295161 0 0.27219559703986962 -0.1646839218065238 0 0.27681519771220059 -0.1625124992412787 0 0.27387837668483528 -0.17080103656528539 0 0.27573652422767231 -0.19130704635115051 0 0.26249431392668132 -0.18752471077739899 0 0.27586567638335602 -0.17407401999295161 0 0.28981061688788612 -0.19704064108441971 0 0.27573652422767231 -0.19130704635115051 0 0.27586567638335602 -0.17407401999295161 0 0.27387837668483528 -0.17080103656528539 0 0.27586567638335602 -0.17407401999295161 0 0.26249431392668132 -0.18752471077739899 0 0.27586567638335602 -0.17407401999295161 0 0.26611637308218472 -0.1777538116792276 0 0.26249431392668132 -0.18752471077739899 0 0.27586567638335602 -0.17407401999295161 0 0.2650926594402862 -0.16880185238055931 0 0.26611637308218472 -0.1777538116792276 0 0.26978268405599881 -0.17226378912317011 0 0.27586567638335602 -0.17407401999295161 0 0.26611637308218472 -0.1777538116792276 0 0.26978268405599881 -0.17226378912317011 0 0.27387837668483528 -0.17080103656528539 0 0.27586567638335602 -0.17407401999295161 0 0.26978268405599881 -0.17226378912317011 0 0.25565569959594148 -0.124754287088963 0 0.25684529674929951 -0.1335175210707806 0 0.26744829809880849 -0.1266138508947004 0 0.25565569959594148 -0.124754287088963 0 0.26744829809880849 -0.1266138508947004 0 0.25684529674929951 -0.1335175210707806 0 0.26546807921792548 -0.13548145429421751 0 0.26744829809880849 -0.1266138508947004 0 0.25565569959594148 -0.124754287088963 0 0.25684529674929951 -0.1335175210707806 0 0.2433669050392728 -0.12970943517911659 0 0.25684529674929951 -0.1335175210707806 0 0.25927890874637521 -0.14107394774304161 0 0.2499394014513662 -0.13952240910488839 0 0.25684529674929951 -0.1335175210707806 0 0.2433669050392728 -0.12970943517911659 0 0.2499394014513662 -0.13952240910488839 0 0.25684529674929951 -0.1335175210707806 0 0.26546807921792548 -0.13548145429421751 0 0.25927890874637521 -0.14107394774304161 0 0.25927890874637521 -0.14107394774304161 0 0.25669419121068737 -0.15095137560431071 0 0.26744757510259748 -0.14589697864101051 0 0.26546807921792548 -0.13548145429421751 0 0.25927890874637521 -0.14107394774304161 0 0.26744757510259748 -0.14589697864101051 0 0.25927890874637521 -0.14107394774304161 0 0.25669419121068737 -0.15095137560431071 0 0.2499394014513662 -0.13952240910488839 0 0.26683549239750759 -0.15984961543083701 0 0.25669419121068737 -0.15095137560431071 0 0.26744757510259748 -0.14589697864101051 0 0.26683549239750759 -0.15984961543083701 0 0.27642741376429331 -0.15153293898384229 0 0.26744757510259748 -0.14589697864101051 0 0.27642741376429331 -0.15153293898384229 0 0.26744757510259748 -0.14589697864101051 0 0.27940872167995162 -0.13773036916942091 0 0.26744829809880849 -0.1266138508947004 0 0.29147994086106832 -0.13040337811910671 0 0.27940872167995162 -0.13773036916942091 0 0.26744829809880849 -0.1266138508947004 0 0.29147994086106832 -0.13040337811910671 0 0.26546807921792548 -0.13548145429421751 0 0.27940872167995162 -0.13773036916942091 0 0.26744829809880849 -0.1266138508947004 0 0.26546807921792548 -0.13548145429421751 0 0.26744757510259748 -0.14589697864101051 0 0.27940872167995162 -0.13773036916942091 0 0.26546807921792548 -0.13548145429421751 0 0.26744829809880849 -0.1266138508947004 0 0.27642741376429331 -0.15153293898384229 0 0.27940872167995162 -0.13773036916942091 0 0.29568863000334189 -0.15413346266823241 0 0.27940872167995162 -0.13773036916942091 0 0.29147994086106832 -0.13040337811910671 0 0.29568863000334189 -0.15413346266823241 0 0.27681519771220059 -0.1625124992412787 0 0.27642741376429331 -0.15153293898384229 0 0.29568863000334189 -0.15413346266823241 0 0.29568863000334189 -0.15413346266823241 0 0.31551158362332798 -0.13419290534351319 0 0.31289781048650772 -0.1494711602801857 0 0.29568863000334189 -0.15413346266823241 0 0.31551158362332798 -0.13419290534351319 0 0.29568863000334189 -0.15413346266823241 0 0.3009143314547551 -0.16327191507569719 0 0.31289781048650772 -0.1494711602801857 0 0.3062501996237193 -0.1178031970131307 0 0.29147994086106832 -0.13040337811910671 0 0.31551158362332798 -0.13419290534351319 0 0.29147994086106832 -0.13040337811910671 0 0.29568863000334189 -0.15413346266823241 0 0.31551158362332798 -0.13419290534351319 0 0.29147994086106832 -0.13040337811910671 0 0.31551158362332798 -0.13419290534351319 0 0.28981061688788612 -0.19704064108441971 0 0.29167915170230202 -0.17302641881555569 0 0.30414916244292117 -0.17952521898294549 0 0.28981061688788612 -0.19704064108441971 0 0.27586567638335602 -0.17407401999295161 0 0.29167915170230202 -0.17302641881555569 0 0.28981061688788612 -0.19704064108441971 0 0.27586567638335602 -0.17407401999295161 0 0.27586567638335602 -0.17407401999295161 0 0.29568863000334189 -0.15413346266823241 0 0.29167915170230202 -0.17302641881555569 0 0.27681519771220059 -0.1625124992412787 0 0.27586567638335602 -0.17407401999295161 0 0.29568863000334189 -0.15413346266823241 0 0.27586567638335602 -0.17407401999295161 0 0.29568863000334189 -0.15413346266823241 0 0.29568863000334189 -0.15413346266823241 0 0.29167915170230202 -0.17302641881555569 0 0.3009143314547551 -0.16327191507569719 0 0.3009143314547551 -0.16327191507569719 0 0.3119199105847717 -0.16703733917897401 0 0.30414916244292117 -0.17952521898294549 0 0.3009143314547551 -0.16327191507569719 0 0.3119199105847717 -0.16703733917897401 0 0.31289781048650772 -0.1494711602801857 0 0.3009143314547551 -0.16327191507569719 0 0.31289781048650772 -0.1494711602801857 0 0.30414916244292117 -0.17952521898294549 0 0.31879211521941753 -0.17915028821931081 0 0.31345231936271861 -0.1982316206333968 0 0.29167915170230202 -0.17302641881555569 0 0.3009143314547551 -0.16327191507569719 0 0.30414916244292117 -0.17952521898294549 0 0.3119199105847717 -0.16703733917897401 0 0.30414916244292117 -0.17952521898294549 0 0.31879211521941753 -0.17915028821931081 0 0.31879211521941753 -0.17915028821931081 0 0.32841716167496138 -0.17453055270096179 0 0.33500640956625227 -0.19129652585974419 0 0.31879211521941753 -0.17915028821931081 0 0.32285692425164031 -0.16307717217298451 0 0.32841716167496138 -0.17453055270096179 0 0.3119199105847717 -0.16703733917897401 0 0.32285692425164031 -0.16307717217298451 0 0.31289781048650772 -0.1494711602801857 0 0.3119199105847717 -0.16703733917897401 0 0.31879211521941753 -0.17915028821931081 0 0.32285692425164031 -0.16307717217298451 0 0.32285692425164031 -0.16307717217298451 0 0.33701319766253568 -0.16459822455180789 0 0.32841716167496138 -0.17453055270096179 0 0.32285692425164031 -0.16307717217298451 0 0.33701319766253568 -0.16459822455180789 0 0.32733384153555251 -0.15014337714670439 0 0.33701319766253568 -0.16459822455180789 0 0.32841716167496138 -0.17453055270096179 0 0.33500640956625227 -0.19129652585974419 0 0.33701319766253568 -0.16459822455180789 0 0.33500640956625227 -0.19129652585974419 0 0.33701319766253568 -0.16459822455180789 0 0.34707031532127852 -0.17318727674209461 0 0.33500640956625227 -0.19129652585974419 0 0.3172552224627434 -0.12373413889121369 0 0.3062501996237193 -0.1178031970131307 0 0.31551158362332798 -0.13419290534351319 0 0.32574036812042489 -0.1224619833665794 0 0.31822797487210042 -0.13146039855108979 0 0.32488128951825967 -0.13567040548467371 0 0.3172552224627434 -0.12373413889121369 0 0.32574036812042489 -0.1224619833665794 0 0.31822797487210042 -0.13146039855108979 0 0.3172552224627434 -0.12373413889121369 0 0.31822797487210042 -0.13146039855108979 0 0.31551158362332798 -0.13419290534351319 0 0.31551158362332798 -0.13419290534351319 0 0.32488128951825967 -0.13567040548467371 0 0.31289781048650772 -0.1494711602801857 0 0.31551158362332798 -0.13419290534351319 0 0.32488128951825967 -0.13567040548467371 0 0.31822797487210042 -0.13146039855108979 0 0.31551158362332798 -0.13419290534351319 0 0.32488128951825967 -0.13567040548467371 0 0.31822797487210042 -0.13146039855108979 0 0.31551158362332798 -0.13419290534351319 0 0.32488128951825967 -0.13567040548467371 0 0.31289781048650772 -0.1494711602801857 0 0.32733384153555251 -0.15014337714670439 0 0.32488128951825967 -0.13567040548467371 0 0.31289781048650772 -0.1494711602801857 0 0.32285692425164031 -0.16307717217298451 0 0.31289781048650772 -0.1494711602801857 0 0.32733384153555251 -0.15014337714670439 0 0.33701319766253568 -0.16459822455180789 0 0.32733384153555251 -0.15014337714670439 0 0.33901998575881898 -0.13789992324387171 0 0.33701319766253568 -0.16459822455180789 0 0.33901998575881898 -0.13789992324387171 0 0.33701319766253568 -0.16459822455180789 0 0.33901998575881898 -0.13789992324387171 0 0.3452206852511297 -0.15073534748768411 0 0.33901998575881898 -0.13789992324387171 0 0.34508556592420397 -0.1422100772771008 0 0.3452206852511297 -0.15073534748768411 0 0.32488128951825967 -0.13567040548467371 0 0.32733384153555251 -0.15014337714670439 0 0.33901998575881898 -0.13789992324387171 0 0.34054333954510713 -0.11763323018334269 0 0.32488128951825967 -0.13567040548467371 0 0.33901998575881898 -0.13789992324387171 0 0.34054333954510713 -0.11763323018334269 0 0.32574036812042489 -0.1224619833665794 0 0.32488128951825967 -0.13567040548467371 0 0.34054333954510713 -0.11763323018334269 0 0.33901998575881898 -0.13789992324387171 0 0.34054333954510713 -0.11763323018334269 0 0.32488128951825967 -0.13567040548467371 0 0.34054333954510713 -0.11763323018334269 0 0.33901998575881898 -0.13789992324387171 0 0.34600244444464789 -0.127577776264617 0 0.32488128951825967 -0.13567040548467371 0 0.33901998575881898 -0.13789992324387171 0 0.33901998575881898 -0.13789992324387171 0 0.3430877088609266 -0.13854135868751949 0 0.34670842688779052 -0.1340725284786119 0 0.33901998575881898 -0.13789992324387171 0 0.3430877088609266 -0.13854135868751949 0 0.34508556592420397 -0.1422100772771008 0 0.33901998575881898 -0.13789992324387171 0 0.3430877088609266 -0.13854135868751949 0 0.35268573755206012 -0.1215664171757451 0 0.3579546713816249 -0.1276855402581076 0 0.35215182871390049 -0.13050059550774501 0 0.3579546713816249 -0.1276855402581076 0 0.35215182871390049 -0.13050059550774501 0 0.35866975386309302 -0.13435147235870021 0 0.35268573755206012 -0.1215664171757451 0 0.35215182871390049 -0.13050059550774501 0 0.34600244444464789 -0.127577776264617 0 0.35215182871390049 -0.13050059550774501 0 0.34600244444464789 -0.127577776264617 0 0.34670842688779052 -0.1340725284786119 0 0.35215182871390049 -0.13050059550774501 0 0.34670842688779052 -0.1340725284786119 0 0.35234026719841038 -0.13786701118728459 0 0.33901998575881898 -0.13789992324387171 0 0.34600244444464789 -0.127577776264617 0 0.34670842688779052 -0.1340725284786119 0 0.3430877088609266 -0.13854135868751949 0 0.3475381463745878 -0.13946814563182711 0 0.34508556592420397 -0.1422100772771008 0 0.3430877088609266 -0.13854135868751949 0 0.34670842688779052 -0.1340725284786119 0 0.3475381463745878 -0.13946814563182711 0 0.3475381463745878 -0.13946814563182711 0 0.35234026719841038 -0.13786701118728459 0 0.35056130337555702 -0.1444056113346015 0 0.34670842688779052 -0.1340725284786119 0 0.3475381463745878 -0.13946814563182711 0 0.35234026719841038 -0.13786701118728459 0 0.35234026719841038 -0.13786701118728459 0 0.35866975386309302 -0.13435147235870021 0 0.35852937646908711 -0.1442384651557731 0 0.35215182871390049 -0.13050059550774501 0 0.35234026719841038 -0.13786701118728459 0 0.35866975386309302 -0.13435147235870021 0 0.35852937646908711 -0.1442384651557731 0 0.35314441749041098 -0.15249754703919649 0 0.36093769702417861 -0.1612071239930028 0 0.35852937646908711 -0.1442384651557731 0 0.35056130337555702 -0.1444056113346015 0 0.35314441749041098 -0.15249754703919649 0 0.35234026719841038 -0.13786701118728459 0 0.35852937646908711 -0.1442384651557731 0 0.35056130337555702 -0.1444056113346015 0 0.3475381463745878 -0.13946814563182711 0 0.35056130337555702 -0.1444056113346015 0 0.34508556592420397 -0.1422100772771008 0 0.35056130337555702 -0.1444056113346015 0 0.34508556592420397 -0.1422100772771008 0 0.3452206852511297 -0.15073534748768411 0 0.3452206852511297 -0.15073534748768411 0 0.35314441749041098 -0.15249754703919649 0 0.35047302533210262 -0.161901187224921 0 0.35056130337555702 -0.1444056113346015 0 0.3452206852511297 -0.15073534748768411 0 0.35314441749041098 -0.15249754703919649 0 0.35852937646908711 -0.1442384651557731 0 0.36810681226910669 -0.14526188721903671 0 0.36093769702417861 -0.1612071239930028 0 0.36810681226910669 -0.14526188721903671 0 0.36093769702417861 -0.1612071239930028 0 0.37593553794546541 -0.15188487475686019 0 0.36810681226910669 -0.14526188721903671 0 0.37292859304058729 -0.1389082021648928 0 0.37593553794546541 -0.15188487475686019 0 0.35852937646908711 -0.1442384651557731 0 0.36810681226910669 -0.14526188721903671 0 0.36599937063840388 -0.13664998460514641 0 0.35866975386309302 -0.13435147235870021 0 0.35852937646908711 -0.1442384651557731 0 0.36599937063840388 -0.13664998460514641 0 0.35866975386309302 -0.13435147235870021 0 0.36599937063840388 -0.13664998460514641 0 0.36512807405984887 -0.1291741098971228 0 0.36810681226910669 -0.14526188721903671 0 0.36599937063840388 -0.13664998460514641 0 0.37292859304058729 -0.1389082021648928 0 0.36599937063840388 -0.13664998460514641 0 0.37292859304058729 -0.1389082021648928 0 0.37551713425596089 -0.13136377786930989 0 0.36599937063840388 -0.13664998460514641 0 0.36512807405984887 -0.1291741098971228 0 0.37551713425596089 -0.13136377786930989 0 0.37053786972134728 -0.1241186545116425 0 0.36512807405984887 -0.1291741098971228 0 0.37551713425596089 -0.13136377786930989 0 0.37704306452831288 -0.12188954488483381 0 0.37053786972134728 -0.1241186545116425 0 0.37551713425596089 -0.13136377786930989 0 0.3643528686968267 -0.1221563697865591 0 0.37053786972134728 -0.1241186545116425 0 0.36512807405984887 -0.1291741098971228 0 0.3579546713816249 -0.1276855402581076 0 0.35866975386309302 -0.13435147235870021 0 0.36512807405984887 -0.1291741098971228 0 0.3643528686968267 -0.1221563697865591 0 0.3579546713816249 -0.1276855402581076 0 0.36512807405984887 -0.1291741098971228 0 0.34707031532127852 -0.17318727674209461 0 0.35179279731743512 -0.18907192123531491 0 0.33500640956625227 -0.19129652585974419 0 0.34707031532127852 -0.17318727674209461 0 0.36680473644611189 -0.1903336915495448 0 0.35179279731743512 -0.18907192123531491 0 0.34707031532127852 -0.17318727674209461 0 0.35862472879368112 -0.17050063014907799 0 0.36554495876148502 -0.17993725068425509 0 0.34707031532127852 -0.17318727674209461 0 0.36680473644611189 -0.1903336915495448 0 0.33701319766253568 -0.16459822455180789 0 0.34707031532127852 -0.17318727674209461 0 0.35047302533210262 -0.161901187224921 0 0.33701319766253568 -0.16459822455180789 0 0.3452206852511297 -0.15073534748768411 0 0.35047302533210262 -0.161901187224921 0 0.35314441749041098 -0.15249754703919649 0 0.35047302533210262 -0.161901187224921 0 0.36093769702417861 -0.1612071239930028 0 0.35047302533210262 -0.161901187224921 0 0.35862472879368112 -0.17050063014907799 0 0.36093769702417861 -0.1612071239930028 0 0.34707031532127852 -0.17318727674209461 0 0.35047302533210262 -0.161901187224921 0 0.35862472879368112 -0.17050063014907799 0 0.36093769702417861 -0.1612071239930028 0 0.37593553794546541 -0.15188487475686019 0 0.37543983835626671 -0.16858152153112041 0 0.35862472879368112 -0.17050063014907799 0 0.36093769702417861 -0.1612071239930028 0 0.37543983835626671 -0.16858152153112041 0 0.36093769702417861 -0.1612071239930028 0 0.37543983835626671 -0.16858152153112041 0 0.34707031532127852 -0.17318727674209461 0 0.36554495876148502 -0.17993725068425509 0 0.36680473644611189 -0.1903336915495448 0 0.35862472879368112 -0.17050063014907799 0 0.36554495876148502 -0.17993725068425509 0 0.37543983835626671 -0.16858152153112041 0 0.36554495876148502 -0.17993725068425509 0 0.36680473644611189 -0.1903336915495448 0 0.38088600460033051 -0.18916245783412969 0 0.36680473644611189 -0.1903336915495448 0 0.37222590356784718 -0.210558976819154 0 0.36181205333357869 -0.20356119042586429 0 0.36680473644611189 -0.1903336915495448 0 0.36181205333357869 -0.20356119042586429 0 0.35732392934187041 -0.19601694352546639 0 0.37222590356784718 -0.210558976819154 0 0.36181205333357869 -0.20356119042586429 0 0.36092577193490949 -0.21512912952887689 0 0.37222590356784718 -0.210558976819154 0 0.36092577193490949 -0.21512912952887689 0 0.36802586975860668 -0.22283306464510119 0 0.35127430527132109 -0.21292332404142389 0 0.34888613027035609 -0.2011009708911419 0 0.33299962146996892 -0.2179948271676804 0 0.36092577193490949 -0.21512912952887689 0 0.35127430527132109 -0.21292332404142389 0 0.35174794934779219 -0.22683050219355619 0 0.36181205333357869 -0.20356119042586429 0 0.35127430527132109 -0.21292332404142389 0 0.34888613027035609 -0.2011009708911419 0 0.36181205333357869 -0.20356119042586429 0 0.36092577193490949 -0.21512912952887689 0 0.35127430527132109 -0.21292332404142389 0 0.35179279731743512 -0.18907192123531491 0 0.34888613027035609 -0.2011009708911419 0 0.33500640956625227 -0.19129652585974419 0 0.36680473644611189 -0.1903336915495448 0 0.35179279731743512 -0.18907192123531491 0 0.35732392934187041 -0.19601694352546639 0 0.35179279731743512 -0.18907192123531491 0 0.35732392934187041 -0.19601694352546639 0 0.34888613027035609 -0.2011009708911419 0 0.36181205333357869 -0.20356119042586429 0 0.35732392934187041 -0.19601694352546639 0 0.34888613027035609 -0.2011009708911419 0 0.33500640956625227 -0.19129652585974419 0 0.33299962146996892 -0.2179948271676804 0 0.34888613027035609 -0.2011009708911419 0 0.33500640956625227 -0.19129652585974419 0 0.33299962146996892 -0.2179948271676804 0 0.30375555739241622 -0.2200072621758879 0 0.33299962146996892 -0.2179948271676804 0 0.31345231936271861 -0.1982316206333968 0 0.31879211521941753 -0.17915028821931081 0 0.33500640956625227 -0.19129652585974419 0 0.31345231936271861 -0.1982316206333968 0 0.33500640956625227 -0.19129652585974419 0 0.33299962146996892 -0.2179948271676804 0 0.31345231936271861 -0.1982316206333968 0 0.30375555739241622 -0.2200072621758879 0 0.33299962146996892 -0.2179948271676804 0 0.31770049789694632 -0.24297388326735619 0 0.33299962146996892 -0.2179948271676804 0 0.33678665488879789 -0.24619804491852171 0 0.35174794934779219 -0.22683050219355619 0 0.33299962146996892 -0.2179948271676804 0 0.31770049789694632 -0.24297388326735619 0 0.33678665488879789 -0.24619804491852171 0 0.33678665488879789 -0.24619804491852171 0 0.35500318252035029 -0.2411520613017322 0 0.35174794934779219 -0.22683050219355619 0 0.33678665488879789 -0.24619804491852171 0 0.35500318252035029 -0.2411520613017322 0 0.35509859724434889 -0.25311219672443891 0 0.35500318252035029 -0.2411520613017322 0 0.36641252464219198 -0.24790325052978501 0 0.35509859724434889 -0.25311219672443891 0 0.35127430527132109 -0.21292332404142389 0 0.33299962146996892 -0.2179948271676804 0 0.35174794934779219 -0.22683050219355619 0 0.35500318252035029 -0.2411520613017322 0 0.35174794934779219 -0.22683050219355619 0 0.36773336664616962 -0.23395768906030989 0 0.36092577193490949 -0.21512912952887689 0 0.35174794934779219 -0.22683050219355619 0 0.36802586975860668 -0.22283306464510119 0 0.35174794934779219 -0.22683050219355619 0 0.36773336664616962 -0.23395768906030989 0 0.36802586975860668 -0.22283306464510119 0 0.36773336664616962 -0.23395768906030989 0 0.36802586975860668 -0.22283306464510119 0 0.37796557972711431 -0.22290974648113809 0 0.37222590356784718 -0.210558976819154 0 0.36802586975860668 -0.22283306464510119 0 0.37796557972711431 -0.22290974648113809 0 0.35500318252035029 -0.2411520613017322 0 0.36773336664616962 -0.23395768906030989 0 0.36641252464219198 -0.24790325052978501 0 0.36773336664616962 -0.23395768906030989 0 0.36641252464219198 -0.24790325052978501 0 0.37632074766170631 -0.2431630483575454 0 0.36641252464219198 -0.24790325052978501 0 0.37632074766170631 -0.2431630483575454 0 0.37890765935061482 -0.25506603946694723 0 0.37632074766170631 -0.2431630483575454 0 0.38554752371320888 -0.24652925223533381 0 0.37890765935061482 -0.25506603946694723 0 0.36773336664616962 -0.23395768906030989 0 0.37632074766170631 -0.2431630483575454 0 0.38134416077744782 -0.2343581766082691 0 0.37632074766170631 -0.2431630483575454 0 0.38554752371320888 -0.24652925223533381 0 0.38134416077744782 -0.2343581766082691 0 0.38959066464295827 -0.23817896421282889 0 0.38554752371320888 -0.24652925223533381 0 0.38134416077744782 -0.2343581766082691 0 0.38959066464295827 -0.23817896421282889 0 0.38554752371320888 -0.24652925223533381 0 0.39398661756359471 -0.24426603455709159 0 0.38554752371320888 -0.24652925223533381 0 0.39398661756359471 -0.24426603455709159 0 0.3925199689154536 -0.25259104737467469 0 0.39398661756359471 -0.24426603455709159 0 0.3925199689154536 -0.25259104737467469 0 0.40113899914634948 -0.25031799045773062 0 0.38959066464295827 -0.23817896421282889 0 0.39398661756359471 -0.24426603455709159 0 0.39531263081310952 -0.23788077260179241 0 0.38959066464295827 -0.23817896421282889 0 0.39531263081310952 -0.23788077260179241 0 0.39332074295068109 -0.2326208435369701 0 0.39531263081310952 -0.23788077260179241 0 0.39911025210087853 -0.23356582779554719 0 0.39332074295068109 -0.2326208435369701 0 0.39398661756359471 -0.24426603455709159 0 0.39531263081310952 -0.23788077260179241 0 0.4009274673186603 -0.24012939063868699 0 0.39531263081310952 -0.23788077260179241 0 0.4009274673186603 -0.24012939063868699 0 0.39911025210087853 -0.23356582779554719 0 0.4009274673186603 -0.24012939063868699 0 0.40519473741505679 -0.23474476302244529 0 0.39911025210087853 -0.23356582779554719 0 0.4009274673186603 -0.24012939063868699 0 0.40519473741505679 -0.23474476302244529 0 0.4009274673186603 -0.24012939063868699 0 0.40519473741505679 -0.23474476302244529 0 0.40861515504804008 -0.24233926151858909 0 0.39398661756359471 -0.24426603455709159 0 0.4009274673186603 -0.24012939063868699 0 0.40113899914634948 -0.25031799045773062 0 0.4009274673186603 -0.24012939063868699 0 0.40861515504804008 -0.24233926151858909 0 0.40113899914634948 -0.25031799045773062 0 0.39332074295068109 -0.2326208435369701 0 0.38917231406082092 -0.2266957263934411 0 0.40627357869577879 -0.22462652116444529 0 0.38917231406082092 -0.2266957263934411 0 0.38653915757094542 -0.20748010635699499 0 0.40627357869577879 -0.22462652116444529 0 0.40519473741505679 -0.23474476302244529 0 0.39911025210087853 -0.23356582779554719 0 0.40627357869577879 -0.22462652116444529 0 0.39911025210087853 -0.23356582779554719 0 0.39332074295068109 -0.2326208435369701 0 0.40627357869577879 -0.22462652116444529 0 0.40519473741505679 -0.23474476302244529 0 0.39911025210087853 -0.23356582779554719 0 0.38959066464295827 -0.23817896421282889 0 0.39332074295068109 -0.2326208435369701 0 0.38917231406082092 -0.2266957263934411 0 0.38917231406082092 -0.2266957263934411 0 0.37796557972711431 -0.22290974648113809 0 0.38653915757094542 -0.20748010635699499 0 0.38959066464295827 -0.23817896421282889 0 0.38917231406082092 -0.2266957263934411 0 0.38134416077744782 -0.2343581766082691 0 0.38917231406082092 -0.2266957263934411 0 0.38134416077744782 -0.2343581766082691 0 0.37796557972711431 -0.22290974648113809 0 0.36773336664616962 -0.23395768906030989 0 0.38134416077744782 -0.2343581766082691 0 0.37796557972711431 -0.22290974648113809 0 0.37222590356784718 -0.210558976819154 0 0.37796557972711431 -0.22290974648113809 0 0.38653915757094542 -0.20748010635699499 0 0.36680473644611189 -0.1903336915495448 0 0.37222590356784718 -0.210558976819154 0 0.38653915757094542 -0.20748010635699499 0 0.36680473644611189 -0.1903336915495448 0 0.38653915757094542 -0.20748010635699499 0 0.38088600460033051 -0.18916245783412969 0 0.36680473644611189 -0.1903336915495448 0 0.38653915757094542 -0.20748010635699499 0 0.38653915757094542 -0.20748010635699499 0 0.38088600460033051 -0.18916245783412969 0 0.39497432728438769 -0.1930999888684064 0 0.38653915757094542 -0.20748010635699499 0 0.39497432728438769 -0.1930999888684064 0 0.40552293473473527 -0.2057383263469649 0 0.39497432728438769 -0.1930999888684064 0 0.40552293473473527 -0.2057383263469649 0 0.41198155982757262 -0.187163134734705 0 0.38653915757094542 -0.20748010635699499 0 0.40627357869577879 -0.22462652116444529 0 0.38653915757094542 -0.20748010635699499 0 0.40552293473473527 -0.2057383263469649 0 0.40627357869577879 -0.22462652116444529 0 0.40552293473473527 -0.2057383263469649 0 0.41960793869092322 -0.2165575567113088 0 0.40627357869577879 -0.22462652116444529 0 0.40552293473473527 -0.2057383263469649 0 0.41960793869092322 -0.2165575567113088 0 0.41778339330500519 -0.20195734204828791 0 0.40552293473473527 -0.2057383263469649 0 0.41778339330500519 -0.20195734204828791 0 0.41198155982757262 -0.187163134734705 0 0.41778339330500519 -0.20195734204828791 0 0.43402113996679009 -0.19837035040017281 0 0.41198155982757262 -0.187163134734705 0 0.43402113996679009 -0.19837035040017281 0 0.41198155982757262 -0.187163134734705 0 0.43402113996679009 -0.19837035040017281 0 0.41198155982757262 -0.187163134734705 0 0.4282571485263087 -0.18192472229694259 0 0.43402113996679009 -0.19837035040017281 0 0.4282571485263087 -0.18192472229694259 0 0.44577374987691848 -0.18354039437314551 0 0.41960793869092322 -0.2165575567113088 0 0.41778339330500519 -0.20195734204828791 0 0.43402113996679009 -0.19837035040017281 0 0.41960793869092322 -0.2165575567113088 0 0.43402113996679009 -0.19837035040017281 0 0.41960793869092322 -0.2165575567113088 0 0.43402113996679009 -0.19837035040017281 0 0.43370770515463097 -0.2133797982347867 0 0.43370770515463097 -0.2133797982347867 0 0.43728393439242919 -0.22654740240475579 0 0.42590680326754637 -0.22848767271648199 0 0.41960793869092322 -0.2165575567113088 0 0.43370770515463097 -0.2133797982347867 0 0.42590680326754637 -0.22848767271648199 0 0.42590680326754637 -0.22848767271648199 0 0.42338112599595751 -0.23826857367215909 0 0.41852265134237088 -0.22951464153059881 0 0.42590680326754637 -0.22848767271648199 0 0.43369676071040808 -0.23400856083137461 0 0.42338112599595751 -0.23826857367215909 0 0.43728393439242919 -0.22654740240475579 0 0.42590680326754637 -0.22848767271648199 0 0.43369676071040808 -0.23400856083137461 0 0.43728393439242919 -0.22654740240475579 0 0.43369676071040808 -0.23400856083137461 0 0.43981060115311238 -0.2337408829046701 0 0.42338112599595751 -0.23826857367215909 0 0.44156751457685839 -0.2417923843218715 0 0.44156751457685839 -0.2417923843218715 0 0.423368724381043 -0.25272454249565568 0 0.42338112599595751 -0.23826857367215909 0 0.44156751457685839 -0.2417923843218715 0 0.423368724381043 -0.25272454249565568 0 0.43369676071040808 -0.23400856083137461 0 0.42338112599595751 -0.23826857367215909 0 0.44156751457685839 -0.2417923843218715 0 0.44156751457685839 -0.2417923843218715 0 0.423368724381043 -0.25272454249565568 0 0.43350636356054922 -0.25216465347974742 0 0.40519473741505679 -0.23474476302244529 0 0.42338112599595751 -0.23826857367215909 0 0.40861515504804008 -0.24233926151858909 0 0.40519473741505679 -0.23474476302244529 0 0.42338112599595751 -0.23826857367215909 0 0.42338112599595751 -0.23826857367215909 0 0.41243344536417631 -0.2482355898019232 0 0.40861515504804008 -0.24233926151858909 0 0.42338112599595751 -0.23826857367215909 0 0.41243344536417631 -0.2482355898019232 0 0.423368724381043 -0.25272454249565568 0 0.41243344536417631 -0.2482355898019232 0 0.40861515504804008 -0.24233926151858909 0 0.40113899914634948 -0.25031799045773062 0 0.40519473741505679 -0.23474476302244529 0 0.41960793869092322 -0.2165575567113088 0 0.40627357869577879 -0.22462652116444529 0 0.40519473741505679 -0.23474476302244529 0 0.41960793869092322 -0.2165575567113088 0 0.41852265134237088 -0.22951464153059881 0 0.40519473741505679 -0.23474476302244529 0 0.42338112599595751 -0.23826857367215909 0 0.41852265134237088 -0.22951464153059881 0 0.40519473741505679 -0.23474476302244529 0 0.41960793869092322 -0.2165575567113088 0 0.41960793869092322 -0.2165575567113088 0 0.42590680326754637 -0.22848767271648199 0 0.41852265134237088 -0.22951464153059881 0 0.39954594010793137 -0.1291537097541243 0 0.40436435037684981 -0.14051585694722421 0 0.41461599889441059 -0.13114781728339761 0 0.39954594010793137 -0.1291537097541243 0 0.40436435037684981 -0.14051585694722421 0 0.39046216488573032 -0.13566390159223249 0 0.38679125217496191 -0.12465128093994569 0 0.39954594010793137 -0.1291537097541243 0 0.39046216488573032 -0.13566390159223249 0 0.38679125217496191 -0.12465128093994569 0 0.37551713425596089 -0.13136377786930989 0 0.39046216488573032 -0.13566390159223249 0 0.37704306452831288 -0.12188954488483381 0 0.38679125217496191 -0.12465128093994569 0 0.37551713425596089 -0.13136377786930989 0 0.37292859304058729 -0.1389082021648928 0 0.37551713425596089 -0.13136377786930989 0 0.38155498382748498 -0.14039470577102439 0 0.37551713425596089 -0.13136377786930989 0 0.38155498382748498 -0.14039470577102439 0 0.39046216488573032 -0.13566390159223249 0 0.38155498382748498 -0.14039470577102439 0 0.39046216488573032 -0.13566390159223249 0 0.38617249394916248 -0.14791515116651729 0 0.38155498382748498 -0.14039470577102439 0 0.38617249394916248 -0.14791515116651729 0 0.37593553794546541 -0.15188487475686019 0 0.37292859304058729 -0.1389082021648928 0 0.38155498382748498 -0.14039470577102439 0 0.37593553794546541 -0.15188487475686019 0 0.38617249394916248 -0.14791515116651729 0 0.39587264958483548 -0.1494082679364731 0 0.38711701204732529 -0.16005088128603459 0 0.38617249394916248 -0.14791515116651729 0 0.37593553794546541 -0.15188487475686019 0 0.38711701204732529 -0.16005088128603459 0 0.40436435037684981 -0.14051585694722421 0 0.39046216488573032 -0.13566390159223249 0 0.39587264958483548 -0.1494082679364731 0 0.39046216488573032 -0.13566390159223249 0 0.38617249394916248 -0.14791515116651729 0 0.39587264958483548 -0.1494082679364731 0 0.40436435037684981 -0.14051585694722421 0 0.39587264958483548 -0.1494082679364731 0 0.41059550761141922 -0.1543220943973288 0 0.39587264958483548 -0.1494082679364731 0 0.39933551462962807 -0.1623811426075433 0 0.41059550761141922 -0.1543220943973288 0 0.39933551462962807 -0.1623811426075433 0 0.38711701204732529 -0.16005088128603459 0 0.38994197968835492 -0.17595591906923749 0 0.39933551462962807 -0.1623811426075433 0 0.38994197968835492 -0.17595591906923749 0 0.41315042421620563 -0.17216855034864231 0 0.39587264958483548 -0.1494082679364731 0 0.39933551462962807 -0.1623811426075433 0 0.38711701204732529 -0.16005088128603459 0 0.37593553794546541 -0.15188487475686019 0 0.38711701204732529 -0.16005088128603459 0 0.37543983835626671 -0.16858152153112041 0 0.38711701204732529 -0.16005088128603459 0 0.37543983835626671 -0.16858152153112041 0 0.38994197968835492 -0.17595591906923749 0 0.36554495876148502 -0.17993725068425509 0 0.38088600460033051 -0.18916245783412969 0 0.38994197968835492 -0.17595591906923749 0 0.36554495876148502 -0.17993725068425509 0 0.37543983835626671 -0.16858152153112041 0 0.38994197968835492 -0.17595591906923749 0 0.38088600460033051 -0.18916245783412969 0 0.39497432728438769 -0.1930999888684064 0 0.38994197968835492 -0.17595591906923749 0 0.36554495876148502 -0.17993725068425509 0 0.38994197968835492 -0.17595591906923749 0 0.37543983835626671 -0.16858152153112041 0 0.38994197968835492 -0.17595591906923749 0 0.38994197968835492 -0.17595591906923749 0 0.41198155982757262 -0.187163134734705 0 0.38994197968835492 -0.17595591906923749 0 0.41315042421620563 -0.17216855034864231 0 0.38994197968835492 -0.17595591906923749 0 0.41315042421620563 -0.17216855034864231 0 0.41198155982757262 -0.187163134734705 0 0.39497432728438769 -0.1930999888684064 0 0.38994197968835492 -0.17595591906923749 0 0.41198155982757262 -0.187163134734705 0 0.41315042421620563 -0.17216855034864231 0 0.41198155982757262 -0.187163134734705 0 0.4282571485263087 -0.18192472229694259 0 0.41315042421620563 -0.17216855034864231 0 0.4282571485263087 -0.18192472229694259 0 0.43635886874405638 -0.16838118162804749 0 0.4282571485263087 -0.18192472229694259 0 0.43635886874405638 -0.16838118162804749 0 0.44577374987691848 -0.18354039437314551 0 0.41315042421620563 -0.17216855034864231 0 0.43635886874405638 -0.16838118162804749 0 0.41315042421620563 -0.17216855034864231 0 0.43635886874405638 -0.16838118162804749 0 0.42326640501116553 -0.16069832668154169 0 0.43635886874405638 -0.16838118162804749 0 0.42326640501116553 -0.16069832668154169 0 0.43503674339527759 -0.15583786426991569 0 0.39933551462962807 -0.1623811426075433 0 0.41315042421620563 -0.17216855034864231 0 0.41059550761141922 -0.1543220943973288 0 0.41315042421620563 -0.17216855034864231 0 0.42326640501116553 -0.16069832668154169 0 0.41059550761141922 -0.1543220943973288 0 0.40436435037684981 -0.14051585694722421 0 0.41059550761141922 -0.1543220943973288 0 0.41676104779852352 -0.1419151990652032 0 0.41059550761141922 -0.1543220943973288 0 0.41676104779852352 -0.1419151990652032 0 0.42505142925743272 -0.14915179584014909 0 0.42326640501116553 -0.16069832668154169 0 0.41059550761141922 -0.1543220943973288 0 0.42505142925743272 -0.14915179584014909 0 0.42326640501116553 -0.16069832668154169 0 0.42505142925743272 -0.14915179584014909 0 0.43503674339527759 -0.15583786426991569 0 0.42505142925743272 -0.14915179584014909 0 0.43503674339527759 -0.15583786426991569 0 0.43467828061644309 -0.14503709096455281 0 0.41676104779852352 -0.1419151990652032 0 0.42505142925743272 -0.14915179584014909 0 0.42917795285250537 -0.13443843085791621 0 0.42505142925743272 -0.14915179584014909 0 0.43467828061644309 -0.14503709096455281 0 0.42917795285250537 -0.13443843085791621 0 0.43534357205828828 -0.1202272884263767 0 0.42917795285250537 -0.13443843085791621 0 0.44485782204426522 -0.1277556596500008 0 0.43467828061644309 -0.14503709096455281 0 0.42917795285250537 -0.13443843085791621 0 0.4419232408664544 -0.1390025472538883 0 0.42238159970668132 -0.1188424737486755 0 0.42917795285250537 -0.13443843085791621 0 0.41461599889441059 -0.13114781728339761 0 0.41676104779852352 -0.1419151990652032 0 0.42917795285250537 -0.13443843085791621 0 0.41461599889441059 -0.13114781728339761 0 0.40436435037684981 -0.14051585694722421 0 0.41676104779852352 -0.1419151990652032 0 0.41461599889441059 -0.13114781728339761 0 0.40798003263654842 -0.1213381821689118 0 0.39954594010793137 -0.1291537097541243 0 0.41461599889441059 -0.13114781728339761 0 0.47248303026737842 -0.1243033271675323 0 0.46480122497334547 -0.1401782469839204 0 0.45851381436091748 -0.1254103918179823 0 0.46480122497334547 -0.1401782469839204 0 0.45366037021532679 -0.1395996892673424 0 0.45851381436091748 -0.1254103918179823 0 0.42917795285250537 -0.13443843085791621 0 0.44485782204426522 -0.1277556596500008 0 0.4419232408664544 -0.1390025472538883 0 0.45366037021532679 -0.1395996892673424 0 0.45851381436091748 -0.1254103918179823 0 0.44485782204426522 -0.1277556596500008 0 0.45366037021532679 -0.1395996892673424 0 0.44485782204426522 -0.1277556596500008 0 0.4419232408664544 -0.1390025472538883 0 0.45366037021532679 -0.1395996892673424 0 0.44440333104781221 -0.1484239446969316 0 0.45338737643160842 -0.15125588560985229 0 0.45366037021532679 -0.1395996892673424 0 0.4419232408664544 -0.1390025472538883 0 0.44440333104781221 -0.1484239446969316 0 0.43467828061644309 -0.14503709096455281 0 0.4419232408664544 -0.1390025472538883 0 0.44440333104781221 -0.1484239446969316 0 0.43503674339527759 -0.15583786426991569 0 0.44440333104781221 -0.1484239446969316 0 0.44773397476176302 -0.15981059081603829 0 0.43503674339527759 -0.15583786426991569 0 0.43467828061644309 -0.14503709096455281 0 0.44440333104781221 -0.1484239446969316 0 0.44440333104781221 -0.1484239446969316 0 0.45338737643160842 -0.15125588560985229 0 0.44773397476176302 -0.15981059081603829 0 0.45338737643160842 -0.15125588560985229 0 0.46319341299572181 -0.15481305564793901 0 0.45539189815774139 -0.15847534727688059 0 0.46480122497334547 -0.1401782469839204 0 0.45338737643160842 -0.15125588560985229 0 0.46319341299572181 -0.15481305564793901 0 0.46480122497334547 -0.1401782469839204 0 0.45366037021532679 -0.1395996892673424 0 0.45338737643160842 -0.15125588560985229 0 0.46480122497334547 -0.1401782469839204 0 0.46319341299572181 -0.15481305564793901 0 0.47496236122570112 -0.1470891967473652 0 0.46319341299572181 -0.15481305564793901 0 0.4655986412191549 -0.16190326387625739 0 0.47339299815796282 -0.1569994394877032 0 0.4609378164111313 -0.1599463699271324 0 0.4655986412191549 -0.16190326387625739 0 0.45956731327190709 -0.1645938129074527 0 0.46319341299572181 -0.15481305564793901 0 0.4609378164111313 -0.1599463699271324 0 0.4655986412191549 -0.16190326387625739 0 0.4655986412191549 -0.16190326387625739 0 0.46456457689686848 -0.1696840842524866 0 0.47138736334556652 -0.16551788811580601 0 0.4655986412191549 -0.16190326387625739 0 0.46456457689686848 -0.1696840842524866 0 0.45956731327190709 -0.1645938129074527 0 0.45956731327190709 -0.1645938129074527 0 0.45752635978704692 -0.16871043834611801 0 0.44980657291998227 -0.17130645681369089 0 0.46456457689686848 -0.1696840842524866 0 0.45956731327190709 -0.1645938129074527 0 0.45752635978704692 -0.16871043834611801 0 0.45956731327190709 -0.1645938129074527 0 0.45539189815774139 -0.15847534727688059 0 0.44773397476176302 -0.15981059081603829 0 0.4609378164111313 -0.1599463699271324 0 0.45956731327190709 -0.1645938129074527 0 0.45539189815774139 -0.15847534727688059 0 0.46319341299572181 -0.15481305564793901 0 0.4609378164111313 -0.1599463699271324 0 0.45539189815774139 -0.15847534727688059 0 0.43635886874405638 -0.16838118162804749 0 0.45956731327190709 -0.1645938129074527 0 0.44773397476176302 -0.15981059081603829 0 0.43635886874405638 -0.16838118162804749 0 0.45956731327190709 -0.1645938129074527 0 0.44980657291998227 -0.17130645681369089 0 0.45338737643160842 -0.15125588560985229 0 0.45539189815774139 -0.15847534727688059 0 0.44773397476176302 -0.15981059081603829 0 0.43635886874405638 -0.16838118162804749 0 0.45956731327190709 -0.1645938129074527 0 0.43635886874405638 -0.16838118162804749 0 0.43503674339527759 -0.15583786426991569 0 0.44773397476176302 -0.15981059081603829 0 0.45752635978704692 -0.16871043834611801 0 0.44980657291998227 -0.17130645681369089 0 0.44577374987691848 -0.18354039437314551 0 0.45752635978704692 -0.16871043834611801 0 0.44577374987691848 -0.18354039437314551 0 0.43635886874405638 -0.16838118162804749 0 0.44980657291998227 -0.17130645681369089 0 0.44577374987691848 -0.18354039437314551 0 0.44577374987691848 -0.18354039437314551 0 0.46124269677639029 -0.17958775953514389 0 0.45667612587403239 -0.1924969637497044 0 0.45752635978704692 -0.16871043834611801 0 0.44577374987691848 -0.18354039437314551 0 0.46124269677639029 -0.17958775953514389 0 0.46456457689686848 -0.1696840842524866 0 0.45752635978704692 -0.16871043834611801 0 0.46124269677639029 -0.17958775953514389 0 0.46456457689686848 -0.1696840842524866 0 0.46124269677639029 -0.17958775953514389 0 0.46893404232370911 -0.17758997510657881 0 0.46456457689686848 -0.1696840842524866 0 0.46893404232370911 -0.17758997510657881 0 0.47234088965720489 -0.17195207572788071 0 0.46124269677639029 -0.17958775953514389 0 0.47096842858930349 -0.1857145382622486 0 0.45667612587403239 -0.1924969637497044 0 0.46124269677639029 -0.17958775953514389 0 0.47096842858930349 -0.1857145382622486 0 0.46893404232370911 -0.17758997510657881 0 0.47096842858930349 -0.1857145382622486 0 0.46893404232370911 -0.17758997510657881 0 0.47687770066458879 -0.1777671400923955 0 0.47096842858930349 -0.1857145382622486 0 0.47687770066458879 -0.1777671400923955 0 0.48169264230144332 -0.1852632105286931 0 0.47234088965720489 -0.17195207572788071 0 0.47687770066458879 -0.1777671400923955 0 0.47849927594397801 -0.165971466671861 0 0.46893404232370911 -0.17758997510657881 0 0.47234088965720489 -0.17195207572788071 0 0.47687770066458879 -0.1777671400923955 0 0.47687770066458879 -0.1777671400923955 0 0.48842986507795838 -0.1728721528376071 0 0.47849927594397801 -0.165971466671861 0 0.47687770066458879 -0.1777671400923955 0 0.48169264230144332 -0.1852632105286931 0 0.48842986507795838 -0.1728721528376071 0 0.48169264230144332 -0.1852632105286931 0 0.48842986507795838 -0.1728721528376071 0 0.48974767489403043 -0.19653897985841229 0 0.48842986507795838 -0.1728721528376071 0 0.5 -0.16745023830355549 0 0.5 -0.19323060635301931 0 0.48842986507795838 -0.1728721528376071 0 0.48974767489403043 -0.19653897985841229 0 0.48842986507795838 -0.1728721528376071 0 0.48711205526188639 -0.14920532581680171 0 0.48842986507795838 -0.1728721528376071 0 0.47849927594397801 -0.165971466671861 0 0.48711205526188639 -0.14920532581680171 0 0.48842986507795838 -0.1728721528376071 0 0.5 -0.16745023830355549 0 0.48711205526188639 -0.14920532581680171 0 0.47849927594397801 -0.165971466671861 0 0.47339299815796282 -0.1569994394877032 0 0.48711205526188639 -0.14920532581680171 0 0.47234088965720489 -0.17195207572788071 0 0.47849927594397801 -0.165971466671861 0 0.47138736334556652 -0.16551788811580601 0 0.46456457689686848 -0.1696840842524866 0 0.47234088965720489 -0.17195207572788071 0 0.47138736334556652 -0.16551788811580601 0 0.47849927594397801 -0.165971466671861 0 0.47138736334556652 -0.16551788811580601 0 0.47339299815796282 -0.1569994394877032 0 0.4655986412191549 -0.16190326387625739 0 0.47138736334556652 -0.16551788811580601 0 0.47339299815796282 -0.1569994394877032 0 0.46319341299572181 -0.15481305564793901 0 0.47339299815796282 -0.1569994394877032 0 0.47496236122570112 -0.1470891967473652 0 0.46480122497334547 -0.1401782469839204 0 0.47496236122570112 -0.1470891967473652 0 0.47681266935040562 -0.1374870187466897 0 0.47496236122570112 -0.1470891967473652 0 0.48711205526188639 -0.14920532581680171 0 0.47681266935040562 -0.1374870187466897 0 0.47339299815796282 -0.1569994394877032 0 0.47496236122570112 -0.1470891967473652 0 0.48711205526188639 -0.14920532581680171 0 0.5 -0.16745023830355549 0 0.5 -0.1416698702540917 0 0.48711205526188639 -0.14920532581680171 0 0.48711205526188639 -0.14920532581680171 0 0.48579424544581451 -0.1255384987959963 0 0.5 -0.1416698702540917 0 0.48711205526188639 -0.14920532581680171 0 0.48579424544581451 -0.1255384987959963 0 0.49999999999999939 -0.115889502204628 0 0.5 -0.1416698702540917 0 0.48579424544581451 -0.1255384987959963 0 0.47248303026737842 -0.1243033271675323 0 0.48579424544581451 -0.1255384987959963 0 0.47681266935040562 -0.1374870187466897 0 0.48711205526188639 -0.14920532581680171 0 0.48579424544581451 -0.1255384987959963 0 0.47681266935040562 -0.1374870187466897 0 0.47248303026737842 -0.1243033271675323 0 0.46480122497334547 -0.1401782469839204 0 0.47681266935040562 -0.1374870187466897 0 0.4569747860751231 -0.22213534721216449 0 0.46671199322050022 -0.22785351012795929 0 0.47453718738464667 -0.21897292442635391 0 0.457652163255519 -0.23213020779074789 0 0.4569747860751231 -0.22213534721216449 0 0.44584007626693539 -0.23068576304158339 0 0.457652163255519 -0.23213020779074789 0 0.4569747860751231 -0.22213534721216449 0 0.46671199322050022 -0.22785351012795929 0 0.457652163255519 -0.23213020779074789 0 0.46671199322050022 -0.22785351012795929 0 0.4700023954929235 -0.23607950945316211 0 0.457652163255519 -0.23213020779074789 0 0.45888286174932558 -0.2451474212220435 0 0.4700023954929235 -0.23607950945316211 0 0.45888286174932558 -0.2451474212220435 0 0.47617689254537349 -0.24849832784236911 0 0.45888286174932558 -0.2451474212220435 0 0.47617689254537349 -0.24849832784236911 0 0.46651075195550701 -0.25328647170910251 0 0.45888286174932558 -0.2451474212220435 0 0.44843493484384422 -0.249978301481521 0 0.44098930579768758 -0.24530238131087739 0 0.45888286174932558 -0.2451474212220435 0 0.44156751457685839 -0.2417923843218715 0 0.457652163255519 -0.23213020779074789 0 0.44156751457685839 -0.2417923843218715 0 0.457652163255519 -0.23213020779074789 0 0.45888286174932558 -0.2451474212220435 0 0.44156751457685839 -0.2417923843218715 0 0.457652163255519 -0.23213020779074789 0 0.44156751457685839 -0.2417923843218715 0 0.44584007626693539 -0.23068576304158339 0 0.45888286174932558 -0.2451474212220435 0 0.44098930579768758 -0.24530238131087739 0 0.44156751457685839 -0.2417923843218715 0 0.45888286174932558 -0.2451474212220435 0 0.44098930579768758 -0.24530238131087739 0 0.44098930579768758 -0.24530238131087739 0 0.44156751457685839 -0.2417923843218715 0 0.43350636356054922 -0.25216465347974742 0 0.44843493484384422 -0.249978301481521 0 0.44098930579768758 -0.24530238131087739 0 0.44252181209924191 -0.25423199683658321 0 0.43369676071040808 -0.23400856083137461 0 0.44156751457685839 -0.2417923843218715 0 0.43981060115311238 -0.2337408829046701 0 0.44156751457685839 -0.2417923843218715 0 0.43981060115311238 -0.2337408829046701 0 0.44584007626693539 -0.23068576304158339 0 0.43728393439242919 -0.22654740240475579 0 0.43981060115311238 -0.2337408829046701 0 0.44584007626693539 -0.23068576304158339 0 0.4569747860751231 -0.22213534721216449 0 0.44584007626693539 -0.23068576304158339 0 0.44552354249331821 -0.22008983029257809 0 0.43728393439242919 -0.22654740240475579 0 0.44584007626693539 -0.23068576304158339 0 0.44552354249331821 -0.22008983029257809 0 0.43370770515463097 -0.2133797982347867 0 0.43728393439242919 -0.22654740240475579 0 0.44552354249331821 -0.22008983029257809 0 0.43402113996679009 -0.19837035040017281 0 0.45427916367571858 -0.20867163741326311 0 0.43370770515463097 -0.2133797982347867 0 0.44552354249331821 -0.22008983029257809 0 0.45427916367571858 -0.20867163741326311 0 0.43402113996679009 -0.19837035040017281 0 0.43370770515463097 -0.2133797982347867 0 0.45427916367571858 -0.20867163741326311 0 0.4569747860751231 -0.22213534721216449 0 0.44552354249331821 -0.22008983029257809 0 0.45427916367571858 -0.20867163741326311 0 0.43402113996679009 -0.19837035040017281 0 0.45667612587403239 -0.1924969637497044 0 0.45427916367571858 -0.20867163741326311 0 0.43402113996679009 -0.19837035040017281 0 0.44577374987691848 -0.18354039437314551 0 0.45667612587403239 -0.1924969637497044 0 0.43402113996679009 -0.19837035040017281 0 0.44577374987691848 -0.18354039437314551 0 0.45667612587403239 -0.1924969637497044 0 0.45427916367571858 -0.20867163741326311 0 0.46884556919287751 -0.19462247015355899 0 0.45427916367571858 -0.20867163741326311 0 0.47383937072611843 -0.2040969393873262 0 0.46884556919287751 -0.19462247015355899 0 0.47096842858930349 -0.1857145382622486 0 0.45667612587403239 -0.1924969637497044 0 0.46884556919287751 -0.19462247015355899 0 0.45427916367571858 -0.20867163741326311 0 0.47383937072611843 -0.2040969393873262 0 0.47453718738464667 -0.21897292442635391 0 0.4569747860751231 -0.22213534721216449 0 0.45427916367571858 -0.20867163741326311 0 0.47453718738464667 -0.21897292442635391 0 0.45427916367571858 -0.20867163741326311 0 0.47453718738464667 -0.21897292442635391 0 0.47383937072611843 -0.2040969393873262 0 0.48316445760933618 -0.20995254330898849 0 0.48115773652451538 -0.2010845116917683 0 0.48316445760933618 -0.20995254330898849 0 0.48259695997870461 -0.22232927684329989 0 0.47453718738464667 -0.21897292442635391 0 0.47383937072611843 -0.2040969393873262 0 0.48316445760933618 -0.20995254330898849 0 0.47453718738464667 -0.21897292442635391 0 0.47096842858930349 -0.1857145382622486 0 0.46884556919287751 -0.19462247015355899 0 0.47787944286857642 -0.19374958421234609 0 0.47383937072611843 -0.2040969393873262 0 0.46884556919287751 -0.19462247015355899 0 0.47787944286857642 -0.19374958421234609 0 0.47383937072611843 -0.2040969393873262 0 0.48115773652451538 -0.2010845116917683 0 0.47787944286857642 -0.19374958421234609 0 0.48115773652451538 -0.2010845116917683 0 0.47787944286857642 -0.19374958421234609 0 0.48974767489403043 -0.19653897985841229 0 0.47096842858930349 -0.1857145382622486 0 0.48169264230144332 -0.1852632105286931 0 0.47787944286857642 -0.19374958421234609 0 0.48169264230144332 -0.1852632105286931 0 0.47787944286857642 -0.19374958421234609 0 0.48974767489403043 -0.19653897985841229 0 0.48842986507795838 -0.1728721528376071 0 0.5 -0.19323060635301931 0 0.48974767489403043 -0.19653897985841229 0 0.5 -0.19323060635301931 0 0.48974767489403043 -0.19653897985841229 0 0.5 -0.21901097440248299 0 0.48316445760933618 -0.20995254330898849 0 0.48115773652451538 -0.2010845116917683 0 0.48974767489403043 -0.19653897985841229 0 0.48974767489403043 -0.19653897985841229 0 0.5 -0.21901097440248299 0 0.49106548471010231 -0.22020580687921759 0 0.48974767489403043 -0.19653897985841229 0 0.49106548471010231 -0.22020580687921759 0 0.48316445760933618 -0.20995254330898849 0 0.48974767489403043 -0.19653897985841229 0 0.49106548471010231 -0.22020580687921759 0 0.48316445760933618 -0.20995254330898849 0 0.49106548471010231 -0.22020580687921759 0 0.48259695997870461 -0.22232927684329989 0 0.5 -0.21901097440248299 0 0.49110754976033227 -0.22989140905622291 0 0.50000000000000133 -0.24479134245194681 0 0.5 -0.21901097440248299 0 0.49110754976033227 -0.22989140905622291 0 0.49106548471010231 -0.22020580687921759 0 0.49110754976033227 -0.22989140905622291 0 0.48330771241979459 -0.23339321203452931 0 0.48967514145339219 -0.2396178417258609 0 0.49110754976033227 -0.22989140905622291 0 0.48259695997870461 -0.22232927684329989 0 0.48330771241979459 -0.23339321203452931 0 0.49110754976033227 -0.22989140905622291 0 0.49106548471010231 -0.22020580687921759 0 0.48259695997870461 -0.22232927684329989 0 0.48259695997870461 -0.22232927684329989 0 0.47538739570593608 -0.23008580153670899 0 0.47453718738464667 -0.21897292442635391 0 0.48259695997870461 -0.22232927684329989 0 0.48330771241979459 -0.23339321203452931 0 0.47538739570593608 -0.23008580153670899 0 0.48330771241979459 -0.23339321203452931 0 0.47538739570593608 -0.23008580153670899 0 0.47819793592823873 -0.23707932764445661 0 0.46671199322050022 -0.22785351012795929 0 0.47538739570593608 -0.23008580153670899 0 0.4700023954929235 -0.23607950945316211 0 0.46671199322050022 -0.22785351012795929 0 0.47538739570593608 -0.23008580153670899 0 0.47453718738464667 -0.21897292442635391 0 0.45888286174932558 -0.2451474212220435 0 0.4700023954929235 -0.23607950945316211 0 0.4794414308746634 -0.24496938183699521 0 0.45888286174932558 -0.2451474212220435 0 0.47617689254537349 -0.24849832784236911 0 0.4794414308746634 -0.24496938183699521 0 0.45888286174932558 -0.2451474212220435 0 0.4794414308746634 -0.24496938183699521 0 0.47538739570593608 -0.23008580153670899 0 0.4700023954929235 -0.23607950945316211 0 0.47819793592823873 -0.23707932764445661 0 0.4700023954929235 -0.23607950945316211 0 0.47819793592823873 -0.23707932764445661 0 0.4794414308746634 -0.24496938183699521 0 0.47819793592823873 -0.23707932764445661 0 0.48265555516902231 -0.23876494081046051 0 0.4794414308746634 -0.24496938183699521 0 0.48265555516902231 -0.23876494081046051 0 0.4794414308746634 -0.24496938183699521 0 0.48967514145339219 -0.2396178417258609 0 0.48330771241979459 -0.23339321203452931 0 0.47819793592823873 -0.23707932764445661 0 0.48265555516902231 -0.23876494081046051 0 0.47617689254537349 -0.24849832784236911 0 0.4794414308746634 -0.24496938183699521 0 0.48269746379925282 -0.25283341570655837 0 0.4794414308746634 -0.24496938183699521 0 0.48967514145339219 -0.2396178417258609 0 0.50000000000000133 -0.24479134245194681 0 0.4794414308746634 -0.24496938183699521 0 0.50000000000000133 -0.24479134245194681 0 0.4794414308746634 -0.24496938183699521 0 0.50000000000000133 -0.24479134245194681 0 0.48269746379925282 -0.25283341570655837 0 0.48330771241979459 -0.23339321203452931 0 0.48265555516902231 -0.23876494081046051 0 0.48967514145339219 -0.2396178417258609 0 0.49110754976033227 -0.22989140905622291 0 0.48967514145339219 -0.2396178417258609 0 0.50000000000000133 -0.24479134245194681 0 0.50000000000000133 -0.24479134245194681 0 0.48931325469281928 -0.26122057233457402 0 0.5 -0.27433820805973252 0 0.50000000000000133 -0.24479134245194681 0 0.48931325469281928 -0.26122057233457402 0 0.48269746379925282 -0.25283341570655837 0 0.5 -0.27433820805973252 0 0.48542935649071051 -0.27350721375063869 0 0.48693831075083638 -0.29095202544742532 0 0.48931325469281928 -0.26122057233457402 0 0.5 -0.27433820805973252 0 0.48542935649071051 -0.27350721375063869 0 0.48542935649071051 -0.27350721375063869 0 0.47362611797842291 -0.27221824692843838 0 0.47476541488451368 -0.28676880201055482 0 0.48931325469281928 -0.26122057233457402 0 0.48542935649071051 -0.27350721375063869 0 0.47810668895974112 -0.26226311409038278 0 0.48542935649071051 -0.27350721375063869 0 0.47362611797842291 -0.27221824692843838 0 0.47810668895974112 -0.26226311409038278 0 0.47362611797842291 -0.27221824692843838 0 0.46417748361072059 -0.27659365765715721 0 0.47476541488451368 -0.28676880201055482 0 0.48269746379925282 -0.25283341570655837 0 0.47810668895974112 -0.26226311409038278 0 0.47339512101386022 -0.25544368848676019 0 0.47617689254537349 -0.24849832784236911 0 0.48269746379925282 -0.25283341570655837 0 0.47339512101386022 -0.25544368848676019 0 0.48931325469281928 -0.26122057233457402 0 0.48269746379925282 -0.25283341570655837 0 0.47810668895974112 -0.26226311409038278 0 0.47362611797842291 -0.27221824692843838 0 0.47810668895974112 -0.26226311409038278 0 0.46565164594642799 -0.26195844713345828 0 0.47810668895974112 -0.26226311409038278 0 0.47339512101386022 -0.25544368848676019 0 0.46565164594642799 -0.26195844713345828 0 0.47617689254537349 -0.24849832784236911 0 0.47339512101386022 -0.25544368848676019 0 0.46651075195550701 -0.25328647170910251 0 0.47339512101386022 -0.25544368848676019 0 0.46651075195550701 -0.25328647170910251 0 0.46565164594642799 -0.26195844713345828 0 0.46651075195550701 -0.25328647170910251 0 0.4595123541008066 -0.25591190867756802 0 0.46565164594642799 -0.26195844713345828 0 0.45888286174932558 -0.2451474212220435 0 0.46651075195550701 -0.25328647170910251 0 0.4595123541008066 -0.25591190867756802 0 0.45888286174932558 -0.2451474212220435 0 0.4595123541008066 -0.25591190867756802 0 0.45134575972912189 -0.25523140655658 0 0.4595123541008066 -0.25591190867756802 0 0.45517075112365052 -0.26393579676665591 0 0.45134575972912189 -0.25523140655658 0 0.4595123541008066 -0.25591190867756802 0 0.45517075112365052 -0.26393579676665591 0 0.46565164594642799 -0.26195844713345828 0 0.45517075112365052 -0.26393579676665591 0 0.46565164594642799 -0.26195844713345828 0 0.46417748361072059 -0.27659365765715721 0 0.47362611797842291 -0.27221824692843838 0 0.46565164594642799 -0.26195844713345828 0 0.46417748361072059 -0.27659365765715721 0 0.46417748361072059 -0.27659365765715721 0 0.45033720751023931 -0.27470410805809381 0 0.45682354580490259 -0.28522678440067872 0 0.45517075112365052 -0.26393579676665591 0 0.46417748361072059 -0.27659365765715721 0 0.45033720751023931 -0.27470410805809381 0 0.45517075112365052 -0.26393579676665591 0 0.45033720751023931 -0.27470410805809381 0 0.44612329764842862 -0.26409348635816149 0 0.45033720751023931 -0.27470410805809381 0 0.44301262585312712 -0.28751935170672521 0 0.43624383911278392 -0.27198473010824409 0 0.45033720751023931 -0.27470410805809381 0 0.44612329764842862 -0.26409348635816149 0 0.43624383911278392 -0.27198473010824409 0 0.44612329764842862 -0.26409348635816149 0 0.43746720792863192 -0.26090699218162638 0 0.43624383911278392 -0.27198473010824409 0 0.44252181209924191 -0.25423199683658321 0 0.44612329764842862 -0.26409348635816149 0 0.43746720792863192 -0.26090699218162638 0 0.44098930579768758 -0.24530238131087739 0 0.44252181209924191 -0.25423199683658321 0 0.43350636356054922 -0.25216465347974742 0 0.44252181209924191 -0.25423199683658321 0 0.43746720792863192 -0.26090699218162638 0 0.43350636356054922 -0.25216465347974742 0 0.45888286174932558 -0.2451474212220435 0 0.44843493484384422 -0.249978301481521 0 0.45134575972912189 -0.25523140655658 0 0.44843493484384422 -0.249978301481521 0 0.44252181209924191 -0.25423199683658321 0 0.45134575972912189 -0.25523140655658 0 0.44252181209924191 -0.25423199683658321 0 0.45134575972912189 -0.25523140655658 0 0.44612329764842862 -0.26409348635816149 0 0.45517075112365052 -0.26393579676665591 0 0.45134575972912189 -0.25523140655658 0 0.44612329764842862 -0.26409348635816149 0 0.45182499716591251 -0.30054800257086228 0 0.4522817635571853 -0.31339412468706079 0 0.42888457944731129 -0.3143272031311698 0 0.45182499716591251 -0.30054800257086228 0 0.42888457944731129 -0.3143272031311698 0 0.45182499716591251 -0.30054800257086228 0 0.42888457944731129 -0.3143272031311698 0 0.43321586420448388 -0.29741830210768472 0 0.45182499716591251 -0.30054800257086228 0 0.44301262585312712 -0.28751935170672521 0 0.43321586420448388 -0.29741830210768472 0 0.45033720751023931 -0.27470410805809381 0 0.44301262585312712 -0.28751935170672521 0 0.45682354580490259 -0.28522678440067872 0 0.45182499716591251 -0.30054800257086228 0 0.44301262585312712 -0.28751935170672521 0 0.45682354580490259 -0.28522678440067872 0 0.45182499716591251 -0.30054800257086228 0 0.47376744957851491 -0.30080716570998772 0 0.47476541488451368 -0.28676880201055482 0 0.46417748361072059 -0.27659365765715721 0 0.45682354580490259 -0.28522678440067872 0 0.47476541488451368 -0.28676880201055482 0 0.45182499716591251 -0.30054800257086228 0 0.45682354580490259 -0.28522678440067872 0 0.47476541488451368 -0.28676880201055482 0 0.45182499716591251 -0.30054800257086228 0 0.47476541488451368 -0.28676880201055482 0 0.45182499716591251 -0.30054800257086228 0 0.46417889127106471 -0.30852690359899382 0 0.47376744957851491 -0.30080716570998772 0 0.45182499716591251 -0.30054800257086228 0 0.46417889127106471 -0.30852690359899382 0 0.4522817635571853 -0.31339412468706079 0 0.47376744957851491 -0.30080716570998772 0 0.48693831075083638 -0.29095202544742532 0 0.48658172433077063 -0.30694674238044301 0 0.46417889127106471 -0.30852690359899382 0 0.47449257049251498 -0.31178708412526351 0 0.47376744957851491 -0.30080716570998772 0 0.47449257049251498 -0.31178708412526351 0 0.47376744957851491 -0.30080716570998772 0 0.48658172433077063 -0.30694674238044301 0 0.48542935649071051 -0.27350721375063869 0 0.47476541488451368 -0.28676880201055482 0 0.48693831075083638 -0.29095202544742532 0 0.47376744957851491 -0.30080716570998772 0 0.47476541488451368 -0.28676880201055482 0 0.48693831075083638 -0.29095202544742532 0 0.5 -0.27433820805973252 0 0.48693831075083638 -0.29095202544742532 0 0.5 -0.30388507366751832 0 0.5 -0.30388507366751832 0 0.48658172433077063 -0.30694674238044301 0 0.48759747896132372 -0.3230737968364859 0 0.48693831075083638 -0.29095202544742532 0 0.5 -0.30388507366751832 0 0.48658172433077063 -0.30694674238044301 0 0.5 -0.30388507366751832 0 0.48759747896132372 -0.3230737968364859 0 0.5 -0.33343193927530412 0 0.48759747896132372 -0.3230737968364859 0 0.5 -0.33343193927530412 0 0.48011235593374729 -0.34695408592325028 0 0.47344221678971049 -0.3308675248116294 0 0.48011235593374729 -0.34695408592325028 0 0.46369529730194148 -0.34861202092099131 0 0.48759747896132372 -0.3230737968364859 0 0.47344221678971049 -0.3308675248116294 0 0.48011235593374729 -0.34695408592325028 0 0.47344221678971049 -0.3308675248116294 0 0.48011235593374729 -0.34695408592325028 0 0.46417889127106471 -0.30852690359899382 0 0.47344221678971049 -0.3308675248116294 0 0.48658172433077063 -0.30694674238044301 0 0.47344221678971049 -0.3308675248116294 0 0.46417889127106471 -0.30852690359899382 0 0.47449257049251498 -0.31178708412526351 0 0.47344221678971049 -0.3308675248116294 0 0.48658172433077063 -0.30694674238044301 0 0.48759747896132372 -0.3230737968364859 0 0.47344221678971049 -0.3308675248116294 0 0.47449257049251498 -0.31178708412526351 0 0.48658172433077063 -0.30694674238044301 0 0.47344221678971049 -0.3308675248116294 0 0.48678249507778432 -0.36304064703487099 0 0.49514561682266439 -0.38321022163110502 0 0.49080622172856858 -0.36263429670225389 0 0.48678249507778432 -0.36304064703487099 0 0.49514561682266439 -0.38321022163110502 0 0.5 -0.36297880488308998 0 0.49080622172856858 -0.36263429670225389 0 0.49514561682266439 -0.38321022163110502 0 0.49080622172856858 -0.36263429670225389 0 0.48678249507778432 -0.36304064703487099 0 0.5 -0.33343193927530412 0 0.5 -0.36297880488308998 0 0.49080622172856858 -0.36263429670225389 0 0.5 -0.33343193927530412 0 0.49080622172856858 -0.36263429670225389 0 0.48011235593374729 -0.34695408592325028 0 0.49080622172856858 -0.36263429670225389 0 0.48678249507778432 -0.36304064703487099 0 0.48011235593374729 -0.34695408592325028 0 0.48678249507778432 -0.36304064703487099 0 0.48011235593374729 -0.34695408592325028 0 0.48011235593374729 -0.34695408592325028 0 0.47036543644597728 -0.36469858203261252 0 0.46369529730194148 -0.34861202092099131 0 0.48678249507778432 -0.36304064703487099 0 0.48011235593374729 -0.34695408592325028 0 0.47036543644597728 -0.36469858203261252 0 0.48678249507778432 -0.36304064703487099 0 0.47036543644597728 -0.36469858203261252 0 0.48678249507778432 -0.36304064703487099 0 0.47036543644597728 -0.36469858203261252 0 0.48075869042843222 -0.37935407715121561 0 0.47036543644597728 -0.36469858203261252 0 0.48075869042843222 -0.37935407715121561 0 0.46636452922613009 -0.37757004151739387 0 0.47036543644597728 -0.36469858203261252 0 0.4539483778141703 -0.36635651703035199 0 0.46369529730194148 -0.34861202092099131 0 0.47036543644597728 -0.36469858203261252 0 0.4539483778141703 -0.36635651703035199 0 0.46636452922613009 -0.37757004151739387 0 0.47036543644597728 -0.36469858203261252 0 0.4539483778141703 -0.36635651703035199 0 0.4539483778141703 -0.36635651703035199 0 0.46369529730194148 -0.34861202092099131 0 0.44947590139368959 -0.35235061588287492 0 0.4539483778141703 -0.36635651703035199 0 0.46369529730194148 -0.34861202092099131 0 0.44947590139368959 -0.35235061588287492 0 0.44059283523352888 -0.36770527395172692 0 0.43919031833668087 -0.34184466074010011 0 0.44059283523352888 -0.36770527395172692 0 0.43919031833668087 -0.34184466074010011 0 0.4539483778141703 -0.36635651703035199 0 0.44059283523352888 -0.36770527395172692 0 0.44172640791138518 -0.38860690061676212 0 0.4539483778141703 -0.36635651703035199 0 0.44947590139368959 -0.35235061588287492 0 0.44059283523352888 -0.36770527395172692 0 0.4539483778141703 -0.36635651703035199 0 0.44059283523352888 -0.36770527395172692 0 0.46417889127106471 -0.30852690359899382 0 0.45210390437755549 -0.32727422855719479 0 0.4522817635571853 -0.31339412468706079 0 0.46417889127106471 -0.30852690359899382 0 0.47344221678971049 -0.3308675248116294 0 0.45210390437755549 -0.32727422855719479 0 0.47344221678971049 -0.3308675248116294 0 0.46369529730194148 -0.34861202092099131 0 0.45210390437755549 -0.32727422855719479 0 0.46369529730194148 -0.34861202092099131 0 0.44947590139368959 -0.35235061588287492 0 0.45210390437755549 -0.32727422855719479 0 0.47344221678971049 -0.3308675248116294 0 0.46369529730194148 -0.34861202092099131 0 0.44947590139368959 -0.35235061588287492 0 0.43919031833668087 -0.34184466074010011 0 0.45210390437755549 -0.32727422855719479 0 0.43919031833668087 -0.34184466074010011 0 0.45210390437755549 -0.32727422855719479 0 0.42373883653869038 -0.33214030495356761 0 0.45210390437755549 -0.32727422855719479 0 0.4522817635571853 -0.31339412468706079 0 0.42888457944731129 -0.3143272031311698 0 0.45210390437755549 -0.32727422855719479 0 0.42888457944731129 -0.3143272031311698 0 0.42373883653869038 -0.33214030495356761 0 0.43919031833668087 -0.34184466074010011 0 0.42373883653869038 -0.33214030495356761 0 0.42108003979802711 -0.35019172071181498 0 0.42373883653869038 -0.33214030495356761 0 0.40145998321997439 -0.34662675524311232 0 0.40594416172871001 -0.32810640369147748 0 0.42373883653869038 -0.33214030495356761 0 0.42108003979802711 -0.35019172071181498 0 0.40145998321997439 -0.34662675524311232 0 0.42888457944731129 -0.3143272031311698 0 0.40594416172871001 -0.32810640369147748 0 0.42888457944731129 -0.3143272031311698 0 0.40594416172871001 -0.32810640369147748 0 0.40864659733083952 -0.31150359890310397 0 0.42888457944731129 -0.3143272031311698 0 0.42373883653869038 -0.33214030495356761 0 0.40594416172871001 -0.32810640369147748 0 0.44059283523352888 -0.36770527395172692 0 0.41837633579691907 -0.36994888608525478 0 0.42664171683160179 -0.37975349801720049 0 0.44059283523352888 -0.36770527395172692 0 0.42108003979802711 -0.35019172071181498 0 0.41837633579691907 -0.36994888608525478 0 0.44059283523352888 -0.36770527395172692 0 0.41837633579691907 -0.36994888608525478 0 0.44059283523352888 -0.36770527395172692 0 0.43919031833668087 -0.34184466074010011 0 0.42108003979802711 -0.35019172071181498 0 0.42108003979802711 -0.35019172071181498 0 0.41837633579691907 -0.36994888608525478 0 0.40145998321997439 -0.34662675524311232 0 0.41837633579691907 -0.36994888608525478 0 0.39615983636030899 -0.37219249821877948 0 0.41837633579691907 -0.36994888608525478 0 0.39615983636030899 -0.37219249821877948 0 0.40145998321997439 -0.34662675524311232 0 0.39615983636030899 -0.37219249821877948 0 0.40145998321997439 -0.34662675524311232 0 0.38271417850037343 -0.35004817072635219 0 0.40145998321997439 -0.34662675524311232 0 0.38271417850037343 -0.35004817072635219 0 0.38300374401010873 -0.34188560425178499 0 0.39615983636030899 -0.37219249821877948 0 0.36985049477027998 -0.3748494405595445 0 0.39615983636030899 -0.37219249821877948 0 0.38271417850037343 -0.35004817072635219 0 0.39615983636030899 -0.37219249821877948 0 0.38271417850037343 -0.35004817072635219 0 0.36985049477027998 -0.3748494405595445 0 0.40594416172871001 -0.32810640369147748 0 0.39604507822648349 -0.31551770773778393 0 0.38622318335166089 -0.32607478524331479 0 0.40594416172871001 -0.32810640369147748 0 0.39604507822648349 -0.31551770773778393 0 0.40864659733083952 -0.31150359890310397 0 0.40594416172871001 -0.32810640369147748 0 0.38300374401010873 -0.34188560425178499 0 0.38622318335166089 -0.32607478524331479 0 0.40145998321997439 -0.34662675524311232 0 0.40594416172871001 -0.32810640369147748 0 0.38300374401010873 -0.34188560425178499 0 0.40594416172871001 -0.32810640369147748 0 0.38300374401010873 -0.34188560425178499 0 0.38271417850037343 -0.35004817072635219 0 0.38300374401010873 -0.34188560425178499 0 0.36926852064043569 -0.32790384323392618 0 0.38271417850037343 -0.35004817072635219 0 0.36926852064043569 -0.32790384323392618 0 0.38300374401010873 -0.34188560425178499 0 0.38622318335166089 -0.32607478524331479 0 0.36926852064043569 -0.32790384323392618 0 0.38622318335166089 -0.32607478524331479 0 0.38181371108562012 -0.31248974328260731 0 0.36926852064043569 -0.32790384323392618 0 0.39604507822648349 -0.31551770773778393 0 0.38622318335166089 -0.32607478524331479 0 0.38181371108562012 -0.31248974328260731 0 0.38181371108562012 -0.31248974328260731 0 0.38478930514425053 -0.29101582583406271 0 0.36978399716146509 -0.29667006365506121 0 0.38181371108562012 -0.31248974328260731 0 0.39759773763558709 -0.29941400756841591 0 0.38478930514425053 -0.29101582583406271 0 0.39604507822648349 -0.31551770773778393 0 0.38181371108562012 -0.31248974328260731 0 0.39759773763558709 -0.29941400756841591 0 0.39604507822648349 -0.31551770773778393 0 0.39759773763558709 -0.29941400756841591 0 0.40864659733083952 -0.31150359890310397 0 0.39759773763558709 -0.29941400756841591 0 0.40427368498255078 -0.28277857660081801 0 0.41537259862518189 -0.2977750094987498 0 0.39759773763558709 -0.29941400756841591 0 0.40427368498255078 -0.28277857660081801 0 0.39337935357628462 -0.28598488416169188 0 0.39759773763558709 -0.29941400756841591 0 0.39337935357628462 -0.28598488416169188 0 0.38478930514425053 -0.29101582583406271 0 0.39337935357628462 -0.28598488416169188 0 0.38478930514425053 -0.29101582583406271 0 0.38697114398941168 -0.27458885884322348 0 0.38478930514425053 -0.29101582583406271 0 0.37823453876855823 -0.28111325285997879 0 0.38697114398941168 -0.27458885884322348 0 0.38478930514425053 -0.29101582583406271 0 0.37823453876855823 -0.28111325285997879 0 0.36978399716146509 -0.29667006365506121 0 0.37823453876855823 -0.28111325285997879 0 0.38447170102139783 -0.26575416679815889 0 0.36515654652626561 -0.27753734916938771 0 0.38447170102139783 -0.26575416679815889 0 0.38697114398941168 -0.27458885884322348 0 0.39273909905642113 -0.26083170320220123 0 0.37823453876855823 -0.28111325285997879 0 0.38447170102139783 -0.26575416679815889 0 0.38697114398941168 -0.27458885884322348 0 0.38447170102139783 -0.26575416679815889 0 0.37890765935061482 -0.25506603946694723 0 0.37343156313028703 -0.26474358669746761 0 0.38447170102139783 -0.26575416679815889 0 0.37890765935061482 -0.25506603946694723 0 0.38683719041141917 -0.25615444181546321 0 0.38447170102139783 -0.26575416679815889 0 0.38683719041141917 -0.25615444181546321 0 0.39273909905642113 -0.26083170320220123 0 0.38554752371320888 -0.24652925223533381 0 0.38683719041141917 -0.25615444181546321 0 0.3925199689154536 -0.25259104737467469 0 0.38554752371320888 -0.24652925223533381 0 0.37890765935061482 -0.25506603946694723 0 0.38683719041141917 -0.25615444181546321 0 0.3925199689154536 -0.25259104737467469 0 0.39273909905642113 -0.26083170320220123 0 0.40113899914634948 -0.25031799045773062 0 0.38683719041141917 -0.25615444181546321 0 0.3925199689154536 -0.25259104737467469 0 0.39273909905642113 -0.26083170320220123 0 0.39273909905642113 -0.26083170320220123 0 0.40516993418522729 -0.26365670066943958 0 0.40113899914634948 -0.25031799045773062 0 0.41243344536417631 -0.2482355898019232 0 0.40516993418522729 -0.26365670066943958 0 0.40113899914634948 -0.25031799045773062 0 0.38697114398941168 -0.27458885884322348 0 0.39273909905642113 -0.26083170320220123 0 0.40516993418522729 -0.26365670066943958 0 0.40427368498255078 -0.28277857660081801 0 0.39337935357628462 -0.28598488416169188 0 0.38697114398941168 -0.27458885884322348 0 0.40427368498255078 -0.28277857660081801 0 0.38697114398941168 -0.27458885884322348 0 0.40516993418522729 -0.26365670066943958 0 0.38697114398941168 -0.27458885884322348 0 0.40516993418522729 -0.26365670066943958 0 0.40427368498255078 -0.28277857660081801 0 0.40516993418522729 -0.26365670066943958 0 0.420947030446437 -0.27010636821924128 0 0.40427368498255078 -0.28277857660081801 0 0.420947030446437 -0.27010636821924128 0 0.42698451993088637 -0.28692194363091628 0 0.40516993418522729 -0.26365670066943958 0 0.420947030446437 -0.27010636821924128 0 0.423368724381043 -0.25272454249565568 0 0.40516993418522729 -0.26365670066943958 0 0.423368724381043 -0.25272454249565568 0 0.41243344536417631 -0.2482355898019232 0 0.40516993418522729 -0.26365670066943958 0 0.423368724381043 -0.25272454249565568 0 0.420947030446437 -0.27010636821924128 0 0.423368724381043 -0.25272454249565568 0 0.42988616205327418 -0.26102414395577211 0 0.423368724381043 -0.25272454249565568 0 0.42988616205327418 -0.26102414395577211 0 0.43350636356054922 -0.25216465347974742 0 0.42988616205327418 -0.26102414395577211 0 0.43746720792863192 -0.26090699218162638 0 0.43624383911278392 -0.27198473010824409 0 0.42988616205327418 -0.26102414395577211 0 0.43746720792863192 -0.26090699218162638 0 0.43350636356054922 -0.25216465347974742 0 0.420947030446437 -0.27010636821924128 0 0.43624383911278392 -0.27198473010824409 0 0.42698451993088637 -0.28692194363091628 0 0.420947030446437 -0.27010636821924128 0 0.42988616205327418 -0.26102414395577211 0 0.43624383911278392 -0.27198473010824409 0 0.44301262585312712 -0.28751935170672521 0 0.43624383911278392 -0.27198473010824409 0 0.42698451993088637 -0.28692194363091628 0 0.44301262585312712 -0.28751935170672521 0 0.42698451993088637 -0.28692194363091628 0 0.43321586420448388 -0.29741830210768472 0 0.42698451993088637 -0.28692194363091628 0 0.43321586420448388 -0.29741830210768472 0 0.41537259862518189 -0.2977750094987498 0 0.42888457944731129 -0.3143272031311698 0 0.43321586420448388 -0.29741830210768472 0 0.41537259862518189 -0.2977750094987498 0 0.42888457944731129 -0.3143272031311698 0 0.40864659733083952 -0.31150359890310397 0 0.41537259862518189 -0.2977750094987498 0 0.39759773763558709 -0.29941400756841591 0 0.40864659733083952 -0.31150359890310397 0 0.41537259862518189 -0.2977750094987498 0 0.40427368498255078 -0.28277857660081801 0 0.42698451993088637 -0.28692194363091628 0 0.41537259862518189 -0.2977750094987498 0 0.44738883443131627 -0.49301478504244461 0 0.43829467145079942 -0.48169988610961878 0 0.43039240139637119 -0.49331593683535929 0 0.44738883443131627 -0.49301478504244461 0 0.44274141978366172 -0.5 0 0.43039240139637119 -0.49331593683535929 0 0.44738883443131627 -0.49301478504244461 0 0.43039240139637119 -0.49331593683535929 0 0.44756913220976308 -0.49633924489159609 0 0.44738883443131627 -0.49301478504244461 0 0.44274141978366172 -0.5 0 0.44756913220976308 -0.49633924489159609 0 0.44738883443131627 -0.49301478504244461 0 0.44738883443131627 -0.49301478504244461 0 0.44588570840896308 -0.46529906856177072 0 0.44738883443131627 -0.49301478504244461 0 0.46414403424406858 -0.47408327833555791 0 0.44588570840896308 -0.46529906856177072 0 0.44738883443131627 -0.49301478504244461 0 0.43829467145079942 -0.48169988610961878 0 0.44588570840896308 -0.46529906856177072 0 0.43829467145079942 -0.48169988610961878 0 0.4401218527272196 -0.47072168130972342 0 0.44588570840896308 -0.46529906856177072 0 0.43829467145079942 -0.48169988610961878 0 0.4401218527272196 -0.47072168130972342 0 0.43425742586700422 -0.47583206956819551 0 0.44738883443131627 -0.49301478504244461 0 0.46414403424406858 -0.47408327833555791 0 0.47369441721565891 -0.49254868880902591 0 0.44738883443131627 -0.49301478504244461 0 0.47369441721565891 -0.49254868880902591 0 0.44756913220976308 -0.49633924489159609 0 0.44738883443131627 -0.49301478504244461 0 0.47369441721565891 -0.49254868880902591 0 0.44756913220976308 -0.49633924489159609 0 0.44274141978366172 -0.5 0 0.47369441721565891 -0.49254868880902591 0 0.44274141978366172 -0.5 0 0.47369441721565891 -0.49254868880902591 0 0.5 -0.5 0 0.47369441721565891 -0.49254868880902591 0 0.50000000000000144 -0.49208259257560638 0 0.48450056690229742 -0.47753380380900218 0 0.47369441721565891 -0.49254868880902591 0 0.50000000000000144 -0.49208259257560638 0 0.47369441721565891 -0.49254868880902591 0 0.5 -0.5 0 0.50000000000000144 -0.49208259257560638 0 0.50000000000000144 -0.49208259257560638 0 0.48450056690229742 -0.47753380380900218 0 0.5 -0.46743493177972117 0 0.48450056690229742 -0.47753380380900218 0 0.48880388295844379 -0.46691214042443441 0 0.5 -0.46743493177972117 0 0.46414403424406858 -0.47408327833555791 0 0.48450056690229742 -0.47753380380900218 0 0.47589063802678061 -0.46173473632979589 0 0.46414403424406858 -0.47408327833555791 0 0.47369441721565891 -0.49254868880902591 0 0.48450056690229742 -0.47753380380900218 0 0.47589063802678061 -0.46173473632979589 0 0.49386794198502071 -0.4575044498899562 0 0.46912237254982958 -0.44343810636084691 0 0.48450056690229742 -0.47753380380900218 0 0.47589063802678061 -0.46173473632979589 0 0.48880388295844379 -0.46691214042443441 0 0.47589063802678061 -0.46173473632979589 0 0.48880388295844379 -0.46691214042443441 0 0.49386794198502071 -0.4575044498899562 0 0.49386794198502071 -0.4575044498899562 0 0.5 -0.46743493177972117 0 0.5 -0.44278727098383608 0 0.48880388295844379 -0.46691214042443441 0 0.49386794198502071 -0.4575044498899562 0 0.5 -0.46743493177972117 0 0.5 -0.44278727098383608 0 0.4866154759720081 -0.4434170617206849 0 0.48347158935318252 -0.42993841964810031 0 0.49386794198502071 -0.4575044498899562 0 0.5 -0.44278727098383608 0 0.4866154759720081 -0.4434170617206849 0 0.49386794198502071 -0.4575044498899562 0 0.46912237254982958 -0.44343810636084691 0 0.49386794198502071 -0.4575044498899562 0 0.4866154759720081 -0.4434170617206849 0 0.46912237254982958 -0.44343810636084691 0 0.4866154759720081 -0.4434170617206849 0 0.46912237254982958 -0.44343810636084691 0 0.48347158935318252 -0.42993841964810031 0 0.46912237254982958 -0.44343810636084691 0 0.45750404047939558 -0.45436858746130809 0 0.44490448182795511 -0.44720650857803368 0 0.46912237254982958 -0.44343810636084691 0 0.45750404047939558 -0.45436858746130809 0 0.46414403424406858 -0.47408327833555791 0 0.45750404047939558 -0.45436858746130809 0 0.44588570840896308 -0.46529906856177072 0 0.47589063802678061 -0.46173473632979589 0 0.46912237254982958 -0.44343810636084691 0 0.45750404047939558 -0.45436858746130809 0 0.46414403424406858 -0.47408327833555791 0 0.47589063802678061 -0.46173473632979589 0 0.45750404047939558 -0.45436858746130809 0 0.45750404047939558 -0.45436858746130809 0 0.44588570840896308 -0.46529906856177072 0 0.44588570840896308 -0.46529906856177072 0 0.44490448182795511 -0.44720650857803368 0 0.43688218301228188 -0.46311958649538237 0 0.45750404047939558 -0.45436858746130809 0 0.44588570840896308 -0.46529906856177072 0 0.44490448182795511 -0.44720650857803368 0 0.44588570840896308 -0.46529906856177072 0 0.44490448182795511 -0.44720650857803368 0 0.4401218527272196 -0.47072168130972342 0 0.44588570840896308 -0.46529906856177072 0 0.43688218301228188 -0.46311958649538237 0 0.4401218527272196 -0.47072168130972342 0 0.44588570840896308 -0.46529906856177072 0 0.44490448182795511 -0.44720650857803368 0 0.4364299635065404 -0.44385849882737538 0 0.43688218301228188 -0.46311958649538237 0 0.44490448182795511 -0.44720650857803368 0 0.44392325524694443 -0.42911394859429691 0 0.44490448182795511 -0.44720650857803368 0 0.44392325524694443 -0.42911394859429691 0 0.4364299635065404 -0.44385849882737538 0 0.46912237254982958 -0.44343810636084691 0 0.44490448182795511 -0.44720650857803368 0 0.44392325524694443 -0.42911394859429691 0 0.44392325524694443 -0.42911394859429691 0 0.43597774400079581 -0.42459741115936839 0 0.4364299635065404 -0.44385849882737538 0 0.44392325524694443 -0.42911394859429691 0 0.43597774400079581 -0.42459741115936839 0 0.44392325524694443 -0.42911394859429691 0 0.4427526917008241 -0.40753025774969348 0 0.46572855564055182 -0.42147147023477388 0 0.44392325524694443 -0.42911394859429691 0 0.4427526917008241 -0.40753025774969348 0 0.4427526917008241 -0.40753025774969348 0 0.43562092144973841 -0.40939950317312979 0 0.43597774400079581 -0.42459741115936839 0 0.44392325524694443 -0.42911394859429691 0 0.4427526917008241 -0.40753025774969348 0 0.43597774400079581 -0.42459741115936839 0 0.4427526917008241 -0.40753025774969348 0 0.4381989913770975 -0.40469604895557482 0 0.43562092144973841 -0.40939950317312979 0 0.4427526917008241 -0.40753025774969348 0 0.43562092144973841 -0.40939950317312979 0 0.4427526917008241 -0.40753025774969348 0 0.46572855564055182 -0.42147147023477388 0 0.46915133297487283 -0.40061114262832109 0 0.46912237254982958 -0.44343810636084691 0 0.44392325524694443 -0.42911394859429691 0 0.46912237254982958 -0.44343810636084691 0 0.44392325524694443 -0.42911394859429691 0 0.46572855564055182 -0.42147147023477388 0 0.46912237254982958 -0.44343810636084691 0 0.46572855564055182 -0.42147147023477388 0 0.48347158935318252 -0.42993841964810031 0 0.46912237254982958 -0.44343810636084691 0 0.48347158935318252 -0.42993841964810031 0 0.46572855564055182 -0.42147147023477388 0 0.48347158935318252 -0.42993841964810031 0 0.4831233013993137 -0.41548083421155918 0 0.5 -0.44278727098383608 0 0.48347158935318252 -0.42993841964810031 0 0.5 -0.41813961018795082 0 0.48347158935318252 -0.42993841964810031 0 0.49782080615653618 -0.41643873293535461 0 0.5 -0.41813961018795082 0 0.49782080615653618 -0.41643873293535461 0 0.49999999999999972 -0.39349194939206539 0 0.48347158935318252 -0.42993841964810031 0 0.5 -0.41813961018795082 0 0.49782080615653618 -0.41643873293535461 0 0.49782080615653618 -0.41643873293535461 0 0.48973714699552973 -0.41021004994662158 0 0.49326698448383571 -0.40266247926713961 0 0.48347158935318252 -0.42993841964810031 0 0.49782080615653618 -0.41643873293535461 0 0.4831233013993137 -0.41548083421155918 0 0.48973714699552973 -0.41021004994662158 0 0.48473749594243332 -0.4062581533724331 0 0.49326698448383571 -0.40266247926713961 0 0.49782080615653618 -0.41643873293535461 0 0.48973714699552973 -0.41021004994662158 0 0.4831233013993137 -0.41548083421155918 0 0.48973714699552973 -0.41021004994662158 0 0.48473749594243332 -0.4062581533724331 0 0.4831233013993137 -0.41548083421155918 0 0.46572855564055182 -0.42147147023477388 0 0.4831233013993137 -0.41548083421155918 0 0.46915133297487283 -0.40061114262832109 0 0.48473749594243332 -0.4062581533724331 0 0.4831233013993137 -0.41548083421155918 0 0.46915133297487283 -0.40061114262832109 0 0.46884121057755929 -0.39489288327386712 0 0.495549974248921 -0.3936920275069471 0 0.46884121057755929 -0.39489288327386712 0 0.46915133297487283 -0.40061114262832109 0 0.495549974248921 -0.3936920275069471 0 0.48473749594243332 -0.4062581533724331 0 0.46915133297487283 -0.40061114262832109 0 0.495549974248921 -0.3936920275069471 0 0.46915133297487283 -0.40061114262832109 0 0.495549974248921 -0.3936920275069471 0 0.48473749594243332 -0.4062581533724331 0 0.495549974248921 -0.3936920275069471 0 0.49326698448383571 -0.40266247926713961 0 0.49782080615653618 -0.41643873293535461 0 0.49999999999999972 -0.39349194939206539 0 0.49326698448383571 -0.40266247926713961 0 0.495549974248921 -0.3936920275069471 0 0.49999999999999972 -0.39349194939206539 0 0.49326698448383571 -0.40266247926713961 0 0.495549974248921 -0.3936920275069471 0 0.49999999999999972 -0.39349194939206539 0 0.5 -0.36297880488308998 0 0.49999999999999972 -0.39349194939206539 0 0.49514561682266439 -0.38321022163110502 0 0.48678249507778432 -0.36304064703487099 0 0.49514561682266439 -0.38321022163110502 0 0.48075869042843222 -0.37935407715121561 0 0.495549974248921 -0.3936920275069471 0 0.49999999999999972 -0.39349194939206539 0 0.49514561682266439 -0.38321022163110502 0 0.495549974248921 -0.3936920275069471 0 0.49514561682266439 -0.38321022163110502 0 0.48075869042843222 -0.37935407715121561 0 0.46884121057755929 -0.39489288327386712 0 0.495549974248921 -0.3936920275069471 0 0.48075869042843222 -0.37935407715121561 0 0.46884121057755929 -0.39489288327386712 0 0.48075869042843222 -0.37935407715121561 0 0.46636452922613009 -0.37757004151739387 0 0.4539483778141703 -0.36635651703035199 0 0.46636452922613009 -0.37757004151739387 0 0.45490317052139978 -0.38450802827793212 0 0.46884121057755929 -0.39489288327386712 0 0.46636452922613009 -0.37757004151739387 0 0.45490317052139978 -0.38450802827793212 0 0.46884121057755929 -0.39489288327386712 0 0.4421324469061978 -0.39609373904079048 0 0.46884121057755929 -0.39489288327386712 0 0.46915133297487283 -0.40061114262832109 0 0.4421324469061978 -0.39609373904079048 0 0.4427526917008241 -0.40753025774969348 0 0.46915133297487283 -0.40061114262832109 0 0.46884121057755929 -0.39489288327386712 0 0.45490317052139978 -0.38450802827793212 0 0.4421324469061978 -0.39609373904079048 0 0.4427526917008241 -0.40753025774969348 0 0.46915133297487283 -0.40061114262832109 0 0.4421324469061978 -0.39609373904079048 0 0.4381989913770975 -0.40469604895557482 0 0.4421324469061978 -0.39609373904079048 0 0.43540302465637332 -0.40011876851588191 0 0.4427526917008241 -0.40753025774969348 0 0.4421324469061978 -0.39609373904079048 0 0.4427526917008241 -0.40753025774969348 0 0.4381989913770975 -0.40469604895557482 0 0.4421324469061978 -0.39609373904079048 0 0.4421324469061978 -0.39609373904079048 0 0.44172640791138518 -0.38860690061676212 0 0.4421324469061978 -0.39609373904079048 0 0.43749952498546962 -0.39630204037119537 0 0.43540302465637332 -0.40011876851588191 0 0.4421324469061978 -0.39609373904079048 0 0.43749952498546962 -0.39630204037119537 0 0.44172640791138518 -0.38860690061676212 0 0.43749952498546962 -0.39630204037119537 0 0.44172640791138518 -0.38860690061676212 0 0.43749952498546962 -0.39630204037119537 0 0.43531571924732593 -0.39640022670983333 0 0.4421324469061978 -0.39609373904079048 0 0.44172640791138518 -0.38860690061676212 0 0.43749952498546962 -0.39630204037119537 0 0.44059283523352888 -0.36770527395172692 0 0.44172640791138518 -0.38860690061676212 0 0.4539483778141703 -0.36635651703035199 0 0.45490317052139978 -0.38450802827793212 0 0.44172640791138518 -0.38860690061676212 0 0.44059283523352888 -0.36770527395172692 0 0.44172640791138518 -0.38860690061676212 0 0.43493714622475338 -0.38027591521088222 0 0.4539483778141703 -0.36635651703035199 0 0.44172640791138518 -0.38860690061676212 0 0.45490317052139978 -0.38450802827793212 0 0.4421324469061978 -0.39609373904079048 0 0.44172640791138518 -0.38860690061676212 0 0.44172640791138518 -0.38860690061676212 0 0.43493714622475338 -0.38027591521088222 0 0.43531571924732593 -0.39640022670983333 0 0.42915266281950037 -0.38852526494673389 0 0.43493714622475338 -0.38027591521088222 0 0.43531571924732593 -0.39640022670983333 0 0.43493714622475338 -0.38027591521088222 0 0.43531571924732593 -0.39640022670983333 0 0.42915266281950037 -0.38852526494673389 0 0.42664171683160179 -0.37975349801720049 0 0.4205562423033592 -0.3854151292580284 0 0.42915266281950037 -0.38852526494673389 0 0.42621579563190531 -0.39292105116127352 0 0.4205562423033592 -0.3854151292580284 0 0.44059283523352888 -0.36770527395172692 0 0.42664171683160179 -0.37975349801720049 0 0.43493714622475338 -0.38027591521088222 0 0.42915266281950037 -0.38852526494673389 0 0.42664171683160179 -0.37975349801720049 0 0.43493714622475338 -0.38027591521088222 0 0.42915266281950037 -0.38852526494673389 0 0.43531571924732593 -0.39640022670983333 0 0.43095850646313072 -0.39659613185033288 0 0.43531571924732593 -0.39640022670983333 0 0.43095850646313072 -0.39659613185033288 0 0.43540302465637332 -0.40011876851588191 0 0.43749952498546962 -0.39630204037119537 0 0.43531571924732593 -0.39640022670983333 0 0.43749952498546962 -0.39630204037119537 0 0.43540302465637332 -0.40011876851588191 0 0.43749952498546962 -0.39630204037119537 0 0.43531571924732593 -0.39640022670983333 0 0.43540302465637332 -0.40011876851588191 0 0.43531571924732593 -0.39640022670983333 0 0.43540302465637332 -0.40011876851588191 0 0.43531571924732593 -0.39640022670983333 0 0.43095850646313072 -0.39659613185033288 0 0.43540302465637332 -0.40011876851588191 0 0.42510060526656451 -0.40179202383912438 0 0.4294111664247926 -0.41102708731457638 0 0.43540302465637332 -0.40011876851588191 0 0.43562092144973841 -0.40939950317312979 0 0.43540302465637332 -0.40011876851588191 0 0.4294111664247926 -0.41102708731457638 0 0.43095850646313072 -0.39659613185033288 0 0.43540302465637332 -0.40011876851588191 0 0.42510060526656451 -0.40179202383912438 0 0.4381989913770975 -0.40469604895557482 0 0.43540302465637332 -0.40011876851588191 0 0.43562092144973841 -0.40939950317312979 0 0.43095850646313072 -0.39659613185033288 0 0.42510060526656451 -0.40179202383912438 0 0.42621579563190531 -0.39292105116127352 0 0.42621579563190531 -0.39292105116127352 0 0.42117856145330429 -0.39526553669785508 0 0.4205562423033592 -0.3854151292580284 0 0.42510060526656451 -0.40179202383912438 0 0.42621579563190531 -0.39292105116127352 0 0.42117856145330429 -0.39526553669785508 0 0.42915266281950037 -0.38852526494673389 0 0.43095850646313072 -0.39659613185033288 0 0.42621579563190531 -0.39292105116127352 0 0.42117856145330429 -0.39526553669785508 0 0.41468001987507791 -0.40269431622151047 0 0.40541992811769451 -0.38744340722014442 0 0.41468001987507791 -0.40269431622151047 0 0.40541992811769451 -0.38744340722014442 0 0.40413308404789888 -0.40649566863781478 0 0.42510060526656451 -0.40179202383912438 0 0.41468001987507791 -0.40269431622151047 0 0.41756631214644691 -0.4141316376396052 0 0.42510060526656451 -0.40179202383912438 0 0.42117856145330429 -0.39526553669785508 0 0.41468001987507791 -0.40269431622151047 0 0.41468001987507791 -0.40269431622151047 0 0.40541992811769451 -0.38744340722014442 0 0.41837633579691907 -0.36994888608525478 0 0.39615983636030899 -0.37219249821877948 0 0.40541992811769451 -0.38744340722014442 0 0.42117856145330429 -0.39526553669785508 0 0.4205562423033592 -0.3854151292580284 0 0.40541992811769451 -0.38744340722014442 0 0.41837633579691907 -0.36994888608525478 0 0.4205562423033592 -0.3854151292580284 0 0.40541992811769451 -0.38744340722014442 0 0.41837633579691907 -0.36994888608525478 0 0.42664171683160179 -0.37975349801720049 0 0.4205562423033592 -0.3854151292580284 0 0.40541992811769451 -0.38744340722014442 0 0.38402304252548453 -0.38360010141673401 0 0.3906998559493558 -0.39885969963601581 0 0.39615983636030899 -0.37219249821877948 0 0.40541992811769451 -0.38744340722014442 0 0.39615983636030899 -0.37219249821877948 0 0.40541992811769451 -0.38744340722014442 0 0.38402304252548453 -0.38360010141673401 0 0.38402304252548453 -0.38360010141673401 0 0.37705923264473179 -0.39573761934394991 0 0.36985049477027998 -0.3748494405595445 0 0.39615983636030899 -0.37219249821877948 0 0.38402304252548453 -0.38360010141673401 0 0.36985049477027998 -0.3748494405595445 0 0.37705923264473179 -0.39573761934394991 0 0.3906998559493558 -0.39885969963601581 0 0.37666673999167771 -0.4089544631116992 0 0.38402304252548453 -0.38360010141673401 0 0.37705923264473179 -0.39573761934394991 0 0.3906998559493558 -0.39885969963601581 0 0.3906998559493558 -0.39885969963601581 0 0.40413308404789888 -0.40649566863781478 0 0.40541992811769451 -0.38744340722014442 0 0.3906998559493558 -0.39885969963601581 0 0.40413308404789888 -0.40649566863781478 0 0.38993407937651192 -0.4213740785520278 0 0.41756631214644691 -0.4141316376396052 0 0.3906998559493558 -0.39885969963601581 0 0.40413308404789888 -0.40649566863781478 0 0.38993407937651192 -0.4213740785520278 0 0.40413308404789888 -0.40649566863781478 0 0.38993407937651192 -0.4213740785520278 0 0.41756631214644691 -0.4141316376396052 0 0.3906998559493558 -0.39885969963601581 0 0.38993407937651192 -0.4213740785520278 0 0.37666673999167771 -0.4089544631116992 0 0.38993407937651192 -0.4213740785520278 0 0.37666673999167771 -0.4089544631116992 0 0.36230184660657871 -0.42861651946445728 0 0.38993407937651192 -0.4213740785520278 0 0.39453420151686092 -0.43923121442453572 0 0.37838167379880999 -0.44793686623680629 0 0.38993407937651192 -0.4213740785520278 0 0.36230184660657871 -0.42861651946445728 0 0.38993407937651192 -0.4213740785520278 0 0.37838167379880999 -0.44793686623680629 0 0.36230184660657871 -0.42861651946445728 0 0.38993407937651192 -0.4213740785520278 0 0.40660570408323787 -0.43402277589330018 0 0.39453420151686092 -0.43923121442453572 0 0.38993407937651192 -0.4213740785520278 0 0.40660570408323787 -0.43402277589330018 0 0.41756631214644691 -0.4141316376396052 0 0.41772815872153879 -0.43040599045718148 0 0.41756631214644691 -0.4141316376396052 0 0.42339618299179288 -0.42197750608626722 0 0.40660570408323787 -0.43402277589330018 0 0.41772815872153879 -0.43040599045718148 0 0.41770579463999558 -0.44182395946963599 0 0.40660570408323787 -0.43402277589330018 0 0.41772815872153879 -0.43040599045718148 0 0.41756631214644691 -0.4141316376396052 0 0.41772815872153879 -0.43040599045718148 0 0.42736557309245121 -0.43443546367518449 0 0.41770579463999558 -0.44182395946963599 0 0.41772815872153879 -0.43040599045718148 0 0.42316402107818291 -0.42814282013346899 0 0.42339618299179288 -0.42197750608626722 0 0.41468001987507791 -0.40269431622151047 0 0.40413308404789888 -0.40649566863781478 0 0.41756631214644691 -0.4141316376396052 0 0.40413308404789888 -0.40649566863781478 0 0.41756631214644691 -0.4141316376396052 0 0.41756631214644691 -0.4141316376396052 0 0.42529321715283558 -0.41852391079062712 0 0.41756631214644691 -0.4141316376396052 0 0.42529321715283558 -0.41852391079062712 0 0.4294111664247926 -0.41102708731457638 0 0.41756631214644691 -0.4141316376396052 0 0.42529321715283558 -0.41852391079062712 0 0.42339618299179288 -0.42197750608626722 0 0.42529321715283558 -0.41852391079062712 0 0.42339618299179288 -0.42197750608626722 0 0.42529321715283558 -0.41852391079062712 0 0.4294111664247926 -0.41102708731457638 0 0.42510060526656451 -0.40179202383912438 0 0.41756631214644691 -0.4141316376396052 0 0.4294111664247926 -0.41102708731457638 0 0.41756631214644691 -0.4141316376396052 0 0.4294111664247926 -0.41102708731457638 0 0.43540302465637332 -0.40011876851588191 0 0.4294111664247926 -0.41102708731457638 0 0.43562092144973841 -0.40939950317312979 0 0.4294111664247926 -0.41102708731457638 0 0.43562092144973841 -0.40939950317312979 0 0.42529321715283558 -0.41852391079062712 0 0.43597774400079581 -0.42459741115936839 0 0.4294111664247926 -0.41102708731457638 0 0.43562092144973841 -0.40939950317312979 0 0.43597774400079581 -0.42459741115936839 0 0.42529321715283558 -0.41852391079062712 0 0.4294111664247926 -0.41102708731457638 0 0.43597774400079581 -0.42459741115936839 0 0.43562092144973841 -0.40939950317312979 0 0.43597774400079581 -0.42459741115936839 0 0.43597774400079581 -0.42459741115936839 0 0.42736557309245121 -0.43443546367518449 0 0.4364299635065404 -0.44385849882737538 0 0.43597774400079581 -0.42459741115936839 0 0.4364299635065404 -0.44385849882737538 0 0.43597774400079581 -0.42459741115936839 0 0.42736557309245121 -0.43443546367518449 0 0.42695927023410718 -0.42554146746224608 0 0.41772815872153879 -0.43040599045718148 0 0.42736557309245121 -0.43443546367518449 0 0.42316402107818291 -0.42814282013346899 0 0.42736557309245121 -0.43443546367518449 0 0.42316402107818291 -0.42814282013346899 0 0.42695927023410718 -0.42554146746224608 0 0.42529321715283558 -0.41852391079062712 0 0.43597774400079581 -0.42459741115936839 0 0.42695927023410718 -0.42554146746224608 0 0.42316402107818291 -0.42814282013346899 0 0.42339618299179288 -0.42197750608626722 0 0.42695927023410718 -0.42554146746224608 0 0.42529321715283558 -0.41852391079062712 0 0.42339618299179288 -0.42197750608626722 0 0.42695927023410718 -0.42554146746224608 0 0.42682126166028123 -0.44481295769777301 0 0.42998075659099022 -0.45317549721594252 0 0.42104530467661588 -0.45385555851834558 0 0.42736557309245121 -0.43443546367518449 0 0.42682126166028123 -0.44481295769777301 0 0.41770579463999558 -0.44182395946963599 0 0.42736557309245121 -0.43443546367518449 0 0.42682126166028123 -0.44481295769777301 0 0.4364299635065404 -0.44385849882737538 0 0.42682126166028123 -0.44481295769777301 0 0.4364299635065404 -0.44385849882737538 0 0.42998075659099022 -0.45317549721594252 0 0.42998075659099022 -0.45317549721594252 0 0.43688218301228188 -0.46311958649538237 0 0.42725908715206651 -0.46120869543724219 0 0.4364299635065404 -0.44385849882737538 0 0.42998075659099022 -0.45317549721594252 0 0.43688218301228188 -0.46311958649538237 0 0.4364299635065404 -0.44385849882737538 0 0.43688218301228188 -0.46311958649538237 0 0.43688218301228188 -0.46311958649538237 0 0.42725908715206651 -0.46120869543724219 0 0.42981348688867249 -0.47062329367911782 0 0.4401218527272196 -0.47072168130972342 0 0.43688218301228188 -0.46311958649538237 0 0.42981348688867249 -0.47062329367911782 0 0.42725908715206651 -0.46120869543724219 0 0.41722065449225432 -0.46414097385261538 0 0.42981348688867249 -0.47062329367911782 0 0.42998075659099022 -0.45317549721594252 0 0.42725908715206651 -0.46120869543724219 0 0.42104530467661588 -0.45385555851834558 0 0.42725908715206651 -0.46120869543724219 0 0.42104530467661588 -0.45385555851834558 0 0.41722065449225432 -0.46414097385261538 0 0.41722065449225432 -0.46414097385261538 0 0.40321534880888382 -0.45359113701600828 0 0.40098299575606861 -0.47440559902921281 0 0.42104530467661588 -0.45385555851834558 0 0.41722065449225432 -0.46414097385261538 0 0.40321534880888382 -0.45359113701600828 0 0.40660570408323787 -0.43402277589330018 0 0.41770579463999558 -0.44182395946963599 0 0.40321534880888382 -0.45359113701600828 0 0.42104530467661588 -0.45385555851834558 0 0.41770579463999558 -0.44182395946963599 0 0.40321534880888382 -0.45359113701600828 0 0.42682126166028123 -0.44481295769777301 0 0.42104530467661588 -0.45385555851834558 0 0.41770579463999558 -0.44182395946963599 0 0.39453420151686092 -0.43923121442453572 0 0.37838167379880999 -0.44793686623680629 0 0.40321534880888382 -0.45359113701600828 0 0.37838167379880999 -0.44793686623680629 0 0.40098299575606861 -0.47440559902921281 0 0.36887520537589991 -0.46790234268505088 0 0.40660570408323787 -0.43402277589330018 0 0.39453420151686092 -0.43923121442453572 0 0.40321534880888382 -0.45359113701600828 0 0.37838167379880999 -0.44793686623680629 0 0.40321534880888382 -0.45359113701600828 0 0.40098299575606861 -0.47440559902921281 0 0.40098299575606861 -0.47440559902921281 0 0.39863169579042951 -0.5 0 0.36887520537589991 -0.46790234268505088 0 0.40098299575606861 -0.47440559902921281 0 0.39863169579042951 -0.5 0 0.41339596836142622 -0.4936170886282733 0 0.44274141978366172 -0.5 0 0.39863169579042951 -0.5 0 0.41339596836142622 -0.4936170886282733 0 0.41339596836142622 -0.4936170886282733 0 0.41895498317355861 -0.48432870136456979 0 0.43039240139637119 -0.49331593683535929 0 0.40098299575606861 -0.47440559902921281 0 0.42032989410952509 -0.47466477291158499 0 0.41895498317355861 -0.48432870136456979 0 0.41722065449225432 -0.46414097385261538 0 0.40098299575606861 -0.47440559902921281 0 0.42032989410952509 -0.47466477291158499 0 0.40098299575606861 -0.47440559902921281 0 0.41339596836142622 -0.4936170886282733 0 0.41895498317355861 -0.48432870136456979 0 0.42032989410952509 -0.47466477291158499 0 0.41895498317355861 -0.48432870136456979 0 0.42879969240132521 -0.48028341717432199 0 0.41722065449225432 -0.46414097385261538 0 0.42032989410952509 -0.47466477291158499 0 0.42981348688867249 -0.47062329367911782 0 0.42032989410952509 -0.47466477291158499 0 0.42879969240132521 -0.48028341717432199 0 0.42981348688867249 -0.47062329367911782 0 0.4401218527272196 -0.47072168130972342 0 0.43425742586700422 -0.47583206956819551 0 0.42981348688867249 -0.47062329367911782 0 0.42879969240132521 -0.48028341717432199 0 0.43425742586700422 -0.47583206956819551 0 0.42981348688867249 -0.47062329367911782 0 0.43829467145079942 -0.48169988610961878 0 0.42879969240132521 -0.48028341717432199 0 0.43425742586700422 -0.47583206956819551 0 0.43829467145079942 -0.48169988610961878 0 0.42879969240132521 -0.48028341717432199 0 0.43039240139637119 -0.49331593683535929 0 0.44274141978366172 -0.5 0 0.41339596836142622 -0.4936170886282733 0 0.43039240139637119 -0.49331593683535929 0 0.41339596836142622 -0.4936170886282733 0 0.43039240139637119 -0.49331593683535929 0 0.41895498317355861 -0.48432870136456979 0 0.42879969240132521 -0.48028341717432199 0 0.43039240139637119 -0.49331593683535929 0 0.32407136564892031 -0.47579202904339502 0 0.33847385658988899 -0.50000000000000111 0 0.31111580014942458 -0.5 0 0.32407136564892031 -0.47579202904339502 0 0.35437714017065042 -0.48111436145989439 0 0.34183357744811282 -0.46187743557102612 0 0.32407136564892031 -0.47579202904339502 0 0.33847385658988899 -0.50000000000000111 0 0.35437714017065042 -0.48111436145989439 0 0.32407136564892031 -0.47579202904339502 0 0.33847385658988899 -0.50000000000000111 0 0.39863169579042951 -0.5 0 0.33847385658988899 -0.50000000000000111 0 0.35437714017065042 -0.48111436145989439 0 0.39863169579042951 -0.5 0 0.35437714017065042 -0.48111436145989439 0 0.36887520537589991 -0.46790234268505088 0 0.35437714017065042 -0.48111436145989439 0 0.36887520537589991 -0.46790234268505088 0 0.34183357744811282 -0.46187743557102612 0 0.36887520537589991 -0.46790234268505088 0 0.35200259937237532 -0.44487408977777221 0 0.34183357744811282 -0.46187743557102612 0 0.37838167379880999 -0.44793686623680629 0 0.36887520537589991 -0.46790234268505088 0 0.35200259937237532 -0.44487408977777221 0 0.37838167379880999 -0.44793686623680629 0 0.35200259937237532 -0.44487408977777221 0 0.36230184660657871 -0.42861651946445728 0 0.35200259937237532 -0.44487408977777221 0 0.33547524943580032 -0.44825354095083308 0 0.33466961383664551 -0.43585896037688687 0 0.33547524943580032 -0.44825354095083308 0 0.32754239413318542 -0.455456922748048 0 0.32706681325527931 -0.43951840818993593 0 0.35200259937237532 -0.44487408977777221 0 0.33547524943580032 -0.44825354095083308 0 0.34183357744811282 -0.46187743557102612 0 0.33547524943580032 -0.44825354095083308 0 0.32706681325527931 -0.43951840818993593 0 0.33466961383664551 -0.43585896037688687 0 0.32407136564892031 -0.47579202904339502 0 0.34183357744811282 -0.46187743557102612 0 0.32754239413318542 -0.455456922748048 0 0.33547524943580032 -0.44825354095083308 0 0.34183357744811282 -0.46187743557102612 0 0.32754239413318542 -0.455456922748048 0 0.32407136564892031 -0.47579202904339502 0 0.30966887470795179 -0.45158405808678848 0 0.30759950297385968 -0.46941061761615888 0 0.32407136564892031 -0.47579202904339502 0 0.32754239413318542 -0.455456922748048 0 0.30966887470795179 -0.45158405808678848 0 0.32407136564892031 -0.47579202904339502 0 0.30966887470795179 -0.45158405808678848 0 0.32754239413318542 -0.455456922748048 0 0.32706681325527931 -0.43951840818993593 0 0.30966887470795179 -0.45158405808678848 0 0.33466961383664551 -0.43585896037688687 0 0.30703738106671219 -0.4431014012893163 0 0.32706681325527931 -0.43951840818993593 0 0.30703738106671219 -0.4431014012893163 0 0.30966887470795179 -0.45158405808678848 0 0.32706681325527931 -0.43951840818993593 0 0.30966887470795179 -0.45158405808678848 0 0.32706681325527931 -0.43951840818993593 0 0.33466961383664551 -0.43585896037688687 0 0.30703738106671219 -0.4431014012893163 0 0.33096035405931229 -0.40627416011187822 0 0.33466961383664551 -0.43585896037688687 0 0.36230184660657871 -0.42861651946445728 0 0.31907032631579141 -0.42476157611111998 0 0.33466961383664551 -0.43585896037688687 0 0.30703738106671219 -0.4431014012893163 0 0.31907032631579141 -0.42476157611111998 0 0.33096035405931229 -0.40627416011187822 0 0.30361395630049559 -0.41381178266639862 0 0.31907032631579141 -0.42476157611111998 0 0.33096035405931229 -0.40627416011187822 0 0.33466961383664551 -0.43585896037688687 0 0.33096035405931229 -0.40627416011187822 0 0.36230184660657871 -0.42861651946445728 0 0.36064546174945211 -0.39869650690782849 0 0.35200259937237532 -0.44487408977777221 0 0.33466961383664551 -0.43585896037688687 0 0.36230184660657871 -0.42861651946445728 0 0.33466961383664551 -0.43585896037688687 0 0.36230184660657871 -0.42861651946445728 0 0.37666673999167771 -0.4089544631116992 0 0.36230184660657871 -0.42861651946445728 0 0.36064546174945211 -0.39869650690782849 0 0.33096035405931229 -0.40627416011187822 0 0.36064546174945211 -0.39869650690782849 0 0.34354115318025041 -0.37750638290030392 0 0.37705923264473179 -0.39573761934394991 0 0.37666673999167771 -0.4089544631116992 0 0.36064546174945211 -0.39869650690782849 0 0.37705923264473179 -0.39573761934394991 0 0.36064546174945211 -0.39869650690782849 0 0.36985049477027998 -0.3748494405595445 0 0.34354115318025041 -0.37750638290030392 0 0.36985049477027998 -0.3748494405595445 0 0.36064546174945211 -0.39869650690782849 0 0.34354115318025041 -0.37750638290030392 0 0.36985049477027998 -0.3748494405595445 0 0.34354115318025041 -0.37750638290030392 0 0.31723181159022079 -0.38016332524106328 0 0.33096035405931229 -0.40627416011187822 0 0.34354115318025041 -0.37750638290030392 0 0.31723181159022079 -0.38016332524106328 0 0.33096035405931229 -0.40627416011187822 0 0.3053424525512089 -0.39402105558875711 0 0.30361395630049559 -0.41381178266639862 0 0.33096035405931229 -0.40627416011187822 0 0.31723181159022079 -0.38016332524106328 0 0.3053424525512089 -0.39402105558875711 0 0.31723181159022079 -0.38016332524106328 0 0.3053424525512089 -0.39402105558875711 0 0.29092247000019122 -0.38282026758182269 0 0.31723181159022079 -0.38016332524106328 0 0.29092247000019122 -0.38282026758182269 0 0.30263294732009088 -0.36495566191863499 0 0.31723181159022079 -0.38016332524106328 0 0.29092247000019122 -0.38282026758182269 0 0.3053424525512089 -0.39402105558875711 0 0.27484712187508148 -0.39700395553678219 0 0.30361395630049559 -0.41381178266639862 0 0.3053424525512089 -0.39402105558875711 0 0.29092247000019122 -0.38282026758182269 0 0.27484712187508148 -0.39700395553678219 0 0.29092247000019122 -0.38282026758182269 0 0.2748272402872784 -0.37621355976154819 0 0.27484712187508148 -0.39700395553678219 0 0.2748272402872784 -0.37621355976154819 0 0.25892824039067541 -0.37789115904769022 0 0.27484712187508148 -0.39700395553678219 0 0.25892824039067541 -0.37789115904769022 0 0.25181689559195608 -0.39626294670627621 0 0.24529600241283839 -0.37729745215746402 0 0.25892824039067541 -0.37789115904769022 0 0.25181689559195608 -0.39626294670627621 0 0.27484712187508148 -0.39700395553678219 0 0.25181689559195608 -0.39626294670627621 0 0.27484712187508148 -0.39700395553678219 0 0.25848148688910438 -0.4152286128376324 0 0.27484712187508148 -0.39700395553678219 0 0.25848148688910438 -0.4152286128376324 0 0.27484712187508148 -0.39700395553678219 0 0.25848148688910438 -0.4152286128376324 0 0.2814737514984208 -0.42557298845672481 0 0.25848148688910438 -0.4152286128376324 0 0.25378931798867782 -0.43414072584882979 0 0.26545741456235222 -0.43394833620847328 0 0.25848148688910438 -0.4152286128376324 0 0.24211585190312779 -0.433453270138483 0 0.25848148688910438 -0.4152286128376324 0 0.25378931798867782 -0.43414072584882979 0 0.24211585190312779 -0.433453270138483 0 0.25848148688910438 -0.4152286128376324 0 0.26545741456235222 -0.43394833620847328 0 0.2814737514984208 -0.42557298845672481 0 0.26545741456235222 -0.43394833620847328 0 0.2814737514984208 -0.42557298845672481 0 0.27940514829677898 -0.45034384220174578 0 0.27484712187508148 -0.39700395553678219 0 0.2814737514984208 -0.42557298845672481 0 0.30361395630049559 -0.41381178266639862 0 0.31907032631579141 -0.42476157611111998 0 0.30361395630049559 -0.41381178266639862 0 0.30703738106671219 -0.4431014012893163 0 0.2814737514984208 -0.42557298845672481 0 0.30361395630049559 -0.41381178266639862 0 0.30703738106671219 -0.4431014012893163 0 0.30703738106671219 -0.4431014012893163 0 0.30728642001302731 -0.44757958453450108 0 0.27940514829677898 -0.45034384220174578 0 0.30703738106671219 -0.4431014012893163 0 0.30728642001302731 -0.44757958453450108 0 0.30966887470795179 -0.45158405808678848 0 0.30728642001302731 -0.44757958453450108 0 0.30966887470795179 -0.45158405808678848 0 0.30966887470795179 -0.45158405808678848 0 0.29270163811000488 -0.46335101173770082 0 0.30759950297385968 -0.46941061761615888 0 0.30966887470795179 -0.45158405808678848 0 0.29270163811000488 -0.46335101173770082 0 0.30728642001302731 -0.44757958453450108 0 0.30966887470795179 -0.45158405808678848 0 0.29270163811000488 -0.46335101173770082 0 0.30728642001302731 -0.44757958453450108 0 0.29270163811000488 -0.46335101173770082 0 0.27940514829677898 -0.45034384220174578 0 0.29270163811000488 -0.46335101173770082 0 0.27940514829677898 -0.45034384220174578 0 0.27573440151205908 -0.47511796538861428 0 0.2814737514984208 -0.42557298845672481 0 0.30703738106671219 -0.4431014012893163 0 0.27940514829677898 -0.45034384220174578 0 0.30703738106671219 -0.4431014012893163 0 0.27940514829677898 -0.45034384220174578 0 0.26545741456235222 -0.43394833620847328 0 0.27940514829677898 -0.45034384220174578 0 0.25854163157454191 -0.44443879316755858 0 0.25378931798867782 -0.43414072584882979 0 0.26545741456235222 -0.43394833620847328 0 0.25854163157454191 -0.44443879316755858 0 0.27940514829677898 -0.45034384220174578 0 0.25854163157454191 -0.44443879316755858 0 0.25177291552684589 -0.45758628311417532 0 0.25854163157454191 -0.44443879316755858 0 0.25177291552684589 -0.45758628311417532 0 0.2443502050142623 -0.44363461689200151 0 0.25378931798867782 -0.43414072584882979 0 0.25854163157454191 -0.44443879316755858 0 0.2443502050142623 -0.44363461689200151 0 0.27940514829677898 -0.45034384220174578 0 0.25177291552684589 -0.45758628311417532 0 0.27940514829677898 -0.45034384220174578 0 0.25177291552684589 -0.45758628311417532 0 0.26298446878860487 -0.47012060062199051 0 0.27940514829677898 -0.45034384220174578 0 0.27573440151205908 -0.47511796538861428 0 0.26298446878860487 -0.47012060062199051 0 0.27573440151205908 -0.47511796538861428 0 0.26298446878860487 -0.47012060062199051 0 0.25876716491411322 -0.48688491903952791 0 0.27573440151205908 -0.47511796538861428 0 0.25876716491411322 -0.48688491903952791 0 0.27573440151205908 -0.47511796538861428 0 0.27830862992527627 -0.48747853888809362 0 0.28429042208483019 -0.48510424726340529 0 0.26298446878860487 -0.47012060062199051 0 0.25876716491411322 -0.48688491903952791 0 0.24924271369322731 -0.48066999336588873 0 0.25177291552684589 -0.45758628311417532 0 0.26298446878860487 -0.47012060062199051 0 0.24924271369322731 -0.48066999336588873 0 0.25416033394725468 -0.49040340925580062 0 0.25873104496861482 -0.49734498971857699 0 0.24616507423187961 -0.49161373775336809 0 0.25416033394725468 -0.49040340925580062 0 0.25917254841788662 -0.49211641658287109 0 0.25873104496861482 -0.49734498971857699 0 0.25416033394725468 -0.49040340925580062 0 0.25876716491411322 -0.48688491903952791 0 0.24924271369322731 -0.48066999336588873 0 0.25416033394725468 -0.49040340925580062 0 0.25917254841788662 -0.49211641658287109 0 0.25876716491411322 -0.48688491903952791 0 0.25917254841788662 -0.49211641658287109 0 0.25876716491411322 -0.48688491903952791 0 0.26441969755150951 -0.49213453565171328 0 0.26441969755150951 -0.49213453565171328 0 0.25873104496861482 -0.49734498971857699 0 0.27213389810651761 -0.4921611737607815 0 0.25917254841788662 -0.49211641658287109 0 0.26441969755150951 -0.49213453565171328 0 0.25873104496861482 -0.49734498971857699 0 0.27573440151205908 -0.47511796538861428 0 0.25876716491411322 -0.48688491903952791 0 0.26441969755150951 -0.49213453565171328 0 0.25639968726849588 -0.5 0 0.25873104496861482 -0.49734498971857699 0 0.28459320521530568 -0.49932176636819697 0 0.25873104496861482 -0.49734498971857699 0 0.27562901943225893 -0.49662909804268701 0 0.28459320521530568 -0.49932176636819697 0 0.25873104496861482 -0.49734498971857699 0 0.27213389810651761 -0.4921611737607815 0 0.27621286143413082 -0.49459569544039228 0 0.25873104496861482 -0.49734498971857699 0 0.27562901943225893 -0.49662909804268701 0 0.27621286143413082 -0.49459569544039228 0 0.27573440151205908 -0.47511796538861428 0 0.26441969755150951 -0.49213453565171328 0 0.27213389810651761 -0.4921611737607815 0 0.27573440151205908 -0.47511796538861428 0 0.27213389810651761 -0.4921611737607815 0 0.27830862992527627 -0.48747853888809362 0 0.25873104496861482 -0.49734498971857699 0 0.28459320521530568 -0.49932176636819697 0 0.27213389810651761 -0.4921611737607815 0 0.27820629235497868 -0.49213029117179802 0 0.27830862992527627 -0.48747853888809362 0 0.27820629235497868 -0.49213029117179802 0 0.27830862992527627 -0.48747853888809362 0 0.28209318256424959 -0.49189646769247802 0 0.27562901943225893 -0.49662909804268701 0 0.28459320521530568 -0.49932176636819697 0 0.28297896611098461 -0.49525394064358191 0 0.27213389810651761 -0.4921611737607815 0 0.27820629235497868 -0.49213029117179802 0 0.27621286143413082 -0.49459569544039228 0 0.27621286143413082 -0.49459569544039228 0 0.28297896611098461 -0.49525394064358191 0 0.28209318256424959 -0.49189646769247802 0 0.27820629235497868 -0.49213029117179802 0 0.27621286143413082 -0.49459569544039228 0 0.28209318256424959 -0.49189646769247802 0 0.27562901943225893 -0.49662909804268701 0 0.27621286143413082 -0.49459569544039228 0 0.28297896611098461 -0.49525394064358191 0 0.28297896611098461 -0.49525394064358191 0 0.28952360247345171 -0.49235884190529428 0 0.28209318256424959 -0.49189646769247802 0 0.28459320521530568 -0.49932176636819697 0 0.28297896611098461 -0.49525394064358191 0 0.28952360247345171 -0.49235884190529428 0 0.28459320521530568 -0.49932176636819697 0 0.28952360247345171 -0.49235884190529428 0 0.29804939603467412 -0.49203950141200598 0 0.28952360247345171 -0.49235884190529428 0 0.29269975916590679 -0.47898818685969979 0 0.29804939603467412 -0.49203950141200598 0 0.28952360247345171 -0.49235884190529428 0 0.28429042208483019 -0.48510424726340529 0 0.29269975916590679 -0.47898818685969979 0 0.28952360247345171 -0.49235884190529428 0 0.28209318256424959 -0.49189646769247802 0 0.28429042208483019 -0.48510424726340529 0 0.27830862992527627 -0.48747853888809362 0 0.28209318256424959 -0.49189646769247802 0 0.28429042208483019 -0.48510424726340529 0 0.29270163811000488 -0.46335101173770082 0 0.27573440151205908 -0.47511796538861428 0 0.29269975916590679 -0.47898818685969979 0 0.27573440151205908 -0.47511796538861428 0 0.28429042208483019 -0.48510424726340529 0 0.29269975916590679 -0.47898818685969979 0 0.29270163811000488 -0.46335101173770082 0 0.27573440151205908 -0.47511796538861428 0 0.29269975916590679 -0.47898818685969979 0 0.30759950297385968 -0.46941061761615888 0 0.29804939603467412 -0.49203950141200598 0 0.32407136564892031 -0.47579202904339502 0 0.30759950297385968 -0.46941061761615888 0 0.29804939603467412 -0.49203950141200598 0 0.29270163811000488 -0.46335101173770082 0 0.29269975916590679 -0.47898818685969979 0 0.30759950297385968 -0.46941061761615888 0 0.32407136564892031 -0.47579202904339502 0 0.31111580014942458 -0.5 0 0.29804939603467412 -0.49203950141200598 0 0.28459320521530568 -0.49932176636819697 0 0.31111580014942458 -0.5 0 0.29804939603467412 -0.49203950141200598 0 0.32172582007401918 -0.30403220171797962 0 0.34584139203113479 -0.28932053154061899 0 0.32172582007401918 -0.30403220171797962 0 0.32668562923774702 -0.28498635303840231 0 0.34584139203113479 -0.28932053154061899 0 0.33946155442261172 -0.30469566319859148 0 0.32172582007401918 -0.30403220171797962 0 0.33445614280479402 -0.31967040379426692 0 0.33946155442261172 -0.30469566319859148 0 0.32172582007401918 -0.30403220171797962 0 0.34584139203113479 -0.28932053154061899 0 0.33946155442261172 -0.30469566319859148 0 0.35582286278049791 -0.3057595157415004 0 0.33445614280479402 -0.31967040379426692 0 0.32172582007401918 -0.30403220171797962 0 0.31095288569960361 -0.31842782190928143 0 0.30934566349302828 -0.31158469853155252 0 0.32172582007401918 -0.30403220171797962 0 0.30934566349302828 -0.31158469853155252 0 0.32172582007401918 -0.30403220171797962 0 0.30778417749941372 -0.29633663585155939 0 0.30934566349302828 -0.31158469853155252 0 0.32172582007401918 -0.30403220171797962 0 0.32668562923774702 -0.28498635303840231 0 0.30778417749941372 -0.29633663585155939 0 0.32668562923774702 -0.28498635303840231 0 0.30778417749941372 -0.29633663585155939 0 0.30468003870321603 -0.27853001682285272 0 0.32172582007401918 -0.30403220171797962 0 0.32668562923774702 -0.28498635303840231 0 0.32668562923774702 -0.28498635303840231 0 0.31161901707101819 -0.26378112186713149 0 0.30468003870321603 -0.27853001682285272 0 0.32668562923774702 -0.28498635303840231 0 0.33164543840147542 -0.2659405043588251 0 0.31161901707101819 -0.26378112186713149 0 0.31770049789694632 -0.24297388326735619 0 0.33164543840147542 -0.2659405043588251 0 0.31161901707101819 -0.26378112186713149 0 0.31770049789694632 -0.24297388326735619 0 0.33164543840147542 -0.2659405043588251 0 0.31770049789694632 -0.24297388326735619 0 0.33678665488879789 -0.24619804491852171 0 0.33164543840147542 -0.2659405043588251 0 0.33678665488879789 -0.24619804491852171 0 0.33164543840147542 -0.2659405043588251 0 0.35017098894968929 -0.26662421284099502 0 0.33678665488879789 -0.24619804491852171 0 0.33164543840147542 -0.2659405043588251 0 0.32668562923774702 -0.28498635303840231 0 0.33164543840147542 -0.2659405043588251 0 0.34584139203113479 -0.28932053154061899 0 0.32668562923774702 -0.28498635303840231 0 0.33164543840147542 -0.2659405043588251 0 0.33164543840147542 -0.2659405043588251 0 0.35017098894968929 -0.26662421284099502 0 0.34584139203113479 -0.28932053154061899 0 0.33164543840147542 -0.2659405043588251 0 0.34584139203113479 -0.28932053154061899 0 0.35017098894968929 -0.26662421284099502 0 0.36515654652626561 -0.27753734916938771 0 0.34584139203113479 -0.28932053154061899 0 0.33678665488879789 -0.24619804491852171 0 0.35017098894968929 -0.26662421284099502 0 0.35509859724434889 -0.25311219672443891 0 0.35017098894968929 -0.26662421284099502 0 0.35509859724434889 -0.25311219672443891 0 0.36519034562287012 -0.26061679135537641 0 0.36641252464219198 -0.24790325052978501 0 0.35509859724434889 -0.25311219672443891 0 0.36519034562287012 -0.26061679135537641 0 0.37890765935061482 -0.25506603946694723 0 0.36519034562287012 -0.26061679135537641 0 0.37343156313028703 -0.26474358669746761 0 0.36641252464219198 -0.24790325052978501 0 0.37890765935061482 -0.25506603946694723 0 0.36519034562287012 -0.26061679135537641 0 0.38447170102139783 -0.26575416679815889 0 0.37343156313028703 -0.26474358669746761 0 0.36515654652626561 -0.27753734916938771 0 0.38447170102139783 -0.26575416679815889 0 0.36515654652626561 -0.27753734916938771 0 0.35017098894968929 -0.26662421284099502 0 0.36519034562287012 -0.26061679135537641 0 0.36515654652626561 -0.27753734916938771 0 0.36519034562287012 -0.26061679135537641 0 0.37343156313028703 -0.26474358669746761 0 0.36515654652626561 -0.27753734916938771 0 0.36515654652626561 -0.27753734916938771 0 0.36978399716146509 -0.29667006365506121 0 0.35915119962484088 -0.29232186502664198 0 0.37823453876855823 -0.28111325285997879 0 0.36515654652626561 -0.27753734916938771 0 0.36978399716146509 -0.29667006365506121 0 0.36515654652626561 -0.27753734916938771 0 0.34584139203113479 -0.28932053154061899 0 0.35915119962484088 -0.29232186502664198 0 0.36515654652626561 -0.27753734916938771 0 0.34584139203113479 -0.28932053154061899 0 0.34584139203113479 -0.28932053154061899 0 0.35915119962484088 -0.29232186502664198 0 0.35582286278049791 -0.3057595157415004 0 0.33946155442261172 -0.30469566319859148 0 0.34584139203113479 -0.28932053154061899 0 0.35582286278049791 -0.3057595157415004 0 0.34584139203113479 -0.28932053154061899 0 0.35582286278049791 -0.3057595157415004 0 0.38181371108562012 -0.31248974328260731 0 0.36978399716146509 -0.29667006365506121 0 0.36917227291700472 -0.31070579147827371 0 0.36978399716146509 -0.29667006365506121 0 0.35582286278049791 -0.3057595157415004 0 0.36978399716146509 -0.29667006365506121 0 0.35915119962484088 -0.29232186502664198 0 0.35582286278049791 -0.3057595157415004 0 0.36978399716146509 -0.29667006365506121 0 0.35582286278049791 -0.3057595157415004 0 0.36917227291700472 -0.31070579147827371 0 0.38181371108562012 -0.31248974328260731 0 0.36917227291700472 -0.31070579147827371 0 0.36926852064043569 -0.32790384323392618 0 0.35582286278049791 -0.3057595157415004 0 0.36917227291700472 -0.31070579147827371 0 0.36926852064043569 -0.32790384323392618 0 0.35582286278049791 -0.3057595157415004 0 0.36926852064043569 -0.32790384323392618 0 0.38271417850037343 -0.35004817072635219 0 0.36926852064043569 -0.32790384323392618 0 0.36038090069064771 -0.3512297428824252 0 0.36926852064043569 -0.32790384323392618 0 0.34781514843443928 -0.33272911368442321 0 0.36038090069064771 -0.3512297428824252 0 0.35582286278049791 -0.3057595157415004 0 0.34781514843443928 -0.33272911368442321 0 0.33445614280479402 -0.31967040379426692 0 0.35582286278049791 -0.3057595157415004 0 0.36926852064043569 -0.32790384323392618 0 0.34781514843443928 -0.33272911368442321 0 0.35582286278049791 -0.3057595157415004 0 0.33445614280479402 -0.31967040379426692 0 0.38271417850037343 -0.35004817072635219 0 0.36985049477027998 -0.3748494405595445 0 0.36038090069064771 -0.3512297428824252 0 0.34781514843443928 -0.33272911368442321 0 0.36038090069064771 -0.3512297428824252 0 0.33815759879020713 -0.34872050731591547 0 0.34354115318025041 -0.37750638290030392 0 0.36038090069064771 -0.3512297428824252 0 0.33815759879020713 -0.34872050731591547 0 0.34354115318025041 -0.37750638290030392 0 0.36985049477027998 -0.3748494405595445 0 0.36038090069064771 -0.3512297428824252 0 0.34354115318025041 -0.37750638290030392 0 0.31723181159022079 -0.38016332524106328 0 0.32938430257933338 -0.36618314392847162 0 0.34354115318025041 -0.37750638290030392 0 0.32938430257933338 -0.36618314392847162 0 0.33815759879020713 -0.34872050731591547 0 0.32938430257933338 -0.36618314392847162 0 0.33815759879020713 -0.34872050731591547 0 0.31860664675665551 -0.3583423602566041 0 0.33815759879020713 -0.34872050731591547 0 0.32133194207316851 -0.34461560498733079 0 0.31860664675665551 -0.3583423602566041 0 0.32133194207316851 -0.34461560498733079 0 0.31860664675665551 -0.3583423602566041 0 0.30947673236648032 -0.34979741978188378 0 0.31723181159022079 -0.38016332524106328 0 0.32938430257933338 -0.36618314392847162 0 0.31860664675665551 -0.3583423602566041 0 0.31723181159022079 -0.38016332524106328 0 0.31860664675665551 -0.3583423602566041 0 0.30263294732009088 -0.36495566191863499 0 0.34781514843443928 -0.33272911368442321 0 0.33815759879020713 -0.34872050731591547 0 0.3307527846415077 -0.33582689339213229 0 0.34781514843443928 -0.33272911368442321 0 0.33445614280479402 -0.31967040379426692 0 0.3307527846415077 -0.33582689339213229 0 0.33815759879020713 -0.34872050731591547 0 0.32133194207316851 -0.34461560498733079 0 0.3307527846415077 -0.33582689339213229 0 0.32133194207316851 -0.34461560498733079 0 0.3307527846415077 -0.33582689339213229 0 0.31308942282909358 -0.33358129184703861 0 0.33445614280479402 -0.31967040379426692 0 0.3307527846415077 -0.33582689339213229 0 0.31308942282909358 -0.33358129184703861 0 0.32133194207316851 -0.34461560498733079 0 0.31308942282909358 -0.33358129184703861 0 0.30947673236648032 -0.34979741978188378 0 0.32172582007401918 -0.30403220171797962 0 0.31561292138143759 -0.32750595638257018 0 0.31095288569960361 -0.31842782190928143 0 0.32172582007401918 -0.30403220171797962 0 0.31561292138143759 -0.32750595638257018 0 0.33445614280479402 -0.31967040379426692 0 0.31308942282909358 -0.33358129184703861 0 0.31561292138143759 -0.32750595638257018 0 0.32172582007401918 -0.30403220171797962 0 0.33445614280479402 -0.31967040379426692 0 0.31561292138143759 -0.32750595638257018 0 0.33445614280479402 -0.31967040379426692 0 0.31308942282909358 -0.33358129184703861 0 0.31095288569960361 -0.31842782190928143 0 0.30217266003105803 -0.31920144570647729 0 0.30934566349302828 -0.31158469853155252 0 0.30217266003105803 -0.31920144570647729 0 0.29406211393783199 -0.32120033302090778 0 0.2965711977191009 -0.31122957837520238 0 0.30217266003105803 -0.31920144570647729 0 0.2965711977191009 -0.31122957837520238 0 0.30934566349302828 -0.31158469853155252 0 0.29863073672493168 -0.32423828553649953 0 0.30347336261185148 -0.32852795686542058 0 0.29013406147843679 -0.32950865826561399 0 0.30217266003105803 -0.31920144570647729 0 0.29863073672493168 -0.32423828553649953 0 0.30347336261185148 -0.32852795686542058 0 0.30217266003105803 -0.31920144570647729 0 0.29863073672493168 -0.32423828553649953 0 0.29406211393783199 -0.32120033302090778 0 0.31561292138143759 -0.32750595638257018 0 0.31095288569960361 -0.31842782190928143 0 0.30347336261185148 -0.32852795686542058 0 0.31095288569960361 -0.31842782190928143 0 0.30217266003105803 -0.31920144570647729 0 0.30347336261185148 -0.32852795686542058 0 0.31308942282909358 -0.33358129184703861 0 0.31561292138143759 -0.32750595638257018 0 0.30347336261185148 -0.32852795686542058 0 0.31308942282909358 -0.33358129184703861 0 0.30347336261185148 -0.32852795686542058 0 0.29172270285339302 -0.34749217989981018 0 0.31308942282909358 -0.33358129184703861 0 0.30947673236648032 -0.34979741978188378 0 0.29172270285339302 -0.34749217989981018 0 0.31308942282909358 -0.33358129184703861 0 0.29172270285339302 -0.34749217989981018 0 0.29013406147843679 -0.32950865826561399 0 0.29172270285339302 -0.34749217989981018 0 0.2778218247720679 -0.33498891678776938 0 0.30347336261185148 -0.32852795686542058 0 0.29013406147843679 -0.32950865826561399 0 0.29172270285339302 -0.34749217989981018 0 0.29013406147843679 -0.32950865826561399 0 0.27962531134732738 -0.3241124863840229 0 0.2778218247720679 -0.33498891678776938 0 0.29013406147843679 -0.32950865826561399 0 0.28645796887096481 -0.31845972412109552 0 0.27962531134732738 -0.3241124863840229 0 0.28645796887096481 -0.31845972412109552 0 0.27836810008387841 -0.31311248853211332 0 0.27962531134732738 -0.3241124863840229 0 0.28645796887096481 -0.31845972412109552 0 0.29406211393783199 -0.32120033302090778 0 0.2965711977191009 -0.31122957837520238 0 0.29863073672493168 -0.32423828553649953 0 0.29013406147843679 -0.32950865826561399 0 0.29406211393783199 -0.32120033302090778 0 0.29013406147843679 -0.32950865826561399 0 0.28645796887096481 -0.31845972412109552 0 0.29406211393783199 -0.32120033302090778 0 0.30263294732009088 -0.36495566191863499 0 0.30947673236648032 -0.34979741978188378 0 0.29172270285339302 -0.34749217989981018 0 0.31860664675665551 -0.3583423602566041 0 0.30263294732009088 -0.36495566191863499 0 0.30947673236648032 -0.34979741978188378 0 0.29172270285339302 -0.34749217989981018 0 0.28759654592602019 -0.36451929735822503 0 0.27035598287769252 -0.36140306795258198 0 0.30263294732009088 -0.36495566191863499 0 0.29172270285339302 -0.34749217989981018 0 0.28759654592602019 -0.36451929735822503 0 0.29092247000019122 -0.38282026758182269 0 0.2748272402872784 -0.37621355976154819 0 0.28759654592602019 -0.36451929735822503 0 0.29092247000019122 -0.38282026758182269 0 0.30263294732009088 -0.36495566191863499 0 0.28759654592602019 -0.36451929735822503 0 0.2748272402872784 -0.37621355976154819 0 0.25892824039067541 -0.37789115904769022 0 0.26327187755130971 -0.36816601404570332 0 0.2748272402872784 -0.37621355976154819 0 0.28759654592602019 -0.36451929735822503 0 0.27035598287769252 -0.36140306795258198 0 0.2748272402872784 -0.37621355976154819 0 0.27035598287769252 -0.36140306795258198 0 0.26327187755130971 -0.36816601404570332 0 0.29172270285339302 -0.34749217989981018 0 0.27035598287769252 -0.36140306795258198 0 0.26928664574158229 -0.35305162050911199 0 0.29172270285339302 -0.34749217989981018 0 0.27035598287769252 -0.36140306795258198 0 0.29172270285339302 -0.34749217989981018 0 0.26928664574158229 -0.35305162050911199 0 0.27252725639526598 -0.34528061034936242 0 0.27035598287769252 -0.36140306795258198 0 0.26928664574158229 -0.35305162050911199 0 0.26260063941871931 -0.35816899051355128 0 0.26928664574158229 -0.35305162050911199 0 0.26260063941871931 -0.35816899051355128 0 0.26448090707823502 -0.33114185755698239 0 0.2578945353356546 -0.34654934189689252 0 0.26260063941871931 -0.35816899051355128 0 0.26448090707823502 -0.33114185755698239 0 0.26260063941871931 -0.35816899051355128 0 0.26448090707823502 -0.33114185755698239 0 0.2578945353356546 -0.34654934189689252 0 0.25167994407991712 -0.35517044777520518 0 0.252816650765747 -0.34171607174183127 0 0.2578945353356546 -0.34654934189689252 0 0.25167994407991712 -0.35517044777520518 0 0.26260063941871931 -0.35816899051355128 0 0.26260063941871931 -0.35816899051355128 0 0.25438165298757898 -0.36677220879046352 0 0.26327187755130971 -0.36816601404570332 0 0.27035598287769252 -0.36140306795258198 0 0.26260063941871931 -0.35816899051355128 0 0.26327187755130971 -0.36816601404570332 0 0.25167994407991712 -0.35517044777520518 0 0.26260063941871931 -0.35816899051355128 0 0.25438165298757898 -0.36677220879046352 0 0.25167994407991712 -0.35517044777520518 0 0.25438165298757898 -0.36677220879046352 0 0.24451321407201421 -0.36393918920316731 0 0.25892824039067541 -0.37789115904769022 0 0.25438165298757898 -0.36677220879046352 0 0.24529600241283839 -0.37729745215746402 0 0.25892824039067541 -0.37789115904769022 0 0.25438165298757898 -0.36677220879046352 0 0.26327187755130971 -0.36816601404570332 0 0.27258524221069069 -0.32047450598081673 0 0.2646363768210222 -0.32890712177999459 0 0.26636117473775078 -0.30411472460041361 0 0.27258524221069069 -0.32047450598081673 0 0.27836810008387841 -0.31311248853211332 0 0.26636117473775078 -0.30411472460041361 0 0.27258524221069069 -0.32047450598081673 0 0.2646363768210222 -0.32890712177999459 0 0.26448090707823502 -0.33114185755698239 0 0.27258524221069069 -0.32047450598081673 0 0.27226921997243753 -0.32862475140783642 0 0.26448090707823502 -0.33114185755698239 0 0.27258524221069069 -0.32047450598081673 0 0.27836810008387841 -0.31311248853211332 0 0.27962531134732738 -0.3241124863840229 0 0.27258524221069069 -0.32047450598081673 0 0.27962531134732738 -0.3241124863840229 0 0.27226921997243753 -0.32862475140783642 0 0.27962531134732738 -0.3241124863840229 0 0.2778218247720679 -0.33498891678776938 0 0.27226921997243753 -0.32862475140783642 0 0.29172270285339302 -0.34749217989981018 0 0.27252725639526598 -0.34528061034936242 0 0.2778218247720679 -0.33498891678776938 0 0.26928664574158229 -0.35305162050911199 0 0.27252725639526598 -0.34528061034936242 0 0.26448090707823502 -0.33114185755698239 0 0.2778218247720679 -0.33498891678776938 0 0.27226921997243753 -0.32862475140783642 0 0.27139247594166049 -0.3326745737625984 0 0.27252725639526598 -0.34528061034936242 0 0.2778218247720679 -0.33498891678776938 0 0.2709979519439018 -0.33594276929780542 0 0.27252725639526598 -0.34528061034936242 0 0.2709979519439018 -0.33594276929780542 0 0.26448090707823502 -0.33114185755698239 0 0.2778218247720679 -0.33498891678776938 0 0.2709979519439018 -0.33594276929780542 0 0.27139247594166049 -0.3326745737625984 0 0.2709979519439018 -0.33594276929780542 0 0.27139247594166049 -0.3326745737625984 0 0.26448090707823502 -0.33114185755698239 0 0.27226921997243753 -0.32862475140783642 0 0.27139247594166049 -0.3326745737625984 0 0.26448090707823502 -0.33114185755698239 0 0.2646363768210222 -0.32890712177999459 0 0.252816650765747 -0.34171607174183127 0 0.23835378081822481 -0.33490211886524118 0 0.2646363768210222 -0.32890712177999459 0 0.26448090707823502 -0.33114185755698239 0 0.252816650765747 -0.34171607174183127 0 0.2646363768210222 -0.32890712177999459 0 0.26448090707823502 -0.33114185755698239 0 0.2646363768210222 -0.32890712177999459 0 0.23835378081822481 -0.33490211886524118 0 0.2578945353356546 -0.34654934189689252 0 0.26448090707823502 -0.33114185755698239 0 0.252816650765747 -0.34171607174183127 0 0.2646363768210222 -0.32890712177999459 0 0.24721781927790071 -0.31564556268337002 0 0.23835378081822481 -0.33490211886524118 0 0.2646363768210222 -0.32890712177999459 0 0.26636117473775078 -0.30411472460041361 0 0.24721781927790071 -0.31564556268337002 0 0.2646363768210222 -0.32890712177999459 0 0.26636117473775078 -0.30411472460041361 0 0.26636117473775078 -0.30411472460041361 0 0.24050746174140369 -0.29644418462685318 0 0.24721781927790071 -0.31564556268337002 0 0.2543447920551275 -0.28691859020831828 0 0.26636117473775078 -0.30411472460041361 0 0.24050746174140369 -0.29644418462685318 0 0.2543447920551275 -0.28691859020831828 0 0.26636117473775078 -0.30411472460041361 0 0.26824144239726649 -0.27708759164384478 0 0.26636117473775078 -0.30411472460041361 0 0.26824144239726649 -0.27708759164384478 0 0.26636117473775078 -0.30411472460041361 0 0.28844787613548711 -0.29185145447942351 0 0.26824144239726649 -0.27708759164384478 0 0.26636117473775078 -0.30411472460041361 0 0.285170479771159 -0.30542155502227442 0 0.28844787613548711 -0.29185145447942351 0 0.27836810008387841 -0.31311248853211332 0 0.26636117473775078 -0.30411472460041361 0 0.285170479771159 -0.30542155502227442 0 0.28645796887096481 -0.31845972412109552 0 0.27836810008387841 -0.31311248853211332 0 0.285170479771159 -0.30542155502227442 0 0.285170479771159 -0.30542155502227442 0 0.2965711977191009 -0.31122957837520238 0 0.28844787613548711 -0.29185145447942351 0 0.28645796887096481 -0.31845972412109552 0 0.285170479771159 -0.30542155502227442 0 0.2965711977191009 -0.31122957837520238 0 0.28844787613548711 -0.29185145447942351 0 0.30778417749941372 -0.29633663585155939 0 0.30468003870321603 -0.27853001682285272 0 0.2965711977191009 -0.31122957837520238 0 0.28844787613548711 -0.29185145447942351 0 0.30778417749941372 -0.29633663585155939 0 0.2965711977191009 -0.31122957837520238 0 0.30778417749941372 -0.29633663585155939 0 0.30934566349302828 -0.31158469853155252 0 0.29933784128493401 -0.2447170190946984 0 0.31161901707101819 -0.26378112186713149 0 0.29933784128493401 -0.2447170190946984 0 0.31161901707101819 -0.26378112186713149 0 0.29687906761128358 -0.26157229923982778 0 0.29933784128493401 -0.2447170190946984 0 0.31770049789694632 -0.24297388326735619 0 0.31161901707101819 -0.26378112186713149 0 0.31161901707101819 -0.26378112186713149 0 0.29687906761128358 -0.26157229923982778 0 0.30468003870321603 -0.27853001682285272 0 0.28844787613548711 -0.29185145447942351 0 0.30468003870321603 -0.27853001682285272 0 0.28758980235961062 -0.27210065155288449 0 0.29687906761128358 -0.26157229923982778 0 0.30468003870321603 -0.27853001682285272 0 0.28758980235961062 -0.27210065155288449 0 0.28844787613548711 -0.29185145447942351 0 0.28758980235961062 -0.27210065155288449 0 0.26824144239726649 -0.27708759164384478 0 0.29933784128493401 -0.2447170190946984 0 0.29687906761128358 -0.26157229923982778 0 0.27823253526396019 -0.25419110429537578 0 0.29687906761128358 -0.26157229923982778 0 0.28758980235961062 -0.27210065155288449 0 0.27823253526396019 -0.25419110429537578 0 0.27823253526396019 -0.25419110429537578 0 0.26824144239726649 -0.27708759164384478 0 0.25441055206166929 -0.25410101406412589 0 0.28758980235961062 -0.27210065155288449 0 0.27823253526396019 -0.25419110429537578 0 0.26824144239726649 -0.27708759164384478 0 0.26824144239726649 -0.27708759164384478 0 0.25441055206166929 -0.25410101406412589 0 0.24226908934408911 -0.27002785996216139 0 0.2543447920551275 -0.28691859020831828 0 0.26824144239726649 -0.27708759164384478 0 0.24226908934408911 -0.27002785996216139 0 0.25441055206166929 -0.25410101406412589 0 0.24226908934408911 -0.27002785996216139 0 0.23472089211149269 -0.24836893191728029 0 0.24226908934408911 -0.27002785996216139 0 0.219436637815867 -0.27221042788250399 0 0.22460300983445891 -0.28778762002882691 0 0.24226908934408911 -0.27002785996216139 0 0.219436637815867 -0.27221042788250399 0 0.22451965311352809 -0.25864909004992109 0 0.24226908934408911 -0.27002785996216139 0 0.22451965311352809 -0.25864909004992109 0 0.23472089211149269 -0.24836893191728029 0 0.22451965311352809 -0.25864909004992109 0 0.23472089211149269 -0.24836893191728029 0 0.21930952422237721 -0.24335900342221731 0 0.22451965311352809 -0.25864909004992109 0 0.21021378446493119 -0.25639319764672619 0 0.21930952422237721 -0.24335900342221731 0 0.219436637815867 -0.27221042788250399 0 0.21021378446493119 -0.25639319764672619 0 0.2038997893648532 -0.26620176103023557 0 0.219436637815867 -0.27221042788250399 0 0.22451965311352809 -0.25864909004992109 0 0.21021378446493119 -0.25639319764672619 0 0.219436637815867 -0.27221042788250399 0 0.2026489967902626 -0.27749605536481142 0 0.20945442185610991 -0.28749330824669678 0 0.219436637815867 -0.27221042788250399 0 0.2038997893648532 -0.26620176103023557 0 0.2026489967902626 -0.27749605536481142 0 0.2038997893648532 -0.26620176103023557 0 0.19109010155894349 -0.27474134752368679 0 0.1928946064318639 -0.26233389360960629 0 0.2038997893648532 -0.26620176103023557 0 0.2026489967902626 -0.27749605536481142 0 0.19109010155894349 -0.27474134752368679 0 0.2026489967902626 -0.27749605536481142 0 0.19109010155894349 -0.27474134752368679 0 0.19620376662677649 -0.28524512850632072 0 0.19109010155894349 -0.27474134752368679 0 0.19620376662677649 -0.28524512850632072 0 0.18544515763749719 -0.28320199467115692 0 0.19109010155894349 -0.27474134752368679 0 0.1928946064318639 -0.26233389360960629 0 0.18451238250088811 -0.26763496646625012 0 0.21021378446493119 -0.25639319764672619 0 0.1928946064318639 -0.26233389360960629 0 0.19289336890590461 -0.24853551154924139 0 0.21021378446493119 -0.25639319764672619 0 0.2038997893648532 -0.26620176103023557 0 0.1928946064318639 -0.26233389360960629 0 0.1928946064318639 -0.26233389360960629 0 0.1824737288500585 -0.25704482284159968 0 0.19289336890590461 -0.24853551154924139 0 0.2026013526464886 -0.30790563414358652 0 0.19052231538602149 -0.30371035138706259 0 0.19982665227093949 -0.29593536372188889 0 0.2026013526464886 -0.30790563414358652 0 0.19052231538602149 -0.30371035138706259 0 0.19212829337801809 -0.31666905566176362 0 0.19052231538602149 -0.30371035138706259 0 0.18875726964690659 -0.29260270150968359 0 0.19982665227093949 -0.29593536372188889 0 0.18875726964690659 -0.29260270150968359 0 0.19620376662677649 -0.28524512850632072 0 0.19982665227093949 -0.29593536372188889 0 0.18875726964690659 -0.29260270150968359 0 0.19620376662677649 -0.28524512850632072 0 0.18544515763749719 -0.28320199467115692 0 0.2026489967902626 -0.27749605536481142 0 0.19620376662677649 -0.28524512850632072 0 0.20945442185610991 -0.28749330824669678 0 0.19620376662677649 -0.28524512850632072 0 0.19982665227093949 -0.29593536372188889 0 0.20945442185610991 -0.28749330824669678 0 0.19982665227093949 -0.29593536372188889 0 0.20945442185610991 -0.28749330824669678 0 0.21156487954074821 -0.29941448605203502 0 0.219436637815867 -0.27221042788250399 0 0.20945442185610991 -0.28749330824669678 0 0.22460300983445891 -0.28778762002882691 0 0.20945442185610991 -0.28749330824669678 0 0.21156487954074821 -0.29941448605203502 0 0.22460300983445891 -0.28778762002882691 0 0.21156487954074821 -0.29941448605203502 0 0.21550757465129611 -0.31145674107177929 0 0.22444549926597179 -0.30134209996028871 0 0.2026013526464886 -0.30790563414358652 0 0.19982665227093949 -0.29593536372188889 0 0.21156487954074821 -0.29941448605203502 0 0.2026013526464886 -0.30790563414358652 0 0.21156487954074821 -0.29941448605203502 0 0.21550757465129611 -0.31145674107177929 0 0.22444549926597179 -0.30134209996028871 0 0.24050746174140369 -0.29644418462685318 0 0.2308960639220082 -0.31454350231201661 0 0.21550757465129611 -0.31145674107177929 0 0.22444549926597179 -0.30134209996028871 0 0.2308960639220082 -0.31454350231201661 0 0.22444549926597179 -0.30134209996028871 0 0.22460300983445891 -0.28778762002882691 0 0.24050746174140369 -0.29644418462685318 0 0.21156487954074821 -0.29941448605203502 0 0.22444549926597179 -0.30134209996028871 0 0.22460300983445891 -0.28778762002882691 0 0.24226908934408911 -0.27002785996216139 0 0.22460300983445891 -0.28778762002882691 0 0.24050746174140369 -0.29644418462685318 0 0.2543447920551275 -0.28691859020831828 0 0.24226908934408911 -0.27002785996216139 0 0.24050746174140369 -0.29644418462685318 0 0.24050746174140369 -0.29644418462685318 0 0.24721781927790071 -0.31564556268337002 0 0.2308960639220082 -0.31454350231201661 0 0.24721781927790071 -0.31564556268337002 0 0.23835378081822481 -0.33490211886524118 0 0.2308960639220082 -0.31454350231201661 0 0.252816650765747 -0.34171607174183127 0 0.23835378081822481 -0.33490211886524118 0 0.23920973813910479 -0.34989236474256702 0 0.23835378081822481 -0.33490211886524118 0 0.22333518911329581 -0.34787483619653098 0 0.21241942783328299 -0.34092134308864469 0 0.23835378081822481 -0.33490211886524118 0 0.21848128576521991 -0.32553334883370022 0 0.21241942783328299 -0.34092134308864469 0 0.23835378081822481 -0.33490211886524118 0 0.21241942783328299 -0.34092134308864469 0 0.23835378081822481 -0.33490211886524118 0 0.2308960639220082 -0.31454350231201661 0 0.21848128576521991 -0.32553334883370022 0 0.21550757465129611 -0.31145674107177929 0 0.2308960639220082 -0.31454350231201661 0 0.21848128576521991 -0.32553334883370022 0 0.24451321407201421 -0.36393918920316731 0 0.2283280369176687 -0.37062590205561341 0 0.24529600241283839 -0.37729745215746402 0 0.24451321407201421 -0.36393918920316731 0 0.2283280369176687 -0.37062590205561341 0 0.24451321407201421 -0.36393918920316731 0 0.23920973813910479 -0.34989236474256702 0 0.2283280369176687 -0.37062590205561341 0 0.25438165298757898 -0.36677220879046352 0 0.24451321407201421 -0.36393918920316731 0 0.24529600241283839 -0.37729745215746402 0 0.25167994407991712 -0.35517044777520518 0 0.24451321407201421 -0.36393918920316731 0 0.23920973813910479 -0.34989236474256702 0 0.25167994407991712 -0.35517044777520518 0 0.252816650765747 -0.34171607174183127 0 0.23920973813910479 -0.34989236474256702 0 0.23920973813910479 -0.34989236474256702 0 0.22333518911329581 -0.34787483619653098 0 0.2283280369176687 -0.37062590205561341 0 0.23835378081822481 -0.33490211886524118 0 0.23920973813910479 -0.34989236474256702 0 0.22333518911329581 -0.34787483619653098 0 0.22333518911329581 -0.34787483619653098 0 0.2283280369176687 -0.37062590205561341 0 0.22333518911329581 -0.34787483619653098 0 0.2283280369176687 -0.37062590205561341 0 0.2171019071335363 -0.36321595839154253 0 0.2283280369176687 -0.37062590205561341 0 0.2093615889199357 -0.37846166377649437 0 0.2171019071335363 -0.36321595839154253 0 0.20668559685600241 -0.36124849957863359 0 0.2093615889199357 -0.37846166377649437 0 0.20668559685600241 -0.36124849957863359 0 0.1964123116177961 -0.36878385441324291 0 0.2093615889199357 -0.37846166377649437 0 0.2283280369176687 -0.37062590205561341 0 0.2171019071335363 -0.36321595839154253 0 0.2093615889199357 -0.37846166377649437 0 0.20668559685600241 -0.36124849957863359 0 0.21236131761740601 -0.35327723957693158 0 0.20113159085020971 -0.35216896671815878 0 0.22333518911329581 -0.34787483619653098 0 0.2171019071335363 -0.36321595839154253 0 0.21236131761740601 -0.35327723957693158 0 0.2171019071335363 -0.36321595839154253 0 0.20668559685600241 -0.36124849957863359 0 0.21236131761740601 -0.35327723957693158 0 0.22333518911329581 -0.34787483619653098 0 0.21236131761740601 -0.35327723957693158 0 0.21241942783328299 -0.34092134308864469 0 0.21236131761740601 -0.35327723957693158 0 0.20113159085020971 -0.35216896671815878 0 0.21241942783328299 -0.34092134308864469 0 0.21241942783328299 -0.34092134308864469 0 0.18648507484834101 -0.34694056731204792 0 0.20113159085020971 -0.35216896671815878 0 0.21241942783328299 -0.34092134308864469 0 0.18648507484834101 -0.34694056731204792 0 0.18926108070139139 -0.35272769344855159 0 0.20113159085020971 -0.35216896671815878 0 0.18648507484834101 -0.34694056731204792 0 0.18926108070139139 -0.35272769344855159 0 0.18648507484834101 -0.34694056731204792 0 0.18926108070139139 -0.35272769344855159 0 0.19728655894312849 -0.35843475693362281 0 0.18861851165591301 -0.36048124523310421 0 0.20668559685600241 -0.36124849957863359 0 0.20113159085020971 -0.35216896671815878 0 0.19728655894312849 -0.35843475693362281 0 0.18926108070139139 -0.35272769344855159 0 0.20113159085020971 -0.35216896671815878 0 0.19728655894312849 -0.35843475693362281 0 0.1964123116177961 -0.36878385441324291 0 0.18461650532492621 -0.36956364506394762 0 0.1903951409222025 -0.38629742549737528 0 0.20668559685600241 -0.36124849957863359 0 0.19728655894312849 -0.35843475693362281 0 0.1964123116177961 -0.36878385441324291 0 0.18861851165591301 -0.36048124523310421 0 0.1964123116177961 -0.36878385441324291 0 0.18461650532492621 -0.36956364506394762 0 0.19728655894312849 -0.35843475693362281 0 0.18861851165591301 -0.36048124523310421 0 0.1964123116177961 -0.36878385441324291 0 0.20673133159985971 -0.32027622502439179 0 0.2081694210037513 -0.33054619908249439 0 0.19703074328698869 -0.33321753398150672 0 0.2026013526464886 -0.30790563414358652 0 0.21550757465129611 -0.31145674107177929 0 0.20673133159985971 -0.32027622502439179 0 0.21550757465129611 -0.31145674107177929 0 0.20673133159985971 -0.32027622502439179 0 0.21848128576521991 -0.32553334883370022 0 0.20673133159985971 -0.32027622502439179 0 0.21848128576521991 -0.32553334883370022 0 0.2081694210037513 -0.33054619908249439 0 0.21848128576521991 -0.32553334883370022 0 0.21241942783328299 -0.34092134308864469 0 0.2081694210037513 -0.33054619908249439 0 0.21241942783328299 -0.34092134308864469 0 0.2081694210037513 -0.33054619908249439 0 0.19703074328698869 -0.33321753398150672 0 0.21241942783328299 -0.34092134308864469 0 0.19703074328698869 -0.33321753398150672 0 0.18648507484834101 -0.34694056731204792 0 0.20673133159985971 -0.32027622502439179 0 0.19703074328698869 -0.33321753398150672 0 0.19212829337801809 -0.31666905566176362 0 0.19703074328698869 -0.33321753398150672 0 0.19212829337801809 -0.31666905566176362 0 0.17634943880126611 -0.32581085527860149 0 0.2026013526464886 -0.30790563414358652 0 0.20673133159985971 -0.32027622502439179 0 0.19212829337801809 -0.31666905566176362 0 0.19212829337801809 -0.31666905566176362 0 0.17634943880126611 -0.32581085527860149 0 0.1789284588430527 -0.30853042416654591 0 0.17634943880126611 -0.32581085527860149 0 0.1789284588430527 -0.30853042416654591 0 0.16621380275419209 -0.30468114324515461 0 0.17634943880126611 -0.32581085527860149 0 0.18075002068325349 -0.34827164262258342 0 0.18648507484834101 -0.34694056731204792 0 0.17634943880126611 -0.32581085527860149 0 0.18648507484834101 -0.34694056731204792 0 0.19703074328698869 -0.33321753398150672 0 0.17634943880126611 -0.32581085527860149 0 0.18648507484834101 -0.34694056731204792 0 0.17634943880126611 -0.32581085527860149 0 0.16172503476685049 -0.33971912795897108 0 0.18075002068325349 -0.34827164262258342 0 0.17634943880126611 -0.32581085527860149 0 0.16172503476685049 -0.33971912795897108 0 0.15366934235017651 -0.32179371409984381 0 0.17634943880126611 -0.32581085527860149 0 0.16621380275419209 -0.30468114324515461 0 0.17634943880126611 -0.32581085527860149 0 0.15366934235017651 -0.32179371409984381 0 0.16621380275419209 -0.30468114324515461 0 0.18461650532492621 -0.36956364506394762 0 0.1726056661942188 -0.36629393117527947 0 0.1683084809391539 -0.37840610953246401 0 0.18861851165591301 -0.36048124523310421 0 0.18461650532492621 -0.36956364506394762 0 0.1794668296158026 -0.3603152486169075 0 0.1726056661942188 -0.36629393117527947 0 0.1794668296158026 -0.3603152486169075 0 0.16968894579501489 -0.35625797531713521 0 0.18461650532492621 -0.36956364506394762 0 0.1726056661942188 -0.36629393117527947 0 0.1794668296158026 -0.3603152486169075 0 0.17932834309217421 -0.35380014340078247 0 0.18075002068325349 -0.34827164262258342 0 0.16968894579501489 -0.35625797531713521 0 0.1794668296158026 -0.3603152486169075 0 0.17932834309217421 -0.35380014340078247 0 0.16968894579501489 -0.35625797531713521 0 0.18861851165591301 -0.36048124523310421 0 0.1794668296158026 -0.3603152486169075 0 0.18388351769058719 -0.35493910098732079 0 0.1794668296158026 -0.3603152486169075 0 0.17932834309217421 -0.35380014340078247 0 0.18388351769058719 -0.35493910098732079 0 0.18926108070139139 -0.35272769344855159 0 0.18861851165591301 -0.36048124523310421 0 0.18388351769058719 -0.35493910098732079 0 0.18926108070139139 -0.35272769344855159 0 0.18388351769058719 -0.35493910098732079 0 0.18285240167621189 -0.34921674945996739 0 0.17932834309217421 -0.35380014340078247 0 0.18388351769058719 -0.35493910098732079 0 0.18285240167621189 -0.34921674945996739 0 0.17932834309217421 -0.35380014340078247 0 0.18075002068325349 -0.34827164262258342 0 0.18285240167621189 -0.34921674945996739 0 0.18075002068325349 -0.34827164262258342 0 0.18285240167621189 -0.34921674945996739 0 0.18648507484834101 -0.34694056731204792 0 0.18075002068325349 -0.34827164262258342 0 0.18285240167621189 -0.34921674945996739 0 0.18926108070139139 -0.35272769344855159 0 0.18285240167621189 -0.34921674945996739 0 0.18648507484834101 -0.34694056731204792 0 0.18075002068325349 -0.34827164262258342 0 0.18648507484834101 -0.34694056731204792 0 0.16172503476685049 -0.33971912795897108 0 0.18075002068325349 -0.34827164262258342 0 0.15798562692272539 -0.35355513631275159 0 0.18075002068325349 -0.34827164262258342 0 0.15798562692272539 -0.35355513631275159 0 0.16968894579501489 -0.35625797531713521 0 0.16172503476685049 -0.33971912795897108 0 0.18075002068325349 -0.34827164262258342 0 0.18075002068325349 -0.34827164262258342 0 0.15798562692272539 -0.35355513631275159 0 0.15798562692272539 -0.35355513631275159 0 0.16968894579501489 -0.35625797531713521 0 0.16201852890465759 -0.36523067843676399 0 0.16201852890465759 -0.36523067843676399 0 0.15130922512496869 -0.37122028714145677 0 0.1683084809391539 -0.37840610953246401 0 0.15798562692272539 -0.35355513631275159 0 0.16201852890465759 -0.36523067843676399 0 0.15130922512496869 -0.37122028714145677 0 0.1726056661942188 -0.36629393117527947 0 0.16968894579501489 -0.35625797531713521 0 0.16201852890465759 -0.36523067843676399 0 0.1726056661942188 -0.36629393117527947 0 0.16201852890465759 -0.36523067843676399 0 0.1683084809391539 -0.37840610953246401 0 0.15798562692272539 -0.35355513631275159 0 0.15130922512496869 -0.37122028714145677 0 0.1352212331621967 -0.35883863000291732 0 0.15798562692272539 -0.35355513631275159 0 0.14434291811076469 -0.3464572701799139 0 0.1352212331621967 -0.35883863000291732 0 0.15798562692272539 -0.35355513631275159 0 0.1352212331621967 -0.35883863000291732 0 0.16172503476685049 -0.33971912795897108 0 0.15798562692272539 -0.35355513631275159 0 0.14434291811076469 -0.3464572701799139 0 0.14434291811076469 -0.3464572701799139 0 0.1352212331621967 -0.35883863000291732 0 0.13168809535238479 -0.3403899336892956 0 0.1352212331621967 -0.35883863000291732 0 0.13168809535238479 -0.3403899336892956 0 0.11660430517836259 -0.34510559492494591 0 0.1352212331621967 -0.35883863000291732 0 0.1317705062506391 -0.37854551025882188 0 0.11245683940166799 -0.36412212369308289 0 0.15130922512496869 -0.37122028714145677 0 0.1352212331621967 -0.35883863000291732 0 0.1317705062506391 -0.37854551025882188 0 0.1407212037865016 -0.31542799756920931 0 0.15366934235017651 -0.32179371409984381 0 0.16621380275419209 -0.30468114324515461 0 0.15366934235017651 -0.32179371409984381 0 0.14270004885044679 -0.33116661329536079 0 0.1392991324761986 -0.32308743253534822 0 0.1407212037865016 -0.31542799756920931 0 0.15366934235017651 -0.32179371409984381 0 0.1392991324761986 -0.32308743253534822 0 0.16172503476685049 -0.33971912795897108 0 0.15366934235017651 -0.32179371409984381 0 0.14270004885044679 -0.33116661329536079 0 0.16172503476685049 -0.33971912795897108 0 0.14270004885044679 -0.33116661329536079 0 0.16172503476685049 -0.33971912795897108 0 0.14434291811076469 -0.3464572701799139 0 0.14270004885044679 -0.33116661329536079 0 0.14270004885044679 -0.33116661329536079 0 0.13168809535238479 -0.3403899336892956 0 0.1236750629340428 -0.32261409863175072 0 0.14434291811076469 -0.3464572701799139 0 0.14270004885044679 -0.33116661329536079 0 0.13168809535238479 -0.3403899336892956 0 0.1407212037865016 -0.31542799756920931 0 0.12571047567945559 -0.29998923641376979 0 0.1236750629340428 -0.32261409863175072 0 0.1407212037865016 -0.31542799756920931 0 0.1236750629340428 -0.32261409863175072 0 0.1407212037865016 -0.31542799756920931 0 0.1392991324761986 -0.32308743253534822 0 0.1236750629340428 -0.32261409863175072 0 0.14270004885044679 -0.33116661329536079 0 0.1392991324761986 -0.32308743253534822 0 0.1236750629340428 -0.32261409863175072 0 0.14270004885044679 -0.33116661329536079 0 0.1236750629340428 -0.32261409863175072 0 0.1407212037865016 -0.31542799756920931 0 0.1392991324761986 -0.32308743253534822 0 0.1407212037865016 -0.31542799756920931 0 0.12571047567945559 -0.29998923641376979 0 0.14526260407204569 -0.2909675082180177 0 0.1407212037865016 -0.31542799756920931 0 0.16621380275419209 -0.30468114324515461 0 0.1407212037865016 -0.31542799756920931 0 0.15300148175741021 -0.30017894350802049 0 0.16621380275419209 -0.30468114324515461 0 0.1407212037865016 -0.31542799756920931 0 0.14526260407204569 -0.2909675082180177 0 0.1407212037865016 -0.31542799756920931 0 0.15300148175741021 -0.30017894350802049 0 0.14526260407204569 -0.2909675082180177 0 0.14526260407204569 -0.2909675082180177 0 0.15085008323532129 -0.27265247058084358 0 0.1585319429947562 -0.28866680691299929 0 0.15300148175741021 -0.30017894350802049 0 0.14526260407204569 -0.2909675082180177 0 0.1585319429947562 -0.28866680691299929 0 0.12571047567945559 -0.29998923641376979 0 0.14526260407204569 -0.2909675082180177 0 0.1288210027095022 -0.2743809945626664 0 0.1288210027095022 -0.2743809945626664 0 0.15113665445173391 -0.25932921656200242 0 0.1288210027095022 -0.2743809945626664 0 0.133709605578477 -0.26022246291674422 0 0.1131393165954841 -0.26906151760904939 0 0.1288210027095022 -0.2743809945626664 0 0.133709605578477 -0.26022246291674422 0 0.15113665445173391 -0.25932921656200242 0 0.133709605578477 -0.26022246291674422 0 0.14531627873659189 -0.24785316868413609 0 0.1323755988812039 -0.2461479566512233 0 0.15113665445173391 -0.25932921656200242 0 0.1579410009016563 -0.25997634534878628 0 0.15434540464313221 -0.24204652951563421 0 0.133709605578477 -0.26022246291674422 0 0.15113665445173391 -0.25932921656200242 0 0.14531627873659189 -0.24785316868413609 0 0.15113665445173391 -0.25932921656200242 0 0.15434540464313221 -0.24204652951563421 0 0.15113665445173391 -0.25932921656200242 0 0.14980400435758889 -0.26650701886682587 0 0.1579410009016563 -0.25997634534878628 0 0.14980400435758889 -0.26650701886682587 0 0.1554691316888146 -0.26854355996321222 0 0.1579410009016563 -0.25997634534878628 0 0.15113665445173391 -0.25932921656200242 0 0.14980400435758889 -0.26650701886682587 0 0.1288210027095022 -0.2743809945626664 0 0.15113665445173391 -0.25932921656200242 0 0.14980400435758889 -0.26650701886682587 0 0.14526260407204569 -0.2909675082180177 0 0.14980400435758889 -0.26650701886682587 0 0.15085008323532129 -0.27265247058084358 0 0.1585319429947562 -0.28866680691299929 0 0.14526260407204569 -0.2909675082180177 0 0.1288210027095022 -0.2743809945626664 0 0.14980400435758889 -0.26650701886682587 0 0.14526260407204569 -0.2909675082180177 0 0.15085008323532129 -0.27265247058084358 0 0.14980400435758889 -0.26650701886682587 0 0.15085008323532129 -0.27265247058084358 0 0.1554691316888146 -0.26854355996321222 0 0.1600562559739655 -0.27465418440737133 0 0.15085008323532129 -0.27265247058084358 0 0.14980400435758889 -0.26650701886682587 0 0.1554691316888146 -0.26854355996321222 0 0.1600562559739655 -0.27465418440737133 0 0.1684190876325676 -0.27902200855637832 0 0.1585319429947562 -0.28866680691299929 0 0.15085008323532129 -0.27265247058084358 0 0.1600562559739655 -0.27465418440737133 0 0.1585319429947562 -0.28866680691299929 0 0.1554691316888146 -0.26854355996321222 0 0.1600562559739655 -0.27465418440737133 0 0.1606905180017687 -0.26781567399793899 0 0.1600562559739655 -0.27465418440737133 0 0.1606905180017687 -0.26781567399793899 0 0.16787081985924171 -0.27062255037626082 0 0.1606905180017687 -0.26781567399793899 0 0.16787081985924171 -0.27062255037626082 0 0.16553332144268529 -0.26199439913406708 0 0.16787081985924171 -0.27062255037626082 0 0.16553332144268529 -0.26199439913406708 0 0.17411465468004911 -0.26530742734471441 0 0.1600562559739655 -0.27465418440737133 0 0.16787081985924171 -0.27062255037626082 0 0.1684190876325676 -0.27902200855637832 0 0.16787081985924171 -0.27062255037626082 0 0.1684190876325676 -0.27902200855637832 0 0.1784110814244142 -0.27494160881709512 0 0.1625412523598854 -0.25300914063480201 0 0.1579410009016563 -0.25997634534878628 0 0.15434540464313221 -0.24204652951563421 0 0.1606905180017687 -0.26781567399793899 0 0.1579410009016563 -0.25997634534878628 0 0.16553332144268529 -0.26199439913406708 0 0.1625412523598854 -0.25300914063480201 0 0.1579410009016563 -0.25997634534878628 0 0.16553332144268529 -0.26199439913406708 0 0.1554691316888146 -0.26854355996321222 0 0.1606905180017687 -0.26781567399793899 0 0.1579410009016563 -0.25997634534878628 0 0.16553332144268529 -0.26199439913406708 0 0.17111985458339041 -0.25486490992328359 0 0.17411465468004911 -0.26530742734471441 0 0.1625412523598854 -0.25300914063480201 0 0.17111985458339041 -0.25486490992328359 0 0.16665109433753081 -0.24552931142596271 0 0.1625412523598854 -0.25300914063480201 0 0.16553332144268529 -0.26199439913406708 0 0.17111985458339041 -0.25486490992328359 0 0.17111985458339041 -0.25486490992328359 0 0.1824737288500585 -0.25704482284159968 0 0.1785621435901068 -0.2427993672826386 0 0.17111985458339041 -0.25486490992328359 0 0.17411465468004911 -0.26530742734471441 0 0.1824737288500585 -0.25704482284159968 0 0.1928946064318639 -0.26233389360960629 0 0.1824737288500585 -0.25704482284159968 0 0.18451238250088811 -0.26763496646625012 0 0.17411465468004911 -0.26530742734471441 0 0.1824737288500585 -0.25704482284159968 0 0.18451238250088811 -0.26763496646625012 0 0.1684190876325676 -0.27902200855637832 0 0.1784110814244142 -0.27494160881709512 0 0.17751155914341299 -0.28290439578766202 0 0.16787081985924171 -0.27062255037626082 0 0.17411465468004911 -0.26530742734471441 0 0.1784110814244142 -0.27494160881709512 0 0.17411465468004911 -0.26530742734471441 0 0.1784110814244142 -0.27494160881709512 0 0.18451238250088811 -0.26763496646625012 0 0.19109010155894349 -0.27474134752368679 0 0.1784110814244142 -0.27494160881709512 0 0.18451238250088811 -0.26763496646625012 0 0.19109010155894349 -0.27474134752368679 0 0.1784110814244142 -0.27494160881709512 0 0.18544515763749719 -0.28320199467115692 0 0.1784110814244142 -0.27494160881709512 0 0.18544515763749719 -0.28320199467115692 0 0.17751155914341299 -0.28290439578766202 0 0.18875726964690659 -0.29260270150968359 0 0.18544515763749719 -0.28320199467115692 0 0.1799154015980623 -0.29014931425490781 0 0.18544515763749719 -0.28320199467115692 0 0.17751155914341299 -0.28290439578766202 0 0.1799154015980623 -0.29014931425490781 0 0.17751155914341299 -0.28290439578766202 0 0.1799154015980623 -0.29014931425490781 0 0.1716827932119466 -0.28722684426216311 0 0.1684190876325676 -0.27902200855637832 0 0.17751155914341299 -0.28290439578766202 0 0.1716827932119466 -0.28722684426216311 0 0.17320841161561101 -0.29518477975999757 0 0.1799154015980623 -0.29014931425490781 0 0.1716827932119466 -0.28722684426216311 0 0.17320841161561101 -0.29518477975999757 0 0.1799154015980623 -0.29014931425490781 0 0.18184840172301489 -0.29934600513034432 0 0.18875726964690659 -0.29260270150968359 0 0.1799154015980623 -0.29014931425490781 0 0.18184840172301489 -0.29934600513034432 0 0.19052231538602149 -0.30371035138706259 0 0.18875726964690659 -0.29260270150968359 0 0.18184840172301489 -0.29934600513034432 0 0.19052231538602149 -0.30371035138706259 0 0.18184840172301489 -0.29934600513034432 0 0.1789284588430527 -0.30853042416654591 0 0.19052231538602149 -0.30371035138706259 0 0.19212829337801809 -0.31666905566176362 0 0.1789284588430527 -0.30853042416654591 0 0.1789284588430527 -0.30853042416654591 0 0.17666868222684559 -0.3023518215919816 0 0.17020425308736881 -0.30299889858770013 0 0.18184840172301489 -0.29934600513034432 0 0.1789284588430527 -0.30853042416654591 0 0.17666868222684559 -0.3023518215919816 0 0.17320841161561101 -0.29518477975999757 0 0.17666868222684559 -0.3023518215919816 0 0.17020425308736881 -0.30299889858770013 0 0.17320841161561101 -0.29518477975999757 0 0.18184840172301489 -0.29934600513034432 0 0.17666868222684559 -0.3023518215919816 0 0.15300148175741021 -0.30017894350802049 0 0.16621380275419209 -0.30468114324515461 0 0.1585319429947562 -0.28866680691299929 0 0.17020425308736881 -0.30299889858770013 0 0.16621380275419209 -0.30468114324515461 0 0.1585319429947562 -0.28866680691299929 0 0.17020425308736881 -0.30299889858770013 0 0.16621380275419209 -0.30468114324515461 0 0.1789284588430527 -0.30853042416654591 0 0.17020425308736881 -0.30299889858770013 0 0.16621380275419209 -0.30468114324515461 0 0.16621380275419209 -0.30468114324515461 0 0.1585319429947562 -0.28866680691299929 0 0.1684190876325676 -0.27902200855637832 0 0.1585319429947562 -0.28866680691299929 0 0.1716827932119466 -0.28722684426216311 0 0.17320841161561101 -0.29518477975999757 0 0.1585319429947562 -0.28866680691299929 0 0.1716827932119466 -0.28722684426216311 0 0.17320841161561101 -0.29518477975999757 0 0.17020425308736881 -0.30299889858770013 0 0.1585319429947562 -0.28866680691299929 0 0.2016835743875672 -0.5 0 0.2070067244752328 -0.49339143641933719 0 0.181008451769576 -0.49140425600112109 0 0.19834671023857819 -0.48426745600332333 0 0.2070067244752328 -0.49339143641933719 0 0.181008451769576 -0.49140425600112109 0 0.2070067244752328 -0.49339143641933719 0 0.181008451769576 -0.49140425600112109 0 0.1965084499869765 -0.47207116493902262 0 0.181008451769576 -0.49140425600112109 0 0.1965084499869765 -0.47207116493902262 0 0.19834671023857819 -0.48426745600332333 0 0.181008451769576 -0.49140425600112109 0 0.1965084499869765 -0.47207116493902262 0 0.19834671023857819 -0.48426745600332333 0 0.2087747046776651 -0.48013263032220288 0 0.1965084499869765 -0.47207116493902262 0 0.2087747046776651 -0.48013263032220288 0 0.22414068275691271 -0.4648287240266048 0 0.2087747046776651 -0.48013263032220288 0 0.2206872990683223 -0.48457419188002732 0 0.22414068275691271 -0.4648287240266048 0 0.2087747046776651 -0.48013263032220288 0 0.2070067244752328 -0.49339143641933719 0 0.2206872990683223 -0.48457419188002732 0 0.2016835743875672 -0.5 0 0.2070067244752328 -0.49339143641933719 0 0.2290416308280315 -0.5 0 0.19834671023857819 -0.48426745600332333 0 0.2087747046776651 -0.48013263032220288 0 0.2070067244752328 -0.49339143641933719 0 0.2070067244752328 -0.49339143641933719 0 0.2290416308280315 -0.5 0 0.23286888472192391 -0.49536821306895717 0 0.2070067244752328 -0.49339143641933719 0 0.2206872990683223 -0.48457419188002732 0 0.23286888472192391 -0.49536821306895717 0 0.2070067244752328 -0.49339143641933719 0 0.23286888472192391 -0.49536821306895717 0 0.2316936707906814 -0.48602421754378361 0 0.23286888472192391 -0.49536821306895717 0 0.23790144753535669 -0.48729828968529421 0 0.2206872990683223 -0.48457419188002732 0 0.2316936707906814 -0.48602421754378361 0 0.23286888472192391 -0.49536821306895717 0 0.25639968726849588 -0.5 0 0.25873104496861482 -0.49734498971857699 0 0.23286888472192391 -0.49536821306895717 0 0.25639968726849588 -0.5 0 0.2290416308280315 -0.5 0 0.23286888472192391 -0.49536821306895717 0 0.25873104496861482 -0.49734498971857699 0 0.23286888472192391 -0.49536821306895717 0 0.24616507423187961 -0.49161373775336809 0 0.25873104496861482 -0.49734498971857699 0 0.23286888472192391 -0.49536821306895717 0 0.23286888472192391 -0.49536821306895717 0 0.23790144753535669 -0.48729828968529421 0 0.24616507423187961 -0.49161373775336809 0 0.23790144753535669 -0.48729828968529421 0 0.24616507423187961 -0.49161373775336809 0 0.24924271369322731 -0.48066999336588873 0 0.25416033394725468 -0.49040340925580062 0 0.24616507423187961 -0.49161373775336809 0 0.24924271369322731 -0.48066999336588873 0 0.25177291552684589 -0.45758628311417532 0 0.24924271369322731 -0.48066999336588873 0 0.2353170518371229 -0.47685617554085569 0 0.2316936707906814 -0.48602421754378361 0 0.23790144753535669 -0.48729828968529421 0 0.2353170518371229 -0.47685617554085569 0 0.23790144753535669 -0.48729828968529421 0 0.24924271369322731 -0.48066999336588873 0 0.2353170518371229 -0.47685617554085569 0 0.2206872990683223 -0.48457419188002732 0 0.2353170518371229 -0.47685617554085569 0 0.22414068275691271 -0.4648287240266048 0 0.2206872990683223 -0.48457419188002732 0 0.2316936707906814 -0.48602421754378361 0 0.2353170518371229 -0.47685617554085569 0 0.22414068275691271 -0.4648287240266048 0 0.22905475069986689 -0.44799802160123381 0 0.21599364949660649 -0.462542773063985 0 0.22905475069986689 -0.44799802160123381 0 0.21599364949660649 -0.462542773063985 0 0.25177291552684589 -0.45758628311417532 0 0.22414068275691271 -0.4648287240266048 0 0.22905475069986689 -0.44799802160123381 0 0.25177291552684589 -0.45758628311417532 0 0.2353170518371229 -0.47685617554085569 0 0.22414068275691271 -0.4648287240266048 0 0.25177291552684589 -0.45758628311417532 0 0.22414068275691271 -0.4648287240266048 0 0.25177291552684589 -0.45758628311417532 0 0.2443502050142623 -0.44363461689200151 0 0.22905475069986689 -0.44799802160123381 0 0.2443502050142623 -0.44363461689200151 0 0.24211585190312779 -0.433453270138483 0 0.22905475069986689 -0.44799802160123381 0 0.24211585190312779 -0.433453270138483 0 0.2443502050142623 -0.44363461689200151 0 0.22905475069986689 -0.44799802160123381 0 0.24211585190312779 -0.433453270138483 0 0.22905475069986689 -0.44799802160123381 0 0.21966200208744741 -0.44292029631044749 0 0.21599364949660649 -0.462542773063985 0 0.22905475069986689 -0.44799802160123381 0 0.23023008341177989 -0.43614015644200438 0 0.24211585190312779 -0.433453270138483 0 0.22905475069986689 -0.44799802160123381 0 0.21966200208744741 -0.44292029631044749 0 0.23023008341177989 -0.43614015644200438 0 0.21966200208744741 -0.44292029631044749 0 0.22191140327177519 -0.43407312906957979 0 0.23023008341177989 -0.43614015644200438 0 0.21966200208744741 -0.44292029631044749 0 0.20818771555572721 -0.44461907303954917 0 0.21243088856413059 -0.43276169238624479 0 0.20818771555572721 -0.44461907303954917 0 0.20169128777680931 -0.43901947958951842 0 0.21243088856413059 -0.43276169238624479 0 0.20818771555572721 -0.44461907303954917 0 0.20808522603720611 -0.45749573062473031 0 0.1983904556190941 -0.45078216294234508 0 0.21966200208744741 -0.44292029631044749 0 0.20818771555572721 -0.44461907303954917 0 0.20808522603720611 -0.45749573062473031 0 0.21966200208744741 -0.44292029631044749 0 0.20808522603720611 -0.45749573062473031 0 0.1965084499869765 -0.47207116493902262 0 0.22414068275691271 -0.4648287240266048 0 0.1965084499869765 -0.47207116493902262 0 0.21599364949660649 -0.462542773063985 0 0.20808522603720611 -0.45749573062473031 0 0.21966200208744741 -0.44292029631044749 0 0.21599364949660649 -0.462542773063985 0 0.20808522603720611 -0.45749573062473031 0 0.1965084499869765 -0.47207116493902262 0 0.22414068275691271 -0.4648287240266048 0 0.21599364949660649 -0.462542773063985 0 0.1965084499869765 -0.47207116493902262 0 0.20808522603720611 -0.45749573062473031 0 0.1983904556190941 -0.45078216294234508 0 0.1965084499869765 -0.47207116493902262 0 0.1983904556190941 -0.45078216294234508 0 0.18547844155745941 -0.4514251625273471 0 0.1965084499869765 -0.47207116493902262 0 0.20808522603720611 -0.45749573062473031 0 0.18876269033490639 -0.43978395890718719 0 0.1983904556190941 -0.45078216294234508 0 0.18547844155745941 -0.4514251625273471 0 0.18876269033490639 -0.43978395890718719 0 0.20169128777680931 -0.43901947958951842 0 0.1983904556190941 -0.45078216294234508 0 0.20818771555572721 -0.44461907303954917 0 0.20169128777680931 -0.43901947958951842 0 0.1983904556190941 -0.45078216294234508 0 0.18876269033490639 -0.43978395890718719 0 0.20169128777680931 -0.43901947958951842 0 0.1993138100630506 -0.42649985011279679 0 0.18876269033490639 -0.43978395890718719 0 0.1993138100630506 -0.42649985011279679 0 0.18594099270373121 -0.42802207409919801 0 0.1993138100630506 -0.42649985011279679 0 0.19191088736474929 -0.40795080777975662 0 0.18594099270373121 -0.42802207409919801 0 0.1993138100630506 -0.42649985011279679 0 0.19191088736474929 -0.40795080777975662 0 0.2100759205118749 -0.41598675844284771 0 0.2100759205118749 -0.41598675844284771 0 0.22273260804220099 -0.40833337593989039 0 0.20879905128990789 -0.3979242828702334 0 0.19191088736474929 -0.40795080777975662 0 0.2100759205118749 -0.41598675844284771 0 0.20879905128990789 -0.3979242828702334 0 0.1993138100630506 -0.42649985011279679 0 0.2100759205118749 -0.41598675844284771 0 0.21243088856413059 -0.43276169238624479 0 0.2100759205118749 -0.41598675844284771 0 0.21243088856413059 -0.43276169238624479 0 0.22434417958842609 -0.4236766661922749 0 0.20169128777680931 -0.43901947958951842 0 0.1993138100630506 -0.42649985011279679 0 0.21243088856413059 -0.43276169238624479 0 0.21966200208744741 -0.44292029631044749 0 0.21243088856413059 -0.43276169238624479 0 0.22191140327177519 -0.43407312906957979 0 0.21243088856413059 -0.43276169238624479 0 0.22191140327177519 -0.43407312906957979 0 0.22434417958842609 -0.4236766661922749 0 0.22191140327177519 -0.43407312906957979 0 0.22434417958842609 -0.4236766661922749 0 0.23023008341177989 -0.43614015644200438 0 0.22434417958842609 -0.4236766661922749 0 0.2335525071194938 -0.42644522672090551 0 0.23023008341177989 -0.43614015644200438 0 0.24211585190312779 -0.433453270138483 0 0.2375199135746415 -0.41251081411085982 0 0.2335525071194938 -0.42644522672090551 0 0.24211585190312779 -0.433453270138483 0 0.2375199135746415 -0.41251081411085982 0 0.2335525071194938 -0.42644522672090551 0 0.23023008341177989 -0.43614015644200438 0 0.24211585190312779 -0.433453270138483 0 0.25378931798867782 -0.43414072584882979 0 0.2443502050142623 -0.44363461689200151 0 0.24211585190312779 -0.433453270138483 0 0.25181689559195608 -0.39626294670627621 0 0.25848148688910438 -0.4152286128376324 0 0.2375199135746415 -0.41251081411085982 0 0.25848148688910438 -0.4152286128376324 0 0.24211585190312779 -0.433453270138483 0 0.2375199135746415 -0.41251081411085982 0 0.22434417958842609 -0.4236766661922749 0 0.2335525071194938 -0.42644522672090551 0 0.2375199135746415 -0.41251081411085982 0 0.22434417958842609 -0.4236766661922749 0 0.2375199135746415 -0.41251081411085982 0 0.22273260804220099 -0.40833337593989039 0 0.2100759205118749 -0.41598675844284771 0 0.22434417958842609 -0.4236766661922749 0 0.22273260804220099 -0.40833337593989039 0 0.2375199135746415 -0.41251081411085982 0 0.22273260804220099 -0.40833337593989039 0 0.2329239752461548 -0.3915683580832367 0 0.22273260804220099 -0.40833337593989039 0 0.2329239752461548 -0.3915683580832367 0 0.20879905128990789 -0.3979242828702334 0 0.25181689559195608 -0.39626294670627621 0 0.2375199135746415 -0.41251081411085982 0 0.2329239752461548 -0.3915683580832367 0 0.2375199135746415 -0.41251081411085982 0 0.2329239752461548 -0.3915683580832367 0 0.25181689559195608 -0.39626294670627621 0 0.2329239752461548 -0.3915683580832367 0 0.24529600241283839 -0.37729745215746402 0 0.2283280369176687 -0.37062590205561341 0 0.2329239752461548 -0.3915683580832367 0 0.24529600241283839 -0.37729745215746402 0 0.2283280369176687 -0.37062590205561341 0 0.2329239752461548 -0.3915683580832367 0 0.2093615889199357 -0.37846166377649437 0 0.2283280369176687 -0.37062590205561341 0 0.2329239752461548 -0.3915683580832367 0 0.2329239752461548 -0.3915683580832367 0 0.2093615889199357 -0.37846166377649437 0 0.20879905128990789 -0.3979242828702334 0 0.19191088736474929 -0.40795080777975662 0 0.20879905128990789 -0.3979242828702334 0 0.1903951409222025 -0.38629742549737528 0 0.2093615889199357 -0.37846166377649437 0 0.20879905128990789 -0.3979242828702334 0 0.1903951409222025 -0.38629742549737528 0 0.1964123116177961 -0.36878385441324291 0 0.2093615889199357 -0.37846166377649437 0 0.1903951409222025 -0.38629742549737528 0 0.2093615889199357 -0.37846166377649437 0 0.1903951409222025 -0.38629742549737528 0 0.18461650532492621 -0.36956364506394762 0 0.1903951409222025 -0.38629742549737528 0 0.1683084809391539 -0.37840610953246401 0 0.1903951409222025 -0.38629742549737528 0 0.17142869292446941 -0.39413318721825619 0 0.1903951409222025 -0.38629742549737528 0 0.17142869292446941 -0.39413318721825619 0 0.1683084809391539 -0.37840610953246401 0 0.19191088736474929 -0.40795080777975662 0 0.1903951409222025 -0.38629742549737528 0 0.17142869292446941 -0.39413318721825619 0 0.19191088736474929 -0.40795080777975662 0 0.17142869292446941 -0.39413318721825619 0 0.17537758946761869 -0.41376579969386501 0 0.17142869292446941 -0.39413318721825619 0 0.15920947879475719 -0.40643462101481059 0 0.17537758946761869 -0.41376579969386501 0 0.17142869292446941 -0.39413318721825619 0 0.15182120122032289 -0.39025075404525811 0 0.15920947879475719 -0.40643462101481059 0 0.15130922512496869 -0.37122028714145677 0 0.1683084809391539 -0.37840610953246401 0 0.15182120122032289 -0.39025075404525811 0 0.17142869292446941 -0.39413318721825619 0 0.1683084809391539 -0.37840610953246401 0 0.15182120122032289 -0.39025075404525811 0 0.15130922512496869 -0.37122028714145677 0 0.15182120122032289 -0.39025075404525811 0 0.1317705062506391 -0.37854551025882188 0 0.15182120122032289 -0.39025075404525811 0 0.1317705062506391 -0.37854551025882188 0 0.12994135006453431 -0.39567677669206452 0 0.12994135006453431 -0.39567677669206452 0 0.14297622572268101 -0.40526827825026218 0 0.1239855992081608 -0.40925622489629743 0 0.15182120122032289 -0.39025075404525811 0 0.12994135006453431 -0.39567677669206452 0 0.14297622572268101 -0.40526827825026218 0 0.15182120122032289 -0.39025075404525811 0 0.14297622572268101 -0.40526827825026218 0 0.15920947879475719 -0.40643462101481059 0 0.14297622572268101 -0.40526827825026218 0 0.1494858544801824 -0.41960045885811798 0 0.13082030797615701 -0.42274608397381741 0 0.14297622572268101 -0.40526827825026218 0 0.1494858544801824 -0.41960045885811798 0 0.15920947879475719 -0.40643462101481059 0 0.14297622572268101 -0.40526827825026218 0 0.13082030797615701 -0.42274608397381741 0 0.1239855992081608 -0.40925622489629743 0 0.13082030797615701 -0.42274608397381741 0 0.13127011383026371 -0.43987274624146411 0 0.118740856104932 -0.43413908993028488 0 0.13082030797615701 -0.42274608397381741 0 0.14363827934453491 -0.4337005415422942 0 0.13127011383026371 -0.43987274624146411 0 0.1494858544801824 -0.41960045885811798 0 0.13082030797615701 -0.42274608397381741 0 0.14363827934453491 -0.4337005415422942 0 0.1494858544801824 -0.41960045885811798 0 0.14363827934453491 -0.4337005415422942 0 0.15901462306178779 -0.43103513596844512 0 0.14363827934453491 -0.4337005415422942 0 0.15901462306178779 -0.43103513596844512 0 0.15734757185139589 -0.44518232921495082 0 0.15901462306178779 -0.43103513596844512 0 0.17145835599545189 -0.42637551321627981 0 0.17368769034450821 -0.43990886318132533 0 0.15901462306178779 -0.43103513596844512 0 0.17145835599545189 -0.42637551321627981 0 0.16327088439961379 -0.41914569313856581 0 0.1494858544801824 -0.41960045885811798 0 0.15901462306178779 -0.43103513596844512 0 0.16327088439961379 -0.41914569313856581 0 0.16327088439961379 -0.41914569313856581 0 0.15920947879475719 -0.40643462101481059 0 0.17537758946761869 -0.41376579969386501 0 0.1494858544801824 -0.41960045885811798 0 0.16327088439961379 -0.41914569313856581 0 0.15920947879475719 -0.40643462101481059 0 0.17145835599545189 -0.42637551321627981 0 0.16327088439961379 -0.41914569313856581 0 0.17537758946761869 -0.41376579969386501 0 0.19191088736474929 -0.40795080777975662 0 0.17537758946761869 -0.41376579969386501 0 0.18594099270373121 -0.42802207409919801 0 0.18876269033490639 -0.43978395890718719 0 0.18594099270373121 -0.42802207409919801 0 0.17368769034450821 -0.43990886318132533 0 0.17145835599545189 -0.42637551321627981 0 0.18594099270373121 -0.42802207409919801 0 0.17368769034450821 -0.43990886318132533 0 0.17145835599545189 -0.42637551321627981 0 0.17537758946761869 -0.41376579969386501 0 0.18594099270373121 -0.42802207409919801 0 0.17368769034450821 -0.43990886318132533 0 0.18547844155745941 -0.4514251625273471 0 0.17220505446599299 -0.45803410116164262 0 0.18876269033490639 -0.43978395890718719 0 0.17368769034450821 -0.43990886318132533 0 0.18547844155745941 -0.4514251625273471 0 0.1965084499869765 -0.47207116493902262 0 0.18547844155745941 -0.4514251625273471 0 0.17220505446599299 -0.45803410116164262 0 0.17220505446599299 -0.45803410116164262 0 0.15734757185139589 -0.44518232921495082 0 0.15308221057313359 -0.45957049384735121 0 0.17220505446599299 -0.45803410116164262 0 0.15308221057313359 -0.45957049384735121 0 0.16835671846798181 -0.47944976708843312 0 0.15901462306178779 -0.43103513596844512 0 0.17368769034450821 -0.43990886318132533 0 0.15734757185139589 -0.44518232921495082 0 0.17368769034450821 -0.43990886318132533 0 0.17220505446599299 -0.45803410116164262 0 0.15734757185139589 -0.44518232921495082 0 0.15734757185139589 -0.44518232921495082 0 0.14245757331841799 -0.44884483958864679 0 0.15308221057313359 -0.45957049384735121 0 0.14363827934453491 -0.4337005415422942 0 0.15734757185139589 -0.44518232921495082 0 0.14245757331841799 -0.44884483958864679 0 0.14363827934453491 -0.4337005415422942 0 0.14245757331841799 -0.44884483958864679 0 0.13127011383026371 -0.43987274624146411 0 0.14245757331841799 -0.44884483958864679 0 0.13127011383026371 -0.43987274624146411 0 0.1288414716580332 -0.45402247252426442 0 0.13127011383026371 -0.43987274624146411 0 0.1288414716580332 -0.45402247252426442 0 0.1235240068681379 -0.44580538515236362 0 0.13259514367799849 -0.46621615600265659 0 0.1237600365802853 -0.47200841727798071 0 0.1236036141138379 -0.4632936471189833 0 0.13259514367799849 -0.46621615600265659 0 0.1288414716580332 -0.45402247252426442 0 0.1236036141138379 -0.4632936471189833 0 0.14245757331841799 -0.44884483958864679 0 0.1288414716580332 -0.45402247252426442 0 0.1403316609507006 -0.46001162804005369 0 0.13259514367799849 -0.46621615600265659 0 0.1288414716580332 -0.45402247252426442 0 0.1403316609507006 -0.46001162804005369 0 0.13259514367799849 -0.46621615600265659 0 0.1403316609507006 -0.46001162804005369 0 0.1446819055259197 -0.47140417823734898 0 0.1403316609507006 -0.46001162804005369 0 0.15308221057313359 -0.45957049384735121 0 0.1446819055259197 -0.47140417823734898 0 0.14245757331841799 -0.44884483958864679 0 0.1403316609507006 -0.46001162804005369 0 0.15308221057313359 -0.45957049384735121 0 0.1446819055259197 -0.47140417823734898 0 0.14020498694898401 -0.48682836923783213 0 0.16835671846798181 -0.47944976708843312 0 0.14020498694898401 -0.48682836923783213 0 0.16835671846798181 -0.47944976708843312 0 0.15308221057313359 -0.45957049384735121 0 0.1446819055259197 -0.47140417823734898 0 0.16835671846798181 -0.47944976708843312 0 0.13259514367799849 -0.46621615600265659 0 0.1446819055259197 -0.47140417823734898 0 0.1362829845498239 -0.47880535525524309 0 0.1446819055259197 -0.47140417823734898 0 0.1362829845498239 -0.47880535525524309 0 0.14020498694898401 -0.48682836923783213 0 0.13259514367799849 -0.46621615600265659 0 0.1362829845498239 -0.47880535525524309 0 0.1237600365802853 -0.47200841727798071 0 0.1362829845498239 -0.47880535525524309 0 0.14020498694898401 -0.48682836923783213 0 0.11205325542998611 -0.49420697138723102 0 0.14020498694898401 -0.48682836923783213 0 0.11205325542998611 -0.49420697138723102 0 0.12292809990802581 -0.50000000000000155 0 0.14020498694898401 -0.48682836923783213 0 0.14862680892756441 -0.5 0 0.12292809990802581 -0.50000000000000155 0 0.14020498694898401 -0.48682836923783213 0 0.11205325542998611 -0.49420697138723102 0 0.14020498694898401 -0.48682836923783213 0 0.14862680892756441 -0.5 0 0.16147616343733459 -0.49259015213496099 0 0.14862680892756441 -0.5 0 0.16147616343733459 -0.49259015213496099 0 0.17432551794710291 -0.50000000000000155 0 0.14020498694898401 -0.48682836923783213 0 0.16147616343733459 -0.49259015213496099 0 0.16835671846798181 -0.47944976708843312 0 0.16147616343733459 -0.49259015213496099 0 0.17120331992336879 -0.4905682747653386 0 0.17432551794710291 -0.50000000000000155 0 0.16147616343733459 -0.49259015213496099 0 0.17120331992336879 -0.4905682747653386 0 0.16835671846798181 -0.47944976708843312 0 0.1965084499869765 -0.47207116493902262 0 0.17220505446599299 -0.45803410116164262 0 0.16835671846798181 -0.47944976708843312 0 0.1965084499869765 -0.47207116493902262 0 0.16835671846798181 -0.47944976708843312 0 0.1965084499869765 -0.47207116493902262 0 0.16835671846798181 -0.47944976708843312 0 0.181008451769576 -0.49140425600112109 0 0.2016835743875672 -0.5 0 0.181008451769576 -0.49140425600112109 0 0.17432551794710291 -0.50000000000000155 0 0.181008451769576 -0.49140425600112109 0 0.17432551794710291 -0.50000000000000155 0 0.17120331992336879 -0.4905682747653386 0 0.181008451769576 -0.49140425600112109 0 0.17432551794710291 -0.50000000000000155 0 0.17120331992336879 -0.4905682747653386 0 0.16835671846798181 -0.47944976708843312 0 0.181008451769576 -0.49140425600112109 0 0.072206670889956887 -0.49448748422409211 0 0.089950995017212793 -0.499999999999995 0 0.061568683314938137 -0.5 0 0.072206670889956887 -0.49448748422409211 0 0.069156903688285087 -0.48043213523111677 0 0.056572555378401813 -0.48646038345874831 0 0.069156903688285087 -0.48043213523111677 0 0.074246235407227107 -0.47159377508173861 0 0.084900860247657917 -0.47566753755836327 0 0.069156903688285087 -0.48043213523111677 0 0.074246235407227107 -0.47159377508173861 0 0.065046126802707396 -0.46676173362603912 0 0.084900860247657917 -0.47566753755836327 0 0.093475844916856704 -0.48928203604676113 0 0.1021299739168644 -0.48716401209470478 0 0.084900860247657917 -0.47566753755836327 0 0.1021299739168644 -0.48716401209470478 0 0.091427178522623984 -0.46070439257017282 0 0.069156903688285087 -0.48043213523111677 0 0.084900860247657917 -0.47566753755836327 0 0.093475844916856704 -0.48928203604676113 0 0.074246235407227107 -0.47159377508173861 0 0.084900860247657917 -0.47566753755836327 0 0.077881050890258013 -0.46351369391143482 0 0.072206670889956887 -0.49448748422409211 0 0.069156903688285087 -0.48043213523111677 0 0.093475844916856704 -0.48928203604676113 0 0.069156903688285087 -0.48043213523111677 0 0.093475844916856704 -0.48928203604676113 0 0.072206670889956887 -0.49448748422409211 0 0.093475844916856704 -0.48928203604676113 0 0.089950995017212793 -0.499999999999995 0 0.072206670889956887 -0.49448748422409211 0 0.093475844916856704 -0.48928203604676113 0 0.089950995017212793 -0.499999999999995 0 0.10565694730583219 -0.49588345131675632 0 0.089950995017212793 -0.499999999999995 0 0.1046283523713205 -0.49334054270172029 0 0.10565694730583219 -0.49588345131675632 0 0.093475844916856704 -0.48928203604676113 0 0.089950995017212793 -0.499999999999995 0 0.1046283523713205 -0.49334054270172029 0 0.089950995017212793 -0.499999999999995 0 0.10565694730583219 -0.49588345131675632 0 0.1073220724693722 -0.49999999999999589 0 0.093475844916856704 -0.48928203604676113 0 0.1046283523713205 -0.49334054270172029 0 0.093475844916856704 -0.48928203604676113 0 0.1021299739168644 -0.48716401209470478 0 0.1046283523713205 -0.49334054270172029 0 0.093475844916856704 -0.48928203604676113 0 0.1021299739168644 -0.48716401209470478 0 0.1021299739168644 -0.48716401209470478 0 0.1046283523713205 -0.49334054270172029 0 0.1021299739168644 -0.48716401209470478 0 0.1079361980146247 -0.49054726118247388 0 0.1046283523713205 -0.49334054270172029 0 0.1021299739168644 -0.48716401209470478 0 0.1079361980146247 -0.49054726118247388 0 0.10971435078547299 -0.48530780081461328 0 0.1021299739168644 -0.48716401209470478 0 0.10971435078547299 -0.48530780081461328 0 0.1046283523713205 -0.49334054270172029 0 0.10565694730583219 -0.49588345131675632 0 0.1079361980146247 -0.49054726118247388 0 0.1046283523713205 -0.49334054270172029 0 0.1091210924029981 -0.49497549478689118 0 0.10565694730583219 -0.49588345131675632 0 0.1091210924029981 -0.49497549478689118 0 0.1096525225205431 -0.49741912226213758 0 0.1046283523713205 -0.49334054270172029 0 0.1091210924029981 -0.49497549478689118 0 0.10565694730583219 -0.49588345131675632 0 0.1091210924029981 -0.49497549478689118 0 0.1046283523713205 -0.49334054270172029 0 0.10565694730583219 -0.49588345131675632 0 0.1091210924029981 -0.49497549478689118 0 0.10565694730583219 -0.49588345131675632 0 0.1073220724693722 -0.49999999999999589 0 0.1096525225205431 -0.49741912226213758 0 0.10565694730583219 -0.49588345131675632 0 0.1073220724693722 -0.49999999999999589 0 0.1362829845498239 -0.47880535525524309 0 0.11205325542998611 -0.49420697138723102 0 0.10971435078547299 -0.48530780081461328 0 0.1096525225205431 -0.49741912226213758 0 0.1125867051782954 -0.49623666520704079 0 0.1135757952462151 -0.50000000000000233 0 0.1073220724693722 -0.49999999999999589 0 0.1096525225205431 -0.49741912226213758 0 0.1135757952462151 -0.50000000000000233 0 0.1125867051782954 -0.49623666520704079 0 0.1135757952462151 -0.50000000000000233 0 0.12292809990802581 -0.50000000000000155 0 0.1125867051782954 -0.49623666520704079 0 0.11205325542998611 -0.49420697138723102 0 0.12292809990802581 -0.50000000000000155 0 0.1091210924029981 -0.49497549478689118 0 0.1096525225205431 -0.49741912226213758 0 0.1125867051782954 -0.49623666520704079 0 0.1125867051782954 -0.49623666520704079 0 0.1135757952462151 -0.50000000000000233 0 0.1079361980146247 -0.49054726118247388 0 0.1091210924029981 -0.49497549478689118 0 0.11205325542998611 -0.49420697138723102 0 0.1125867051782954 -0.49623666520704079 0 0.11205325542998611 -0.49420697138723102 0 0.1091210924029981 -0.49497549478689118 0 0.11205325542998611 -0.49420697138723102 0 0.1091210924029981 -0.49497549478689118 0 0.1125867051782954 -0.49623666520704079 0 0.11205325542998611 -0.49420697138723102 0 0.1091210924029981 -0.49497549478689118 0 0.1125867051782954 -0.49623666520704079 0 0.1079361980146247 -0.49054726118247388 0 0.11205325542998611 -0.49420697138723102 0 0.10971435078547299 -0.48530780081461328 0 0.11205325542998611 -0.49420697138723102 0 0.10971435078547299 -0.48530780081461328 0 0.1125867051782954 -0.49623666520704079 0 0.12292809990802581 -0.50000000000000155 0 0.1362829845498239 -0.47880535525524309 0 0.10971435078547299 -0.48530780081461328 0 0.10971435078547299 -0.48530780081461328 0 0.1237600365802853 -0.47200841727798071 0 0.1158083275236049 -0.46760194435805191 0 0.1362829845498239 -0.47880535525524309 0 0.10971435078547299 -0.48530780081461328 0 0.1237600365802853 -0.47200841727798071 0 0.10971435078547299 -0.48530780081461328 0 0.1022685306052442 -0.45697760616887573 0 0.1158083275236049 -0.46760194435805191 0 0.1021299739168644 -0.48716401209470478 0 0.091427178522623984 -0.46070439257017282 0 0.10971435078547299 -0.48530780081461328 0 0.10138769723018561 -0.47240378491404578 0 0.1022685306052442 -0.45697760616887573 0 0.1021299739168644 -0.48716401209470478 0 0.10138769723018561 -0.47240378491404578 0 0.091427178522623984 -0.46070439257017282 0 0.10971435078547299 -0.48530780081461328 0 0.1022685306052442 -0.45697760616887573 0 0.1021299739168644 -0.48716401209470478 0 0.10971435078547299 -0.48530780081461328 0 0.10138769723018561 -0.47240378491404578 0 0.10138769723018561 -0.47240378491404578 0 0.1022685306052442 -0.45697760616887573 0 0.091427178522623984 -0.46070439257017282 0 0.1022685306052442 -0.45697760616887573 0 0.092102562031604635 -0.44503677730299568 0 0.091427178522623984 -0.46070439257017282 0 0.1022685306052442 -0.45697760616887573 0 0.1158083275236049 -0.46760194435805191 0 0.11701309112926769 -0.45661924543196281 0 0.1022685306052442 -0.45697760616887573 0 0.11701309112926769 -0.45661924543196281 0 0.1135913324711481 -0.44675715410305339 0 0.1288414716580332 -0.45402247252426442 0 0.11701309112926769 -0.45661924543196281 0 0.1236036141138379 -0.4632936471189833 0 0.1237600365802853 -0.47200841727798071 0 0.1158083275236049 -0.46760194435805191 0 0.1236036141138379 -0.4632936471189833 0 0.1158083275236049 -0.46760194435805191 0 0.11701309112926769 -0.45661924543196281 0 0.1236036141138379 -0.4632936471189833 0 0.13127011383026371 -0.43987274624146411 0 0.1235240068681379 -0.44580538515236362 0 0.118740856104932 -0.43413908993028488 0 0.1235240068681379 -0.44580538515236362 0 0.1135913324711481 -0.44675715410305339 0 0.118740856104932 -0.43413908993028488 0 0.1288414716580332 -0.45402247252426442 0 0.11701309112926769 -0.45661924543196281 0 0.1235240068681379 -0.44580538515236362 0 0.11701309112926769 -0.45661924543196281 0 0.1235240068681379 -0.44580538515236362 0 0.1135913324711481 -0.44675715410305339 0 0.1135913324711481 -0.44675715410305339 0 0.1074490101422009 -0.43709978616186163 0 0.118740856104932 -0.43413908993028488 0 0.1022685306052442 -0.45697760616887573 0 0.094822710425015361 -0.42864741152313801 0 0.1074490101422009 -0.43709978616186163 0 0.1022685306052442 -0.45697760616887573 0 0.092102562031604635 -0.44503677730299568 0 0.094822710425015361 -0.42864741152313801 0 0.1022685306052442 -0.45697760616887573 0 0.094822710425015361 -0.42864741152313801 0 0.1022685306052442 -0.45697760616887573 0 0.1135913324711481 -0.44675715410305339 0 0.1074490101422009 -0.43709978616186163 0 0.091427178522623984 -0.46070439257017282 0 0.080724383128383592 -0.43424477304564069 0 0.092102562031604635 -0.44503677730299568 0 0.091427178522623984 -0.46070439257017282 0 0.080724383128383592 -0.43424477304564069 0 0.091427178522623984 -0.46070439257017282 0 0.078068237347270503 -0.45099797230882249 0 0.080724383128383592 -0.43424477304564069 0 0.084900860247657917 -0.47566753755836327 0 0.091427178522623984 -0.46070439257017282 0 0.077881050890258013 -0.46351369391143482 0 0.091427178522623984 -0.46070439257017282 0 0.077881050890258013 -0.46351369391143482 0 0.078068237347270503 -0.45099797230882249 0 0.077881050890258013 -0.46351369391143482 0 0.068434235226777107 -0.45449990714545102 0 0.078068237347270503 -0.45099797230882249 0 0.074246235407227107 -0.47159377508173861 0 0.077881050890258013 -0.46351369391143482 0 0.065046126802707396 -0.46676173362603912 0 0.077881050890258013 -0.46351369391143482 0 0.065046126802707396 -0.46676173362603912 0 0.068434235226777107 -0.45449990714545102 0 0.065046126802707396 -0.46676173362603912 0 0.068434235226777107 -0.45449990714545102 0 0.056091425441371898 -0.45763299739548779 0 0.068434235226777107 -0.45449990714545102 0 0.070162533974689467 -0.44173460177860641 0 0.059350341610837597 -0.44622093829096438 0 0.070162533974689467 -0.44173460177860641 0 0.078068237347270503 -0.45099797230882249 0 0.080724383128383592 -0.43424477304564069 0 0.070162533974689467 -0.44173460177860641 0 0.062126469113730598 -0.43507076815544637 0 0.059350341610837597 -0.44622093829096438 0 0.068434235226777107 -0.45449990714545102 0 0.070162533974689467 -0.44173460177860641 0 0.078068237347270503 -0.45099797230882249 0 0.071602333000779561 -0.43010281392213973 0 0.080633879598029257 -0.42463255033217029 0 0.080724383128383592 -0.43424477304564069 0 0.071602333000779561 -0.43010281392213973 0 0.07243255698130073 -0.41961843787644021 0 0.080633879598029257 -0.42463255033217029 0 0.070162533974689467 -0.44173460177860641 0 0.071602333000779561 -0.43010281392213973 0 0.080724383128383592 -0.43424477304564069 0 0.071602333000779561 -0.43010281392213973 0 0.063534175208543694 -0.42531575234453423 0 0.062126469113730598 -0.43507076815544637 0 0.070162533974689467 -0.44173460177860641 0 0.071602333000779561 -0.43010281392213973 0 0.062126469113730598 -0.43507076815544637 0 0.071602333000779561 -0.43010281392213973 0 0.063534175208543694 -0.42531575234453423 0 0.07243255698130073 -0.41961843787644021 0 0.063534175208543694 -0.42531575234453423 0 0.07213953329661589 -0.41231376286121579 0 0.07243255698130073 -0.41961843787644021 0 0.07213953329661589 -0.41231376286121579 0 0.07243255698130073 -0.41961843787644021 0 0.086644470947819435 -0.41754125172288981 0 0.07213953329661589 -0.41231376286121579 0 0.07243255698130073 -0.41961843787644021 0 0.07213953329661589 -0.41231376286121579 0 0.09201652428129059 -0.4010576786604183 0 0.07213953329661589 -0.41231376286121579 0 0.086644470947819435 -0.41754125172288981 0 0.09201652428129059 -0.4010576786604183 0 0.07243255698130073 -0.41961843787644021 0 0.086644470947819435 -0.41754125172288981 0 0.080633879598029257 -0.42463255033217029 0 0.086644470947819435 -0.41754125172288981 0 0.080633879598029257 -0.42463255033217029 0 0.094822710425015361 -0.42864741152313801 0 0.092102562031604635 -0.44503677730299568 0 0.080724383128383592 -0.43424477304564069 0 0.094822710425015361 -0.42864741152313801 0 0.080633879598029257 -0.42463255033217029 0 0.080724383128383592 -0.43424477304564069 0 0.094822710425015361 -0.42864741152313801 0 0.094822710425015361 -0.42864741152313801 0 0.1074490101422009 -0.43709978616186163 0 0.10782162110466489 -0.41897766908395617 0 0.1074490101422009 -0.43709978616186163 0 0.118740856104932 -0.43413908993028488 0 0.10782162110466489 -0.41897766908395617 0 0.13082030797615701 -0.42274608397381741 0 0.118740856104932 -0.43413908993028488 0 0.10782162110466489 -0.41897766908395617 0 0.13082030797615701 -0.42274608397381741 0 0.1239855992081608 -0.40925622489629743 0 0.10782162110466489 -0.41897766908395617 0 0.1239855992081608 -0.40925622489629743 0 0.10782162110466489 -0.41897766908395617 0 0.1096619966230049 -0.40403399597213652 0 0.086644470947819435 -0.41754125172288981 0 0.094822710425015361 -0.42864741152313801 0 0.10782162110466489 -0.41897766908395617 0 0.086644470947819435 -0.41754125172288981 0 0.10782162110466489 -0.41897766908395617 0 0.09201652428129059 -0.4010576786604183 0 0.10782162110466489 -0.41897766908395617 0 0.1096619966230049 -0.40403399597213652 0 0.09201652428129059 -0.4010576786604183 0 0.1096619966230049 -0.40403399597213652 0 0.1118935152659649 -0.38980159445962009 0 0.09201652428129059 -0.4010576786604183 0 0.1118935152659649 -0.38980159445962009 0 0.09201652428129059 -0.4010576786604183 0 0.1118935152659649 -0.38980159445962009 0 0.089877303042160253 -0.3880909533988286 0 0.09201652428129059 -0.4010576786604183 0 0.12994135006453431 -0.39567677669206452 0 0.1096619966230049 -0.40403399597213652 0 0.1118935152659649 -0.38980159445962009 0 0.12994135006453431 -0.39567677669206452 0 0.1239855992081608 -0.40925622489629743 0 0.1096619966230049 -0.40403399597213652 0 0.1317705062506391 -0.37854551025882188 0 0.1118935152659649 -0.38980159445962009 0 0.11245683940166799 -0.36412212369308289 0 0.1317705062506391 -0.37854551025882188 0 0.12994135006453431 -0.39567677669206452 0 0.1118935152659649 -0.38980159445962009 0 0.1317705062506391 -0.37854551025882188 0 0.1118935152659649 -0.38980159445962009 0 0.1118935152659649 -0.38980159445962009 0 0.1000379374868752 -0.37811376997128582 0 0.11245683940166799 -0.36412212369308289 0 0.1118935152659649 -0.38980159445962009 0 0.1000379374868752 -0.37811376997128582 0 0.089877303042160253 -0.3880909533988286 0 0.1000379374868752 -0.37811376997128582 0 0.087110537798514298 -0.37872647541349619 0 0.089692445641139332 -0.36940561738324867 0 0.087110537798514298 -0.37872647541349619 0 0.071175189360487501 -0.3882740028539835 0 0.084769813461909274 -0.36974803346013452 0 0.1000379374868752 -0.37811376997128582 0 0.087110537798514298 -0.37872647541349619 0 0.089877303042160253 -0.3880909533988286 0 0.087110537798514298 -0.37872647541349619 0 0.089877303042160253 -0.3880909533988286 0 0.071175189360487501 -0.3882740028539835 0 0.07213953329661589 -0.41231376286121579 0 0.09201652428129059 -0.4010576786604183 0 0.079398744723735482 -0.39908214269504111 0 0.089877303042160253 -0.3880909533988286 0 0.09201652428129059 -0.4010576786604183 0 0.079398744723735482 -0.39908214269504111 0 0.089877303042160253 -0.3880909533988286 0 0.079398744723735482 -0.39908214269504111 0 0.071175189360487501 -0.3882740028539835 0 0.07213953329661589 -0.41231376286121579 0 0.071175189360487501 -0.3882740028539835 0 0.060986459093393619 -0.39658088411045189 0 0.07213953329661589 -0.41231376286121579 0 0.079398744723735482 -0.39908214269504111 0 0.071175189360487501 -0.3882740028539835 0 0.07213953329661589 -0.41231376286121579 0 0.060986459093393619 -0.39658088411045189 0 0.057672458162675543 -0.40620060102092448 0 0.07213953329661589 -0.41231376286121579 0 0.071175189360487501 -0.3882740028539835 0 0.071175189360487501 -0.3882740028539835 0 0.070210845424361082 -0.36423424284675099 0 0.071175189360487501 -0.3882740028539835 0 0.052046035404224492 -0.38673232087392873 0 0.055505868095650862 -0.37103686791708967 0 0.071175189360487501 -0.3882740028539835 0 0.052046035404224492 -0.38673232087392873 0 0.060986459093393619 -0.39658088411045189 0 0.052046035404224492 -0.38673232087392873 0 0.041028427481151521 -0.37527456031223178 0 0.055505868095650862 -0.37103686791708967 0 0.060986459093393619 -0.39658088411045189 0 0.057672458162675543 -0.40620060102092448 0 0.047001012665732672 -0.40055209859852808 0 0.052046035404224492 -0.38673232087392873 0 0.060986459093393619 -0.39658088411045189 0 0.047001012665732672 -0.40055209859852808 0 0.052046035404224492 -0.38673232087392873 0 0.047001012665732672 -0.40055209859852808 0 0.037774154352403562 -0.38919155108175069 0 0.047001012665732672 -0.40055209859852808 0 0.03304529532124683 -0.40018692282797519 0 0.037774154352403562 -0.38919155108175069 0 0.047001012665732672 -0.40055209859852808 0 0.03304529532124683 -0.40018692282797519 0 0.03867874890485077 -0.41268746451435617 0 0.03304529532124683 -0.40018692282797519 0 0.037774154352403562 -0.38919155108175069 0 0.028046404711751981 -0.39102162023071252 0 0.052046035404224492 -0.38673232087392873 0 0.037774154352403562 -0.38919155108175069 0 0.041028427481151521 -0.37527456031223178 0 0.037774154352403562 -0.38919155108175069 0 0.041028427481151521 -0.37527456031223178 0 0.027605198548088902 -0.38059606436826549 0 0.037774154352403562 -0.38919155108175069 0 0.027605198548088902 -0.38059606436826549 0 0.028046404711751981 -0.39102162023071252 0 0.027605198548088902 -0.38059606436826549 0 0.01771296712077125 -0.39231189930438148 0 0.028046404711751981 -0.39102162023071252 0 0.027605198548088902 -0.38059606436826549 0 0.01515199875016016 -0.37945832093779192 0 0.01771296712077125 -0.39231189930438148 0 0.027605198548088902 -0.38059606436826549 0 0.01515199875016016 -0.37945832093779192 0 0.01707717877271395 -0.36676908039140049 0 0.01515199875016016 -0.37945832093779192 0 0.0060011257705238318 -0.38562899480587859 0 0.0073635235387028413 -0.37198556581903319 0 0.01515199875016016 -0.37945832093779192 0 0.0060011257705238318 -0.38562899480587859 0 0.01771296712077125 -0.39231189930438148 0 -0.0026119814658056191 -0.37723872008098658 0 0.0060011257705238318 -0.38562899480587859 0 0.0073635235387028413 -0.37198556581903319 0 0.0060011257705238318 -0.38562899480587859 0 0.01771296712077125 -0.39231189930438148 0 0.0090109765859554859 -0.40706053693574229 0 -0.01036310106800961 -0.3954258593863833 0 0.0060011257705238318 -0.38562899480587859 0 0.0090109765859554859 -0.40706053693574229 0 0.02170290949753502 -0.402859183605347 0 0.01771296712077125 -0.39231189930438148 0 0.0090109765859554859 -0.40706053693574229 0 0.02170290949753502 -0.402859183605347 0 0.01771296712077125 -0.39231189930438148 0 0.028046404711751981 -0.39102162023071252 0 0.03304529532124683 -0.40018692282797519 0 0.02170290949753502 -0.402859183605347 0 0.028046404711751981 -0.39102162023071252 0 0.03304529532124683 -0.40018692282797519 0 0.02170290949753502 -0.402859183605347 0 0.03021304610231923 -0.40860688104869308 0 0.028385054239920569 -0.41869521448510127 0 0.0090109765859554859 -0.40706053693574229 0 0.02170290949753502 -0.402859183605347 0 0.03021304610231923 -0.40860688104869308 0 0.028385054239920569 -0.41869521448510127 0 0.02170290949753502 -0.402859183605347 0 0.028385054239920569 -0.41869521448510127 0 0.0090109765859554859 -0.40706053693574229 0 0.028385054239920569 -0.41869521448510127 0 0.0090109765859554859 -0.40706053693574229 0 0.01379774402229202 -0.42316389773974972 0 -6.676144208739281e-05 -0.42708603705694259 0 0.0090109765859554859 -0.40706053693574229 0 0.01379774402229202 -0.42316389773974972 0 -6.676144208739281e-05 -0.42708603705694259 0 0.01379774402229202 -0.42316389773974972 0 0.01786170670537943 -0.43981380248121282 0 0.038161342373408513 -0.42431293682616161 0 0.01786170670537943 -0.43981380248121282 0 0.028385054239920569 -0.41869521448510127 0 0.01379774402229202 -0.42316389773974972 0 0.01786170670537943 -0.43981380248121282 0 0.028385054239920569 -0.41869521448510127 0 0.038161342373408513 -0.42431293682616161 0 0.01786170670537943 -0.43981380248121282 0 0.038161342373408513 -0.42431293682616161 0 0.038211530942054622 -0.43835966000234222 0 0.01786170670537943 -0.43981380248121282 0 0.045925214722476453 -0.4271585941218724 0 0.038161342373408513 -0.42431293682616161 0 0.038211530942054622 -0.43835966000234222 0 0.045925214722476453 -0.4271585941218724 0 0.050840641396299867 -0.43817899184888809 0 0.038211530942054622 -0.43835966000234222 0 0.045925214722476453 -0.4271585941218724 0 0.038161342373408513 -0.42431293682616161 0 0.043563299439683817 -0.41991654143747947 0 0.028385054239920569 -0.41869521448510127 0 0.038161342373408513 -0.42431293682616161 0 0.03867874890485077 -0.41268746451435617 0 0.03304529532124683 -0.40018692282797519 0 0.03021304610231923 -0.40860688104869308 0 0.03867874890485077 -0.41268746451435617 0 0.03021304610231923 -0.40860688104869308 0 0.028385054239920569 -0.41869521448510127 0 0.03867874890485077 -0.41268746451435617 0 0.047001012665732672 -0.40055209859852808 0 0.03867874890485077 -0.41268746451435617 0 0.050562827594959968 -0.4153556585135022 0 0.038161342373408513 -0.42431293682616161 0 0.03867874890485077 -0.41268746451435617 0 0.043563299439683817 -0.41991654143747947 0 0.045925214722476453 -0.4271585941218724 0 0.043563299439683817 -0.41991654143747947 0 0.050562827594959968 -0.4153556585135022 0 0.03867874890485077 -0.41268746451435617 0 0.043563299439683817 -0.41991654143747947 0 0.050562827594959968 -0.4153556585135022 0 0.07213953329661589 -0.41231376286121579 0 0.057672458162675543 -0.40620060102092448 0 0.050562827594959968 -0.4153556585135022 0 0.07213953329661589 -0.41231376286121579 0 0.045925214722476453 -0.4271585941218724 0 0.063534175208543694 -0.42531575234453423 0 0.07213953329661589 -0.41231376286121579 0 0.045925214722476453 -0.4271585941218724 0 0.07213953329661589 -0.41231376286121579 0 0.045925214722476453 -0.4271585941218724 0 0.050562827594959968 -0.4153556585135022 0 0.057672458162675543 -0.40620060102092448 0 0.047001012665732672 -0.40055209859852808 0 0.050562827594959968 -0.4153556585135022 0 0.063534175208543694 -0.42531575234453423 0 0.045925214722476453 -0.4271585941218724 0 0.055635872806008839 -0.43130326757896781 0 0.062126469113730598 -0.43507076815544637 0 0.055635872806008839 -0.43130326757896781 0 0.050840641396299867 -0.43817899184888809 0 0.063534175208543694 -0.42531575234453423 0 0.062126469113730598 -0.43507076815544637 0 0.055635872806008839 -0.43130326757896781 0 0.045925214722476453 -0.4271585941218724 0 0.055635872806008839 -0.43130326757896781 0 0.050840641396299867 -0.43817899184888809 0 0.059350341610837597 -0.44622093829096438 0 0.056091425441371898 -0.45763299739548779 0 0.045706513989263807 -0.44909921717695062 0 0.050840641396299867 -0.43817899184888809 0 0.059350341610837597 -0.44622093829096438 0 0.045706513989263807 -0.44909921717695062 0 0.062126469113730598 -0.43507076815544637 0 0.050840641396299867 -0.43817899184888809 0 0.059350341610837597 -0.44622093829096438 0 0.068434235226777107 -0.45449990714545102 0 0.059350341610837597 -0.44622093829096438 0 0.056091425441371898 -0.45763299739548779 0 0.065046126802707396 -0.46676173362603912 0 0.056091425441371898 -0.45763299739548779 0 0.044837962459713013 -0.47158223441547359 0 0.056091425441371898 -0.45763299739548779 0 0.045706513989263807 -0.44909921717695062 0 0.044837962459713013 -0.47158223441547359 0 0.020519021231141119 -0.46273233359983051 0 0.044837962459713013 -0.47158223441547359 0 0.031464515268084678 -0.45178262871478658 0 0.045706513989263807 -0.44909921717695062 0 0.044837962459713013 -0.47158223441547359 0 0.031464515268084678 -0.45178262871478658 0 0.020519021231141119 -0.46273233359983051 0 0.044837962459713013 -0.47158223441547359 0 0.031464515268084678 -0.45178262871478658 0 0.045706513989263807 -0.44909921717695062 0 0.038211530942054622 -0.43835966000234222 0 0.050840641396299867 -0.43817899184888809 0 0.045706513989263807 -0.44909921717695062 0 0.038211530942054622 -0.43835966000234222 0 0.031464515268084678 -0.45178262871478658 0 0.038211530942054622 -0.43835966000234222 0 0.01786170670537943 -0.43981380248121282 0 0.031464515268084678 -0.45178262871478658 0 0.01786170670537943 -0.43981380248121282 0 0.020519021231141119 -0.46273233359983051 0 -0.0024379289626495228 -0.45531466813626392 0 0.01786170670537943 -0.43981380248121282 0 -6.676144208739281e-05 -0.42708603705694259 0 -0.0024379289626495228 -0.45531466813626392 0 0.01786170670537943 -0.43981380248121282 0 -0.0024379289626495228 -0.45531466813626392 0 0.01786170670537943 -0.43981380248121282 0 0.020519021231141119 -0.46273233359983051 0 -0.0024379289626495228 -0.45531466813626392 0 -0.001035836599869533 -0.47823557756006913 0 0.020519021231141119 -0.46273233359983051 0 0.020519021231141119 -0.46273233359983051 0 0.024672553600839069 -0.48310954609950169 0 0.044837962459713013 -0.47158223441547359 0 -0.001035836599869533 -0.47823557756006913 0 0.020519021231141119 -0.46273233359983051 0 0.024672553600839069 -0.48310954609950169 0 -0.001035836599869533 -0.47823557756006913 0 0.024672553600839069 -0.48310954609950169 0 0.0048040599103887924 -0.5 0 0.024672553600839069 -0.48310954609950169 0 0.0048040599103887924 -0.5 0 0.033186371612663579 -0.5 0 0.033186371612663579 -0.5 0 0.04204138798293483 -0.48816901927502898 0 0.050937496863056667 -0.5 0 0.024672553600839069 -0.48310954609950169 0 0.033186371612663579 -0.5 0 0.04204138798293483 -0.48816901927502898 0 0.024672553600839069 -0.48310954609950169 0 0.04204138798293483 -0.48816901927502898 0 0.044837962459713013 -0.47158223441547359 0 0.069156903688285087 -0.48043213523111677 0 0.065046126802707396 -0.46676173362603912 0 0.044837962459713013 -0.47158223441547359 0 0.04204138798293483 -0.48816901927502898 0 0.044837962459713013 -0.47158223441547359 0 0.056572555378401813 -0.48646038345874831 0 0.069156903688285087 -0.48043213523111677 0 0.044837962459713013 -0.47158223441547359 0 0.056572555378401813 -0.48646038345874831 0 0.069156903688285087 -0.48043213523111677 0 0.044837962459713013 -0.47158223441547359 0 0.072206670889956887 -0.49448748422409211 0 0.050937496863056667 -0.5 0 0.072206670889956887 -0.49448748422409211 0 0.056572555378401813 -0.48646038345874831 0 0.050937496863056667 -0.5 0 0.072206670889956887 -0.49448748422409211 0 0.061568683314938137 -0.5 0 0.050937496863056667 -0.5 0 0.04204138798293483 -0.48816901927502898 0 0.056572555378401813 -0.48646038345874831 0 0.050937496863056667 -0.5 0 0.084465426788053799 -0.30498775243801168 0 0.085064636978786967 -0.27910056755331208 0 0.10690130107753081 -0.28950628572645559 0 0.084465426788053799 -0.30498775243801168 0 0.085064636978786967 -0.27910056755331208 0 0.078451744910136387 -0.29572056440770572 0 0.084465426788053799 -0.30498775243801168 0 0.085064636978786967 -0.27910056755331208 0 0.084465426788053799 -0.30498775243801168 0 0.104327376023301 -0.31391651658159048 0 0.091763775192905794 -0.31599596280883308 0 0.078451744910136387 -0.29572056440770572 0 0.084465426788053799 -0.30498775243801168 0 0.067528778747567159 -0.29737403165235471 0 0.084465426788053799 -0.30498775243801168 0 0.067528778747567159 -0.29737403165235471 0 0.068282157552108869 -0.31615472283228629 0 0.067528778747567159 -0.29737403165235471 0 0.068282157552108869 -0.31615472283228629 0 0.084465426788053799 -0.30498775243801168 0 0.067528778747567159 -0.29737403165235471 0 0.084465426788053799 -0.30498775243801168 0 0.080659251003766336 -0.31327251099401349 0 0.068282157552108869 -0.31615472283228629 0 0.084465426788053799 -0.30498775243801168 0 0.068282157552108869 -0.31615472283228629 0 0.067528778747567159 -0.29737403165235471 0 0.068282157552108869 -0.31615472283228629 0 0.053777093224770312 -0.31158893533998572 0 0.078451744910136387 -0.29572056440770572 0 0.066655081658971035 -0.27559397212991071 0 0.085064636978786967 -0.27910056755331208 0 0.067528778747567159 -0.29737403165235471 0 0.066655081658971035 -0.27559397212991071 0 0.078451744910136387 -0.29572056440770572 0 0.067528778747567159 -0.29737403165235471 0 0.066655081658971035 -0.27559397212991071 0 0.066655081658971035 -0.27559397212991071 0 0.075276748335907709 -0.26843843628601488 0 0.085064636978786967 -0.27910056755331208 0 0.066655081658971035 -0.27559397212991071 0 0.075276748335907709 -0.26843843628601488 0 0.072755523188845053 -0.26008390642355228 0 0.066655081658971035 -0.27559397212991071 0 0.065781384570376703 -0.25381391260746661 0 0.066655081658971035 -0.27559397212991071 0 0.065781384570376703 -0.25381391260746661 0 0.072755523188845053 -0.26008390642355228 0 0.075276748335907709 -0.26843843628601488 0 0.072755523188845053 -0.26008390642355228 0 0.079997922579308239 -0.25933402000766043 0 0.065781384570376703 -0.25381391260746661 0 0.072755523188845053 -0.26008390642355228 0 0.078835211783119793 -0.25364920578909828 0 0.065781384570376703 -0.25381391260746661 0 0.078835211783119793 -0.25364920578909828 0 0.072755523188845053 -0.26008390642355228 0 0.078835211783119793 -0.25364920578909828 0 0.079997922579308239 -0.25933402000766043 0 0.085147674512013716 -0.25356955821637889 0 0.079997922579308239 -0.25933402000766043 0 0.085064636978786967 -0.27910056755331208 0 0.085147674512013716 -0.25356955821637889 0 0.078835211783119793 -0.25364920578909828 0 0.078835211783119793 -0.25364920578909828 0 0.079997922579308239 -0.25933402000766043 0 0.085147674512013716 -0.25356955821637889 0 0.078835211783119793 -0.25364920578909828 0 0.079997922579308239 -0.25933402000766043 0 0.085147674512013716 -0.25356955821637889 0 0.085064636978786967 -0.27910056755331208 0 0.096799656300460168 -0.26637309504519058 0 0.075276748335907709 -0.26843843628601488 0 0.079997922579308239 -0.25933402000766043 0 0.085064636978786967 -0.27910056755331208 0 0.085147674512013716 -0.25356955821637889 0 0.085064636978786967 -0.27910056755331208 0 0.085064636978786967 -0.27910056755331208 0 0.096799656300460168 -0.26637309504519058 0 0.10690130107753081 -0.28950628572645559 0 0.096799656300460168 -0.26637309504519058 0 0.1131393165954841 -0.26906151760904939 0 0.10690130107753081 -0.28950628572645559 0 0.085147674512013716 -0.25356955821637889 0 0.096799656300460168 -0.26637309504519058 0 0.10812488252755249 -0.25327964302403888 0 0.085147674512013716 -0.25356955821637889 0 0.10812488252755249 -0.25327964302403888 0 0.096799656300460168 -0.26637309504519058 0 0.10812488252755249 -0.25327964302403888 0 0.1131393165954841 -0.26906151760904939 0 0.133709605578477 -0.26022246291674422 0 0.10812488252755249 -0.25327964302403888 0 0.1131393165954841 -0.26906151760904939 0 0.133709605578477 -0.26022246291674422 0 0.10812488252755249 -0.25327964302403888 0 0.1323755988812039 -0.2461479566512233 0 0.1288210027095022 -0.2743809945626664 0 0.1131393165954841 -0.26906151760904939 0 0.10690130107753081 -0.28950628572645559 0 0.12571047567945559 -0.29998923641376979 0 0.1288210027095022 -0.2743809945626664 0 0.10690130107753081 -0.28950628572645559 0 0.1288210027095022 -0.2743809945626664 0 0.10690130107753081 -0.28950628572645559 0 0.084465426788053799 -0.30498775243801168 0 0.104327376023301 -0.31391651658159048 0 0.084465426788053799 -0.30498775243801168 0 0.10690130107753081 -0.28950628572645559 0 0.084465426788053799 -0.30498775243801168 0 0.10690130107753081 -0.28950628572645559 0 0.104327376023301 -0.31391651658159048 0 0.12571047567945559 -0.29998923641376979 0 0.1236750629340428 -0.32261409863175072 0 0.104327376023301 -0.31391651658159048 0 0.12571047567945559 -0.29998923641376979 0 0.10690130107753081 -0.28950628572645559 0 0.104327376023301 -0.31391651658159048 0 0.1236750629340428 -0.32261409863175072 0 0.104327376023301 -0.31391651658159048 0 0.1236750629340428 -0.32261409863175072 0 0.097607196765907872 -0.33360346698148069 0 0.13168809535238479 -0.3403899336892956 0 0.1236750629340428 -0.32261409863175072 0 0.11660430517836259 -0.34510559492494591 0 0.1236750629340428 -0.32261409863175072 0 0.097607196765907872 -0.33360346698148069 0 0.11660430517836259 -0.34510559492494591 0 0.1236750629340428 -0.32261409863175072 0 0.097607196765907872 -0.33360346698148069 0 0.104327376023301 -0.31391651658159048 0 0.097607196765907872 -0.33360346698148069 0 0.104327376023301 -0.31391651658159048 0 0.091763775192905794 -0.31599596280883308 0 0.1352212331621967 -0.35883863000291732 0 0.11245683940166799 -0.36412212369308289 0 0.11245683940166799 -0.36412212369308289 0 0.11660430517836259 -0.34510559492494591 0 0.099779188876217728 -0.35327287062903318 0 0.1352212331621967 -0.35883863000291732 0 0.11245683940166799 -0.36412212369308289 0 0.11660430517836259 -0.34510559492494591 0 0.097607196765907872 -0.33360346698148069 0 0.099779188876217728 -0.35327287062903318 0 0.08483977201212646 -0.34823833381723251 0 0.097607196765907872 -0.33360346698148069 0 0.11660430517836259 -0.34510559492494591 0 0.099779188876217728 -0.35327287062903318 0 0.11245683940166799 -0.36412212369308289 0 0.089692445641139332 -0.36940561738324867 0 0.11245683940166799 -0.36412212369308289 0 0.099779188876217728 -0.35327287062903318 0 0.089692445641139332 -0.36940561738324867 0 0.1000379374868752 -0.37811376997128582 0 0.11245683940166799 -0.36412212369308289 0 0.089692445641139332 -0.36940561738324867 0 0.084769813461909274 -0.36974803346013452 0 0.08483977201212646 -0.34823833381723251 0 0.070210845424361082 -0.36423424284675099 0 0.084769813461909274 -0.36974803346013452 0 0.089692445641139332 -0.36940561738324867 0 0.08483977201212646 -0.34823833381723251 0 0.087110537798514298 -0.37872647541349619 0 0.084769813461909274 -0.36974803346013452 0 0.089692445641139332 -0.36940561738324867 0 0.099779188876217728 -0.35327287062903318 0 0.089692445641139332 -0.36940561738324867 0 0.08483977201212646 -0.34823833381723251 0 0.084769813461909274 -0.36974803346013452 0 0.08483977201212646 -0.34823833381723251 0 0.070210845424361082 -0.36423424284675099 0 0.069246501488234649 -0.34019448283951859 0 0.0585916455525793 -0.35266111960452512 0 0.08483977201212646 -0.34823833381723251 0 0.070210845424361082 -0.36423424284675099 0 0.069246501488234649 -0.34019448283951859 0 0.070210845424361082 -0.36423424284675099 0 0.069246501488234649 -0.34019448283951859 0 0.071175189360487501 -0.3882740028539835 0 0.084769813461909274 -0.36974803346013452 0 0.070210845424361082 -0.36423424284675099 0 0.071175189360487501 -0.3882740028539835 0 0.070210845424361082 -0.36423424284675099 0 0.055505868095650862 -0.37103686791708967 0 0.084465426788053799 -0.30498775243801168 0 0.084909730562343647 -0.32672863417433051 0 0.084465426788053799 -0.30498775243801168 0 0.091763775192905794 -0.31599596280883308 0 0.084909730562343647 -0.32672863417433051 0 0.084465426788053799 -0.30498775243801168 0 0.084909730562343647 -0.32672863417433051 0 0.080659251003766336 -0.31327251099401349 0 0.097607196765907872 -0.33360346698148069 0 0.091763775192905794 -0.31599596280883308 0 0.084909730562343647 -0.32672863417433051 0 0.097607196765907872 -0.33360346698148069 0 0.08483977201212646 -0.34823833381723251 0 0.084909730562343647 -0.32672863417433051 0 0.08483977201212646 -0.34823833381723251 0 0.084909730562343647 -0.32672863417433051 0 0.069246501488234649 -0.34019448283951859 0 0.08483977201212646 -0.34823833381723251 0 0.084909730562343647 -0.32672863417433051 0 0.069246501488234649 -0.34019448283951859 0 0.068282157552108869 -0.31615472283228629 0 0.084909730562343647 -0.32672863417433051 0 0.080659251003766336 -0.31327251099401349 0 0.068282157552108869 -0.31615472283228629 0 0.084909730562343647 -0.32672863417433051 0 0.069246501488234649 -0.34019448283951859 0 0.068282157552108869 -0.31615472283228629 0 0.068282157552108869 -0.31615472283228629 0 0.045542393278960362 -0.33184588329615161 0 0.053777093224770312 -0.31158893533998572 0 0.068282157552108869 -0.31615472283228629 0 0.045542393278960362 -0.33184588329615161 0 0.069246501488234649 -0.34019448283951859 0 0.045542393278960362 -0.33184588329615161 0 0.0585916455525793 -0.35266111960452512 0 0.069246501488234649 -0.34019448283951859 0 0.068282157552108869 -0.31615472283228629 0 0.045542393278960362 -0.33184588329615161 0 0.045542393278960362 -0.33184588329615161 0 0.022802629005811741 -0.34753704376001648 0 0.045542393278960362 -0.33184588329615161 0 0.039187711212208362 -0.31154070569186382 0 0.053777093224770312 -0.31158893533998572 0 0.045542393278960362 -0.33184588329615161 0 0.023378360721783651 -0.32563195002489881 0 0.039187711212208362 -0.31154070569186382 0 0.055505868095650862 -0.37103686791708967 0 0.0585916455525793 -0.35266111960452512 0 0.04227883394311014 -0.35755277213525699 0 0.070210845424361082 -0.36423424284675099 0 0.055505868095650862 -0.37103686791708967 0 0.0585916455525793 -0.35266111960452512 0 0.045542393278960362 -0.33184588329615161 0 0.0585916455525793 -0.35266111960452512 0 0.04227883394311014 -0.35755277213525699 0 0.045542393278960362 -0.33184588329615161 0 0.04227883394311014 -0.35755277213525699 0 0.022802629005811741 -0.34753704376001648 0 0.04227883394311014 -0.35755277213525699 0 0.030960474543431201 -0.36653778549709948 0 0.022802629005811741 -0.34753704376001648 0 0.041028427481151521 -0.37527456031223178 0 0.04227883394311014 -0.35755277213525699 0 0.030960474543431201 -0.36653778549709948 0 0.041028427481151521 -0.37527456031223178 0 0.055505868095650862 -0.37103686791708967 0 0.04227883394311014 -0.35755277213525699 0 0.041028427481151521 -0.37527456031223178 0 0.027605198548088902 -0.38059606436826549 0 0.030960474543431201 -0.36653778549709948 0 0.030960474543431201 -0.36653778549709948 0 0.01707717877271395 -0.36676908039140049 0 0.022802629005811741 -0.34753704376001648 0 0.027605198548088902 -0.38059606436826549 0 0.030960474543431201 -0.36653778549709948 0 0.01707717877271395 -0.36676908039140049 0 0.01707717877271395 -0.36676908039140049 0 0.022802629005811741 -0.34753704376001648 0 6.2864732661596824e-05 -0.3632282042238793 0 0.022802629005811741 -0.34753704376001648 0 6.2864732661596824e-05 -0.3632282042238793 0 0.0049385955257191493 -0.33755976517825093 0 6.2864732661596824e-05 -0.3632282042238793 0 0.0049385955257191493 -0.33755976517825093 0 0.022802629005811741 -0.34753704376001648 0 6.2864732661596824e-05 -0.3632282042238793 0 0.01707717877271395 -0.36676908039140049 0 6.2864732661596824e-05 -0.3632282042238793 0 0.0073635235387028413 -0.37198556581903319 0 -0.0026119814658056191 -0.37723872008098658 0 6.2864732661596824e-05 -0.3632282042238793 0 0.0073635235387028413 -0.37198556581903319 0 0.01515199875016016 -0.37945832093779192 0 0.01707717877271395 -0.36676908039140049 0 0.0073635235387028413 -0.37198556581903319 0 0.023378360721783651 -0.32563195002489881 0 0.024499664288587349 -0.30236751238674608 0 0.039187711212208362 -0.31154070569186382 0 0.023378360721783651 -0.32563195002489881 0 0.0098143263187803528 -0.3118913261326231 0 0.024499664288587349 -0.30236751238674608 0 0.022802629005811741 -0.34753704376001648 0 0.023378360721783651 -0.32563195002489881 0 0.0049385955257191493 -0.33755976517825093 0 0.045542393278960362 -0.33184588329615161 0 0.022802629005811741 -0.34753704376001648 0 0.023378360721783651 -0.32563195002489881 0 0.0049385955257191493 -0.33755976517825093 0 0.0098143263187803528 -0.3118913261326231 0 -0.0051617510024175878 -0.31389466242030678 0 0.0049385955257191493 -0.33755976517825093 0 0.0098143263187803528 -0.3118913261326231 0 0.023378360721783651 -0.32563195002489881 0 0.0049385955257191493 -0.33755976517825093 0 0.0098143263187803528 -0.3118913261326231 0 -0.0042876670432264166 -0.29444695977553792 0 0.0098143263187803528 -0.3118913261326231 0 0.01469005711184187 -0.28622288708699561 0 0.0098143263187803528 -0.3118913261326231 0 0.01469005711184187 -0.28622288708699561 0 -0.0042876670432264166 -0.29444695977553792 0 -0.0051617510024175878 -0.31389466242030678 0 0.0098143263187803528 -0.3118913261326231 0 -0.0042876670432264166 -0.29444695977553792 0 -0.0070919597642525173 -0.28501814265435832 0 0.01469005711184187 -0.28622288708699561 0 -0.0070919597642525173 -0.28501814265435832 0 0.01469005711184187 -0.28622288708699561 0 -0.0070919597642525173 -0.28501814265435832 0 0.01469005711184187 -0.28622288708699561 0 0.0042085222182574418 -0.27821715245273931 0 0.01469005711184187 -0.28622288708699561 0 0.032420292287234947 -0.28720353099332041 0 0.01469005711184187 -0.28622288708699561 0 0.032420292287234947 -0.28720353099332041 0 0.016895495722448538 -0.27461228573349722 0 0.01469005711184187 -0.28622288708699561 0 0.024499664288587349 -0.30236751238674608 0 0.032420292287234947 -0.28720353099332041 0 0.032420292287234947 -0.28720353099332041 0 0.042212137235007663 -0.28599315869292652 0 0.016895495722448538 -0.27461228573349722 0 0.0098143263187803528 -0.3118913261326231 0 0.01469005711184187 -0.28622288708699561 0 0.024499664288587349 -0.30236751238674608 0 0.039187711212208362 -0.31154070569186382 0 0.037976574725475047 -0.29749876173580608 0 0.048344425333007222 -0.30102933322727071 0 0.024499664288587349 -0.30236751238674608 0 0.039187711212208362 -0.31154070569186382 0 0.037976574725475047 -0.29749876173580608 0 0.024499664288587349 -0.30236751238674608 0 0.037976574725475047 -0.29749876173580608 0 0.032420292287234947 -0.28720353099332041 0 0.037976574725475047 -0.29749876173580608 0 0.032420292287234947 -0.28720353099332041 0 0.042212137235007663 -0.28599315869292652 0 0.037976574725475047 -0.29749876173580608 0 0.042212137235007663 -0.28599315869292652 0 0.048344425333007222 -0.30102933322727071 0 0.067528778747567159 -0.29737403165235471 0 0.042212137235007663 -0.28599315869292652 0 0.067528778747567159 -0.29737403165235471 0 0.042212137235007663 -0.28599315869292652 0 0.048344425333007222 -0.30102933322727071 0 0.067528778747567159 -0.29737403165235471 0 0.066655081658971035 -0.27559397212991071 0 0.042212137235007663 -0.28599315869292652 0 0.067528778747567159 -0.29737403165235471 0 0.053777093224770312 -0.31158893533998572 0 0.048344425333007222 -0.30102933322727071 0 0.039187711212208362 -0.31154070569186382 0 0.053777093224770312 -0.31158893533998572 0 0.048344425333007222 -0.30102933322727071 0 0.066655081658971035 -0.27559397212991071 0 0.065781384570376703 -0.25381391260746661 0 0.051894356892803327 -0.26576425871040288 0 0.065781384570376703 -0.25381391260746661 0 0.051894356892803327 -0.26576425871040288 0 0.038485237002199663 -0.25415832207040617 0 0.065781384570376703 -0.25381391260746661 0 0.038485237002199663 -0.25415832207040617 0 0.066655081658971035 -0.27559397212991071 0 0.042212137235007663 -0.28599315869292652 0 0.051894356892803327 -0.26576425871040288 0 0.042212137235007663 -0.28599315869292652 0 0.051894356892803327 -0.26576425871040288 0 0.033576895871038098 -0.26944685296999421 0 0.051894356892803327 -0.26576425871040288 0 0.033576895871038098 -0.26944685296999421 0 0.038485237002199663 -0.25415832207040617 0 0.038485237002199663 -0.25415832207040617 0 0.011189089434022539 -0.25450273153334613 0 0.038485237002199663 -0.25415832207040617 0 0.018397252502731169 -0.26670623964273849 0 0.011189089434022539 -0.25450273153334613 0 0.033576895871038098 -0.26944685296999421 0 0.038485237002199663 -0.25415832207040617 0 0.018397252502731169 -0.26670623964273849 0 0.038485237002199663 -0.25415832207040617 0 0.011189089434022539 -0.25450273153334613 0 0.026963624061486179 -0.24652956461078149 0 0.033576895871038098 -0.26944685296999421 0 0.018397252502731169 -0.26670623964273849 0 0.016895495722448538 -0.27461228573349722 0 0.042212137235007663 -0.28599315869292652 0 0.033576895871038098 -0.26944685296999421 0 0.016895495722448538 -0.27461228573349722 0 0.042212137235007663 -0.28599315869292652 0 0.016895495722448538 -0.27461228573349722 0 0.018397252502731169 -0.26670623964273849 0 0.016895495722448538 -0.27461228573349722 0 0.01469005711184187 -0.28622288708699561 0 0.016895495722448538 -0.27461228573349722 0 -0.0036094696110104958 -0.2653944593728465 0 0.016895495722448538 -0.27461228573349722 0 0.0042085222182574418 -0.27821715245273931 0 -0.0036094696110104958 -0.2653944593728465 0 0.018397252502731169 -0.26670623964273849 0 0.016895495722448538 -0.27461228573349722 0 -0.0036094696110104958 -0.2653944593728465 0 0.016895495722448538 -0.27461228573349722 0 0.01469005711184187 -0.28622288708699561 0 0.016895495722448538 -0.27461228573349722 0 0.0042085222182574418 -0.27821715245273931 0 -0.0036094696110104958 -0.2653944593728465 0 0.018397252502731169 -0.26670623964273849 0 0.011189089434022539 -0.25450273153334613 0 -0.0026118230880910788 -0.24256171291824011 0 0.01487833985409572 -0.2422105696866067 0 0.0028322544969735701 -0.22731326800038831 0 -0.0026118230880910788 -0.24256171291824011 0 0.011189089434022539 -0.25450273153334613 0 0.01487833985409572 -0.2422105696866067 0 0.0028322544969735701 -0.22731326800038831 0 0.016003043655016879 -0.22942609265824779 0 0.0050424632485473724 -0.21232262070571431 0 0.016003043655016879 -0.22942609265824779 0 0.0050424632485473724 -0.21232262070571431 0 0.016003043655016879 -0.22942609265824779 0 0.0050424632485473724 -0.21232262070571431 0 0.024763644551017611 -0.2160096337699732 0 0.01487833985409572 -0.2422105696866067 0 0.0028322544969735701 -0.22731326800038831 0 0.016003043655016879 -0.22942609265824779 0 0.016003043655016879 -0.22942609265824779 0 0.030119552023881859 -0.22951845250683259 0 0.024763644551017611 -0.2160096337699732 0 0.016003043655016879 -0.22942609265824779 0 0.026963624061486179 -0.24652956461078149 0 0.01487833985409572 -0.2422105696866067 0 0.016003043655016879 -0.22942609265824779 0 0.026963624061486179 -0.24652956461078149 0 0.016003043655016879 -0.22942609265824779 0 0.030119552023881859 -0.22951845250683259 0 0.026963624061486179 -0.24652956461078149 0 0.011189089434022539 -0.25450273153334613 0 0.01487833985409572 -0.2422105696866067 0 0.026963624061486179 -0.24652956461078149 0 -0.0065132069942217697 -0.19429053895817441 0 0.019444309487901209 -0.19603257191259771 0 0.0075630239393570491 -0.17765119721925679 0 -0.0065132069942217697 -0.19429053895817441 0 0.0039498534723909871 -0.21061765436553179 0 0.019444309487901209 -0.19603257191259771 0 0.0039498534723909871 -0.21061765436553179 0 0.0050424632485473724 -0.21232262070571431 0 0.019444309487901209 -0.19603257191259771 0 0.0050424632485473724 -0.21232262070571431 0 0.024819788245219462 -0.19531520209570119 0 0.0039498534723909871 -0.21061765436553179 0 0.019444309487901209 -0.19603257191259771 0 0.0039498534723909871 -0.21061765436553179 0 0.0050424632485473724 -0.21232262070571431 0 0.0050424632485473724 -0.21232262070571431 0 0.0221171471659205 -0.20723833902016839 0 0.024819788245219462 -0.19531520209570119 0 0.0050424632485473724 -0.21232262070571431 0 0.024763644551017611 -0.2160096337699732 0 0.0221171471659205 -0.20723833902016839 0 0.024763644551017611 -0.2160096337699732 0 0.0221171471659205 -0.20723833902016839 0 0.033842692618897323 -0.2053058995092851 0 0.0050424632485473724 -0.21232262070571431 0 0.019444309487901209 -0.19603257191259771 0 0.024819788245219462 -0.19531520209570119 0 0.0221171471659205 -0.20723833902016839 0 0.024819788245219462 -0.19531520209570119 0 0.033842692618897323 -0.2053058995092851 0 0.019444309487901209 -0.19603257191259771 0 0.024819788245219462 -0.19531520209570119 0 0.034938765503409568 -0.18144748945966119 0 0.019444309487901209 -0.19603257191259771 0 0.034938765503409568 -0.18144748945966119 0 0.024819788245219462 -0.19531520209570119 0 0.0409242969261574 -0.1905701448600382 0 0.044597113241893048 -0.17830778348568979 0 0.024819788245219462 -0.19531520209570119 0 0.0409242969261574 -0.1905701448600382 0 0.036303982633586557 -0.1967363554054313 0 0.0409242969261574 -0.1905701448600382 0 0.036303982633586557 -0.1967363554054313 0 0.044438675337419797 -0.1981264264967541 0 0.0409242969261574 -0.1905701448600382 0 0.044438675337419797 -0.1981264264967541 0 0.052080970359363508 -0.1891094594967212 0 0.024819788245219462 -0.19531520209570119 0 0.036303982633586557 -0.1967363554054313 0 0.033842692618897323 -0.2053058995092851 0 0.036303982633586557 -0.1967363554054313 0 0.044438675337419797 -0.1981264264967541 0 0.033842692618897323 -0.2053058995092851 0 0.044438675337419797 -0.1981264264967541 0 0.033842692618897323 -0.2053058995092851 0 0.050990491083297868 -0.21014785138142031 0 0.033842692618897323 -0.2053058995092851 0 0.050990491083297868 -0.21014785138142031 0 0.040622522115159758 -0.21966170795074011 0 0.024763644551017611 -0.2160096337699732 0 0.033842692618897323 -0.2053058995092851 0 0.040622522115159758 -0.21966170795074011 0 0.044438675337419797 -0.1981264264967541 0 0.050990491083297868 -0.21014785138142031 0 0.0637745262845585 -0.20378571234390991 0 0.050990491083297868 -0.21014785138142031 0 0.064777955427465186 -0.22879981247568831 0 0.0637745262845585 -0.20378571234390991 0 0.044438675337419797 -0.1981264264967541 0 0.052080970359363508 -0.1891094594967212 0 0.0637745262845585 -0.20378571234390991 0 0.052080970359363508 -0.1891094594967212 0 0.0637745262845585 -0.20378571234390991 0 0.063704909741552046 -0.1796729801798104 0 0.038485237002199663 -0.25415832207040617 0 0.026963624061486179 -0.24652956461078149 0 0.042244925736728847 -0.23596526354442041 0 0.030119552023881859 -0.22951845250683259 0 0.026963624061486179 -0.24652956461078149 0 0.042244925736728847 -0.23596526354442041 0 0.030119552023881859 -0.22951845250683259 0 0.024763644551017611 -0.2160096337699732 0 0.040622522115159758 -0.21966170795074011 0 0.030119552023881859 -0.22951845250683259 0 0.042244925736728847 -0.23596526354442041 0 0.040622522115159758 -0.21966170795074011 0 0.050990491083297868 -0.21014785138142031 0 0.040622522115159758 -0.21966170795074011 0 0.064777955427465186 -0.22879981247568831 0 0.042244925736728847 -0.23596526354442041 0 0.040622522115159758 -0.21966170795074011 0 0.064777955427465186 -0.22879981247568831 0 0.065781384570376703 -0.25381391260746661 0 0.038485237002199663 -0.25415832207040617 0 0.042244925736728847 -0.23596526354442041 0 0.065781384570376703 -0.25381391260746661 0 0.042244925736728847 -0.23596526354442041 0 0.064777955427465186 -0.22879981247568831 0 0.065781384570376703 -0.25381391260746661 0 0.064777955427465186 -0.22879981247568831 0 0.065781384570376703 -0.25381391260746661 0 0.078835211783119793 -0.25364920578909828 0 0.0737917777692641 -0.2289904639193357 0 0.065781384570376703 -0.25381391260746661 0 0.064777955427465186 -0.22879981247568831 0 0.0737917777692641 -0.2289904639193357 0 0.078835211783119793 -0.25364920578909828 0 0.0737917777692641 -0.2289904639193357 0 0.085147674512013716 -0.25356955821637889 0 0.085245028503351902 -0.2236367607781474 0 0.09644973062189624 -0.2386397601983862 0 0.085147674512013716 -0.25356955821637889 0 0.085245028503351902 -0.2236367607781474 0 0.0737917777692641 -0.2289904639193357 0 0.085147674512013716 -0.25356955821637889 0 0.085245028503351902 -0.2236367607781474 0 0.085147674512013716 -0.25356955821637889 0 0.078835211783119793 -0.25364920578909828 0 0.0737917777692641 -0.2289904639193357 0 0.085245028503351902 -0.2236367607781474 0 0.09644973062189624 -0.2386397601983862 0 0.097608448700777922 -0.22626058944414021 0 0.085245028503351902 -0.2236367607781474 0 0.0737917777692641 -0.2289904639193357 0 0.078463543364426486 -0.21579765681587659 0 0.064777955427465186 -0.22879981247568831 0 0.0737917777692641 -0.2289904639193357 0 0.068748343755406782 -0.20433172204957331 0 0.0737917777692641 -0.2289904639193357 0 0.068748343755406782 -0.20433172204957331 0 0.078463543364426486 -0.21579765681587659 0 0.064777955427465186 -0.22879981247568831 0 0.0637745262845585 -0.20378571234390991 0 0.068748343755406782 -0.20433172204957331 0 0.086069023429683172 -0.20623168051644991 0 0.078463543364426486 -0.21579765681587659 0 0.064777955427465186 -0.22879981247568831 0 0.0637745262845585 -0.20378571234390991 0 0.068748343755406782 -0.20433172204957331 0 0.0737917777692641 -0.2289904639193357 0 0.068748343755406782 -0.20433172204957331 0 0.068748343755406782 -0.20433172204957331 0 0.076283388655832216 -0.19181442909228641 0 0.086069023429683172 -0.20623168051644991 0 0.068748343755406782 -0.20433172204957331 0 0.063704909741552046 -0.1796729801798104 0 0.0637745262845585 -0.20378571234390991 0 0.063704909741552046 -0.1796729801798104 0 0.0637745262845585 -0.20378571234390991 0 0.068748343755406782 -0.20433172204957331 0 0.063704909741552046 -0.1796729801798104 0 0.068748343755406782 -0.20433172204957331 0 0.076283388655832216 -0.19181442909228641 0 0.063704909741552046 -0.1796729801798104 0 0.076283388655832216 -0.19181442909228641 0 0.090779989434957742 -0.18986390922361199 0 0.086069023429683172 -0.20623168051644991 0 0.085245028503351902 -0.2236367607781474 0 0.086069023429683172 -0.20623168051644991 0 0.078463543364426486 -0.21579765681587659 0 0.085245028503351902 -0.2236367607781474 0 0.086069023429683172 -0.20623168051644991 0 0.099448814884888895 -0.21571708634559369 0 0.099448814884888895 -0.21571708634559369 0 0.1060287107163579 -0.1974089888250615 0 0.11205214603651061 -0.21311770062411189 0 0.086069023429683172 -0.20623168051644991 0 0.099448814884888895 -0.21571708634559369 0 0.1060287107163579 -0.1974089888250615 0 0.099448814884888895 -0.21571708634559369 0 0.11205214603651061 -0.21311770062411189 0 0.11101141797676729 -0.2260380332272359 0 0.090779989434957742 -0.18986390922361199 0 0.086069023429683172 -0.20623168051644991 0 0.1060287107163579 -0.1974089888250615 0 0.090779989434957742 -0.18986390922361199 0 0.1060287107163579 -0.1974089888250615 0 0.1045582007204113 -0.18098822831704839 0 0.1060287107163579 -0.1974089888250615 0 0.13067402507457171 -0.1935161884942109 0 0.1060287107163579 -0.1974089888250615 0 0.11898770658484251 -0.18426351865961679 0 0.13067402507457171 -0.1935161884942109 0 0.1060287107163579 -0.1974089888250615 0 0.11898770658484251 -0.18426351865961679 0 0.1045582007204113 -0.18098822831704839 0 0.1060287107163579 -0.1974089888250615 0 0.1212397826520247 -0.20539177798455169 0 0.13067402507457171 -0.1935161884942109 0 0.1060287107163579 -0.1974089888250615 0 0.11205214603651061 -0.21311770062411189 0 0.1212397826520247 -0.20539177798455169 0 0.11205214603651061 -0.21311770062411189 0 0.12371346546089081 -0.216342698059316 0 0.11101141797676729 -0.2260380332272359 0 0.11205214603651061 -0.21311770062411189 0 0.1212397826520247 -0.20539177798455169 0 0.12371346546089081 -0.216342698059316 0 0.12371346546089081 -0.216342698059316 0 0.11101141797676729 -0.2260380332272359 0 0.12764400520404509 -0.22905420241965729 0 0.11101141797676729 -0.2260380332272359 0 0.11678368745308861 -0.23935006861432739 0 0.12764400520404509 -0.22905420241965729 0 0.10812488252755249 -0.25327964302403888 0 0.11678368745308861 -0.23935006861432739 0 0.1323755988812039 -0.2461479566512233 0 0.085147674512013716 -0.25356955821637889 0 0.10812488252755249 -0.25327964302403888 0 0.09644973062189624 -0.2386397601983862 0 0.11101141797676729 -0.2260380332272359 0 0.11678368745308861 -0.23935006861432739 0 0.09644973062189624 -0.2386397601983862 0 0.10812488252755249 -0.25327964302403888 0 0.11678368745308861 -0.23935006861432739 0 0.09644973062189624 -0.2386397601983862 0 0.085245028503351902 -0.2236367607781474 0 0.099448814884888895 -0.21571708634559369 0 0.097608448700777922 -0.22626058944414021 0 0.099448814884888895 -0.21571708634559369 0 0.11101141797676729 -0.2260380332272359 0 0.097608448700777922 -0.22626058944414021 0 0.11101141797676729 -0.2260380332272359 0 0.09644973062189624 -0.2386397601983862 0 0.097608448700777922 -0.22626058944414021 0 0.1026364112472223 -0.1474162278497852 0 0.107857938657898 -0.1541348404610364 0 0.1051867958034602 -0.16676260615058699 0 0.1026364112472223 -0.1474162278497852 0 0.1066169081464841 -0.14922494959057531 0 0.1026364112472223 -0.1474162278497852 0 0.1066169081464841 -0.14922494959057531 0 0.107857938657898 -0.1541348404610364 0 0.1026364112472223 -0.1474162278497852 0 0.10295528146630541 -0.11742288010987879 0 0.1135926213462722 -0.1222564444592452 0 0.1026364112472223 -0.1474162278497852 0 0.081361731487306424 -0.13774909915106359 0 0.10295528146630541 -0.11742288010987879 0 0.1026364112472223 -0.1474162278497852 0 0.1135926213462722 -0.1222564444592452 0 0.1026364112472223 -0.1474162278497852 0 0.1234648986517258 -0.13512338547790759 0 0.1135926213462722 -0.1222564444592452 0 0.1234648986517258 -0.13512338547790759 0 0.1189033004628435 -0.15410894740858391 0 0.1266275587113298 -0.14947396644241309 0 0.107857938657898 -0.1541348404610364 0 0.1234648986517258 -0.13512338547790759 0 0.1026364112472223 -0.1474162278497852 0 0.1066169081464841 -0.14922494959057531 0 0.1234648986517258 -0.13512338547790759 0 0.107857938657898 -0.1541348404610364 0 0.1234648986517258 -0.13512338547790759 0 0.1189033004628435 -0.15410894740858391 0 0.1066169081464841 -0.14922494959057531 0 0.107857938657898 -0.1541348404610364 0 0.1234648986517258 -0.13512338547790759 0 0.107857938657898 -0.1541348404610364 0 0.1189033004628435 -0.15410894740858391 0 0.1122534737925388 -0.16010532430957761 0 0.1189033004628435 -0.15410894740858391 0 0.1266174729013434 -0.16088232340893721 0 0.1266275587113298 -0.14947396644241309 0 0.1189033004628435 -0.15410894740858391 0 0.1170658602459534 -0.16541490321810329 0 0.1266174729013434 -0.16088232340893721 0 0.1170658602459534 -0.16541490321810329 0 0.1280715040845479 -0.17548954794202731 0 0.1266174729013434 -0.16088232340893721 0 0.1170658602459534 -0.16541490321810329 0 0.1149590659024069 -0.1744268108759392 0 0.1280715040845479 -0.17548954794202731 0 0.1170658602459534 -0.16541490321810329 0 0.1122534737925388 -0.16010532430957761 0 0.1051867958034602 -0.16676260615058699 0 0.1170658602459534 -0.16541490321810329 0 0.1149590659024069 -0.1744268108759392 0 0.1051867958034602 -0.16676260615058699 0 0.1189033004628435 -0.15410894740858391 0 0.1170658602459534 -0.16541490321810329 0 0.1122534737925388 -0.16010532430957761 0 0.11898770658484251 -0.18426351865961679 0 0.1149590659024069 -0.1744268108759392 0 0.1280715040845479 -0.17548954794202731 0 0.11898770658484251 -0.18426351865961679 0 0.1149590659024069 -0.1744268108759392 0 0.1045582007204113 -0.18098822831704839 0 0.090779989434957742 -0.18986390922361199 0 0.1045582007204113 -0.18098822831704839 0 0.091406935880442977 -0.17320353616747389 0 0.1149590659024069 -0.1744268108759392 0 0.1045582007204113 -0.18098822831704839 0 0.1051867958034602 -0.16676260615058699 0 0.1045582007204113 -0.18098822831704839 0 0.1051867958034602 -0.16676260615058699 0 0.091406935880442977 -0.17320353616747389 0 0.1026364112472223 -0.1474162278497852 0 0.091406935880442977 -0.17320353616747389 0 0.1026364112472223 -0.1474162278497852 0 0.1051867958034602 -0.16676260615058699 0 0.091406935880442977 -0.17320353616747389 0 0.107857938657898 -0.1541348404610364 0 0.1122534737925388 -0.16010532430957761 0 0.1051867958034602 -0.16676260615058699 0 0.1026364112472223 -0.1474162278497852 0 0.091406935880442977 -0.17320353616747389 0 0.085021968987764096 -0.15442123802441779 0 0.091406935880442977 -0.17320353616747389 0 0.076273229659934452 -0.16621724108760019 0 0.085021968987764096 -0.15442123802441779 0 0.090779989434957742 -0.18986390922361199 0 0.091406935880442977 -0.17320353616747389 0 0.077267846107288998 -0.17820819187696799 0 0.091406935880442977 -0.17320353616747389 0 0.077267846107288998 -0.17820819187696799 0 0.076273229659934452 -0.16621724108760019 0 0.076283388655832216 -0.19181442909228641 0 0.090779989434957742 -0.18986390922361199 0 0.077267846107288998 -0.17820819187696799 0 0.076283388655832216 -0.19181442909228641 0 0.077267846107288998 -0.17820819187696799 0 0.063704909741552046 -0.1796729801798104 0 0.077267846107288998 -0.17820819187696799 0 0.062588241831974881 -0.17421328235075459 0 0.076273229659934452 -0.16621724108760019 0 0.077267846107288998 -0.17820819187696799 0 0.062588241831974881 -0.17421328235075459 0 0.063704909741552046 -0.1796729801798104 0 0.062588241831974881 -0.17421328235075459 0 0.063704909741552046 -0.1796729801798104 0 0.076283388655832216 -0.19181442909228641 0 0.063704909741552046 -0.1796729801798104 0 0.076273229659934452 -0.16621724108760019 0 0.085021968987764096 -0.15442123802441779 0 0.061861818634585848 -0.1561045571612216 0 0.062588241831974881 -0.17421328235075459 0 0.076273229659934452 -0.16621724108760019 0 0.061861818634585848 -0.1561045571612216 0 0.081361731487306424 -0.13774909915106359 0 0.061110786562360311 -0.13738236676930629 0 0.061861818634585848 -0.1561045571612216 0 0.085021968987764096 -0.15442123802441779 0 0.081361731487306424 -0.13774909915106359 0 0.061861818634585848 -0.1561045571612216 0 0.081361731487306424 -0.13774909915106359 0 0.061861818634585848 -0.1561045571612216 0 0.1026364112472223 -0.1474162278497852 0 0.085021968987764096 -0.15442123802441779 0 0.081361731487306424 -0.13774909915106359 0 0.1026364112472223 -0.1474162278497852 0 0.081361731487306424 -0.13774909915106359 0 0.081361731487306424 -0.13774909915106359 0 0.10295528146630541 -0.11742288010987879 0 0.081361731487306424 -0.13774909915106359 0 0.058276245707441707 -0.1272591474984206 0 0.081361731487306424 -0.13774909915106359 0 0.058276245707441707 -0.1272591474984206 0 0.077856948401998624 -0.11463758727051281 0 0.081361731487306424 -0.13774909915106359 0 0.058276245707441707 -0.1272591474984206 0 0.061110786562360311 -0.13738236676930629 0 0.058276245707441707 -0.1272591474984206 0 0.052456534192460103 -0.13788423991425791 0 0.04095021230966249 -0.1344383508224323 0 0.058276245707441707 -0.1272591474984206 0 0.052456534192460103 -0.13788423991425791 0 0.061110786562360311 -0.13738236676930629 0 0.052456534192460103 -0.13788423991425791 0 0.061110786562360311 -0.13738236676930629 0 0.056549442038958203 -0.1446879222706918 0 0.061110786562360311 -0.13738236676930629 0 0.056549442038958203 -0.1446879222706918 0 0.061861818634585848 -0.1561045571612216 0 0.061110786562360311 -0.13738236676930629 0 0.061861818634585848 -0.1561045571612216 0 0.056549442038958203 -0.1446879222706918 0 0.059365149914244242 -0.15845469575953089 0 0.056549442038958203 -0.1446879222706918 0 0.050602970331251079 -0.1537945226273307 0 0.059365149914244242 -0.15845469575953089 0 0.056549442038958203 -0.1446879222706918 0 0.061861818634585848 -0.1561045571612216 0 0.059365149914244242 -0.15845469575953089 0 0.056549442038958203 -0.1446879222706918 0 0.050602970331251079 -0.1537945226273307 0 0.045395984343877843 -0.14565341221043851 0 0.052456534192460103 -0.13788423991425791 0 0.056549442038958203 -0.1446879222706918 0 0.045395984343877843 -0.14565341221043851 0 0.045395984343877843 -0.14565341221043851 0 0.03182941568478076 -0.1489049767282177 0 0.04095021230966249 -0.1344383508224323 0 0.050602970331251079 -0.1537945226273307 0 0.045395984343877843 -0.14565341221043851 0 0.040296247347103888 -0.15523188327094661 0 0.045395984343877843 -0.14565341221043851 0 0.040296247347103888 -0.15523188327094661 0 0.03182941568478076 -0.1489049767282177 0 0.040296247347103888 -0.15523188327094661 0 0.03182941568478076 -0.1489049767282177 0 0.058276245707441707 -0.1272591474984206 0 0.04095021230966249 -0.1344383508224323 0 0.035190759927572923 -0.1167691958457867 0 0.052456534192460103 -0.13788423991425791 0 0.045395984343877843 -0.14565341221043851 0 0.04095021230966249 -0.1344383508224323 0 0.063704909741552046 -0.1796729801798104 0 0.050433221518917888 -0.16686240700672489 0 0.044597113241893048 -0.17830778348568979 0 0.052080970359363508 -0.1891094594967212 0 0.063704909741552046 -0.1796729801798104 0 0.044597113241893048 -0.17830778348568979 0 0.063704909741552046 -0.1796729801798104 0 0.050433221518917888 -0.16686240700672489 0 0.062588241831974881 -0.17421328235075459 0 0.063704909741552046 -0.1796729801798104 0 0.050433221518917888 -0.16686240700672489 0 0.062588241831974881 -0.17421328235075459 0 0.061861818634585848 -0.1561045571612216 0 0.059365149914244242 -0.15845469575953089 0 0.062588241831974881 -0.17421328235075459 0 0.061861818634585848 -0.1561045571612216 0 0.062588241831974881 -0.17421328235075459 0 0.050433221518917888 -0.16686240700672489 0 0.059365149914244242 -0.15845469575953089 0 0.062588241831974881 -0.17421328235075459 0 0.059365149914244242 -0.15845469575953089 0 0.050433221518917888 -0.16686240700672489 0 0.059365149914244242 -0.15845469575953089 0 0.061861818634585848 -0.1561045571612216 0 0.059365149914244242 -0.15845469575953089 0 0.050602970331251079 -0.1537945226273307 0 0.050433221518917888 -0.16686240700672489 0 0.059365149914244242 -0.15845469575953089 0 0.050602970331251079 -0.1537945226273307 0 0.040296247347103888 -0.15523188327094661 0 0.050433221518917888 -0.16686240700672489 0 0.03182941568478076 -0.1489049767282177 0 0.050433221518917888 -0.16686240700672489 0 0.024635522357310511 -0.1650105415967702 0 0.050433221518917888 -0.16686240700672489 0 0.034938765503409568 -0.18144748945966119 0 0.024635522357310511 -0.1650105415967702 0 0.040296247347103888 -0.15523188327094661 0 0.03182941568478076 -0.1489049767282177 0 0.050433221518917888 -0.16686240700672489 0 0.03182941568478076 -0.1489049767282177 0 0.050433221518917888 -0.16686240700672489 0 0.024819788245219462 -0.19531520209570119 0 0.044597113241893048 -0.17830778348568979 0 0.024819788245219462 -0.19531520209570119 0 0.044597113241893048 -0.17830778348568979 0 0.034938765503409568 -0.18144748945966119 0 0.050433221518917888 -0.16686240700672489 0 0.034938765503409568 -0.18144748945966119 0 0.050433221518917888 -0.16686240700672489 0 0.044597113241893048 -0.17830778348568979 0 0.034938765503409568 -0.18144748945966119 0 0.0409242969261574 -0.1905701448600382 0 0.052080970359363508 -0.1891094594967212 0 0.044597113241893048 -0.17830778348568979 0 0.019444309487901209 -0.19603257191259771 0 0.034938765503409568 -0.18144748945966119 0 0.0075630239393570491 -0.17765119721925679 0 0.034938765503409568 -0.18144748945966119 0 0.024635522357310511 -0.1650105415967702 0 0.0075630239393570491 -0.17765119721925679 0 0.024635522357310511 -0.1650105415967702 0 0.0066102943600331986 -0.1590442158191312 0 0.0075630239393570491 -0.17765119721925679 0 -0.0086602940786612501 -0.16281953278316419 0 0.0066102943600331986 -0.1590442158191312 0 0.0075630239393570491 -0.17765119721925679 0 0.024635522357310511 -0.1650105415967702 0 0.0066102943600331986 -0.1590442158191312 0 0.01545451131764693 -0.150477792641972 0 0.04095021230966249 -0.1344383508224323 0 0.01535563741057684 -0.13300356776813471 0 0.035190759927572923 -0.1167691958457867 0 0.03182941568478076 -0.1489049767282177 0 0.04095021230966249 -0.1344383508224323 0 0.01535563741057684 -0.13300356776813471 0 0.03182941568478076 -0.1489049767282177 0 0.010816601306006869 -0.13320298593916929 0 0.01535563741057684 -0.13300356776813471 0 0.03182941568478076 -0.1489049767282177 0 0.01535563741057684 -0.13300356776813471 0 0.03182941568478076 -0.1489049767282177 0 0.024635522357310511 -0.1650105415967702 0 0.01545451131764693 -0.150477792641972 0 0.03182941568478076 -0.1489049767282177 0 0.010816601306006869 -0.13320298593916929 0 0.03182941568478076 -0.1489049767282177 0 0.01545451131764693 -0.150477792641972 0 0.010816601306006869 -0.13320298593916929 0 0.01545451131764693 -0.150477792641972 0 0.0032099065919579798 -0.14524097043461731 0 0.010816601306006869 -0.13320298593916929 0 0.0066102943600331986 -0.1590442158191312 0 0.01545451131764693 -0.150477792641972 0 0.0032099065919579798 -0.14524097043461731 0 -0.0041379743032920026 -0.15251985355978531 0 0.0066102943600331986 -0.1590442158191312 0 0.0032099065919579798 -0.14524097043461731 0 -0.0047685961597620109 -0.12836904162366991 0 -0.0049620806573448997 -0.13541514598598969 0 0.010816601306006869 -0.13320298593916929 0 -0.001118140863626934 -0.1171021588080516 0 0.01535563741057684 -0.13300356776813471 0 -0.001118140863626934 -0.1171021588080516 0 0.010816601306006869 -0.13320298593916929 0 0.01535563741057684 -0.13300356776813471 0 -0.0049620806573448997 -0.13541514598598969 0 0.0032099065919579798 -0.14524097043461731 0 0.010816601306006869 -0.13320298593916929 0 -0.010196213072767151 -0.11750099515012109 0 0.010816601306006869 -0.13320298593916929 0 -0.001118140863626934 -0.1171021588080516 0 0.01535563741057684 -0.13300356776813471 0 0.01210527414770402 -0.10627924419315279 0 0.01210527414770402 -0.10627924419315279 0 0.035190759927572923 -0.1167691958457867 0 0.01535563741057684 -0.13300356776813471 0 0.01210527414770402 -0.10627924419315279 0 0.035190759927572923 -0.1167691958457867 0 0.01210527414770402 -0.10627924419315279 0 0.035190759927572923 -0.1167691958457867 0 0.03492828152139961 -0.099041997835748422 0 0.01210527414770402 -0.10627924419315279 0 0.020974994345249211 -0.091069373463590397 0 0.03492828152139961 -0.099041997835748422 0 -0.01098021163216497 -0.095789292540518864 0 0.01210527414770402 -0.10627924419315279 0 0.0030643400514457032 -0.085216519505962013 0 0.01210527414770402 -0.10627924419315279 0 0.0030643400514457032 -0.085216519505962013 0 0.020974994345249211 -0.091069373463590397 0 -0.01098021163216497 -0.095789292540518864 0 -0.001118140863626934 -0.1171021588080516 0 0.01210527414770402 -0.10627924419315279 0 -0.01098021163216497 -0.095789292540518864 0 0.01210527414770402 -0.10627924419315279 0 0.0030643400514457032 -0.085216519505962013 0 0.020974994345249211 -0.091069373463590397 0 0.019440727294025319 -0.078825361354661019 0 -0.0095677420114808325 -0.071261001404877719 0 0.0030643400514457032 -0.085216519505962013 0 0.019440727294025319 -0.078825361354661019 0 -0.0095677420114808325 -0.071261001404877719 0 0.015883547273192449 -0.06702294069168839 0 0.0083879583699601259 -0.059253289665681982 0 -0.0095677420114808325 -0.071261001404877719 0 0.019440727294025319 -0.078825361354661019 0 -0.0095677420114808325 -0.071261001404877719 0 0.015883547273192449 -0.06702294069168839 0 0.019440727294025319 -0.078825361354661019 0 0.015883547273192449 -0.06702294069168839 0 0.028621674152045591 -0.068047327888831652 0 0.023724485154480342 -0.054817494822689251 0 0.015883547273192449 -0.06702294069168839 0 0.028621674152045591 -0.068047327888831652 0 0.019440727294025319 -0.078825361354661019 0 0.028621674152045591 -0.068047327888831652 0 0.019440727294025319 -0.078825361354661019 0 0.027983176000027799 -0.082191164380752788 0 0.020974994345249211 -0.091069373463590397 0 0.019440727294025319 -0.078825361354661019 0 0.027983176000027799 -0.082191164380752788 0 0.020974994345249211 -0.091069373463590397 0 0.027983176000027799 -0.082191164380752788 0 0.033878599462296238 -0.089450120900046476 0 0.020974994345249211 -0.091069373463590397 0 0.033878599462296238 -0.089450120900046476 0 0.03492828152139961 -0.099041997835748422 0 0.043158644481595357 -0.085499258081678756 0 0.05293714435485225 -0.095412911672525663 0 0.03492828152139961 -0.099041997835748422 0 0.033878599462296238 -0.089450120900046476 0 0.043158644481595357 -0.085499258081678756 0 0.03492828152139961 -0.099041997835748422 0 0.027983176000027799 -0.082191164380752788 0 0.033878599462296238 -0.089450120900046476 0 0.043158644481595357 -0.085499258081678756 0 0.027983176000027799 -0.082191164380752788 0 0.042767977387982617 -0.068628615560511419 0 0.053211860158678112 -0.066323254504799478 0 0.027983176000027799 -0.082191164380752788 0 0.043158644481595357 -0.085499258081678756 0 0.053211860158678112 -0.066323254504799478 0 0.027983176000027799 -0.082191164380752788 0 0.053211860158678112 -0.066323254504799478 0 0.028621674152045591 -0.068047327888831652 0 0.042767977387982617 -0.068628615560511419 0 0.035105432259180239 -0.055306167575985971 0 0.028621674152045591 -0.068047327888831652 0 0.027983176000027799 -0.082191164380752788 0 0.042767977387982617 -0.068628615560511419 0 0.043158644481595357 -0.085499258081678756 0 0.053211860158678112 -0.066323254504799478 0 0.057929007402185963 -0.081711562661890391 0 0.053211860158678112 -0.066323254504799478 0 0.057929007402185963 -0.081711562661890391 0 0.067745058389993992 -0.06878718702942864 0 0.057929007402185963 -0.081711562661890391 0 0.05293714435485225 -0.095412911672525663 0 0.071609743392389041 -0.094417488128327662 0 0.043158644481595357 -0.085499258081678756 0 0.057929007402185963 -0.081711562661890391 0 0.05293714435485225 -0.095412911672525663 0 0.05293714435485225 -0.095412911672525663 0 0.061316649172485728 -0.1102953857773946 0 0.071609743392389041 -0.094417488128327662 0 0.05293714435485225 -0.095412911672525663 0 0.061316649172485728 -0.1102953857773946 0 0.048529816136750448 -0.10975572772597519 0 0.058276245707441707 -0.1272591474984206 0 0.061316649172485728 -0.1102953857773946 0 0.048529816136750448 -0.10975572772597519 0 0.058276245707441707 -0.1272591474984206 0 0.048529816136750448 -0.10975572772597519 0 0.035190759927572923 -0.1167691958457867 0 0.058276245707441707 -0.1272591474984206 0 0.035190759927572923 -0.1167691958457867 0 0.048529816136750448 -0.10975572772597519 0 0.035190759927572923 -0.1167691958457867 0 0.03492828152139961 -0.099041997835748422 0 0.05293714435485225 -0.095412911672525663 0 0.048529816136750448 -0.10975572772597519 0 0.03492828152139961 -0.099041997835748422 0 0.025985220899769079 0.0049728996579387289 0 0.028766352396372818 -0.0065772594287296458 0 0.018118669559515389 -0.0047379473785954286 0 0.028766352396372818 -0.0065772594287296458 0 0.030617924462053969 -0.01673250699064047 0 0.033527063519321637 -0.01553074002776386 0 0.028766352396372818 -0.0065772594287296458 0 0.022279734825954269 -0.01290243890279142 0 0.030617924462053969 -0.01673250699064047 0 0.028766352396372818 -0.0065772594287296458 0 0.022279734825954269 -0.01290243890279142 0 0.018118669559515389 -0.0047379473785954286 0 0.022279734825954269 -0.01290243890279142 0 0.018118669559515389 -0.0047379473785954286 0 0.014611449374270471 -0.010090706846221939 0 0.022279734825954269 -0.01290243890279142 0 0.014611449374270471 -0.010090706846221939 0 0.015775506015317398 -0.017645362889549609 0 0.011981312975307769 0.0001694685820870395 0 0.01834501088887738 0.0026641171186025971 0 0.018118669559515389 -0.0047379473785954286 0 0.011981312975307769 0.0001694685820870395 0 0.0049020234952574099 -0.015337253642260429 0 0.011981312975307769 0.0001694685820870395 0 0.018118669559515389 -0.0047379473785954286 0 0.014611449374270471 -0.010090706846221939 0 0.0088293797870906583 0.0027457714027656899 0 0.011981312975307769 0.0001694685820870395 0 0.0049020234952574099 -0.015337253642260429 0 -0.0063794060058670974 -0.003062831159869018 0 0.0088293797870906583 0.0027457714027656899 0 0.0049020234952574099 -0.015337253642260429 0 0.011981312975307769 0.0001694685820870395 0 0.018118669559515389 -0.0047379473785954286 0 0.0049020234952574099 -0.015337253642260429 0 0.014611449374270471 -0.010090706846221939 0 0.015775506015317398 -0.017645362889549609 0 0.011981312975307769 0.0001694685820870395 0 0.0049020234952574099 -0.015337253642260429 0 0.014611449374270471 -0.010090706846221939 0 0.0049020234952574099 -0.015337253642260429 0 0.01319706907418639 -0.02723583165069534 0 0.0010347331164476069 -0.031904739026293323 0 0.0049020234952574099 -0.015337253642260429 0 0.01319706907418639 -0.02723583165069534 0 0.015775506015317398 -0.017645362889549609 0 0.01319706907418639 -0.02723583165069534 0 0.020565549064430678 -0.02238163105607999 0 0.02095751094464135 -0.037392014846723109 0 0.02095751094464135 -0.037392014846723109 0 0.033527063519321637 -0.01553074002776386 0 0.020565549064430678 -0.02238163105607999 0 0.030617924462053969 -0.01673250699064047 0 0.02095751094464135 -0.037392014846723109 0 0.030617924462053969 -0.01673250699064047 0 0.02095751094464135 -0.037392014846723109 0 0.033527063519321637 -0.01553074002776386 0 0.02095751094464135 -0.037392014846723109 0 0.033285896349878517 -0.028764205950098719 0 0.033527063519321637 -0.01553074002776386 0 0.01319706907418639 -0.02723583165069534 0 0.020565549064430678 -0.02238163105607999 0 0.015775506015317398 -0.017645362889549609 0 0.022279734825954269 -0.01290243890279142 0 0.020565549064430678 -0.02238163105607999 0 0.015775506015317398 -0.017645362889549609 0 0.022279734825954269 -0.01290243890279142 0 0.020565549064430678 -0.02238163105607999 0 0.030617924462053969 -0.01673250699064047 0 0.02095751094464135 -0.037392014846723109 0 0.023724485154480342 -0.054817494822689251 0 0.032380394188535243 -0.041549486487212947 0 0.02095751094464135 -0.037392014846723109 0 0.032380394188535243 -0.041549486487212947 0 0.033285896349878517 -0.028764205950098719 0 0.01319706907418639 -0.02723583165069534 0 0.02095751094464135 -0.037392014846723109 0 0.0088857977827102291 -0.040018280697007837 0 0.02095751094464135 -0.037392014846723109 0 0.0088857977827102291 -0.040018280697007837 0 0.0083879583699601259 -0.059253289665681982 0 0.01319706907418639 -0.02723583165069534 0 0.0010347331164476069 -0.031904739026293323 0 0.0088857977827102291 -0.040018280697007837 0 0.0010347331164476069 -0.031904739026293323 0 0.00085171740831566783 -0.044305528295645429 0 0.0088857977827102291 -0.040018280697007837 0 0.00085171740831566783 -0.044305528295645429 0 0.0088857977827102291 -0.040018280697007837 0 0.0083879583699601259 -0.059253289665681982 0 0.02095751094464135 -0.037392014846723109 0 0.0083879583699601259 -0.059253289665681982 0 0.02095751094464135 -0.037392014846723109 0 0.0083879583699601259 -0.059253289665681982 0 0.023724485154480342 -0.054817494822689251 0 0.015883547273192449 -0.06702294069168839 0 0.0083879583699601259 -0.059253289665681982 0 0.023724485154480342 -0.054817494822689251 0 0.023724485154480342 -0.054817494822689251 0 0.035105432259180239 -0.055306167575985971 0 0.032380394188535243 -0.041549486487212947 0 0.028621674152045591 -0.068047327888831652 0 0.023724485154480342 -0.054817494822689251 0 0.035105432259180239 -0.055306167575985971 0 0.035105432259180239 -0.055306167575985971 0 0.049610569160414147 -0.046409096259895782 0 0.032380394188535243 -0.041549486487212947 0 0.042767977387982617 -0.068628615560511419 0 0.035105432259180239 -0.055306167575985971 0 0.049610569160414147 -0.046409096259895782 0 0.042767977387982617 -0.068628615560511419 0 0.049610569160414147 -0.046409096259895782 0 0.053211860158678112 -0.066323254504799478 0 0.049610569160414147 -0.046409096259895782 0 0.065336903991252054 -0.039088723639197652 0 0.042767977387982617 -0.068628615560511419 0 0.053211860158678112 -0.066323254504799478 0 0.049610569160414147 -0.046409096259895782 0 0.049610569160414147 -0.046409096259895782 0 0.056453160932845463 -0.024189576959280059 0 0.065336903991252054 -0.039088723639197652 0 0.049610569160414147 -0.046409096259895782 0 0.056453160932845463 -0.024189576959280059 0 0.049610569160414147 -0.046409096259895782 0 0.032380394188535243 -0.041549486487212947 0 0.056453160932845463 -0.024189576959280059 0 0.032380394188535243 -0.041549486487212947 0 0.056453160932845463 -0.024189576959280059 0 0.032380394188535243 -0.041549486487212947 0 0.033285896349878517 -0.028764205950098719 0 0.043525281349076267 -0.021924390031233261 0 0.032380394188535243 -0.041549486487212947 0 0.043525281349076267 -0.021924390031233261 0 0.056453160932845463 -0.024189576959280059 0 0.033285896349878517 -0.028764205950098719 0 0.043525281349076267 -0.021924390031233261 0 0.033527063519321637 -0.01553074002776386 0 0.030617924462053969 -0.01673250699064047 0 0.033527063519321637 -0.01553074002776386 0 0.043525281349076267 -0.021924390031233261 0 0.048188550075413422 -0.0094740717754240398 0 0.033527063519321637 -0.01553074002776386 0 0.043525281349076267 -0.021924390031233261 0 0.056453160932845463 -0.024189576959280059 0 0.048188550075413422 -0.0094740717754240398 0 0.056453160932845463 -0.024189576959280059 0 0.048188550075413422 -0.0094740717754240398 0 0.06285003663150579 -0.003417403523085589 0 0.056453160932845463 -0.024189576959280059 0 0.06285003663150579 -0.003417403523085589 0 0.048188550075413422 -0.0094740717754240398 0 0.06285003663150579 -0.003417403523085589 0 0.051771076667811562 0.003876039210404685 0 0.048188550075413422 -0.0094740717754240398 0 0.06285003663150579 -0.003417403523085589 0 0.047424781783244163 0.00864051320650501 0 0.028766352396372818 -0.0065772594287296458 0 0.033527063519321637 -0.01553074002776386 0 0.047424781783244163 0.00864051320650501 0 0.048188550075413422 -0.0094740717754240398 0 0.033527063519321637 -0.01553074002776386 0 0.047424781783244163 0.00864051320650501 0 0.033527063519321637 -0.01553074002776386 0 0.048188550075413422 -0.0094740717754240398 0 0.033527063519321637 -0.01553074002776386 0 0.099081305271367687 0.0065514150056479774 0 0.07776723310210655 -0.0088190809768160135 0 0.099081305271367687 0.0065514150056479774 0 0.07776723310210655 -0.0088190809768160135 0 0.093651542140467864 -0.016666293849814079 0 0.056453160932845463 -0.024189576959280059 0 0.07776723310210655 -0.0088190809768160135 0 0.06285003663150579 -0.003417403523085589 0 0.089464599259436117 0.0075770871038890264 0 0.07776723310210655 -0.0088190809768160135 0 0.06285003663150579 -0.003417403523085589 0 0.056453160932845463 -0.024189576959280059 0 0.07776723310210655 -0.0088190809768160135 0 0.073518249374129374 -0.02455380480232356 0 0.056453160932845463 -0.024189576959280059 0 0.073518249374129374 -0.02455380480232356 0 0.065336903991252054 -0.039088723639197652 0 0.056453160932845463 -0.024189576959280059 0 0.07776723310210655 -0.0088190809768160135 0 0.07776723310210655 -0.0088190809768160135 0 0.073518249374129374 -0.02455380480232356 0 0.093651542140467864 -0.016666293849814079 0 0.073518249374129374 -0.02455380480232356 0 0.093651542140467864 -0.016666293849814079 0 0.085763292493249543 -0.033490171234874071 0 0.085763292493249543 -0.033490171234874071 0 0.078440544317328428 -0.050455344628846162 0 0.1036692284759788 -0.034587434752892852 0 0.078440544317328428 -0.050455344628846162 0 0.1036692284759788 -0.034587434752892852 0 0.085763292493249543 -0.033490171234874071 0 0.065336903991252054 -0.039088723639197652 0 0.078440544317328428 -0.050455344628846162 0 0.073518249374129374 -0.02455380480232356 0 0.085763292493249543 -0.033490171234874071 0 0.065336903991252054 -0.039088723639197652 0 0.053211860158678112 -0.066323254504799478 0 0.065336903991252054 -0.039088723639197652 0 0.078440544317328428 -0.050455344628846162 0 0.053211860158678112 -0.066323254504799478 0 0.078440544317328428 -0.050455344628846162 0 0.053211860158678112 -0.066323254504799478 0 0.078440544317328428 -0.050455344628846162 0 0.067745058389993992 -0.06878718702942864 0 0.078440544317328428 -0.050455344628846162 0 0.067745058389993992 -0.06878718702942864 0 0.080836261027920797 -0.067427352740348084 0 0.078440544317328428 -0.050455344628846162 0 0.096626009115133749 -0.058680948206048439 0 0.080836261027920797 -0.067427352740348084 0 0.078440544317328428 -0.050455344628846162 0 0.096626009115133749 -0.058680948206048439 0 0.1036692284759788 -0.034587434752892852 0 0.096626009115133749 -0.058680948206048439 0 0.112116163667389 -0.051901530196145268 0 0.11736445959691 -0.068230877573187063 0 0.096626009115133749 -0.058680948206048439 0 0.112116163667389 -0.051901530196145268 0 0.1036692284759788 -0.034587434752892852 0 0.112116163667389 -0.051901530196145268 0 0.11736445959691 -0.068230877573187063 0 0.12601311892700881 -0.054696642197298133 0 0.112116163667389 -0.051901530196145268 0 0.1221447936803053 -0.039283316134866943 0 0.12601311892700881 -0.054696642197298133 0 0.1221447936803053 -0.039283316134866943 0 0.1036692284759788 -0.034587434752892852 0 0.1024667240988395 -0.027768330254390541 0 0.112116163667389 -0.051901530196145268 0 0.1221447936803053 -0.039283316134866943 0 0.1036692284759788 -0.034587434752892852 0 0.1221447936803053 -0.039283316134866943 0 0.1024667240988395 -0.027768330254390541 0 0.085763292493249543 -0.033490171234874071 0 0.1036692284759788 -0.034587434752892852 0 0.1024667240988395 -0.027768330254390541 0 0.093651542140467864 -0.016666293849814079 0 0.085763292493249543 -0.033490171234874071 0 0.1024667240988395 -0.027768330254390541 0 0.093651542140467864 -0.016666293849814079 0 0.1084021442334874 -0.019495170652345569 0 0.1024667240988395 -0.027768330254390541 0 0.1084021442334874 -0.019495170652345569 0 0.1024667240988395 -0.027768330254390541 0 0.1139086501958114 -0.026107078366546708 0 0.1221447936803053 -0.039283316134866943 0 0.1024667240988395 -0.027768330254390541 0 0.1139086501958114 -0.026107078366546708 0 0.1221447936803053 -0.039283316134866943 0 0.1139086501958114 -0.026107078366546708 0 0.1216752320050096 -0.017514240912113729 0 0.1084021442334874 -0.019495170652345569 0 0.1139086501958114 -0.026107078366546708 0 0.1216752320050096 -0.017514240912113729 0 0.1084021442334874 -0.019495170652345569 0 0.1216752320050096 -0.017514240912113729 0 0.1084171591961014 -0.0086853988539226951 0 0.1207506948084323 0.0042402610401935043 0 0.1216752320050096 -0.017514240912113729 0 0.1084171591961014 -0.0086853988539226951 0 0.099081305271367687 0.0065514150056479774 0 0.093651542140467864 -0.016666293849814079 0 0.1084171591961014 -0.0086853988539226951 0 0.093651542140467864 -0.016666293849814079 0 0.1084021442334874 -0.019495170652345569 0 0.1084171591961014 -0.0086853988539226951 0 0.089858761098052964 -0.099651685678553037 0 0.077856948401998624 -0.11463758727051281 0 0.071609743392389041 -0.094417488128327662 0 0.081361731487306424 -0.13774909915106359 0 0.077856948401998624 -0.11463758727051281 0 0.10295528146630541 -0.11742288010987879 0 0.089858761098052964 -0.099651685678553037 0 0.077856948401998624 -0.11463758727051281 0 0.10295528146630541 -0.11742288010987879 0 0.058276245707441707 -0.1272591474984206 0 0.061316649172485728 -0.1102953857773946 0 0.077856948401998624 -0.11463758727051281 0 0.061316649172485728 -0.1102953857773946 0 0.077856948401998624 -0.11463758727051281 0 0.071609743392389041 -0.094417488128327662 0 0.071609743392389041 -0.094417488128327662 0 0.071173957377864541 -0.07887427755190253 0 0.090195735939283248 -0.080339006285514644 0 0.057929007402185963 -0.081711562661890391 0 0.071609743392389041 -0.094417488128327662 0 0.071173957377864541 -0.07887427755190253 0 0.057929007402185963 -0.081711562661890391 0 0.071173957377864541 -0.07887427755190253 0 0.067745058389993992 -0.06878718702942864 0 0.071173957377864541 -0.07887427755190253 0 0.067745058389993992 -0.06878718702942864 0 0.080836261027920797 -0.067427352740348084 0 0.071173957377864541 -0.07887427755190253 0 0.080836261027920797 -0.067427352740348084 0 0.090195735939283248 -0.080339006285514644 0 0.096626009115133749 -0.058680948206048439 0 0.080836261027920797 -0.067427352740348084 0 0.090195735939283248 -0.080339006285514644 0 0.089858761098052964 -0.099651685678553037 0 0.071609743392389041 -0.094417488128327662 0 0.090195735939283248 -0.080339006285514644 0 0.089858761098052964 -0.099651685678553037 0 0.090195735939283248 -0.080339006285514644 0 0.1098118862811996 -0.090732797661708567 0 0.090195735939283248 -0.080339006285514644 0 0.11736445959691 -0.068230877573187063 0 0.1098118862811996 -0.090732797661708567 0 0.096626009115133749 -0.058680948206048439 0 0.090195735939283248 -0.080339006285514644 0 0.11736445959691 -0.068230877573187063 0 0.11736445959691 -0.068230877573187063 0 0.1098118862811996 -0.090732797661708567 0 0.1214196914632744 -0.082601194240305736 0 0.1098118862811996 -0.090732797661708567 0 0.1214196914632744 -0.082601194240305736 0 0.1202920087716161 -0.091400277715490807 0 0.1214196914632744 -0.082601194240305736 0 0.1202920087716161 -0.091400277715490807 0 0.1253876258966887 -0.095170457891257804 0 0.1098118862811996 -0.090732797661708567 0 0.1202920087716161 -0.091400277715490807 0 0.12454883144531009 -0.097096661068699866 0 0.1098118862811996 -0.090732797661708567 0 0.12454883144531009 -0.097096661068699866 0 0.10295528146630541 -0.11742288010987879 0 0.1202920087716161 -0.091400277715490807 0 0.12454883144531009 -0.097096661068699866 0 0.1253876258966887 -0.095170457891257804 0 0.12454883144531009 -0.097096661068699866 0 0.10295528146630541 -0.11742288010987879 0 0.12454883144531009 -0.097096661068699866 0 0.1253876258966887 -0.095170457891257804 0 0.089858761098052964 -0.099651685678553037 0 0.1098118862811996 -0.090732797661708567 0 0.10295528146630541 -0.11742288010987879 0 0.12454883144531009 -0.097096661068699866 0 0.1135926213462722 -0.1222564444592452 0 0.12454883144531009 -0.097096661068699866 0 0.10295528146630541 -0.11742288010987879 0 0.1135926213462722 -0.1222564444592452 0 0.1234648986517258 -0.13512338547790759 0 0.1135926213462722 -0.1222564444592452 0 0.13907185864555369 -0.1161119304947789 0 0.12454883144531009 -0.097096661068699866 0 0.1135926213462722 -0.1222564444592452 0 0.13907185864555369 -0.1161119304947789 0 0.13907185864555369 -0.1161119304947789 0 0.15720748057025671 -0.11391081469207261 0 0.15177170970309031 -0.1263611657844847 0 0.13907185864555369 -0.1161119304947789 0 0.1546788186393816 -0.097100475511650103 0 0.15720748057025671 -0.11391081469207261 0 0.13907185864555369 -0.1161119304947789 0 0.1546788186393816 -0.097100475511650103 0 0.12454883144531009 -0.097096661068699866 0 0.13907185864555369 -0.1161119304947789 0 0.1546788186393816 -0.097100475511650103 0 0.12454883144531009 -0.097096661068699866 0 0.14302488214427031 -0.079704974482251889 0 0.12454883144531009 -0.097096661068699866 0 0.1253876258966887 -0.095170457891257804 0 0.14302488214427031 -0.079704974482251889 0 0.1214196914632744 -0.082601194240305736 0 0.1253876258966887 -0.095170457891257804 0 0.14302488214427031 -0.079704974482251889 0 0.11736445959691 -0.068230877573187063 0 0.1214196914632744 -0.082601194240305736 0 0.14302488214427031 -0.079704974482251889 0 0.11736445959691 -0.068230877573187063 0 0.14018514909461899 -0.063670433606841534 0 0.14302488214427031 -0.079704974482251889 0 0.14302488214427031 -0.079704974482251889 0 0.15888861562028031 -0.075510217321165918 0 0.16150093284324041 -0.06231328789581364 0 0.14018514909461899 -0.063670433606841534 0 0.14302488214427031 -0.079704974482251889 0 0.16150093284324041 -0.06231328789581364 0 0.14302488214427031 -0.079704974482251889 0 0.16150093284324041 -0.06231328789581364 0 0.12454883144531009 -0.097096661068699866 0 0.1546788186393816 -0.097100475511650103 0 0.14302488214427031 -0.079704974482251889 0 0.1546788186393816 -0.097100475511650103 0 0.14302488214427031 -0.079704974482251889 0 0.15888861562028031 -0.075510217321165918 0 0.1546788186393816 -0.097100475511650103 0 0.17028577863320951 -0.078089020528521333 0 0.1546788186393816 -0.097100475511650103 0 0.17028577863320951 -0.078089020528521333 0 0.17544739080280081 -0.087633164800596047 0 0.1546788186393816 -0.097100475511650103 0 0.15888861562028031 -0.075510217321165918 0 0.17028577863320951 -0.078089020528521333 0 0.16737869769435371 -0.06575277056403489 0 0.17544739080280081 -0.087633164800596047 0 0.17028577863320951 -0.078089020528521333 0 0.16737869769435371 -0.06575277056403489 0 0.17544739080280081 -0.087633164800596047 0 0.15888861562028031 -0.075510217321165918 0 0.16737869769435371 -0.06575277056403489 0 0.16150093284324041 -0.06231328789581364 0 0.15888861562028031 -0.075510217321165918 0 0.17028577863320951 -0.078089020528521333 0 0.16737869769435371 -0.06575277056403489 0 0.16737869769435371 -0.06575277056403489 0 0.16150093284324041 -0.06231328789581364 0 0.16737869769435371 -0.06575277056403489 0 0.18348502568003799 -0.075177685877686667 0 0.16737869769435371 -0.06575277056403489 0 0.18348502568003799 -0.075177685877686667 0 0.17544739080280081 -0.087633164800596047 0 0.16737869769435371 -0.06575277056403489 0 0.18348502568003799 -0.075177685877686667 0 0.18212706615153409 -0.059023729231724421 0 0.18348502568003799 -0.075177685877686667 0 0.17544739080280081 -0.087633164800596047 0 0.18922548181526311 -0.088983713359747682 0 0.17544739080280081 -0.087633164800596047 0 0.18351608391124871 -0.1095135590371569 0 0.16811346799832411 -0.1052836239714839 0 0.17544739080280081 -0.087633164800596047 0 0.18351608391124871 -0.1095135590371569 0 0.18922548181526311 -0.088983713359747682 0 0.17544739080280081 -0.087633164800596047 0 0.18351608391124871 -0.1095135590371569 0 0.18351608391124871 -0.1095135590371569 0 0.166824177974052 -0.12436319811646231 0 0.16811346799832411 -0.1052836239714839 0 0.18351608391124871 -0.1095135590371569 0 0.166824177974052 -0.12436319811646231 0 0.17894168419223491 -0.13091661834162571 0 0.18351608391124871 -0.1095135590371569 0 0.1915847770196967 -0.13139395327371781 0 0.17894168419223491 -0.13091661834162571 0 0.166824177974052 -0.12436319811646231 0 0.15720748057025671 -0.11391081469207261 0 0.16811346799832411 -0.1052836239714839 0 0.166824177974052 -0.12436319811646231 0 0.15720748057025671 -0.11391081469207261 0 0.15177170970309031 -0.1263611657844847 0 0.1546788186393816 -0.097100475511650103 0 0.15720748057025671 -0.11391081469207261 0 0.16811346799832411 -0.1052836239714839 0 0.1546788186393816 -0.097100475511650103 0 0.17544739080280081 -0.087633164800596047 0 0.16811346799832411 -0.1052836239714839 0 0.14242008434549699 0.001929107074739985 0 0.15224644193891651 -0.004394893813088086 0 0.14992092534532811 -0.018411406063648619 0 0.14242008434549699 0.001929107074739985 0 0.14992092534532811 -0.018411406063648619 0 0.14242008434549699 0.001929107074739985 0 0.13598759479644479 -0.011996236137217091 0 0.14992092534532811 -0.018411406063648619 0 0.15807637948465569 0.0014301162840097571 0 0.14860271220055449 0.001269697410257871 0 0.15224644193891651 -0.004394893813088086 0 0.15224644193891651 -0.004394893813088086 0 0.14992092534532811 -0.018411406063648619 0 0.16221210831854729 -0.0081919837707984007 0 0.14242008434549699 0.001929107074739985 0 0.14860271220055449 0.001269697410257871 0 0.15224644193891651 -0.004394893813088086 0 0.1207506948084323 0.0042402610401935043 0 0.1216752320050096 -0.017514240912113729 0 0.13598759479644479 -0.011996236137217091 0 0.1207506948084323 0.0042402610401935043 0 0.14242008434549699 0.001929107074739985 0 0.13598759479644479 -0.011996236137217091 0 0.1221447936803053 -0.039283316134866943 0 0.1216752320050096 -0.017514240912113729 0 0.13842551861991809 -0.030444470919981578 0 0.1216752320050096 -0.017514240912113729 0 0.13598759479644479 -0.011996236137217091 0 0.13842551861991809 -0.030444470919981578 0 0.14992092534532811 -0.018411406063648619 0 0.15742176634515709 -0.038751919202038 0 0.13598759479644479 -0.011996236137217091 0 0.13842551861991809 -0.030444470919981578 0 0.14992092534532811 -0.018411406063648619 0 0.13842551861991809 -0.030444470919981578 0 0.14992092534532811 -0.018411406063648619 0 0.15742176634515709 -0.038751919202038 0 0.13842551861991809 -0.030444470919981578 0 0.1418228632617711 -0.050798302015343313 0 0.15742176634515709 -0.038751919202038 0 0.1221447936803053 -0.039283316134866943 0 0.13842551861991809 -0.030444470919981578 0 0.1418228632617711 -0.050798302015343313 0 0.1221447936803053 -0.039283316134866943 0 0.1418228632617711 -0.050798302015343313 0 0.14018514909461899 -0.063670433606841534 0 0.12601311892700881 -0.054696642197298133 0 0.1418228632617711 -0.050798302015343313 0 0.1221447936803053 -0.039283316134866943 0 0.12601311892700881 -0.054696642197298133 0 0.1418228632617711 -0.050798302015343313 0 0.11736445959691 -0.068230877573187063 0 0.14018514909461899 -0.063670433606841534 0 0.12601311892700881 -0.054696642197298133 0 0.1418228632617711 -0.050798302015343313 0 0.16150093284324041 -0.06231328789581364 0 0.14018514909461899 -0.063670433606841534 0 0.1418228632617711 -0.050798302015343313 0 0.16150093284324041 -0.06231328789581364 0 0.1418228632617711 -0.050798302015343313 0 0.16150093284324041 -0.06231328789581364 0 0.16492260734499309 -0.059092432340424758 0 0.1418228632617711 -0.050798302015343313 0 0.16492260734499309 -0.059092432340424758 0 0.15742176634515709 -0.038751919202038 0 0.16737869769435371 -0.06575277056403489 0 0.16492260734499309 -0.059092432340424758 0 0.18212706615153409 -0.059023729231724421 0 0.16492260734499309 -0.059092432340424758 0 0.15742176634515709 -0.038751919202038 0 0.16492260734499309 -0.059092432340424758 0 0.1822170073153371 -0.042813045100950298 0 0.15742176634515709 -0.038751919202038 0 0.16150093284324041 -0.06231328789581364 0 0.16492260734499309 -0.059092432340424758 0 0.16737869769435371 -0.06575277056403489 0 0.16492260734499309 -0.059092432340424758 0 0.16737869769435371 -0.06575277056403489 0 0.16150093284324041 -0.06231328789581364 0 0.16492260734499309 -0.059092432340424758 0 0.16492260734499309 -0.059092432340424758 0 0.18212706615153409 -0.059023729231724421 0 0.1822170073153371 -0.042813045100950298 0 0.16492260734499309 -0.059092432340424758 0 0.1822170073153371 -0.042813045100950298 0 0.1822170073153371 -0.042813045100950298 0 0.15742176634515709 -0.038751919202038 0 0.18103243117450671 -0.025987781726097801 0 0.15742176634515709 -0.038751919202038 0 0.16561821908112431 -0.02035411353493596 0 0.18103243117450671 -0.025987781726097801 0 0.14992092534532811 -0.018411406063648619 0 0.16561821908112431 -0.02035411353493596 0 0.16221210831854729 -0.0081919837707984007 0 0.14992092534532811 -0.018411406063648619 0 0.15742176634515709 -0.038751919202038 0 0.16561821908112431 -0.02035411353493596 0 0.18103243117450671 -0.025987781726097801 0 0.1766447245981117 -0.01015051995631169 0 0.1901334754887837 -0.012601429387520281 0 0.16561821908112431 -0.02035411353493596 0 0.18103243117450671 -0.025987781726097801 0 0.1766447245981117 -0.01015051995631169 0 0.18748862012264211 0.00065758471470461397 0 0.17091000867070111 0.0015876281411760619 0 0.1766447245981117 -0.01015051995631169 0 0.18748862012264211 0.00065758471470461397 0 0.1766447245981117 -0.01015051995631169 0 0.1901334754887837 -0.012601429387520281 0 0.17091000867070111 0.0015876281411760619 0 0.1766447245981117 -0.01015051995631169 0 0.16221210831854729 -0.0081919837707984007 0 0.16561821908112431 -0.02035411353493596 0 0.1766447245981117 -0.01015051995631169 0 0.16221210831854729 -0.0081919837707984007 0 0.15807637948465569 0.0014301162840097571 0 0.17091000867070111 0.0015876281411760619 0 0.16221210831854729 -0.0081919837707984007 0 0.15807637948465569 0.0014301162840097571 0 0.15224644193891651 -0.004394893813088086 0 0.16221210831854729 -0.0081919837707984007 0 0.21680580725601939 -0.010254270621994931 0 0.20303654763094001 -0.001205050851316176 0 0.19951140728567909 -0.02653365786147344 0 0.21458510694514091 0.0045122238706698983 0 0.21680580725601939 -0.010254270621994931 0 0.20303654763094001 -0.001205050851316176 0 0.21680580725601939 -0.010254270621994931 0 0.20303654763094001 -0.001205050851316176 0 0.20303654763094001 -0.001205050851316176 0 0.1901334754887837 -0.012601429387520281 0 0.19951140728567909 -0.02653365786147344 0 0.18748862012264211 0.00065758471470461397 0 0.20303654763094001 -0.001205050851316176 0 0.1901334754887837 -0.012601429387520281 0 0.18103243117450671 -0.025987781726097801 0 0.1901334754887837 -0.012601429387520281 0 0.19951140728567909 -0.02653365786147344 0 0.21680580725601939 -0.010254270621994931 0 0.19951140728567909 -0.02653365786147344 0 0.2170908751441103 -0.036142016405842067 0 0.21680580725601939 -0.010254270621994931 0 0.19951140728567909 -0.02653365786147344 0 0.19951140728567909 -0.02653365786147344 0 0.2170908751441103 -0.036142016405842067 0 0.1986973006381238 -0.050073363356092568 0 0.1822170073153371 -0.042813045100950298 0 0.19951140728567909 -0.02653365786147344 0 0.1986973006381238 -0.050073363356092568 0 0.1822170073153371 -0.042813045100950298 0 0.18103243117450671 -0.025987781726097801 0 0.19951140728567909 -0.02653365786147344 0 0.1822170073153371 -0.042813045100950298 0 0.19951140728567909 -0.02653365786147344 0 0.18212706615153409 -0.059023729231724421 0 0.1822170073153371 -0.042813045100950298 0 0.1986973006381238 -0.050073363356092568 0 0.18212706615153409 -0.059023729231724421 0 0.1986973006381238 -0.050073363356092568 0 0.20194238349673599 -0.073888427357657285 0 0.1986973006381238 -0.050073363356092568 0 0.21538470664269621 -0.056677639532684489 0 0.20194238349673599 -0.073888427357657285 0 0.2170908751441103 -0.036142016405842067 0 0.1986973006381238 -0.050073363356092568 0 0.21538470664269621 -0.056677639532684489 0 0.21538470664269621 -0.056677639532684489 0 0.234124066682209 -0.047489882639289958 0 0.22617627789569711 -0.07192010935018428 0 0.26135257656361488 -0.039530609111771933 0 0.234124066682209 -0.047489882639289958 0 0.24491381580027 -0.067953973135644483 0 0.234124066682209 -0.047489882639289958 0 0.22617627789569711 -0.07192010935018428 0 0.24491381580027 -0.067953973135644483 0 0.26135257656361488 -0.039530609111771933 0 0.234124066682209 -0.047489882639289958 0 0.23907919190981999 -0.024892439866879199 0 0.2170908751441103 -0.036142016405842067 0 0.234124066682209 -0.047489882639289958 0 0.23907919190981999 -0.024892439866879199 0 0.2170908751441103 -0.036142016405842067 0 0.21538470664269621 -0.056677639532684489 0 0.234124066682209 -0.047489882639289958 0 0.23562848818290119 0.007463702376157233 0 0.25393590756049139 -0.0071212513700616639 0 0.23907919190981999 -0.024892439866879199 0 0.23562848818290119 0.007463702376157233 0 0.21680580725601939 -0.010254270621994931 0 0.23907919190981999 -0.024892439866879199 0 0.21680580725601939 -0.010254270621994931 0 0.2170908751441103 -0.036142016405842067 0 0.23907919190981999 -0.024892439866879199 0 0.21680580725601939 -0.010254270621994931 0 0.23907919190981999 -0.024892439866879199 0 0.23562848818290119 0.007463702376157233 0 0.21680580725601939 -0.010254270621994931 0 0.21466570394105469 -0.1121832945633809 0 0.19973253541841809 -0.1169050715273454 0 0.20173652518549201 -0.098705729725641456 0 0.21466570394105469 -0.1121832945633809 0 0.22217182084751089 -0.091637768089932042 0 0.21466570394105469 -0.1121832945633809 0 0.20173652518549201 -0.098705729725641456 0 0.22217182084751089 -0.091637768089932042 0 0.21466570394105469 -0.1121832945633809 0 0.20715958703459841 -0.1327288210368299 0 0.21466570394105469 -0.1121832945633809 0 0.19973253541841809 -0.1169050715273454 0 0.20715958703459841 -0.1327288210368299 0 0.18351608391124871 -0.1095135590371569 0 0.19973253541841809 -0.1169050715273454 0 0.1915847770196967 -0.13139395327371781 0 0.18351608391124871 -0.1095135590371569 0 0.1915847770196967 -0.13139395327371781 0 0.18351608391124871 -0.1095135590371569 0 0.19973253541841809 -0.1169050715273454 0 0.20173652518549201 -0.098705729725641456 0 0.18351608391124871 -0.1095135590371569 0 0.20173652518549201 -0.098705729725641456 0 0.18922548181526311 -0.088983713359747682 0 0.20173652518549201 -0.098705729725641456 0 0.18922548181526311 -0.088983713359747682 0 0.20194238349673599 -0.073888427357657285 0 0.18348502568003799 -0.075177685877686667 0 0.18922548181526311 -0.088983713359747682 0 0.20194238349673599 -0.073888427357657285 0 0.18348502568003799 -0.075177685877686667 0 0.18212706615153409 -0.059023729231724421 0 0.20194238349673599 -0.073888427357657285 0 0.21538470664269621 -0.056677639532684489 0 0.20194238349673599 -0.073888427357657285 0 0.22617627789569711 -0.07192010935018428 0 0.20173652518549201 -0.098705729725641456 0 0.20194238349673599 -0.073888427357657285 0 0.22217182084751089 -0.091637768089932042 0 0.20194238349673599 -0.073888427357657285 0 0.22217182084751089 -0.091637768089932042 0 0.22617627789569711 -0.07192010935018428 0 0.22217182084751089 -0.091637768089932042 0 0.22617627789569711 -0.07192010935018428 0 0.2392677449879084 -0.086268732276426313 0 0.22617627789569711 -0.07192010935018428 0 0.24491381580027 -0.067953973135644483 0 0.2392677449879084 -0.086268732276426313 0 0.25849401419737361 -0.082762074489352258 0 0.24491381580027 -0.067953973135644483 0 0.2392677449879084 -0.086268732276426313 0 0.25192110618928332 -0.099996921955621557 0 0.25849401419737361 -0.082762074489352258 0 0.2392677449879084 -0.086268732276426313 0 0.25192110618928332 -0.099996921955621557 0 0.2392677449879084 -0.086268732276426313 0 0.23259095300692079 -0.1034544473543728 0 0.25192110618928332 -0.099996921955621557 0 0.23259095300692079 -0.1034544473543728 0 0.2462637847765401 -0.1146255311343863 0 0.22217182084751089 -0.091637768089932042 0 0.2392677449879084 -0.086268732276426313 0 0.23259095300692079 -0.1034544473543728 0 0.21466570394105469 -0.1121832945633809 0 0.22217182084751089 -0.091637768089932042 0 0.23259095300692079 -0.1034544473543728 0 0.21466570394105469 -0.1121832945633809 0 0.23253417475579699 -0.1179393481633712 0 0.2247910205998018 -0.13242189417945019 0 0.21466570394105469 -0.1121832945633809 0 0.23259095300692079 -0.1034544473543728 0 0.23253417475579699 -0.1179393481633712 0 0.23253417475579699 -0.1179393481633712 0 0.2462637847765401 -0.1146255311343863 0 0.2433669050392728 -0.12970943517911659 0 0.23259095300692079 -0.1034544473543728 0 0.23253417475579699 -0.1179393481633712 0 0.2462637847765401 -0.1146255311343863 0 0.25565569959594148 -0.124754287088963 0 0.2462637847765401 -0.1146255311343863 0 0.2433669050392728 -0.12970943517911659 0 0.2433669050392728 -0.12970943517911659 0 0.2499394014513662 -0.13952240910488839 0 0.2358468622533301 -0.14615979864090531 0 0.2433669050392728 -0.12970943517911659 0 0.2358468622533301 -0.14615979864090531 0 0.2247910205998018 -0.13242189417945019 0 0.25669419121068737 -0.15095137560431071 0 0.2358468622533301 -0.14615979864090531 0 0.24917058809000561 -0.1668422547091522 0 0.25669419121068737 -0.15095137560431071 0 0.2499394014513662 -0.13952240910488839 0 0.2358468622533301 -0.14615979864090531 0 0.2358468622533301 -0.14615979864090531 0 0.2178206728872728 -0.14831109288739949 0 0.22455249445830031 -0.15945733205028931 0 0.2358468622533301 -0.14615979864090531 0 0.2247910205998018 -0.13242189417945019 0 0.2178206728872728 -0.14831109288739949 0 0.23253417475579699 -0.1179393481633712 0 0.2433669050392728 -0.12970943517911659 0 0.2247910205998018 -0.13242189417945019 0 0.21466570394105469 -0.1121832945633809 0 0.2247910205998018 -0.13242189417945019 0 0.20715958703459841 -0.1327288210368299 0 0.2247910205998018 -0.13242189417945019 0 0.20715958703459841 -0.1327288210368299 0 0.2178206728872728 -0.14831109288739949 0 0.2178206728872728 -0.14831109288739949 0 0.19965347012814319 -0.15327434751027921 0 0.21471941856119461 -0.16374904173003771 0 0.20715958703459841 -0.1327288210368299 0 0.19965347012814319 -0.15327434751027921 0 0.20715958703459841 -0.1327288210368299 0 0.2178206728872728 -0.14831109288739949 0 0.19965347012814319 -0.15327434751027921 0 0.19965347012814319 -0.15327434751027921 0 0.1915847770196967 -0.13139395327371781 0 0.18351216368014661 -0.14655646584161369 0 0.19965347012814319 -0.15327434751027921 0 0.18351216368014661 -0.14655646584161369 0 0.18356405823093491 -0.1632758286268807 0 0.19965347012814319 -0.15327434751027921 0 0.1915847770196967 -0.13139395327371781 0 0.19973253541841809 -0.1169050715273454 0 0.20715958703459841 -0.1327288210368299 0 0.1915847770196967 -0.13139395327371781 0 0.20715958703459841 -0.1327288210368299 0 0.19965347012814319 -0.15327434751027921 0 0.1915847770196967 -0.13139395327371781 0 0.2046099681492127 -0.18183778750165919 0 0.20239785453220821 -0.19340983546105481 0 0.17996465379099899 -0.1857305878325097 0 0.18980847174145371 -0.18022179284127129 0 0.2046099681492127 -0.18183778750165919 0 0.17996465379099899 -0.1857305878325097 0 0.2046099681492127 -0.18183778750165919 0 0.17996465379099899 -0.1857305878325097 0 0.18980847174145371 -0.18022179284127129 0 0.19995383236017711 -0.17128069567166859 0 0.2046099681492127 -0.18183778750165919 0 0.19965347012814319 -0.15327434751027921 0 0.19995383236017711 -0.17128069567166859 0 0.20574341942189869 -0.16978885483346459 0 0.19965347012814319 -0.15327434751027921 0 0.18980847174145371 -0.18022179284127129 0 0.18356405823093491 -0.1632758286268807 0 0.19965347012814319 -0.15327434751027921 0 0.18980847174145371 -0.18022179284127129 0 0.19995383236017711 -0.17128069567166859 0 0.19965347012814319 -0.15327434751027921 0 0.18980847174145371 -0.18022179284127129 0 0.19965347012814319 -0.15327434751027921 0 0.20574341942189869 -0.16978885483346459 0 0.19965347012814319 -0.15327434751027921 0 0.20574341942189869 -0.16978885483346459 0 0.21471941856119461 -0.16374904173003771 0 0.21471941856119461 -0.16374904173003771 0 0.21482295851162519 -0.1758207807424553 0 0.22572349595992769 -0.17584184235633829 0 0.20574341942189869 -0.16978885483346459 0 0.21471941856119461 -0.16374904173003771 0 0.21482295851162519 -0.1758207807424553 0 0.21482295851162519 -0.1758207807424553 0 0.2118333687156515 -0.186303362156651 0 0.22572349595992769 -0.17584184235633829 0 0.20574341942189869 -0.16978885483346459 0 0.21482295851162519 -0.1758207807424553 0 0.2118333687156515 -0.186303362156651 0 0.20574341942189869 -0.16978885483346459 0 0.2046099681492127 -0.18183778750165919 0 0.2118333687156515 -0.186303362156651 0 0.20574341942189869 -0.16978885483346459 0 0.2118333687156515 -0.186303362156651 0 0.19995383236017711 -0.17128069567166859 0 0.20574341942189869 -0.16978885483346459 0 0.2046099681492127 -0.18183778750165919 0 0.2046099681492127 -0.18183778750165919 0 0.2118333687156515 -0.186303362156651 0 0.20239785453220821 -0.19340983546105481 0 0.2118333687156515 -0.186303362156651 0 0.22139413778586281 -0.18454556624268309 0 0.21371093372834121 -0.1913948760028496 0 0.2118333687156515 -0.186303362156651 0 0.22139413778586281 -0.18454556624268309 0 0.22572349595992769 -0.17584184235633829 0 0.2118333687156515 -0.186303362156651 0 0.22572349595992769 -0.17584184235633829 0 0.22139413778586281 -0.18454556624268309 0 0.22572349595992769 -0.17584184235633829 0 0.23030094175266089 -0.18844004885095131 0 0.22572349595992769 -0.17584184235633829 0 0.23714522820021769 -0.17595934347949341 0 0.23030094175266089 -0.18844004885095131 0 0.2358468622533301 -0.14615979864090531 0 0.22455249445830031 -0.15945733205028931 0 0.2343834984812001 -0.16336043976007431 0 0.22572349595992769 -0.17584184235633829 0 0.22455249445830031 -0.15945733205028931 0 0.2343834984812001 -0.16336043976007431 0 0.21471941856119461 -0.16374904173003771 0 0.22572349595992769 -0.17584184235633829 0 0.22455249445830031 -0.15945733205028931 0 0.2178206728872728 -0.14831109288739949 0 0.21471941856119461 -0.16374904173003771 0 0.22455249445830031 -0.15945733205028931 0 0.22572349595992769 -0.17584184235633829 0 0.2343834984812001 -0.16336043976007431 0 0.23714522820021769 -0.17595934347949341 0 0.2358468622533301 -0.14615979864090531 0 0.24917058809000561 -0.1668422547091522 0 0.2358468622533301 -0.14615979864090531 0 0.2343834984812001 -0.16336043976007431 0 0.24917058809000561 -0.1668422547091522 0 0.2343834984812001 -0.16336043976007431 0 0.24917058809000561 -0.1668422547091522 0 0.23714522820021769 -0.17595934347949341 0 0.2461476167172941 -0.18531213172095071 0 0.23714522820021769 -0.17595934347949341 0 0.23030094175266089 -0.18844004885095131 0 0.24917058809000561 -0.1668422547091522 0 0.2461476167172941 -0.18531213172095071 0 0.23714522820021769 -0.17595934347949341 0 0.25670511353435138 -0.19334825677869591 0 0.2461476167172941 -0.18531213172095071 0 0.24046394842280711 -0.19527532171493281 0 0.2461476167172941 -0.18531213172095071 0 0.24046394842280711 -0.19527532171493281 0 0.23030094175266089 -0.18844004885095131 0 0.25670511353435138 -0.19334825677869591 0 0.24046394842280711 -0.19527532171493281 0 0.24549924850961299 -0.21003360274459151 0 0.24046394842280711 -0.19527532171493281 0 0.24549924850961299 -0.21003360274459151 0 0.2302329268704254 -0.19936380052084249 0 0.24549924850961299 -0.21003360274459151 0 0.22118956193870501 -0.21167515329088771 0 0.2302329268704254 -0.19936380052084249 0 0.24549924850961299 -0.21003360274459151 0 0.22118956193870501 -0.21167515329088771 0 0.24549924850961299 -0.21003360274459151 0 0.22118956193870501 -0.21167515329088771 0 0.22795522702509841 -0.23002204260408421 0 0.23030094175266089 -0.18844004885095131 0 0.2302329268704254 -0.19936380052084249 0 0.21371093372834121 -0.1913948760028496 0 0.23030094175266089 -0.18844004885095131 0 0.21371093372834121 -0.1913948760028496 0 0.22139413778586281 -0.18454556624268309 0 0.23030094175266089 -0.18844004885095131 0 0.21371093372834121 -0.1913948760028496 0 0.22118956193870501 -0.21167515329088771 0 0.2302329268704254 -0.19936380052084249 0 0.21371093372834121 -0.1913948760028496 0 0.24046394842280711 -0.19527532171493281 0 0.23030094175266089 -0.18844004885095131 0 0.2302329268704254 -0.19936380052084249 0 0.25441055206166929 -0.25410101406412589 0 0.23472089211149269 -0.24836893191728029 0 0.2471058769318851 -0.24117551597347309 0 0.23472089211149269 -0.24836893191728029 0 0.2471058769318851 -0.24117551597347309 0 0.22795522702509841 -0.23002204260408421 0 0.25720362854392742 -0.2211924188983255 0 0.24549924850961299 -0.21003360274459151 0 0.2455123617744509 -0.22725303801874311 0 0.24549924850961299 -0.21003360274459151 0 0.2455123617744509 -0.22725303801874311 0 0.22795522702509841 -0.23002204260408421 0 0.2471058769318851 -0.24117551597347309 0 0.2455123617744509 -0.22725303801874311 0 0.22795522702509841 -0.23002204260408421 0 0.22118956193870501 -0.21167515329088771 0 0.22795522702509841 -0.23002204260408421 0 0.22795522702509841 -0.23002204260408421 0 0.21930952422237721 -0.24335900342221731 0 0.211797237549186 -0.22599625590299111 0 0.22118956193870501 -0.21167515329088771 0 0.22795522702509841 -0.23002204260408421 0 0.211797237549186 -0.22599625590299111 0 0.23472089211149269 -0.24836893191728029 0 0.22795522702509841 -0.23002204260408421 0 0.23472089211149269 -0.24836893191728029 0 0.22795522702509841 -0.23002204260408421 0 0.21930952422237721 -0.24335900342221731 0 0.21930952422237721 -0.24335900342221731 0 0.20452798370110631 -0.24003337636577379 0 0.211797237549186 -0.22599625590299111 0 0.21021378446493119 -0.25639319764672619 0 0.21930952422237721 -0.24335900342221731 0 0.20452798370110631 -0.24003337636577379 0 0.211797237549186 -0.22599625590299111 0 0.1895610996665322 -0.22900372177755349 0 0.19754834524610729 -0.2132715643373084 0 0.20452798370110631 -0.24003337636577379 0 0.211797237549186 -0.22599625590299111 0 0.1895610996665322 -0.22900372177755349 0 0.21021378446493119 -0.25639319764672619 0 0.20452798370110631 -0.24003337636577379 0 0.19289336890590461 -0.24853551154924139 0 0.20452798370110631 -0.24003337636577379 0 0.1895610996665322 -0.22900372177755349 0 0.19289336890590461 -0.24853551154924139 0 0.22118956193870501 -0.21167515329088771 0 0.21371093372834121 -0.1913948760028496 0 0.22118956193870501 -0.21167515329088771 0 0.21371093372834121 -0.1913948760028496 0 0.20837190147527779 -0.20336613394653899 0 0.21371093372834121 -0.1913948760028496 0 0.20837190147527779 -0.20336613394653899 0 0.20239785453220821 -0.19340983546105481 0 0.20837190147527779 -0.20336613394653899 0 0.1991176481991129 -0.20354660979182329 0 0.20239785453220821 -0.19340983546105481 0 0.21371093372834121 -0.1913948760028496 0 0.20239785453220821 -0.19340983546105481 0 0.2118333687156515 -0.186303362156651 0 0.20239785453220821 -0.19340983546105481 0 0.2118333687156515 -0.186303362156651 0 0.21371093372834121 -0.1913948760028496 0 0.20239785453220821 -0.19340983546105481 0 0.2118333687156515 -0.186303362156651 0 0.21371093372834121 -0.1913948760028496 0 0.22118956193870501 -0.21167515329088771 0 0.20837190147527779 -0.20336613394653899 0 0.19754834524610729 -0.2132715643373084 0 0.22118956193870501 -0.21167515329088771 0 0.19754834524610729 -0.2132715643373084 0 0.22118956193870501 -0.21167515329088771 0 0.211797237549186 -0.22599625590299111 0 0.19754834524610729 -0.2132715643373084 0 0.20837190147527779 -0.20336613394653899 0 0.1991176481991129 -0.20354660979182329 0 0.19754834524610729 -0.2132715643373084 0 0.1991176481991129 -0.20354660979182329 0 0.19754834524610729 -0.2132715643373084 0 0.1881524915428586 -0.20413890542239149 0 0.1881524915428586 -0.20413890542239149 0 0.20239785453220821 -0.19340983546105481 0 0.1795908042834847 -0.19747197281691711 0 0.20239785453220821 -0.19340983546105481 0 0.1795908042834847 -0.19747197281691711 0 0.1881524915428586 -0.20413890542239149 0 0.20239785453220821 -0.19340983546105481 0 0.1991176481991129 -0.20354660979182329 0 0.1881524915428586 -0.20413890542239149 0 0.20239785453220821 -0.19340983546105481 0 0.20239785453220821 -0.19340983546105481 0 0.1795908042834847 -0.19747197281691711 0 0.17996465379099899 -0.1857305878325097 0 0.1795908042834847 -0.19747197281691711 0 0.16724324816343211 -0.19420273762304441 0 0.17996465379099899 -0.1857305878325097 0 0.1881524915428586 -0.20413890542239149 0 0.1739071285535097 -0.21486797538372901 0 0.1881524915428586 -0.20413890542239149 0 0.1795908042834847 -0.19747197281691711 0 0.1739071285535097 -0.21486797538372901 0 0.19754834524610729 -0.2132715643373084 0 0.1739071285535097 -0.21486797538372901 0 0.19754834524610729 -0.2132715643373084 0 0.1881524915428586 -0.20413890542239149 0 0.1739071285535097 -0.21486797538372901 0 0.1795908042834847 -0.19747197281691711 0 0.1739071285535097 -0.21486797538372901 0 0.16463757602601231 -0.20911008467294309 0 0.1739071285535097 -0.21486797538372901 0 0.1562262670312827 -0.21606190389474239 0 0.1739071285535097 -0.21486797538372901 0 0.16463757602601231 -0.20911008467294309 0 0.1562262670312827 -0.21606190389474239 0 0.16463757602601231 -0.20911008467294309 0 0.15678375403476111 -0.20153411017277911 0 0.1562262670312827 -0.21606190389474239 0 0.1795908042834847 -0.19747197281691711 0 0.15678375403476111 -0.20153411017277911 0 0.15531933943278539 -0.1896233881633603 0 0.17996465379099899 -0.1857305878325097 0 0.16724324816343211 -0.19420273762304441 0 0.15531933943278539 -0.1896233881633603 0 0.17996465379099899 -0.1857305878325097 0 0.1795908042834847 -0.19747197281691711 0 0.15678375403476111 -0.20153411017277911 0 0.16724324816343211 -0.19420273762304441 0 0.1795908042834847 -0.19747197281691711 0 0.16463757602601231 -0.20911008467294309 0 0.15678375403476111 -0.20153411017277911 0 0.15678375403476111 -0.20153411017277911 0 0.16724324816343211 -0.19420273762304441 0 0.15531933943278539 -0.1896233881633603 0 0.1895610996665322 -0.22900372177755349 0 0.19289336890590461 -0.24853551154924139 0 0.1785621435901068 -0.2427993672826386 0 0.17111985458339041 -0.25486490992328359 0 0.1785621435901068 -0.2427993672826386 0 0.16665109433753081 -0.24552931142596271 0 0.1824737288500585 -0.25704482284159968 0 0.19289336890590461 -0.24853551154924139 0 0.1785621435901068 -0.2427993672826386 0 0.1785621435901068 -0.2427993672826386 0 0.17691025090357351 -0.2272778102417457 0 0.1666868165111394 -0.2349266097734552 0 0.1895610996665322 -0.22900372177755349 0 0.19754834524610729 -0.2132715643373084 0 0.1739071285535097 -0.21486797538372901 0 0.1739071285535097 -0.21486797538372901 0 0.17691025090357351 -0.2272778102417457 0 0.1666868165111394 -0.2349266097734552 0 0.1895610996665322 -0.22900372177755349 0 0.1739071285535097 -0.21486797538372901 0 0.17691025090357351 -0.2272778102417457 0 0.1895610996665322 -0.22900372177755349 0 0.1785621435901068 -0.2427993672826386 0 0.17691025090357351 -0.2272778102417457 0 0.1739071285535097 -0.21486797538372901 0 0.15314136371735651 -0.23050796601747589 0 0.1739071285535097 -0.21486797538372901 0 0.1666868165111394 -0.2349266097734552 0 0.15314136371735651 -0.23050796601747589 0 0.1739071285535097 -0.21486797538372901 0 0.15314136371735651 -0.23050796601747589 0 0.1562262670312827 -0.21606190389474239 0 0.1785621435901068 -0.2427993672826386 0 0.1666868165111394 -0.2349266097734552 0 0.16665109433753081 -0.24552931142596271 0 0.1666868165111394 -0.2349266097734552 0 0.16665109433753081 -0.24552931142596271 0 0.15434540464313221 -0.24204652951563421 0 0.1666868165111394 -0.2349266097734552 0 0.15434540464313221 -0.24204652951563421 0 0.15314136371735651 -0.23050796601747589 0 0.1625412523598854 -0.25300914063480201 0 0.16665109433753081 -0.24552931142596271 0 0.15434540464313221 -0.24204652951563421 0 0.15314136371735651 -0.23050796601747589 0 0.1323755988812039 -0.2461479566512233 0 0.14531627873659189 -0.24785316868413609 0 0.15434540464313221 -0.24204652951563421 0 0.15314136371735651 -0.23050796601747589 0 0.14158652806858879 -0.22780557227777079 0 0.15314136371735651 -0.23050796601747589 0 0.1323755988812039 -0.2461479566512233 0 0.14531627873659189 -0.24785316868413609 0 0.15314136371735651 -0.23050796601747589 0 0.1323755988812039 -0.2461479566512233 0 0.15113665445173391 -0.25932921656200242 0 0.14531627873659189 -0.24785316868413609 0 0.15434540464313221 -0.24204652951563421 0 0.14158652806858879 -0.22780557227777079 0 0.1562262670312827 -0.21606190389474239 0 0.13854540550905561 -0.21725583240575519 0 0.14158652806858879 -0.22780557227777079 0 0.15314136371735651 -0.23050796601747589 0 0.1562262670312827 -0.21606190389474239 0 0.14158652806858879 -0.22780557227777079 0 0.12764400520404509 -0.22905420241965729 0 0.1323755988812039 -0.2461479566512233 0 0.14158652806858879 -0.22780557227777079 0 0.12764400520404509 -0.22905420241965729 0 0.13854540550905561 -0.21725583240575519 0 0.12371346546089081 -0.216342698059316 0 0.12764400520404509 -0.22905420241965729 0 0.13854540550905561 -0.21725583240575519 0 0.11678368745308861 -0.23935006861432739 0 0.12764400520404509 -0.22905420241965729 0 0.1323755988812039 -0.2461479566512233 0 0.14418845558203891 -0.19756748358974779 0 0.15531933943278539 -0.1896233881633603 0 0.13067402507457171 -0.1935161884942109 0 0.15531933943278539 -0.1896233881633603 0 0.13067402507457171 -0.1935161884942109 0 0.15531933943278539 -0.1896233881633603 0 0.13067402507457171 -0.1935161884942109 0 0.1399263588631674 -0.1823102308871333 0 0.15678375403476111 -0.20153411017277911 0 0.14418845558203891 -0.19756748358974779 0 0.1339767037860376 -0.205596247528641 0 0.15678375403476111 -0.20153411017277911 0 0.14418845558203891 -0.19756748358974779 0 0.15531933943278539 -0.1896233881633603 0 0.15678375403476111 -0.20153411017277911 0 0.14638303259028421 -0.21011202350047939 0 0.1339767037860376 -0.205596247528641 0 0.15678375403476111 -0.20153411017277911 0 0.1562262670312827 -0.21606190389474239 0 0.14638303259028421 -0.21011202350047939 0 0.1562262670312827 -0.21606190389474239 0 0.13854540550905561 -0.21725583240575519 0 0.15678375403476111 -0.20153411017277911 0 0.1339767037860376 -0.205596247528641 0 0.1562262670312827 -0.21606190389474239 0 0.14638303259028421 -0.21011202350047939 0 0.13854540550905561 -0.21725583240575519 0 0.14638303259028421 -0.21011202350047939 0 0.1339767037860376 -0.205596247528641 0 0.13854540550905561 -0.21725583240575519 0 0.12371346546089081 -0.216342698059316 0 0.1339767037860376 -0.205596247528641 0 0.13854540550905561 -0.21725583240575519 0 0.1212397826520247 -0.20539177798455169 0 0.12371346546089081 -0.216342698059316 0 0.1339767037860376 -0.205596247528641 0 0.1212397826520247 -0.20539177798455169 0 0.1339767037860376 -0.205596247528641 0 0.13067402507457171 -0.1935161884942109 0 0.14418845558203891 -0.19756748358974779 0 0.1339767037860376 -0.205596247528641 0 0.13067402507457171 -0.1935161884942109 0 0.11898770658484251 -0.18426351865961679 0 0.1305188899161939 -0.18403030228310521 0 0.1280715040845479 -0.17548954794202731 0 0.11898770658484251 -0.18426351865961679 0 0.13067402507457171 -0.1935161884942109 0 0.1305188899161939 -0.18403030228310521 0 0.1280715040845479 -0.17548954794202731 0 0.1399263588631674 -0.1823102308871333 0 0.14251286505095989 -0.17200087707267159 0 0.13067402507457171 -0.1935161884942109 0 0.1305188899161939 -0.18403030228310521 0 0.1399263588631674 -0.1823102308871333 0 0.1305188899161939 -0.18403030228310521 0 0.1280715040845479 -0.17548954794202731 0 0.1399263588631674 -0.1823102308871333 0 0.1399263588631674 -0.1823102308871333 0 0.14251286505095989 -0.17200087707267159 0 0.15108762358522859 -0.17941055146064699 0 0.14251286505095989 -0.17200087707267159 0 0.15108762358522859 -0.17941055146064699 0 0.15436677250778641 -0.1699485257237715 0 0.15531933943278539 -0.1896233881633603 0 0.1399263588631674 -0.1823102308871333 0 0.15108762358522859 -0.17941055146064699 0 0.14702348530885281 -0.15917746114609069 0 0.16096926755106161 -0.15347188986992641 0 0.1566688355048638 -0.16177215965229841 0 0.15436677250778641 -0.1699485257237715 0 0.14702348530885281 -0.15917746114609069 0 0.1566688355048638 -0.16177215965229841 0 0.14251286505095989 -0.17200087707267159 0 0.15436677250778641 -0.1699485257237715 0 0.14702348530885281 -0.15917746114609069 0 0.14251286505095989 -0.17200087707267159 0 0.14702348530885281 -0.15917746114609069 0 0.13517286783992319 -0.16460965714612449 0 0.14702348530885281 -0.15917746114609069 0 0.13517286783992319 -0.16460965714612449 0 0.13521855925889001 -0.153650122284304 0 0.1280715040845479 -0.17548954794202731 0 0.14251286505095989 -0.17200087707267159 0 0.13517286783992319 -0.16460965714612449 0 0.1280715040845479 -0.17548954794202731 0 0.13517286783992319 -0.16460965714612449 0 0.1266174729013434 -0.16088232340893721 0 0.13517286783992319 -0.16460965714612449 0 0.1266174729013434 -0.16088232340893721 0 0.13521855925889001 -0.153650122284304 0 0.1266275587113298 -0.14947396644241309 0 0.13397478078916419 -0.14362369206213541 0 0.13521855925889001 -0.153650122284304 0 0.1266174729013434 -0.16088232340893721 0 0.1266275587113298 -0.14947396644241309 0 0.13521855925889001 -0.153650122284304 0 0.1234648986517258 -0.13512338547790759 0 0.1266275587113298 -0.14947396644241309 0 0.13397478078916419 -0.14362369206213541 0 0.13397478078916419 -0.14362369206213541 0 0.13521855925889001 -0.153650122284304 0 0.14462245739193669 -0.14674457454177059 0 0.13397478078916419 -0.14362369206213541 0 0.13994042993193889 -0.1331264115642819 0 0.14462245739193669 -0.14674457454177059 0 0.1234648986517258 -0.13512338547790759 0 0.13907185864555369 -0.1161119304947789 0 0.1234648986517258 -0.13512338547790759 0 0.13397478078916419 -0.14362369206213541 0 0.13994042993193889 -0.1331264115642819 0 0.1234648986517258 -0.13512338547790759 0 0.13907185864555369 -0.1161119304947789 0 0.13994042993193889 -0.1331264115642819 0 0.13994042993193889 -0.1331264115642819 0 0.14462245739193669 -0.14674457454177059 0 0.15625497446733019 -0.1389724346153606 0 0.13994042993193889 -0.1331264115642819 0 0.15177170970309031 -0.1263611657844847 0 0.15625497446733019 -0.1389724346153606 0 0.13907185864555369 -0.1161119304947789 0 0.13994042993193889 -0.1331264115642819 0 0.15177170970309031 -0.1263611657844847 0 0.14702348530885281 -0.15917746114609069 0 0.14462245739193669 -0.14674457454177059 0 0.16096926755106161 -0.15347188986992641 0 0.14462245739193669 -0.14674457454177059 0 0.16096926755106161 -0.15347188986992641 0 0.15625497446733019 -0.1389724346153606 0 0.14702348530885281 -0.15917746114609069 0 0.13521855925889001 -0.153650122284304 0 0.14462245739193669 -0.14674457454177059 0 0.16096926755106161 -0.15347188986992641 0 0.16927121837603021 -0.14275591543917801 0 0.15625497446733019 -0.1389724346153606 0 0.16096926755106161 -0.15347188986992641 0 0.16927121837603021 -0.14275591543917801 0 0.1726862461332756 -0.15637329559783991 0 0.166824177974052 -0.12436319811646231 0 0.16927121837603021 -0.14275591543917801 0 0.17894168419223491 -0.13091661834162571 0 0.166824177974052 -0.12436319811646231 0 0.16927121837603021 -0.14275591543917801 0 0.15625497446733019 -0.1389724346153606 0 0.166824177974052 -0.12436319811646231 0 0.15177170970309031 -0.1263611657844847 0 0.15625497446733019 -0.1389724346153606 0 0.16927121837603021 -0.14275591543917801 0 0.17894168419223491 -0.13091661834162571 0 0.18351216368014661 -0.14655646584161369 0 0.1915847770196967 -0.13139395327371781 0 0.17894168419223491 -0.13091661834162571 0 0.18351216368014661 -0.14655646584161369 0 0.18351216368014661 -0.14655646584161369 0 0.18356405823093491 -0.1632758286268807 0 0.1726862461332756 -0.15637329559783991 0 0.16927121837603021 -0.14275591543917801 0 0.18351216368014661 -0.14655646584161369 0 0.1726862461332756 -0.15637329559783991 0 0.18356405823093491 -0.1632758286268807 0 0.1726862461332756 -0.15637329559783991 0 0.17448495230972599 -0.16768891194003541 0 0.18356405823093491 -0.1632758286268807 0 0.17448495230972599 -0.16768891194003541 0 0.17936342352412299 -0.17520974336357389 0 0.18980847174145371 -0.18022179284127129 0 0.18356405823093491 -0.1632758286268807 0 0.17936342352412299 -0.17520974336357389 0 0.18980847174145371 -0.18022179284127129 0 0.17996465379099899 -0.1857305878325097 0 0.17936342352412299 -0.17520974336357389 0 0.17996465379099899 -0.1857305878325097 0 0.17936342352412299 -0.17520974336357389 0 0.1660556071134287 -0.17808515243116749 0 0.17448495230972599 -0.16768891194003541 0 0.17936342352412299 -0.17520974336357389 0 0.1660556071134287 -0.17808515243116749 0 0.15531933943278539 -0.1896233881633603 0 0.17996465379099899 -0.1857305878325097 0 0.1660556071134287 -0.17808515243116749 0 0.15531933943278539 -0.1896233881633603 0 0.15108762358522859 -0.17941055146064699 0 0.1660556071134287 -0.17808515243116749 0 0.15108762358522859 -0.17941055146064699 0 0.15436677250778641 -0.1699485257237715 0 0.1660556071134287 -0.17808515243116749 0 0.15436677250778641 -0.1699485257237715 0 0.1660556071134287 -0.17808515243116749 0 0.16431581665175421 -0.16449076186940509 0 0.15436677250778641 -0.1699485257237715 0 0.1566688355048638 -0.16177215965229841 0 0.16431581665175421 -0.16449076186940509 0 0.16096926755106161 -0.15347188986992641 0 0.1566688355048638 -0.16177215965229841 0 0.16431581665175421 -0.16449076186940509 0 0.1726862461332756 -0.15637329559783991 0 0.17448495230972599 -0.16768891194003541 0 0.16431581665175421 -0.16449076186940509 0 0.16096926755106161 -0.15347188986992641 0 0.1726862461332756 -0.15637329559783991 0 0.16431581665175421 -0.16449076186940509 0 0.17448495230972599 -0.16768891194003541 0 0.1660556071134287 -0.17808515243116749 0 0.16431581665175421 -0.16449076186940509 0 
</DataArray>
</Points>
<Cells>
<DataArray type="UInt32" Name="connectivity" format="ascii">
0 1 2 3 4 5 6 7 8 9 10 11 12 13 14 15 16 17 18 19 20 21 22 23 24 25 26 27 28 29 30 31 32 33 34 35 36 37 38 39 40 41 42 43 44 45 46 47 48 49 50 51 52 53 54 55 56 57 58 59 60 61 62 63 64 65 66 67 68 69 70 71 72 73 74 75 76 77 78 79 80 81 82 83 84 85 86 87 88 89 90 91 92 93 94 95 96 97 98 99 100 101 102 103 104 105 106 107 108 109 110 111 112 113 114 115 116 117 118 119 120 121 122 123 124 125 126 127 128 129 130 131 132 133 134 135 136 137 138 139 140 141 142 143 144 145 146 147 148 149 150 151 152 153 154 155 156 157 158 159 160 161 162 163 164 165 166 167 168 169 170 171 172 173 174 175 176 177 178 179 180 181 182 183 184 185 186 187 188 189 190 191 192 193 194 195 196 197 198 199 200 201 202 203 204 205 206 207 208 209 210 211 212 213 214 215 216 217 218 219 220 221 222 223 224 225 226 227 228 229 230 231 232 233 234 235 236 237 238 239 240 241 242 243 244 245 246 247 248 249 250 251 252 253 254 255 256 257 258 259 260 261 262 263 264 265 266 267 268 269 270 271 272 273 274 275 276 277 278 279 280 281 282 283 284 285 286 287 288 289 290 291 292 293 294 295 296 297 298 299 300 301 302 303 304 305 306 307 308 309 310 311 312 313 314 315 316 317 318 319 320 321 322 323 324 325 326 327 328 329 330 331 332 333 334 335 336 337 338 339 340 341 342 343 344 345 346 347 348 349 350 351 352 353 354 355 356 357 358 359 360 361 362 363 364 365 366 367 368 369 370 371 372 373 374 375 376 377 378 379 380 381 382 383 384 385 386 387 388 389 390 391 392 393 394 395 396 397 398 399 400 401 402 403 404 405 406 407 408 409 410 411 412 413 414 415 416 417 418 419 420 421 422 423 424 425 426 427 428 429 430 431 432 433 434 435 436 437 438 439 440 441 442 443 444 445 446 447 448 449 450 451 452 453 454 455 456 457 458 459 460 461 462 463 464 465 466 467 468 469 470 471 472 473 474 475 476 477 478 479 480 481 482 483 484 485 486 487 488 489 490 491 492 493 494 495 496 497 498 499 500 501 502 503 504 505 506 507 508 509 510 511 512 513 514 515 516 517 518 519 520 521 522 523 524 525 526 527 528 529 530 531 532 533 534 535 536 537 538 539 540 541 542 543 544 545 546 547 548 549 550 551 552 553 554 555 556 557 558 559 560 561 562 563 564 565 566 567 568 569 570 571 572 573 574 575 576 577 578 579 580 581 582 583 584 585 586 587 588 589 590 591 592 593 594 595 596 597 598 599 600 601 602 603 604 605 606 607 608 609 610 611 612 613 614 615 616 617 618 619 620 621 622 623 624 625 626 627 628 629 630 631 632 633 634 635 636 637 638 639 640 641 642 643 644 645 646 647 648 649 650 651 652 653 654 655 656 657 658 659 660 661 662 663 664 665 666 667 668 669 670 671 672 673 674 675 676 677 678 679 680 681 682 683 684 685 686 687 688 689 690 691 692 693 694 695 696 697 698 699 700 701 702 703 704 705 706 707 708 709 710 711 712 713 714 715 716 717 718 719 720 721 722 723 724 725 726 727 728 729 730 731 732 733 734 735 736 737 738 739 740 741 742 743 744 745 746 747 748 749 750 751 752 753 754 755 756 757 758 759 760 761 762 763 764 765 766 767 768 769 770 771 772 773 774 775 776 777 778 779 780 781 782 783 784 785 786 787 788 789 790 791 792 793 794 795 796 797 798 799 800 801 802 803 804 805 806 807 808 809 810 811 812 813 814 815 816 817 818 819 820 821 822 823 824 825 826 827 828 829 830 831 832 833 834 835 836 837 838 839 840 841 842 843 844 845 846 847 848 849 850 851 852 853 854 855 856 857 858 859 860 861 862 863 864 865 866 867 868 869 870 871 872 873 874 875 876 877 878 879 880 881 882 883 884 885 886 887 888 889 890 891 892 893 894 895 896 897 898 899 900 901 902 903 904 905 906 907 908 909 910 911 912 913 914 915 916 917 918 919 920 921 922 923 924 925 926 927 928 929 930 931 932 933 934 935 936 937 938 939 940 941 942 943 944 945 946 947 948 949 950 951 952 953 954 955 956 957 958 959 960 961 962 963 964 965 966 967 968 969 970 971 972 973 974 975 976 977 978 979 980 981 982 983 984 985 986 987 988 989 990 991 992 993 994 995 996 997 998 999 1000 1001 1002 1003 1004 1005 1006 1007 1008 1009 1010 1011 1012 1013 1014 1015 1016 1017 1018 1019 1020 1021 1022 1023 1024 1025 1026 1027 1028 1029 1030 1031 1032 1033 1034 1035 1036 1037 1038 1039 1040 1041 1042 1043 1044 1045 1046 1047 1048 1049 1050 1051 1052 1053 1054 1055 1056 1057 1058 1059 1060 1061 1062 1063 1064 1065 1066 1067 1068 1069 1070 1071 1072 1073 1074 1075 1076 1077 1078 1079 1080 1081 1082 1083 1084 1085 1086 1087 1088 1089 1090 1091 1092 1093 1094 1095 1096 1097 1098 1099 1100 1101 1102 1103 1104 1105 1106 1107 1108 1109 1110 1111 1112 1113 1114 1115 1116 1117 1118 1119 1120 1121 1122 1123 1124 1125 1126 1127 1128 1129 1130 1131 1132 1133 1134 1135 1136 1137 1138 1139 1140 1141 1142 1143 1144 1145 1146 1147 1148 1149 1150 1151 1152 1153 1154 1155 1156 1157 1158 1159 1160 1161 1162 1163 1164 1165 1166 1167 1168 1169 1170 1171 1172 1173 1174 1175 1176 1177 1178 1179 1180 1181 1182 1183 1184 1185 1186 1187 1188 1189 1190 1191 1192 1193 1194 1195 1196 1197 1198 1199 1200 1201 1202 1203 1204 1205 1206 1207 1208 1209 1210 1211 1212 1213 1214 1215 1216 1217 1218 1219 1220 1221 1222 1223 1224 1225 1226 1227 1228 1229 1230 1231 1232 1233 1234 1235 1236 1237 1238 1239 1240 1241 1242 1243 1244 1245 1246 1247 1248 1249 1250 1251 1252 1253 1254 1255 1256 1257 1258 1259 1260 1261 1262 1263 1264 1265 1266 1267 1268 1269 1270 1271 1272 1273 1274 1275 1276 1277 1278 1279 1280 1281 1282 1283 1284 1285 1286 1287 1288 1289 1290 1291 1292 1293 1294 1295 1296 1297 1298 1299 1300 1301 1302 1303 1304 1305 1306 1307 1308 1309 1310 1311 1312 1313 1314 1315 1316 1317 1318 1319 1320 1321 1322 1323 1324 1325 1326 1327 1328 1329 1330 1331 1332 1333 1334 1335 1336 1337 1338 1339 1340 1341 1342 1343 1344 1345 1346 1347 1348 1349 1350 1351 1352 1353 1354 1355 1356 1357 1358 1359 1360 1361 1362 1363 1364 1365 1366 1367 1368 1369 1370 1371 1372 1373 1374 1375 1376 1377 1378 1379 1380 1381 1382 1383 1384 1385 1386 1387 1388 1389 1390 1391 1392 1393 1394 1395 1396 1397 1398 1399 1400 1401 1402 1403 1404 1405 1406 1407 1408 1409 1410 1411 1412 1413 1414 1415 1416 1417 1418 1419 1420 1421 1422 1423 1424 1425 1426 1427 1428 1429 1430 1431 1432 1433 1434 1435 1436 1437 1438 1439 1440 1441 1442 1443 1444 1445 1446 1447 1448 1449 1450 1451 1452 1453 1454 1455 1456 1457 1458 1459 1460 1461 1462 1463 1464 1465 1466 1467 1468 1469 1470 1471 1472 1473 1474 1475 1476 1477 1478 1479 1480 1481 1482 1483 1484 1485 1486 1487 1488 1489 1490 1491 1492 1493 1494 1495 1496 1497 1498 1499 1500 1501 1502 1503 1504 1505 1506 1507 1508 1509 1510 1511 1512 1513 1514 1515 1516 1517 1518 1519 1520 1521 1522 1523 1524 1525 1526 1527 1528 1529 1530 1531 1532 1533 1534 1535 1536 1537 1538 1539 1540 1541 1542 1543 1544 1545 1546 1547 1548 1549 1550 1551 1552 1553 1554 1555 1556 1557 1558 1559 1560 1561 1562 1563 1564 1565 1566 1567 1568 1569 1570 1571 1572 1573 1574 1575 1576 1577 1578 1579 1580 1581 1582 1583 1584 1585 1586 1587 1588 1589 1590 1591 1592 1593 1594 1595 1596 1597 1598 1599 1600 1601 1602 1603 1604 1605 1606 1607 1608 1609 1610 1611 1612 1613 1614 1615 1616 1617 1618 1619 1620 1621 1622 1623 1624 1625 1626 1627 1628 1629 1630 1631 1632 1633 1634 1635 1636 1637 1638 1639 1640 1641 1642 1643 1644 1645 1646 1647 1648 1649 1650 1651 1652 1653 1654 1655 1656 1657 1658 1659 1660 1661 1662 1663 1664 1665 1666 1667 1668 1669 1670 1671 1672 1673 1674 1675 1676 1677 1678 1679 1680 1681 1682 1683 1684 1685 1686 1687 1688 1689 1690 1691 1692 1693 1694 1695 1696 1697 1698 1699 1700 1701 1702 1703 1704 1705 1706 1707 1708 1709 1710 1711 1712 1713 1714 1715 1716 1717 1718 1719 1720 1721 1722 1723 1724 1725 1726 1727 1728 1729 1730 1731 1732 1733 1734 1735 1736 1737 1738 1739 1740 1741 1742 1743 1744 1745 1746 1747 1748 1749 1750 1751 1752 1753 1754 1755 1756 1757 1758 1759 1760 1761 1762 1763 1764 1765 1766 1767 1768 1769 1770 1771 1772 1773 1774 1775 1776 1777 1778 1779 1780 1781 1782 1783 1784 1785 1786 1787 1788 1789 1790 1791 1792 1793 1794 1795 1796 1797 1798 1799 1800 1801 1802 1803 1804 1805 1806 1807 1808 1809 1810 1811 1812 1813 1814 1815 1816 1817 1818 1819 1820 1821 1822 1823 1824 1825 1826 1827 1828 1829 1830 1831 1832 1833 1834 1835 1836 1837 1838 1839 1840 1841 1842 1843 1844 1845 1846 1847 1848 1849 1850 1851 1852 1853 1854 1855 1856 1857 1858 1859 1860 1861 1862 1863 1864 1865 1866 1867 1868 1869 1870 1871 1872 1873 1874 1875 1876 1877 1878 1879 1880 1881 1882 1883 1884 1885 1886 1887 1888 1889 1890 1891 1892 1893 1894 1895 1896 1897 1898 1899 1900 1901 1902 1903 1904 1905 1906 1907 1908 1909 1910 1911 1912 1913 1914 1915 1916 1917 1918 1919 1920 1921 1922 1923 1924 1925 1926 1927 1928 1929 1930 1931 1932 1933 1934 1935 1936 1937 1938 1939 1940 1941 1942 1943 1944 1945 1946 1947 1948 1949 1950 1951 1952 1953 1954 1955 1956 1957 1958 1959 1960 1961 1962 1963 1964 1965 1966 1967 1968 1969 1970 1971 1972 1973 1974 1975 1976 1977 1978 1979 1980 1981 1982 1983 1984 1985 1986 1987 1988 1989 1990 1991 1992 1993 1994 1995 1996 1997 1998 1999 2000 2001 2002 2003 2004 2005 2006 2007 2008 2009 2010 2011 2012 2013 2014 2015 2016 2017 2018 2019 2020 2021 2022 2023 2024 2025 2026 2027 2028 2029 2030 2031 2032 2033 2034 2035 2036 2037 2038 2039 2040 2041 2042 2043 2044 2045 2046 2047 2048 2049 2050 2051 2052 2053 2054 2055 2056 2057 2058 2059 2060 2061 2062 2063 2064 2065 2066 2067 2068 2069 2070 2071 2072 2073 2074 2075 2076 2077 2078 2079 2080 2081 2082 2083 2084 2085 2086 2087 2088 2089 2090 2091 2092 2093 2094 2095 2096 2097 2098 2099 2100 2101 2102 2103 2104 2105 2106 2107 2108 2109 2110 2111 2112 2113 2114 2115 2116 2117 2118 2119 2120 2121 2122 2123 2124 2125 2126 2127 2128 2129 2130 2131 2132 2133 2134 2135 2136 2137 2138 2139 2140 2141 2142 2143 2144 2145 2146 2147 2148 2149 2150 2151 2152 2153 2154 2155 2156 2157 2158 2159 2160 2161 2162 2163 2164 2165 2166 2167 2168 2169 2170 2171 2172 2173 2174 2175 2176 2177 2178 2179 2180 2181 2182 2183 2184 2185 2186 2187 2188 2189 2190 2191 2192 2193 2194 2195 2196 2197 2198 2199 2200 2201 2202 2203 2204 2205 2206 2207 2208 2209 2210 2211 2212 2213 2214 2215 2216 2217 2218 2219 2220 2221 2222 2223 2224 2225 2226 2227 2228 2229 2230 2231 2232 2233 2234 2235 2236 2237 2238 2239 2240 2241 2242 2243 2244 2245 2246 2247 2248 2249 2250 2251 2252 2253 2254 2255 2256 2257 2258 2259 2260 2261 2262 2263 2264 2265 2266 2267 2268 2269 2270 2271 2272 2273 2274 2275 2276 2277 2278 2279 2280 2281 2282 2283 2284 2285 2286 2287 2288 2289 2290 2291 2292 2293 2294 2295 2296 2297 2298 2299 2300 2301 2302 2303 2304 2305 2306 2307 2308 2309 2310 2311 2312 2313 2314 2315 2316 2317 2318 2319 2320 2321 2322 2323 2324 2325 2326 2327 2328 2329 2330 2331 2332 2333 2334 2335 2336 2337 2338 2339 2340 2341 2342 2343 2344 2345 2346 2347 2348 2349 2350 2351 2352 2353 2354 2355 2356 2357 2358 2359 2360 2361 2362 2363 2364 2365 2366 2367 2368 2369 2370 2371 2372 2373 2374 2375 2376 2377 2378 2379 2380 2381 2382 2383 2384 2385 2386 2387 2388 2389 2390 2391 2392 2393 2394 2395 2396 2397 2398 2399 2400 2401 2402 2403 2404 2405 2406 2407 2408 2409 2410 2411 2412 2413 2414 2415 2416 2417 2418 2419 2420 2421 2422 2423 2424 2425 2426 2427 2428 2429 2430 2431 2432 2433 2434 2435 2436 2437 2438 2439 2440 2441 2442 2443 2444 2445 2446 2447 2448 2449 2450 2451 2452 2453 2454 2455 2456 2457 2458 2459 2460 2461 2462 2463 2464 2465 2466 2467 2468 2469 2470 2471 2472 2473 2474 2475 2476 2477 2478 2479 2480 2481 2482 2483 2484 2485 2486 2487 2488 2489 2490 2491 2492 2493 2494 2495 2496 2497 2498 2499 2500 2501 2502 2503 2504 2505 2506 2507 2508 2509 2510 2511 2512 2513 2514 2515 2516 2517 2518 2519 2520 2521 2522 2523 2524 2525 2526 2527 2528 2529 2530 2531 2532 2533 2534 2535 2536 2537 2538 2539 2540 2541 2542 2543 2544 2545 2546 2547 2548 2549 2550 2551 2552 2553 2554 2555 2556 2557 2558 2559 2560 2561 2562 2563 2564 2565 2566 2567 2568 2569 2570 2571 2572 2573 2574 2575 2576 2577 2578 2579 2580 2581 2582 2583 2584 2585 2586 2587 2588 2589 2590 2591 2592 2593 2594 2595 2596 2597 2598 2599 2600 2601 2602 2603 2604 2605 2606 2607 2608 2609 2610 2611 2612 2613 2614 2615 2616 2617 2618 2619 2620 2621 2622 2623 2624 2625 2626 2627 2628 2629 2630 2631 2632 2633 2634 2635 2636 2637 2638 2639 2640 2641 2642 2643 2644 2645 2646 2647 2648 2649 2650 2651 2652 2653 2654 2655 2656 2657 2658 2659 2660 2661 2662 2663 2664 2665 2666 2667 2668 2669 2670 2671 2672 2673 2674 2675 2676 2677 2678 2679 2680 2681 2682 2683 2684 2685 2686 2687 2688 2689 2690 2691 2692 2693 2694 2695 2696 2697 2698 2699 2700 2701 2702 2703 2704 2705 2706 2707 2708 2709 2710 2711 2712 2713 2714 2715 2716 2717 2718 2719 2720 2721 2722 2723 2724 2725 2726 2727 2728 2729 2730 2731 2732 2733 2734 2735 2736 2737 2738 2739 2740 2741 2742 2743 2744 2745 2746 2747 2748 2749 2750 2751 2752 2753 2754 2755 2756 2757 2758 2759 2760 2761 2762 2763 2764 2765 2766 2767 2768 2769 2770 2771 2772 2773 2774 2775 2776 2777 2778 2779 2780 2781 2782 2783 2784 2785 2786 2787 2788 2789 2790 2791 2792 2793 2794 2795 2796 2797 2798 2799 2800 2801 2802 2803 2804 2805 2806 2807 2808 2809 2810 2811 2812 2813 2814 2815 2816 2817 2818 2819 2820 2821 2822 2823 2824 2825 2826 2827 2828 2829 2830 2831 2832 2833 2834 2835 2836 2837 2838 2839 2840 2841 2842 2843 2844 2845 2846 2847 2848 2849 2850 2851 2852 2853 2854 2855 2856 2857 2858 2859 2860 2861 2862 2863 2864 2865 2866 2867 2868 2869 2870 2871 2872 2873 2874 2875 2876 2877 2878 2879 2880 2881 2882 2883 2884 2885 2886 2887 2888 2889 2890 2891 2892 2893 2894 2895 2896 2897 2898 2899 2900 2901 2902 2903 2904 2905 2906 2907 2908 2909 2910 2911 2912 2913 2914 2915 2916 2917 2918 2919 2920 2921 2922 2923 2924 2925 2926 2927 2928 2929 2930 2931 2932 2933 2934 2935 2936 2937 2938 2939 2940 2941 2942 2943 2944 2945 2946 2947 2948 2949 2950 2951 2952 2953 2954 2955 2956 2957 2958 2959 2960 2961 2962 2963 2964 2965 2966 2967 2968 2969 2970 2971 2972 2973 2974 2975 2976 2977 2978 2979 2980 2981 2982 2983 2984 2985 2986 2987 2988 2989 2990 2991 2992 2993 2994 2995 2996 2997 2998 2999 3000 3001 3002 3003 3004 3005 3006 3007 3008 3009 3010 3011 3012 3013 3014 3015 3016 3017 3018 3019 3020 3021 3022 3023 3024 3025 3026 3027 3028 3029 3030 3031 3032 3033 3034 3035 3036 3037 3038 3039 3040 3041 3042 3043 3044 3045 3046 3047 3048 3049 3050 3051 3052 3053 3054 3055 3056 3057 3058 3059 3060 3061 3062 3063 3064 3065 3066 3067 3068 3069 3070 3071 3072 3073 3074 3075 3076 3077 3078 3079 3080 3081 3082 3083 3084 3085 3086 3087 3088 3089 3090 3091 3092 3093 3094 3095 3096 3097 3098 3099 3100 3101 3102 3103 3104 3105 3106 3107 3108 3109 3110 3111 3112 3113 3114 3115 3116 3117 3118 3119 3120 3121 3122 3123 3124 3125 3126 3127 3128 3129 3130 3131 3132 3133 3134 3135 3136 3137 3138 3139 3140 3141 3142 3143 3144 3145 3146 3147 3148 3149 3150 3151 3152 3153 3154 3155 3156 3157 3158 3159 3160 3161 3162 3163 3164 3165 3166 3167 3168 3169 3170 3171 3172 3173 3174 3175 3176 3177 3178 3179 3180 3181 3182 3183 3184 3185 3186 3187 3188 3189 3190 3191 3192 3193 3194 3195 3196 3197 3198 3199 3200 3201 3202 3203 3204 3205 3206 3207 3208 3209 3210 3211 3212 3213 3214 3215 3216 3217 3218 3219 3220 3221 3222 3223 3224 3225 3226 3227 3228 3229 3230 3231 3232 3233 3234 3235 3236 3237 3238 3239 3240 3241 3242 3243 3244 3245 3246 3247 3248 3249 3250 3251 3252 3253 3254 3255 3256 3257 3258 3259 3260 3261 3262 3263 3264 3265 3266 3267 3268 3269 3270 3271 3272 3273 3274 3275 3276 3277 3278 3279 3280 3281 3282 3283 3284 3285 3286 3287 3288 3289 3290 3291 3292 3293 3294 3295 3296 3297 3298 3299 3300 3301 3302 3303 3304 3305 3306 3307 3308 3309 3310 3311 3312 3313 3314 3315 3316 3317 3318 3319 3320 3321 3322 3323 3324 3325 3326 3327 3328 3329 3330 3331 3332 3333 3334 3335 3336 3337 3338 3339 3340 3341 3342 3343 3344 3345 3346 3347 3348 3349 3350 3351 3352 3353 3354 3355 3356 3357 3358 3359 3360 3361 3362 3363 3364 3365 3366 3367 3368 3369 3370 3371 3372 3373 3374 3375 3376 3377 3378 3379 3380 3381 3382 3383 3384 3385 3386 3387 3388 3389 3390 3391 3392 3393 3394 3395 3396 3397 3398 3399 3400 3401 3402 3403 3404 3405 3406 3407 3408 3409 3410 3411 3412 3413 3414 3415 3416 3417 3418 3419 3420 3421 3422 3423 3424 3425 3426 3427 3428 3429 3430 3431 3432 3433 3434 3435 3436 3437 3438 3439 3440 3441 3442 3443 3444 3445 3446 3447 3448 3449 3450 3451 3452 3453 3454 3455 3456 3457 3458 3459 3460 3461 3462 3463 3464 3465 3466 3467 3468 3469 3470 3471 3472 3473 3474 3475 3476 3477 3478 3479 3480 3481 3482 3483 3484 3485 3486 3487 3488 3489 3490 3491 3492 3493 3494 3495 3496 3497 3498 3499 3500 3501 3502 3503 3504 3505 3506 3507 3508 3509 3510 3511 3512 3513 3514 3515 3516 3517 3518 3519 3520 3521 3522 3523 3524 3525 3526 3527 3528 3529 3530 3531 3532 3533 3534 3535 3536 3537 3538 3539 3540 3541 3542 3543 3544 3545 3546 3547 3548 3549 3550 3551 3552 3553 3554 3555 3556 3557 3558 3559 3560 3561 3562 3563 3564 3565 3566 3567 3568 3569 3570 3571 3572 3573 3574 3575 3576 3577 3578 3579 3580 3581 3582 3583 3584 3585 3586 3587 3588 3589 3590 3591 3592 3593 3594 3595 3596 3597 3598 3599 3600 3601 3602 3603 3604 3605 3606 3607 3608 3609 3610 3611 3612 3613 3614 3615 3616 3617 3618 3619 3620 3621 3622 3623 3624 3625 3626 3627 3628 3629 3630 3631 3632 3633 3634 3635 3636 3637 3638 3639 3640 3641 3642 3643 3644 3645 3646 3647 3648 3649 3650 3651 3652 3653 3654 3655 3656 3657 3658 3659 3660 3661 3662 3663 3664 3665 3666 3667 3668 3669 3670 3671 3672 3673 3674 3675 3676 3677 3678 3679 3680 3681 3682 3683 3684 3685 3686 3687 3688 3689 3690 3691 3692 3693 3694 3695 3696 3697 3698 3699 3700 3701 3702 3703 3704 3705 3706 3707 3708 3709 3710 3711 3712 3713 3714 3715 3716 3717 3718 3719 3720 3721 3722 3723 3724 3725 3726 3727 3728 3729 3730 3731 3732 3733 3734 3735 3736 3737 3738 3739 3740 3741 3742 3743 3744 3745 3746 3747 3748 3749 3750 3751 3752 3753 3754 3755 3756 3757 3758 3759 3760 3761 3762 3763 3764 3765 3766 3767 3768 3769 3770 3771 3772 3773 3774 3775 3776 3777 3778 3779 3780 3781 3782 3783 3784 3785 3786 3787 3788 3789 3790 3791 3792 3793 3794 3795 3796 3797 3798 3799 3800 3801 3802 3803 3804 3805 3806 3807 3808 3809 3810 3811 3812 3813 3814 3815 3816 3817 3818 3819 3820 3821 3822 3823 3824 3825 3826 3827 3828 3829 3830 3831 3832 3833 3834 3835 3836 3837 3838 3839 3840 3841 3842 3843 3844 3845 3846 3847 3848 3849 3850 3851 3852 3853 3854 3855 3856 3857 3858 3859 3860 3861 3862 3863 3864 3865 3866 3867 3868 3869 3870 3871 3872 3873 3874 3875 3876 3877 3878 3879 3880 3881 3882 3883 3884 3885 3886 3887 3888 3889 3890 3891 3892 3893 3894 3895 3896 3897 3898 3899 3900 3901 3902 3903 3904 3905 3906 3907 3908 3909 3910 3911 3912 3913 3914 3915 3916 3917 3918 3919 3920 3921 3922 3923 3924 3925 3926 3927 3928 3929 3930 3931 3932 3933 3934 3935 3936 3937 3938 3939 3940 3941 3942 3943 3944 3945 3946 3947 3948 3949 3950 3951 3952 3953 3954 3955 3956 3957 3958 3959 3960 3961 3962 3963 3964 3965 3966 3967 3968 3969 3970 3971 3972 3973 3974 3975 3976 3977 3978 3979 3980 3981 3982 3983 3984 3985 3986 3987 3988 3989 3990 3991 3992 3993 3994 3995 3996 3997 3998 3999 4000 4001 4002 4003 4004 4005 4006 4007 4008 4009 4010 4011 4012 4013 4014 4015 4016 4017 4018 4019 4020 4021 4022 4023 4024 4025 4026 4027 4028 4029 4030 4031 4032 4033 4034 4035 4036 4037 4038 4039 4040 4041 4042 4043 4044 4045 4046 4047 4048 4049 4050 4051 4052 4053 4054 4055 4056 4057 4058 4059 4060 4061 4062 4063 4064 4065 4066 4067 4068 4069 4070 4071 4072 4073 4074 4075 4076 4077 4078 4079 4080 4081 4082 4083 4084 4085 4086 4087 4088 4089 4090 4091 4092 4093 4094 4095 4096 4097 4098 4099 4100 4101 4102 4103 4104 4105 4106 4107 4108 4109 4110 4111 4112 4113 4114 4115 4116 4117 4118 4119 4120 4121 4122 4123 4124 4125 4126 4127 4128 4129 4130 4131 4132 4133 4134 4135 4136 4137 4138 4139 4140 4141 4142 4143 4144 4145 4146 4147 4148 4149 4150 4151 4152 4153 4154 4155 4156 4157 4158 4159 4160 4161 4162 4163 4164 4165 4166 4167 4168 4169 4170 4171 4172 4173 4174 4175 4176 4177 4178 4179 4180 4181 4182 4183 4184 4185 4186 4187 4188 4189 4190 4191 4192 4193 4194 4195 4196 4197 4198 4199 4200 4201 4202 4203 4204 4205 4206 4207 4208 4209 4210 4211 4212 4213 4214 4215 4216 4217 4218 4219 4220 4221 4222 4223 4224 4225 4226 4227 4228 4229 4230 4231 4232 4233 4234 4235 4236 4237 4238 4239 4240 4241 4242 4243 4244 4245 4246 4247 4248 4249 4250 4251 4252 4253 4254 4255 4256 4257 4258 4259 4260 4261 4262 4263 4264 4265 4266 4267 4268 4269 4270 4271 4272 4273 4274 4275 4276 4277 4278 4279 4280 4281 4282 4283 4284 4285 4286 4287 4288 4289 4290 4291 4292 4293 4294 4295 4296 4297 4298 4299 4300 4301 4302 4303 4304 4305 4306 4307 4308 4309 4310 4311 4312 4313 4314 4315 4316 4317 4318 4319 4320 4321 4322 4323 4324 4325 4326 4327 4328 4329 4330 4331 4332 4333 4334 4335 4336 4337 4338 4339 4340 4341 4342 4343 4344 4345 4346 4347 4348 4349 4350 4351 4352 4353 4354 4355 4356 4357 4358 4359 4360 4361 4362 4363 4364 4365 4366 4367 4368 4369 4370 4371 4372 4373 4374 4375 4376 4377 4378 4379 4380 4381 4382 4383 4384 4385 4386 4387 4388 4389 4390 4391 4392 4393 4394 4395 4396 4397 4398 4399 4400 4401 4402 4403 4404 4405 4406 4407 4408 4409 4410 4411 4412 4413 4414 4415 4416 4417 4418 4419 4420 4421 4422 4423 4424 4425 4426 4427 4428 4429 4430 4431 4432 4433 4434 4435 4436 4437 4438 4439 4440 4441 4442 4443 4444 4445 4446 4447 4448 4449 4450 4451 4452 4453 4454 4455 4456 4457 4458 4459 4460 4461 4462 4463 4464 4465 4466 4467 4468 4469 4470 4471 4472 4473 4474 4475 4476 4477 4478 4479 4480 4481 4482 4483 4484 4485 4486 4487 4488 4489 4490 4491 4492 4493 4494 4495 4496 4497 4498 4499 4500 4501 4502 4503 4504 4505 4506 4507 4508 4509 4510 4511 4512 4513 4514 4515 4516 4517 4518 4519 4520 4521 4522 4523 4524 4525 4526 4527 4528 4529 4530 4531 4532 4533 4534 4535 4536 4537 4538 4539 4540 4541 4542 4543 4544 4545 4546 4547 4548 4549 4550 4551 4552 4553 4554 4555 4556 4557 4558 4559 4560 4561 4562 4563 4564 4565 4566 4567 4568 4569 4570 4571 4572 4573 4574 4575 4576 4577 4578 4579 4580 4581 4582 4583 4584 4585 4586 4587 4588 4589 4590 4591 4592 4593 4594 4595 4596 4597 4598 4599 4600 4601 4602 4603 4604 4605 4606 4607 4608 4609 4610 4611 4612 4613 4614 4615 4616 4617 4618 4619 4620 4621 4622 4623 4624 4625 4626 4627 4628 4629 4630 4631 4632 4633 4634 4635 4636 4637 4638 4639 4640 4641 4642 4643 4644 4645 4646 4647 4648 4649 4650 4651 4652 4653 4654 4655 4656 4657 4658 4659 4660 4661 4662 4663 4664 4665 4666 4667 4668 4669 4670 4671 4672 4673 4674 4675 4676 4677 4678 4679 4680 4681 4682 4683 4684 4685 4686 4687 4688 4689 4690 4691 4692 4693 4694 4695 4696 4697 4698 4699 4700 4701 4702 4703 4704 4705 4706 4707 4708 4709 4710 4711 4712 4713 4714 4715 4716 4717 4718 4719 4720 4721 4722 4723 4724 4725 4726 4727 4728 4729 4730 4731 4732 4733 4734 4735 4736 4737 4738 4739 4740 4741 4742 4743 4744 4745 4746 4747 4748 4749 4750 4751 4752 4753 4754 4755 4756 4757 4758 4759 4760 4761 4762 4763 4764 4765 4766 4767 4768 4769 4770 4771 4772 4773 4774 4775 4776 4777 4778 4779 4780 4781 4782 4783 4784 4785 4786 4787 4788 4789 4790 4791 4792 4793 4794 4795 4796 4797 4798 4799 4800 4801 4802 4803 4804 4805 4806 4807 4808 4809 4810 4811 4812 4813 4814 4815 4816 4817 4818 4819 4820 4821 4822 4823 4824 4825 4826 4827 4828 4829 4830 4831 4832 4833 4834 4835 4836 4837 4838 4839 4840 4841 4842 4843 4844 4845 4846 4847 4848 4849 4850 4851 4852 4853 4854 4855 4856 4857 4858 4859 4860 4861 4862 4863 4864 4865 4866 4867 4868 4869 4870 4871 4872 4873 4874 4875 4876 4877 4878 4879 4880 4881 4882 4883 4884 4885 4886 4887 4888 4889 4890 4891 4892 4893 4894 4895 4896 4897 4898 4899 4900 4901 4902 4903 4904 4905 4906 4907 4908 4909 4910 4911 4912 4913 4914 4915 4916 4917 4918 4919 4920 4921 4922 4923 4924 4925 4926 4927 4928 4929 4930 4931 4932 4933 4934 4935 4936 4937 4938 4939 4940 4941 4942 4943 4944 4945 4946 4947 4948 4949 4950 4951 4952 4953 4954 4955 4956 4957 4958 4959 4960 4961 4962 4963 4964 4965 4966 4967 4968 4969 4970 4971 4972 4973 4974 4975 4976 4977 4978 4979 4980 4981 4982 4983 4984 4985 4986 4987 4988 4989 4990 4991 4992 4993 4994 4995 4996 4997 4998 4999 5000 5001 5002 5003 5004 5005 5006 5007 5008 5009 5010 5011 5012 5013 5014 5015 5016 5017 5018 5019 5020 5021 5022 5023 5024 5025 5026 5027 5028 5029 5030 5031 5032 5033 5034 5035 5036 5037 5038 5039 5040 5041 5042 5043 5044 5045 5046 5047 5048 5049 5050 5051 5052 5053 5054 5055 5056 5057 5058 5059 5060 5061 5062 5063 5064 5065 5066 5067 5068 5069 5070 5071 5072 5073 5074 5075 5076 5077 5078 5079 5080 5081 5082 5083 5084 5085 5086 5087 5088 5089 5090 5091 5092 5093 5094 5095 5096 5097 5098 5099 5100 5101 5102 5103 5104 5105 5106 5107 5108 5109 5110 5111 5112 5113 5114 5115 5116 5117 5118 5119 5120 5121 5122 5123 5124 5125 5126 5127 5128 5129 5130 5131 5132 5133 5134 5135 5136 5137 5138 5139 5140 5141 5142 5143 5144 5145 5146 5147 5148 5149 5150 5151 5152 5153 5154 5155 5156 5157 5158 5159 5160 5161 5162 5163 5164 5165 5166 5167 5168 5169 5170 5171 5172 5173 5174 5175 5176 5177 5178 5179 5180 5181 5182 5183 5184 5185 5186 5187 5188 5189 5190 5191 5192 5193 5194 5195 5196 5197 5198 5199 5200 5201 5202 5203 5204 5205 5206 5207 5208 5209 5210 5211 5212 5213 5214 5215 5216 5217 5218 5219 5220 5221 5222 5223 5224 5225 5226 5227 5228 5229 5230 5231 5232 5233 5234 5235 5236 5237 5238 5239 5240 5241 5242 5243 5244 5245 5246 5247 5248 5249 5250 5251 5252 5253 5254 5255 5256 5257 5258 5259 5260 5261 5262 5263 5264 5265 5266 5267 5268 5269 5270 5271 5272 5273 5274 5275 5276 5277 5278 5279 5280 5281 5282 5283 5284 5285 5286 5287 5288 5289 5290 5291 5292 5293 5294 5295 5296 5297 5298 5299 5300 5301 5302 5303 5304 5305 5306 5307 5308 5309 5310 5311 5312 5313 5314 5315 5316 5317 5318 5319 5320 5321 5322 5323 5324 5325 5326 5327 5328 5329 5330 5331 5332 5333 5334 5335 5336 5337 5338 5339 5340 5341 5342 5343 5344 5345 5346 5347 5348 5349 5350 5351 5352 5353 5354 5355 5356 5357 5358 5359 5360 5361 5362 5363 5364 5365 5366 5367 5368 5369 5370 5371 5372 5373 5374 5375 5376 5377 5378 5379 5380 5381 5382 5383 5384 5385 5386 5387 5388 5389 5390 5391 5392 5393 5394 5395 5396 5397 5398 5399 5400 5401 5402 5403 5404 5405 5406 5407 5408 5409 5410 5411 5412 5413 5414 5415 5416 5417 5418 5419 5420 5421 5422 5423 5424 5425 5426 5427 5428 5429 5430 5431 5432 5433 5434 5435 5436 5437 5438 5439 5440 5441 5442 5443 5444 5445 5446 5447 5448 5449 5450 5451 5452 5453 5454 5455 5456 5457 5458 5459 5460 5461 5462 5463 5464 5465 5466 5467 5468 5469 5470 5471 5472 5473 5474 5475 5476 5477 5478 5479 5480 5481 5482 5483 5484 5485 5486 5487 5488 5489 5490 5491 5492 5493 5494 5495 5496 5497 5498 5499 5500 5501 5502 5503 5504 5505 5506 5507 5508 5509 5510 5511 5512 5513 5514 5515 5516 5517 5518 5519 5520 5521 5522 5523 5524 5525 5526 5527 5528 5529 5530 5531 5532 5533 5534 5535 5536 5537 5538 5539 5540 5541 5542 5543 5544 5545 5546 5547 5548 5549 5550 5551 5552 5553 5554 5555 5556 5557 5558 5559 5560 5561 5562 5563 5564 5565 5566 5567 5568 5569 5570 5571 5572 5573 5574 5575 5576 5577 5578 5579 5580 5581 5582 5583 5584 5585 5586 5587 5588 5589 5590 5591 5592 5593 5594 5595 5596 5597 5598 5599 5600 5601 5602 5603 5604 5605 5606 5607 5608 5609 5610 5611 5612 5613 5614 5615 5616 5617 5618 5619 5620 5621 5622 5623 5624 5625 5626 5627 5628 5629 5630 5631 5632 5633 5634 5635 5636 5637 5638 5639 5640 5641 5642 5643 5644 5645 5646 5647 5648 5649 5650 5651 5652 5653 5654 5655 5656 5657 5658 5659 5660 5661 5662 5663 5664 5665 5666 5667 5668 5669 5670 5671 5672 5673 5674 5675 5676 5677 5678 5679 5680 5681 5682 5683 5684 5685 5686 5687 5688 5689 5690 5691 5692 5693 5694 5695 5696 5697 5698 5699 5700 5701 5702 5703 5704 5705 5706 5707 5708 5709 5710 5711 5712 5713 5714 5715 5716 5717 5718 5719 5720 5721 5722 5723 5724 5725 5726 5727 5728 5729 5730 5731 5732 5733 5734 5735 5736 5737 5738 5739 5740 5741 5742 5743 5744 5745 5746 5747 5748 5749 5750 5751 5752 5753 5754 5755 5756 5757 5758 5759 5760 5761 5762 5763 5764 5765 5766 5767 5768 5769 5770 5771 5772 5773 5774 5775 5776 5777 5778 5779 5780 5781 5782 5783 5784 5785 5786 5787 5788 5789 5790 5791 5792 5793 5794 5795 5796 5797 5798 5799 5800 5801 5802 5803 5804 5805 5806 5807 5808 5809 5810 5811 5812 5813 5814 5815 5816 5817 5818 5819 5820 5821 5822 5823 5824 5825 5826 5827 5828 5829 5830 5831 5832 5833 5834 5835 5836 5837 5838 5839 5840 5841 5842 5843 5844 5845 5846 5847 5848 5849 5850 5851 5852 5853 5854 5855 5856 5857 5858 5859 5860 5861 5862 5863 5864 5865 5866 5867 5868 5869 5870 5871 5872 5873 5874 5875 5876 5877 5878 5879 5880 5881 5882 5883 5884 5885 5886 5887 5888 5889 5890 5891 5892 5893 5894 5895 5896 5897 5898 5899 5900 5901 5902 5903 5904 5905 5906 5907 5908 5909 5910 5911 5912 5913 5914 5915 5916 5917 5918 5919 5920 5921 5922 5923 5924 5925 5926 5927 5928 5929 5930 5931 5932 5933 5934 5935 5936 5937 5938 5939 5940 5941 5942 5943 5944 5945 5946 5947 5948 5949 5950 5951 5952 5953 5954 5955 5956 5957 5958 5959 5960 5961 5962 5963 5964 5965 5966 5967 5968 5969 5970 5971 5972 5973 5974 5975 5976 5977 5978 5979 5980 5981 5982 5983 5984 5985 5986 5987 5988 5989 5990 5991 5992 5993 5994 5995 5996 5997 5998 5999 6000 6001 6002 6003 6004 6005 6006 6007 6008 6009 6010 6011 6012 6013 6014 6015 6016 6017 6018 6019 6020 6021 6022 6023 6024 6025 6026 6027 6028 6029 6030 6031 6032 6033 6034 6035 6036 6037 6038 6039 6040 6041 6042 6043 6044 6045 6046 6047 6048 6049 6050 6051 6052 6053 6054 6055 6056 6057 6058 6059 6060 6061 6062 6063 6064 6065 6066 6067 6068 6069 6070 6071 6072 6073 6074 6075 6076 6077 6078 6079 6080 6081 6082 6083 6084 6085 6086 6087 6088 6089 6090 6091 6092 6093 6094 6095 6096 6097 6098 6099 6100 6101 6102 6103 6104 6105 6106 6107 6108 6109 6110 6111 6112 6113 6114 6115 6116 6117 6118 6119 6120 6121 6122 6123 6124 6125 6126 6127 6128 6129 6130 6131 6132 6133 6134 6135 6136 6137 6138 6139 6140 6141 6142 6143 6144 6145 6146 6147 6148 6149 6150 6151 6152 6153 6154 6155 6156 6157 6158 6159 6160 6161 6162 6163 6164 6165 6166 6167 6168 6169 6170 6171 6172 6173 6174 6175 6176 6177 6178 6179 6180 6181 6182 6183 6184 6185 6186 6187 6188 6189 6190 6191 6192 6193 6194 6195 6196 6197 6198 6199 6200 6201 6202 6203 6204 6205 6206 6207 6208 6209 6210 6211 6212 6213 6214 6215 6216 6217 6218 6219 6220 6221 6222 6223 6224 6225 6226 6227 6228 6229 6230 6231 6232 6233 6234 6235 6236 6237 6238 6239 6240 6241 6242 6243 6244 6245 6246 6247 6248 6249 6250 6251 6252 6253 6254 6255 6256 6257 6258 6259 6260 6261 6262 6263 6264 6265 6266 6267 6268 6269 6270 6271 6272 6273 6274 6275 6276 6277 6278 6279 6280 6281 6282 6283 6284 6285 6286 6287 6288 6289 6290 6291 6292 6293 6294 6295 6296 6297 6298 6299 6300 6301 6302 6303 6304 6305 6306 6307 6308 6309 6310 6311 6312 6313 6314 6315 6316 6317 6318 6319 6320 6321 6322 6323 6324 6325 6326 6327 6328 6329 6330 6331 6332 6333 6334 6335 6336 6337 6338 6339 6340 6341 6342 6343 6344 6345 6346 6347 6348 6349 6350 6351 6352 6353 6354 6355 6356 6357 6358 6359 6360 6361 6362 6363 6364 6365 6366 6367 6368 6369 6370 6371 6372 6373 6374 6375 6376 6377 6378 6379 6380 6381 6382 6383 6384 6385 6386 6387 6388 6389 6390 6391 6392 6393 6394 6395 6396 6397 6398 6399 6400 6401 6402 6403 6404 6405 6406 6407 6408 6409 6410 6411 6412 6413 6414 6415 6416 6417 6418 6419 6420 6421 6422 6423 6424 6425 6426 6427 6428 6429 6430 6431 6432 6433 6434 6435 6436 6437 6438 6439 6440 6441 6442 6443 6444 6445 6446 6447 6448 6449 6450 6451 6452 6453 6454 6455 6456 6457 6458 6459 6460 6461 6462 6463 6464 6465 6466 6467 6468 6469 6470 6471 6472 6473 6474 6475 6476 6477 6478 6479 6480 6481 6482 6483 6484 6485 6486 6487 6488 6489 6490 6491 6492 6493 6494 6495 6496 6497 6498 6499 6500 6501 6502 6503 6504 6505 6506 6507 6508 6509 6510 6511 6512 6513 6514 6515 6516 6517 6518 6519 6520 6521 6522 6523 6524 6525 6526 6527 6528 6529 6530 6531 6532 6533 6534 6535 6536 6537 6538 6539 6540 6541 6542 6543 6544 6545 6546 6547 6548 6549 6550 6551 6552 6553 6554 6555 6556 6557 6558 6559 6560 6561 6562 6563 6564 6565 6566 6567 6568 6569 6570 6571 6572 6573 6574 6575 6576 6577 6578 6579 6580 6581 6582 6583 6584 6585 6586 6587 6588 6589 6590 6591 6592 6593 6594 6595 6596 6597 6598 6599 6600 6601 6602 6603 6604 6605 6606 6607 6608 6609 6610 6611 6612 6613 6614 6615 6616 6617 6618 6619 6620 6621 6622 6623 6624 6625 6626 6627 6628 6629 6630 6631 6632 6633 6634 6635 6636 6637 6638 6639 6640 6641 6642 6643 6644 6645 6646 6647 6648 6649 6650 6651 6652 6653 6654 6655 6656 6657 6658 6659 6660 6661 6662 6663 6664 6665 6666 6667 6668 6669 6670 6671 6672 6673 6674 6675 6676 6677 6678 6679 6680 6681 6682 6683 6684 6685 6686 6687 6688 6689 6690 6691 6692 6693 6694 6695 6696 6697 6698 6699 6700 6701 6702 6703 6704 6705 6706 6707 6708 6709 6710 6711 6712 6713 6714 6715 6716 6717 6718 6719 6720 6721 6722 6723 6724 6725 6726 6727 6728 6729 6730 6731 6732 6733 6734 6735 6736 6737 6738 6739 6740 6741 6742 6743 6744 6745 6746 6747 6748 6749 6750 6751 6752 6753 6754 6755 6756 6757 6758 6759 6760 6761 6762 6763 6764 6765 6766 6767 6768 6769 6770 6771 6772 6773 6774 6775 6776 6777 6778 6779 6780 6781 6782 6783 6784 6785 6786 6787 6788 6789 6790 6791 6792 6793 6794 6795 6796 6797 6798 6799 6800 6801 6802 6803 6804 6805 6806 6807 6808 6809 6810 6811 6812 6813 6814 6815 6816 6817 6818 6819 6820 6821 6822 6823 6824 6825 6826 6827 6828 6829 6830 6831 6832 6833 6834 6835 6836 6837 6838 6839 6840 6841 6842 6843 6844 6845 6846 6847 6848 6849 6850 6851 6852 6853 6854 6855 6856 6857 6858 6859 6860 6861 6862 6863 6864 6865 6866 6867 6868 6869 6870 6871 6872 6873 6874 6875 6876 6877 6878 6879 6880 6881 6882 6883 6884 6885 6886 6887 6888 6889 6890 6891 6892 6893 6894 6895 6896 6897 6898 6899 6900 6901 6902 6903 6904 6905 6906 6907 6908 6909 6910 6911 6912 6913 6914 6915 6916 6917 6918 6919 6920 6921 6922 6923 6924 6925 6926 6927 6928 6929 6930 6931 6932 6933 6934 6935 6936 6937 6938 6939 6940 6941 6942 6943 6944 6945 6946 6947 6948 6949 6950 6951 6952 6953 6954 6955 6956 6957 6958 6959 6960 6961 6962 6963 6964 6965 6966 6967 6968 6969 6970 6971 6972 6973 6974 6975 6976 6977 6978 6979 6980 6981 6982 6983 6984 6985 6986 6987 6988 6989 6990 6991 6992 6993 6994 6995 6996 6997 6998 6999 7000 7001 7002 7003 7004 7005 7006 7007 7008 7009 7010 7011 7012 7013 7014 7015 7016 7017 7018 7019 7020 7021 7022 7023 7024 7025 7026 7027 7028 7029 7030 7031 7032 7033 7034 7035 7036 7037 7038 7039 7040 7041 7042 7043 7044 7045 7046 7047 7048 7049 7050 7051 7052 7053 7054 7055 7056 7057 7058 7059 7060 7061 7062 7063 7064 7065 7066 7067 7068 7069 7070 7071 7072 7073 7074 7075 7076 7077 7078 7079 7080 7081 7082 7083 7084 7085 7086 7087 7088 7089 7090 7091 7092 7093 7094 7095 7096 7097 7098 7099 7100 7101 7102 7103 7104 7105 7106 7107 7108 7109 7110 7111 7112 7113 7114 7115 7116 7117 7118 7119 7120 7121 7122 7123 7124 7125 7126 7127 7128 7129 7130 7131 7132 7133 7134 7135 7136 7137 7138 7139 7140 7141 7142 7143 7144 7145 7146 7147 7148 7149 7150 7151 7152 7153 7154 7155 7156 7157 7158 7159 7160 7161 7162 7163 7164 7165 7166 7167 7168 7169 7170 7171 7172 7173 7174 7175 7176 7177 7178 7179 7180 7181 7182 7183 7184 7185 7186 7187 7188 7189 7190 7191 7192 7193 7194 7195 7196 7197 7198 7199 7200 7201 7202 7203 7204 7205 7206 7207 7208 7209 7210 7211 7212 7213 7214 7215 7216 7217 7218 7219 7220 7221 7222 7223 7224 7225 7226 7227 7228 7229 7230 7231 7232 7233 7234 7235 7236 7237 7238 7239 7240 7241 7242 7243 7244 7245 7246 7247 7248 7249 7250 7251 7252 7253 7254 7255 7256 7257 7258 7259 7260 7261 7262 7263 7264 7265 7266 7267 7268 7269 7270 7271 7272 7273 7274 7275 7276 7277 7278 7279 7280 7281 7282 7283 7284 7285 7286 7287 7288 7289 7290 7291 7292 7293 7294 7295 7296 7297 7298 7299 7300 7301 7302 7303 7304 7305 7306 7307 7308 7309 7310 7311 7312 7313 7314 7315 7316 7317 7318 7319 7320 7321 7322 7323 7324 7325 7326 7327 7328 7329 7330 7331 7332 7333 7334 7335 7336 7337 7338 7339 7340 7341 7342 7343 7344 7345 7346 7347 7348 7349 7350 7351 7352 7353 7354 7355 7356 7357 7358 7359 7360 7361 7362 7363 7364 7365 7366 7367 7368 7369 7370 7371 7372 7373 7374 7375 7376 7377 7378 7379 7380 7381 7382 7383 7384 7385 7386 7387 7388 7389 7390 7391 7392 7393 7394 7395 7396 7397 7398 7399 7400 7401 7402 7403 7404 7405 7406 7407 7408 7409 7410 7411 7412 7413 7414 7415 7416 7417 7418 7419 7420 7421 7422 7423 7424 7425 7426 7427 7428 7429 7430 7431 7432 7433 7434 7435 7436 7437 7438 7439 7440 7441 7442 7443 7444 7445 7446 7447 7448 7449 7450 7451 7452 7453 7454 7455 7456 7457 7458 7459 7460 7461 7462 7463 7464 7465 7466 7467 7468 7469 7470 7471 7472 7473 7474 7475 7476 7477 7478 7479 7480 7481 7482 7483 7484 7485 7486 7487 7488 7489 7490 7491 7492 7493 7494 7495 7496 7497 7498 7499 7500 7501 7502 7503 7504 7505 7506 7507 7508 7509 7510 7511 7512 7513 7514 7515 7516 7517 7518 7519 7520 7521 7522 7523 7524 7525 7526 7527 7528 7529 7530 7531 7532 7533 7534 7535 7536 7537 7538 7539 7540 7541 7542 7543 7544 7545 7546 7547 7548 7549 7550 7551 7552 7553 7554 7555 7556 7557 7558 7559 7560 7561 7562 7563 7564 7565 7566 7567 7568 7569 7570 7571 7572 7573 7574 7575 7576 7577 7578 7579 7580 7581 7582 7583 7584 7585 7586 7587 7588 7589 7590 7591 7592 7593 7594 7595 7596 7597 7598 7599 7600 7601 7602 7603 7604 7605 7606 7607 7608 7609 7610 7611 7612 7613 7614 7615 7616 7617 7618 7619 7620 7621 7622 7623 7624 7625 7626 7627 7628 7629 7630 7631 7632 7633 7634 7635 7636 7637 7638 7639 7640 7641 7642 7643 7644 7645 7646 7647 7648 7649 7650 7651 7652 7653 7654 7655 7656 7657 7658 7659 7660 7661 7662 7663 7664 7665 7666 7667 7668 7669 7670 7671 7672 7673 7674 7675 7676 7677 7678 7679 7680 7681 7682 7683 7684 7685 7686 7687 7688 7689 7690 7691 7692 7693 7694 7695 7696 7697 7698 7699 7700 7701 7702 7703 7704 7705 7706 7707 7708 7709 7710 7711 7712 7713 7714 7715 7716 7717 7718 7719 7720 7721 7722 7723 7724 7725 7726 7727 7728 7729 7730 7731 7732 7733 7734 7735 7736 7737 7738 7739 7740 7741 7742 7743 7744 7745 7746 7747 7748 7749 7750 7751 7752 7753 7754 7755 7756 7757 7758 7759 7760 7761 7762 7763 7764 7765 7766 7767 7768 7769 7770 7771 7772 7773 7774 7775 7776 7777 7778 7779 7780 7781 7782 7783 7784 7785 7786 7787 7788 7789 7790 7791 7792 7793 7794 7795 7796 7797 7798 7799 7800 7801 7802 7803 7804 7805 7806 7807 7808 7809 7810 7811 7812 7813 7814 7815 7816 7817 7818 7819 7820 7821 7822 7823 7824 7825 7826 7827 7828 7829 7830 7831 7832 7833 7834 7835 7836 7837 7838 7839 7840 7841 7842 7843 7844 7845 7846 7847 7848 7849 7850 7851 7852 7853 7854 7855 7856 7857 7858 7859 7860 7861 7862 7863 7864 7865 7866 7867 7868 7869 7870 7871 7872 7873 7874 7875 7876 7877 7878 7879 7880 7881 7882 7883 7884 7885 7886 7887 7888 7889 7890 7891 7892 7893 7894 7895 7896 7897 7898 7899 7900 7901 7902 7903 7904 7905 7906 7907 7908 7909 7910 7911 7912 7913 7914 7915 7916 7917 7918 7919 7920 7921 7922 7923 7924 7925 7926 7927 7928 7929 7930 7931 7932 7933 7934 7935 7936 7937 7938 7939 7940 7941 7942 7943 7944 7945 7946 7947 7948 7949 7950 7951 7952 7953 7954 7955 7956 7957 7958 7959 7960 7961 7962 7963 7964 7965 7966 7967 7968 7969 7970 7971 7972 7973 7974 7975 7976 7977 7978 7979 7980 7981 7982 7983 7984 7985 7986 7987 7988 7989 7990 7991 7992 7993 7994 7995 7996 7997 7998 7999 8000 8001 8002 8003 8004 8005 8006 8007 8008 8009 8010 8011 8012 8013 8014 8015 8016 8017 8018 8019 8020 8021 8022 8023 8024 8025 8026 8027 8028 8029 8030 8031 8032 8033 8034 8035 8036 8037 8038 8039 8040 8041 8042 8043 8044 8045 8046 8047 8048 8049 8050 8051 8052 8053 8054 8055 8056 8057 8058 8059 8060 8061 8062 8063 8064 8065 8066 8067 8068 8069 8070 8071 8072 8073 8074 8075 8076 8077 8078 8079 8080 8081 8082 8083 8084 8085 8086 8087 8088 8089 8090 8091 8092 8093 8094 8095 8096 8097 8098 8099 8100 8101 8102 8103 8104 8105 8106 8107 8108 8109 8110 8111 8112 8113 8114 8115 8116 8117 8118 8119 8120 8121 8122 8123 8124 8125 8126 8127 8128 8129 8130 8131 8132 8133 8134 8135 8136 8137 8138 8139 8140 8141 8142 8143 8144 8145 8146 8147 8148 8149 8150 8151 8152 8153 8154 8155 8156 8157 8158 8159 8160 8161 8162 8163 8164 8165 8166 8167 8168 8169 8170 8171 8172 8173 8174 8175 8176 8177 8178 8179 8180 8181 8182 8183 8184 8185 8186 8187 8188 8189 8190 8191 8192 8193 8194 8195 8196 8197 8198 8199 8200 8201 8202 8203 8204 8205 8206 8207 8208 8209 8210 8211 8212 8213 8214 8215 8216 8217 8218 8219 8220 8221 8222 8223 8224 8225 8226 8227 8228 8229 8230 8231 8232 8233 8234 8235 8236 8237 8238 8239 8240 8241 8242 8243 8244 8245 8246 8247 8248 8249 8250 8251 8252 8253 8254 8255 8256 8257 8258 8259 8260 8261 8262 8263 8264 8265 8266 8267 8268 8269 8270 8271 8272 8273 8274 8275 8276 8277 8278 8279 8280 8281 8282 8283 8284 8285 8286 8287 8288 8289 8290 8291 8292 8293 8294 8295 8296 8297 8298 8299 8300 8301 8302 8303 8304 8305 8306 8307 8308 8309 8310 8311 8312 8313 8314 8315 8316 8317 8318 8319 8320 8321 8322 8323 8324 8325 8326 8327 8328 8329 8330 8331 8332 8333 8334 8335 8336 8337 8338 8339 8340 8341 8342 8343 8344 8345 8346 8347 8348 8349 8350 8351 8352 8353 8354 8355 8356 8357 8358 8359 8360 8361 8362 8363 8364 8365 8366 8367 8368 8369 8370 8371 8372 8373 8374 8375 8376 8377 8378 8379 8380 8381 8382 8383 8384 8385 8386 8387 8388 8389 8390 8391 8392 8393 8394 8395 8396 8397 8398 8399 8400 8401 8402 8403 8404 8405 8406 8407 8408 8409 8410 8411 8412 8413 8414 8415 8416 8417 8418 8419 8420 8421 8422 8423 8424 8425 8426 8427 8428 8429 8430 8431 8432 8433 8434 8435 8436 8437 8438 8439 8440 8441 8442 8443 8444 8445 8446 8447 8448 8449 8450 8451 8452 8453 8454 8455 8456 8457 8458 8459 8460 8461 8462 8463 8464 8465 8466 8467 8468 8469 8470 8471 8472 8473 8474 8475 8476 8477 8478 8479 8480 8481 8482 8483 8484 8485 8486 8487 8488 8489 8490 8491 8492 8493 8494 8495 8496 8497 8498 8499 8500 8501 8502 8503 8504 8505 8506 8507 8508 8509 8510 8511 8512 8513 8514 8515 8516 8517 8518 8519 8520 8521 8522 8523 8524 8525 8526 8527 8528 8529 8530 8531 8532 8533 8534 8535 8536 8537 8538 8539 8540 8541 8542 8543 8544 8545 8546 8547 8548 8549 8550 8551 8552 8553 8554 8555 8556 8557 8558 8559 8560 8561 8562 8563 8564 8565 8566 8567 8568 8569 8570 8571 8572 8573 8574 8575 8576 8577 8578 8579 8580 8581 8582 8583 8584 8585 8586 8587 8588 8589 8590 8591 8592 8593 8594 8595 8596 8597 8598 8599 8600 8601 8602 8603 8604 8605 8606 8607 8608 8609 8610 8611 8612 8613 8614 8615 8616 8617 8618 8619 8620 8621 8622 8623 8624 8625 8626 8627 8628 8629 8630 8631 8632 8633 8634 8635 8636 8637 8638 8639 8640 8641 8642 8643 8644 8645 8646 8647 8648 8649 8650 8651 8652 8653 8654 8655 8656 8657 8658 8659 8660 8661 8662 8663 8664 8665 8666 8667 8668 8669 8670 8671 8672 8673 8674 8675 8676 8677 8678 8679 8680 8681 8682 8683 8684 8685 8686 8687 8688 8689 8690 8691 8692 8693 8694 8695 8696 8697 8698 8699 8700 8701 8702 8703 8704 8705 8706 8707 8708 8709 8710 8711 8712 8713 8714 8715 8716 8717 8718 8719 8720 8721 8722 8723 8724 8725 8726 8727 8728 8729 8730 8731 8732 8733 8734 8735 8736 8737 8738 8739 8740 8741 8742 8743 8744 8745 8746 8747 8748 8749 8750 8751 8752 8753 8754 8755 8756 8757 8758 8759 8760 8761 8762 8763 8764 8765 8766 8767 8768 8769 8770 8771 8772 8773 8774 8775 8776 8777 8778 8779 8780 8781 8782 8783 8784 8785 8786 8787 8788 8789 8790 8791 8792 8793 8794 8795 8796 8797 8798 8799 8800 8801 8802 8803 8804 8805 8806 8807 8808 8809 8810 8811 8812 8813 8814 8815 8816 8817 8818 8819 8820 8821 8822 8823 8824 8825 8826 8827 8828 8829 8830 8831 8832 8833 8834 8835 8836 8837 8838 8839 8840 8841 8842 8843 8844 8845 8846 8847 8848 8849 8850 8851 8852 8853 8854 8855 8856 8857 8858 8859 8860 8861 8862 8863 8864 8865 8866 8867 8868 8869 8870 8871 8872 8873 8874 8875 8876 8877 8878 8879 8880 8881 8882 8883 8884 8885 8886 8887 8888 8889 8890 8891 8892 8893 8894 8895 8896 8897 8898 8899 8900 8901 8902 8903 8904 8905 8906 8907 8908 8909 8910 8911 8912 8913 8914 8915 8916 8917 8918 8919 8920 8921 8922 8923 8924 8925 8926 8927 8928 8929 8930 8931 8932 8933 8934 8935 8936 8937 8938 8939 8940 8941 8942 8943 8944 8945 8946 8947 8948 8949 8950 8951 8952 8953 8954 8955 8956 8957 8958 8959 8960 8961 8962 8963 8964 8965 8966 8967 8968 8969 8970 8971 8972 8973 8974 8975 8976 8977 8978 8979 8980 8981 8982 8983 8984 8985 8986 8987 8988 8989 8990 8991 8992 8993 8994 8995 8996 8997 8998 8999 9000 9001 9002 9003 9004 9005 9006 9007 9008 9009 9010 9011 9012 9013 9014 9015 9016 9017 9018 9019 9020 9021 9022 9023 9024 9025 9026 9027 9028 9029 9030 9031 9032 9033 9034 9035 9036 9037 9038 9039 9040 9041 9042 9043 9044 9045 9046 9047 9048 9049 9050 9051 9052 9053 9054 9055 9056 9057 9058 9059 9060 9061 9062 9063 9064 9065 9066 9067 9068 9069 9070 9071 9072 9073 9074 9075 9076 9077 9078 9079 9080 9081 9082 9083 9084 9085 9086 9087 9088 9089 9090 9091 9092 9093 9094 9095 9096 9097 9098 9099 9100 9101 9102 9103 9104 9105 9106 9107 9108 9109 9110 9111 9112 9113 9114 9115 9116 9117 9118 9119 9120 9121 9122 9123 9124 9125 9126 9127 9128 9129 9130 9131 9132 9133 9134 9135 9136 9137 9138 9139 9140 9141 9142 9143 9144 9145 9146 9147 9148 9149 9150 9151 9152 9153 9154 9155 9156 9157 9158 9159 9160 9161 9162 9163 9164 9165 9166 9167 9168 9169 9170 9171 9172 9173 9174 9175 9176 9177 9178 9179 9180 9181 9182 9183 9184 9185 9186 9187 9188 9189 9190 9191 9192 9193 9194 9195 9196 9197 9198 9199 9200 9201 9202 9203 9204 9205 9206 9207 9208 9209 9210 9211 9212 9213 9214 9215 9216 9217 9218 9219 9220 9221 9222 9223 9224 9225 9226 9227 9228 9229 9230 9231 9232 9233 9234 9235 9236 9237 9238 9239 9240 9241 9242 9243 9244 9245 9246 9247 9248 9249 9250 9251 9252 9253 9254 9255 9256 9257 9258 9259 9260 9261 9262 9263 9264 9265 9266 9267 9268 9269 9270 9271 9272 9273 9274 9275 9276 9277 9278 9279 9280 9281 9282 9283 9284 9285 9286 9287 9288 9289 9290 9291 9292 9293 9294 9295 9296 9297 9298 9299 9300 9301 9302 9303 9304 9305 9306 9307 9308 9309 9310 9311 9312 9313 9314 9315 9316 9317 9318 9319 9320 9321 9322 9323 9324 9325 9326 9327 9328 9329 9330 9331 9332 9333 9334 9335 9336 9337 9338 9339 9340 9341 9342 9343 9344 9345 9346 9347 9348 9349 9350 9351 9352 9353 9354 9355 9356 9357 9358 9359 9360 9361 9362 9363 9364 9365 9366 9367 9368 9369 9370 9371 9372 9373 9374 9375 9376 9377 9378 9379 9380 9381 9382 9383 9384 9385 9386 9387 9388 9389 9390 9391 9392 9393 9394 9395 9396 9397 9398 9399 9400 9401 9402 9403 9404 9405 9406 9407 9408 9409 9410 9411 9412 9413 9414 9415 9416 9417 9418 9419 9420 9421 9422 9423 9424 9425 9426 9427 9428 9429 9430 9431 9432 9433 9434 9435 9436 9437 9438 9439 9440 9441 9442 9443 9444 9445 9446 9447 9448 9449 9450 9451 9452 9453 9454 9455 9456 9457 9458 9459 9460 9461 9462 9463 9464 9465 9466 9467 9468 9469 9470 9471 9472 9473 9474 9475 9476 9477 9478 9479 9480 9481 9482 9483 9484 9485 9486 9487 9488 9489 9490 9491 9492 9493 9494 9495 9496 9497 9498 9499 9500 9501 9502 9503 9504 9505 9506 9507 9508 9509 9510 9511 9512 9513 9514 9515 9516 9517 9518 9519 9520 9521 9522 9523 9524 9525 9526 9527 9528 9529 9530 9531 9532 9533 9534 9535 9536 9537 9538 9539 9540 9541 9542 9543 9544 9545 9546 9547 9548 9549 9550 9551 9552 9553 9554 9555 9556 9557 9558 9559 9560 9561 9562 9563 9564 9565 9566 9567 9568 9569 9570 9571 9572 9573 9574 9575 9576 9577 9578 9579 9580 9581 9582 9583 9584 9585 9586 9587 9588 9589 9590 9591 9592 9593 9594 9595 9596 9597 9598 9599 9600 9601 9602 9603 9604 9605 9606 9607 9608 9609 9610 9611 9612 9613 9614 9615 9616 9617 9618 9619 9620 9621 9622 9623 9624 9625 9626 9627 9628 9629 9630 9631 9632 9633 9634 9635 9636 9637 9638 9639 9640 9641 9642 9643 9644 9645 9646 9647 9648 9649 9650 9651 9652 9653 9654 9655 9656 9657 9658 9659 9660 9661 9662 9663 9664 9665 9666 9667 9668 9669 9670 9671 9672 9673 9674 9675 9676 9677 9678 9679 9680 9681 9682 9683 9684 9685 9686 9687 9688 9689 9690 9691 9692 9693 9694 9695 9696 9697 9698 9699 9700 9701 9702 9703 9704 9705 9706 9707 9708 9709 9710 9711 9712 9713 9714 9715 9716 9717 9718 9719 9720 9721 9722 9723 9724 9725 9726 9727 9728 9729 9730 9731 9732 9733 9734 9735 9736 9737 9738 9739 9740 9741 9742 9743 9744 9745 9746 9747 9748 9749 9750 9751 9752 9753 9754 9755 9756 9757 9758 9759 9760 9761 9762 9763 9764 9765 9766 9767 9768 9769 9770 9771 9772 9773 9774 9775 9776 9777 9778 9779 9780 9781 9782 9783 9784 9785 9786 9787 9788 9789 9790 9791 9792 9793 9794 9795 9796 9797 9798 9799 9800 9801 9802 9803 9804 9805 9806 9807 9808 9809 9810 9811 9812 9813 9814 9815 9816 9817 9818 9819 9820 9821 9822 9823 9824 9825 9826 9827 9828 9829 9830 9831 9832 9833 9834 9835 9836 9837 9838 9839 9840 9841 9842 9843 9844 9845 9846 9847 9848 9849 9850 9851 9852 9853 9854 9855 9856 9857 9858 9859 9860 9861 9862 9863 9864 9865 9866 9867 9868 9869 9870 9871 9872 9873 9874 9875 9876 9877 9878 9879 9880 9881 9882 9883 9884 9885 9886 9887 9888 9889 9890 9891 9892 9893 9894 9895 9896 9897 9898 9899 9900 9901 9902 9903 9904 9905 9906 9907 9908 9909 9910 9911 9912 9913 9914 9915 9916 9917 9918 9919 9920 9921 9922 9923 9924 9925 9926 9927 9928 9929 9930 9931 9932 9933 9934 9935 9936 9937 9938 9939 9940 9941 9942 9943 9944 9945 9946 9947 9948 9949 9950 9951 9952 9953 9954 9955 9956 9957 9958 9959 9960 9961 9962 9963 9964 9965 9966 9967 9968 9969 9970 9971 9972 9973 9974 9975 9976 9977 9978 9979 9980 9981 9982 9983 9984 9985 9986 9987 9988 9989 9990 9991 9992 9993 9994 9995 9996 9997 9998 9999 10000 10001 10002 10003 10004 10005 10006 10007 10008 10009 10010 10011 10012 10013 10014 10015 10016 10017 10018 10019 10020 10021 10022 10023 10024 10025 10026 10027 10028 10029 10030 10031 10032 10033 10034 10035 10036 10037 10038 10039 10040 10041 10042 10043 10044 10045 10046 10047 10048 10049 10050 10051 10052 10053 10054 10055 10056 10057 10058 10059 10060 10061 10062 10063 10064 10065 10066 10067 10068 10069 10070 10071 10072 10073 10074 10075 10076 10077 10078 10079 10080 10081 10082 10083 10084 10085 10086 10087 10088 10089 10090 10091 10092 10093 10094 10095 10096 10097 10098 10099 10100 10101 10102 10103 10104 10105 10106 10107 10108 10109 10110 10111 10112 10113 10114 10115 10116 10117 10118 10119 10120 10121 10122 10123 10124 10125 10126 10127 10128 10129 10130 10131 10132 10133 10134 10135 10136 10137 10138 10139 10140 10141 10142 10143 10144 10145 10146 10147 10148 10149 10150 10151 10152 10153 10154 10155 10156 10157 10158 10159 10160 10161 10162 10163 10164 10165 10166 10167 10168 10169 10170 10171 10172 10173 10174 10175 10176 10177 10178 10179 10180 10181 10182 10183 10184 10185 10186 10187 10188 10189 10190 10191 10192 10193 10194 10195 10196 10197 10198 10199 10200 10201 10202 10203 10204 10205 10206 10207 10208 10209 10210 10211 10212 10213 10214 10215 10216 10217 10218 10219 10220 10221 10222 10223 10224 10225 10226 10227 10228 10229 10230 10231 10232 10233 10234 10235 10236 10237 10238 10239 10240 10241 10242 10243 10244 10245 10246 10247 10248 10249 10250 10251 10252 10253 10254 10255 10256 10257 10258 10259 10260 10261 10262 10263 10264 10265 10266 10267 10268 10269 10270 10271 10272 10273 10274 10275 10276 10277 10278 10279 10280 10281 10282 10283 10284 10285 10286 10287 10288 10289 10290 10291 10292 10293 10294 10295 10296 10297 10298 10299 10300 10301 10302 10303 10304 10305 10306 10307 10308 10309 10310 10311 10312 10313 10314 10315 10316 10317 10318 10319 10320 10321 10322 10323 10324 10325 10326 10327 10328 10329 10330 10331 10332 10333 10334 10335 10336 10337 10338 10339 10340 10341 10342 10343 10344 10345 10346 10347 10348 10349 10350 10351 10352 10353 10354 10355 10356 10357 10358 10359 10360 10361 10362 10363 10364 10365 10366 10367 10368 10369 10370 10371 10372 10373 10374 10375 10376 10377 10378 10379 10380 10381 10382 10383 10384 10385 10386 10387 10388 10389 10390 10391 10392 10393 10394 10395 10396 10397 10398 10399 10400 10401 10402 10403 10404 10405 10406 10407 10408 10409 10410 10411 10412 10413 10414 10415 10416 10417 10418 10419 10420 10421 10422 10423 10424 10425 10426 10427 10428 10429 10430 10431 10432 10433 10434 10435 10436 10437 10438 10439 10440 10441 10442 10443 10444 10445 10446 10447 10448 10449 10450 10451 10452 10453 10454 10455 10456 10457 10458 10459 10460 10461 10462 10463 10464 10465 10466 10467 10468 10469 10470 10471 10472 10473 10474 10475 10476 10477 10478 10479 10480 10481 10482 10483 10484 10485 10486 10487 10488 10489 10490 10491 10492 10493 10494 10495 10496 10497 10498 10499 10500 10501 10502 10503 10504 10505 10506 10507 10508 10509 10510 10511 10512 10513 10514 10515 10516 10517 10518 10519 10520 10521 10522 10523 10524 10525 10526 10527 10528 10529 10530 10531 10532 10533 10534 10535 10536 10537 10538 10539 10540 10541 10542 10543 10544 10545 10546 10547 10548 10549 10550 10551 10552 10553 10554 10555 10556 10557 10558 10559 10560 10561 10562 10563 10564 10565 10566 10567 10568 10569 10570 10571 10572 10573 10574 10575 10576 10577 10578 10579 10580 10581 10582 10583 10584 10585 10586 10587 10588 10589 10590 10591 10592 10593 10594 10595 10596 10597 10598 10599 10600 10601 10602 10603 10604 10605 10606 10607 10608 10609 10610 10611 10612 10613 10614 10615 10616 10617 10618 10619 10620 10621 10622 10623 10624 10625 10626 10627 10628 10629 10630 10631 10632 10633 10634 10635 10636 10637 10638 10639 10640 10641 10642 10643 10644 10645 10646 10647 10648 10649 10650 10651 10652 10653 10654 10655 10656 10657 10658 10659 10660 10661 10662 10663 10664 10665 10666 10667 10668 10669 10670 10671 10672 10673 10674 10675 10676 10677 10678 10679 10680 10681 10682 10683 10684 10685 10686 10687 10688 10689 10690 10691 10692 10693 10694 10695 10696 10697 10698 10699 10700 10701 10702 10703 10704 10705 10706 10707 10708 10709 10710 10711 10712 10713 10714 10715 10716 10717 10718 10719 10720 10721 10722 10723 10724 10725 10726 10727 10728 10729 10730 10731 10732 10733 10734 10735 10736 10737 10738 10739 10740 10741 10742 10743 10744 10745 10746 10747 10748 10749 10750 10751 10752 10753 10754 10755 10756 10757 10758 10759 10760 10761 10762 10763 10764 10765 10766 10767 10768 10769 10770 10771 10772 10773 10774 10775 10776 10777 10778 10779 10780 10781 10782 10783 10784 10785 10786 10787 10788 10789 10790 10791 10792 10793 10794 10795 10796 10797 10798 10799 10800 10801 10802 10803 10804 10805 10806 10807 10808 10809 10810 10811 10812 10813 10814 10815 10816 10817 10818 10819 10820 10821 10822 10823 10824 10825 10826 10827 10828 10829 10830 10831 10832 10833 10834 10835 10836 10837 10838 10839 10840 10841 10842 10843 10844 10845 10846 10847 10848 10849 10850 10851 10852 10853 10854 10855 10856 10857 10858 10859 10860 10861 10862 10863 10864 10865 10866 10867 10868 10869 10870 10871 10872 10873 10874 10875 10876 10877 10878 10879 10880 10881 10882 10883 10884 10885 10886 10887 10888 10889 10890 10891 10892 10893 10894 10895 10896 10897 10898 10899 10900 10901 10902 10903 10904 10905 10906 10907 10908 10909 10910 10911 10912 10913 10914 10915 10916 10917 10918 10919 10920 10921 10922 10923 10924 10925 10926 10927 10928 10929 10930 10931 10932 10933 10934 10935 10936 10937 10938 10939 10940 10941 10942 10943 10944 10945 10946 10947 10948 10949 10950 10951 10952 10953 10954 10955 10956 10957 10958 10959 10960 10961 10962 10963 10964 10965 10966 10967 10968 10969 10970 10971 10972 10973 10974 10975 10976 10977 10978 10979 10980 10981 10982 10983 10984 10985 10986 10987 10988 10989 10990 10991 10992 10993 10994 10995 10996 10997 10998 10999 11000 11001 11002 11003 11004 11005 11006 11007 11008 11009 11010 11011 11012 11013 11014 11015 11016 11017 11018 11019 11020 11021 11022 11023 11024 11025 11026 11027 11028 11029 11030 11031 11032 11033 11034 11035 11036 11037 11038 11039 11040 11041 11042 11043 11044 11045 11046 11047 11048 11049 11050 11051 11052 11053 11054 11055 11056 11057 11058 11059 11060 11061 11062 11063 11064 11065 11066 11067 11068 11069 11070 11071 11072 11073 11074 11075 11076 11077 11078 11079 11080 11081 11082 11083 11084 11085 11086 11087 11088 11089 11090 11091 11092 11093 11094 11095 11096 11097 11098 11099 11100 11101 11102 11103 11104 11105 11106 11107 11108 11109 11110 11111 11112 11113 11114 11115 11116 11117 11118 11119 11120 11121 11122 11123 11124 11125 11126 11127 11128 11129 11130 11131 11132 11133 11134 11135 11136 11137 11138 11139 11140 11141 11142 11143 11144 11145 11146 11147 11148 11149 11150 11151 11152 11153 11154 11155 11156 11157 11158 11159 11160 11161 11162 11163 11164 11165 11166 11167 11168 11169 11170 11171 11172 11173 11174 11175 11176 11177 11178 11179 11180 11181 11182 11183 11184 11185 11186 11187 11188 11189 11190 11191 11192 11193 11194 11195 11196 11197 11198 11199 11200 11201 11202 11203 11204 11205 11206 11207 11208 11209 11210 11211 11212 11213 11214 11215 11216 11217 11218 11219 11220 11221 11222 11223 11224 11225 11226 11227 11228 11229 11230 11231 11232 11233 11234 11235 11236 11237 11238 11239 11240 11241 11242 11243 11244 11245 11246 11247 11248 11249 11250 11251 11252 11253 11254 11255 11256 11257 11258 11259 11260 11261 11262 11263 11264 11265 11266 11267 11268 11269 11270 11271 11272 11273 11274 11275 11276 11277 11278 11279 11280 11281 11282 11283 11284 11285 11286 11287 11288 11289 11290 11291 11292 11293 11294 11295 11296 11297 11298 11299 11300 11301 11302 11303 11304 11305 11306 11307 11308 11309 11310 11311 11312 11313 11314 11315 11316 11317 11318 11319 11320 11321 11322 11323 11324 11325 11326 11327 11328 11329 11330 11331 11332 11333 11334 11335 11336 11337 11338 11339 11340 11341 11342 11343 11344 11345 11346 11347 11348 11349 11350 11351 11352 11353 11354 11355 11356 11357 11358 11359 11360 11361 11362 11363 11364 11365 11366 11367 11368 11369 11370 11371 11372 11373 11374 11375 11376 11377 11378 11379 11380 11381 11382 11383 11384 11385 11386 11387 11388 11389 11390 11391 11392 11393 11394 11395 11396 11397 11398 11399 11400 11401 11402 11403 11404 11405 11406 11407 11408 11409 11410 11411 11412 11413 11414 11415 11416 11417 11418 11419 11420 11421 11422 11423 11424 11425 11426 11427 11428 11429 11430 11431 11432 11433 11434 11435 11436 11437 11438 11439 11440 11441 11442 11443 11444 11445 11446 11447 11448 11449 11450 11451 11452 11453 11454 11455 11456 11457 11458 11459 11460 11461 11462 11463 11464 11465 11466 11467 11468 11469 11470 11471 11472 11473 11474 11475 11476 11477 11478 11479 11480 11481 11482 11483 11484 11485 11486 11487 11488 11489 11490 11491 11492 11493 11494 11495 11496 11497 11498 11499 11500 11501 11502 11503 11504 11505 11506 11507 11508 11509 11510 11511 11512 11513 11514 11515 11516 11517 11518 11519 11520 11521 11522 11523 11524 11525 11526 11527 11528 11529 11530 11531 11532 11533 11534 11535 11536 11537 11538 11539 11540 11541 11542 11543 11544 11545 11546 11547 11548 11549 11550 11551 11552 11553 11554 11555 11556 11557 11558 11559 11560 11561 11562 11563 11564 11565 11566 11567 11568 11569 11570 11571 11572 11573 11574 11575 11576 11577 11578 11579 11580 11581 11582 11583 11584 11585 11586 11587 11588 11589 11590 11591 11592 11593 11594 11595 11596 11597 11598 11599 11600 11601 11602 11603 11604 11605 11606 11607 11608 11609 11610 11611 11612 11613 11614 11615 11616 11617 11618 11619 11620 11621 11622 11623 11624 11625 11626 11627 11628 11629 11630 11631 11632 11633 11634 11635 11636 11637 11638 11639 11640 11641 11642 11643 11644 11645 11646 11647 11648 11649 11650 11651 11652 11653 11654 11655 11656 11657 11658 11659 11660 11661 11662 11663 11664 11665 11666 11667 11668 11669 11670 11671 11672 11673 11674 11675 11676 11677 11678 11679 11680 11681 11682 11683 11684 11685 11686 11687 11688 11689 11690 11691 11692 11693 11694 11695 11696 11697 11698 11699 11700 11701 11702 11703 11704 11705 11706 11707 11708 11709 11710 11711 11712 11713 11714 11715 11716 11717 11718 11719 11720 11721 11722 11723 11724 11725 11726 11727 11728 11729 11730 11731 11732 11733 11734 11735 11736 11737 11738 11739 11740 11741 11742 11743 11744 11745 11746 11747 11748 11749 11750 11751 11752 11753 11754 11755 11756 11757 11758 11759 11760 11761 11762 11763 11764 11765 11766 11767 11768 11769 11770 11771 11772 11773 11774 11775 11776 11777 11778 11779 11780 11781 11782 11783 11784 11785 11786 11787 11788 11789 11790 11791 11792 11793 11794 11795 11796 11797 11798 11799 11800 11801 11802 11803 11804 11805 11806 11807 11808 11809 11810 11811 11812 11813 11814 11815 11816 11817 11818 11819 11820 11821 11822 11823 11824 11825 11826 11827 11828 11829 11830 11831 11832 11833 11834 11835 11836 11837 11838 11839 11840 11841 11842 11843 11844 11845 11846 11847 11848 11849 11850 11851 11852 11853 11854 11855 11856 11857 11858 11859 11860 11861 11862 11863 11864 11865 11866 11867 11868 11869 11870 11871 11872 11873 11874 11875 11876 11877 11878 11879 11880 11881 11882 11883 11884 11885 11886 11887 11888 11889 11890 11891 11892 11893 11894 11895 11896 11897 11898 11899 11900 11901 11902 11903 11904 11905 11906 11907 11908 11909 11910 11911 11912 11913 11914 11915 11916 11917 11918 11919 11920 11921 11922 11923 11924 11925 11926 11927 11928 11929 11930 11931 11932 11933 11934 11935 11936 11937 11938 11939 11940 11941 11942 11943 11944 11945 11946 11947 11948 11949 11950 11951 11952 11953 11954 11955 11956 11957 11958 11959 11960 11961 11962 11963 11964 11965 11966 11967 11968 11969 11970 11971 11972 11973 11974 11975 11976 11977 11978 11979 11980 11981 11982 11983 11984 11985 11986 11987 11988 11989 11990 11991 11992 11993 11994 11995 11996 11997 11998 11999 12000 12001 12002 12003 12004 12005 12006 12007 12008 12009 12010 12011 12012 12013 12014 12015 12016 12017 12018 12019 12020 12021 12022 12023 12024 12025 12026 12027 12028 12029 12030 12031 12032 12033 12034 12035 12036 12037 12038 12039 12040 12041 12042 12043 12044 12045 12046 12047 12048 12049 12050 12051 12052 12053 12054 12055 12056 12057 12058 12059 12060 12061 12062 12063 12064 12065 12066 12067 12068 12069 12070 12071 12072 12073 12074 12075 12076 12077 12078 12079 12080 12081 12082 12083 12084 12085 12086 12087 12088 12089 12090 12091 12092 12093 12094 12095 12096 12097 12098 12099 12100 12101 12102 12103 12104 12105 12106 12107 12108 12109 12110 12111 12112 12113 12114 12115 12116 12117 12118 12119 12120 12121 12122 12123 12124 12125 12126 12127 12128 12129 12130 12131 12132 12133 12134 12135 12136 12137 12138 12139 12140 12141 12142 12143 12144 12145 12146 12147 12148 12149 12150 12151 12152 12153 12154 12155 12156 12157 12158 12159 12160 12161 12162 12163 12164 12165 12166 12167 12168 12169 12170 12171 12172 12173 12174 12175 12176 12177 12178 12179 12180 12181 12182 12183 12184 12185 12186 12187 12188 12189 12190 12191 12192 12193 12194 12195 12196 12197 12198 12199 12200 12201 12202 12203 12204 12205 12206 12207 12208 12209 12210 12211 12212 12213 12214 12215 12216 12217 12218 12219 12220 12221 12222 12223 12224 12225 12226 12227 12228 12229 12230 12231 12232 12233 12234 12235 12236 12237 12238 12239 12240 12241 12242 12243 12244 12245 12246 12247 12248 12249 12250 12251 12252 12253 12254 12255 12256 12257 12258 12259 12260 12261 12262 12263 12264 12265 12266 12267 12268 12269 12270 12271 12272 12273 12274 12275 12276 12277 12278 12279 12280 12281 12282 12283 12284 12285 12286 12287 12288 12289 12290 12291 12292 12293 12294 12295 12296 12297 12298 12299 12300 12301 12302 12303 12304 12305 12306 12307 12308 12309 12310 12311 12312 12313 12314 12315 12316 12317 12318 12319 12320 12321 12322 12323 12324 12325 12326 12327 12328 12329 12330 12331 12332 12333 12334 12335 12336 12337 12338 12339 12340 12341 12342 12343 12344 12345 12346 12347 12348 12349 12350 12351 12352 12353 12354 12355 12356 12357 12358 12359 12360 12361 12362 12363 12364 12365 12366 12367 12368 12369 12370 12371 12372 12373 12374 12375 12376 12377 12378 12379 12380 12381 12382 12383 12384 12385 12386 12387 12388 12389 12390 12391 12392 12393 12394 12395 12396 12397 12398 12399 12400 12401 12402 12403 12404 12405 12406 12407 12408 12409 12410 12411 12412 12413 12414 12415 12416 12417 12418 12419 12420 12421 12422 12423 12424 12425 12426 12427 12428 12429 12430 12431 12432 12433 12434 12435 12436 12437 12438 12439 12440 12441 12442 12443 12444 12445 12446 12447 12448 12449 12450 12451 12452 12453 12454 12455 12456 12457 12458 12459 12460 12461 12462 12463 12464 12465 12466 12467 12468 12469 12470 12471 12472 12473 12474 12475 12476 12477 12478 12479 12480 12481 12482 12483 12484 12485 12486 12487 12488 12489 12490 12491 12492 12493 12494 12495 12496 12497 12498 12499 12500 12501 12502 12503 12504 12505 12506 12507 12508 12509 12510 12511 12512 12513 12514 12515 12516 12517 12518 12519 12520 12521 12522 12523 12524 12525 12526 12527 12528 12529 12530 12531 12532 12533 12534 12535 12536 12537 12538 12539 12540 12541 12542 12543 12544 12545 12546 12547 12548 12549 12550 12551 12552 12553 12554 12555 12556 12557 12558 12559 12560 12561 12562 12563 12564 12565 12566 12567 12568 12569 12570 12571 12572 12573 12574 12575 12576 12577 12578 12579 12580 12581 12582 12583 12584 12585 12586 12587 12588 12589 12590 12591 12592 12593 12594 12595 12596 12597 12598 12599 12600 12601 12602 12603 12604 12605 12606 12607 12608 12609 12610 12611 12612 12613 12614 12615 12616 12617 12618 12619 12620 12621 12622 12623 12624 12625 12626 12627 12628 12629 12630 12631 12632 12633 12634 12635 12636 12637 12638 12639 12640 12641 12642 12643 12644 12645 12646 12647 12648 12649 12650 12651 12652 12653 12654 12655 12656 12657 12658 12659 12660 12661 12662 12663 12664 12665 12666 12667 12668 12669 12670 12671 12672 12673 12674 12675 12676 12677 12678 12679 12680 12681 12682 12683 12684 12685 12686 12687 12688 12689 12690 12691 12692 12693 12694 12695 12696 12697 12698 12699 12700 12701 12702 12703 12704 12705 12706 12707 12708 12709 12710 12711 12712 12713 12714 12715 12716 12717 12718 12719 12720 12721 12722 12723 12724 12725 12726 12727 12728 12729 12730 12731 12732 12733 12734 12735 12736 12737 12738 12739 12740 12741 12742 12743 12744 12745 12746 12747 12748 12749 12750 12751 12752 12753 12754 12755 12756 12757 12758 12759 12760 12761 12762 12763 12764 12765 12766 12767 12768 12769 12770 12771 12772 12773 12774 12775 12776 12777 12778 12779 12780 12781 12782 12783 12784 12785 12786 12787 12788 12789 12790 12791 12792 12793 12794 12795 12796 12797 12798 12799 12800 12801 12802 12803 12804 12805 12806 12807 12808 12809 12810 12811 12812 12813 12814 12815 12816 12817 12818 12819 12820 12821 12822 12823 12824 12825 12826 12827 12828 12829 12830 12831 12832 12833 12834 12835 12836 12837 12838 12839 12840 12841 12842 12843 12844 12845 12846 12847 12848 12849 12850 12851 12852 12853 12854 12855 12856 12857 12858 12859 12860 12861 12862 12863 12864 12865 12866 12867 12868 12869 12870 12871 12872 12873 12874 12875 12876 12877 12878 12879 12880 12881 12882 12883 12884 12885 12886 12887 12888 12889 12890 12891 12892 12893 12894 12895 12896 12897 12898 12899 12900 12901 12902 12903 12904 12905 12906 12907 12908 12909 12910 12911 12912 12913 12914 12915 12916 12917 12918 12919 12920 12921 12922 12923 12924 12925 12926 12927 12928 12929 12930 12931 12932 12933 12934 12935 12936 12937 12938 12939 12940 12941 12942 12943 12944 12945 12946 12947 12948 12949 12950 12951 12952 12953 12954 12955 12956 12957 12958 12959 12960 12961 12962 12963 12964 12965 12966 12967 12968 12969 12970 12971 12972 12973 12974 12975 12976 12977 12978 12979 12980 12981 12982 12983 12984 12985 12986 12987 12988 12989 12990 12991 12992 12993 12994 12995 12996 12997 12998 12999 13000 13001 13002 13003 13004 13005 13006 13007 13008 13009 13010 13011 13012 13013 13014 13015 13016 13017 13018 13019 13020 13021 13022 13023 13024 13025 13026 13027 13028 13029 13030 13031 13032 13033 13034 13035 13036 13037 13038 13039 13040 13041 13042 13043 13044 13045 13046 13047 13048 13049 13050 13051 13052 13053 13054 13055 13056 13057 13058 13059 13060 13061 13062 13063 13064 13065 13066 13067 13068 13069 13070 13071 13072 13073 13074 13075 13076 13077 13078 13079 13080 13081 13082 13083 13084 13085 13086 13087 13088 13089 13090 13091 13092 13093 13094 13095 13096 13097 13098 13099 13100 13101 13102 13103 13104 13105 13106 13107 13108 13109 13110 13111 13112 13113 13114 13115 13116 13117 13118 13119 13120 13121 13122 13123 13124 13125 13126 13127 13128 13129 13130 13131 13132 13133 13134 13135 13136 13137 13138 13139 13140 13141 13142 13143 13144 13145 13146 13147 13148 13149 13150 13151 13152 13153 13154 13155 13156 13157 13158 13159 13160 13161 13162 13163 13164 13165 13166 13167 13168 13169 13170 13171 13172 13173 13174 13175 13176 13177 13178 13179 13180 13181 13182 13183 13184 13185 13186 13187 13188 13189 13190 13191 13192 13193 13194 13195 13196 13197 13198 13199 13200 13201 13202 13203 13204 13205 13206 13207 13208 13209 13210 13211 13212 13213 13214 13215 13216 13217 13218 13219 13220 13221 13222 13223 13224 13225 13226 13227 13228 13229 13230 13231 13232 13233 13234 13235 13236 13237 13238 13239 13240 13241 13242 13243 13244 13245 13246 13247 13248 13249 13250 13251 13252 13253 13254 13255 13256 13257 13258 13259 13260 13261 13262 13263 13264 13265 13266 13267 13268 13269 13270 13271 13272 13273 13274 13275 13276 13277 13278 13279 13280 13281 13282 13283 13284 13285 13286 13287 13288 13289 13290 13291 13292 13293 13294 13295 13296 13297 13298 13299 13300 13301 13302 13303 13304 13305 13306 13307 13308 13309 13310 13311 13312 13313 13314 13315 13316 13317 13318 13319 13320 13321 13322 13323 13324 13325 13326 13327 13328 13329 13330 13331 13332 13333 13334 13335 13336 13337 13338 13339 13340 13341 13342 13343 13344 13345 13346 13347 13348 13349 13350 13351 13352 13353 13354 13355 13356 13357 13358 13359 13360 13361 13362 13363 13364 13365 13366 13367 13368 13369 13370 13371 13372 13373 13374 13375 13376 13377 13378 13379 13380 13381 13382 13383 13384 13385 13386 13387 13388 13389 13390 13391 13392 13393 13394 13395 13396 13397 13398 13399 13400 13401 13402 13403 13404 13405 13406 13407 13408 13409 13410 13411 13412 13413 13414 13415 13416 13417 13418 13419 13420 13421 13422 13423 13424 13425 13426 13427 13428 13429 13430 13431 13432 13433 13434 13435 13436 13437 13438 13439 13440 13441 13442 13443 13444 13445 13446 13447 13448 13449 13450 13451 13452 13453 13454 13455 13456 13457 13458 13459 13460 13461 13462 13463 13464 13465 13466 13467 13468 13469 13470 13471 13472 13473 13474 13475 13476 13477 13478 13479 13480 13481 13482 13483 13484 13485 13486 13487 13488 13489 13490 13491 13492 13493 13494 13495 13496 13497 13498 13499 13500 13501 13502 13503 13504 13505 13506 13507 13508 13509 13510 13511 13512 13513 13514 13515 13516 13517 13518 13519 13520 13521 13522 13523 13524 13525 13526 13527 13528 13529 13530 13531 13532 13533 13534 13535 13536 13537 13538 13539 13540 13541 13542 13543 13544 13545 13546 13547 13548 13549 13550 13551 13552 13553 13554 13555 13556 13557 13558 13559 13560 13561 13562 13563 13564 13565 13566 13567 13568 13569 13570 13571 13572 13573 13574 13575 13576 13577 13578 13579 13580 13581 13582 13583 13584 13585 13586 13587 13588 13589 13590 13591 13592 13593 13594 13595 13596 13597 13598 13599 13600 13601 13602 13603 13604 13605 13606 13607 13608 13609 13610 13611 13612 13613 13614 13615 13616 13617 13618 13619 13620 13621 13622 13623 13624 13625 13626 13627 13628 13629 13630 13631 13632 13633 13634 13635 13636 13637 13638 13639 13640 13641 13642 13643 13644 13645 13646 13647 13648 13649 13650 13651 13652 13653 13654 13655 13656 13657 13658 13659 13660 13661 13662 13663 13664 13665 13666 13667 13668 13669 13670 13671 13672 13673 13674 13675 13676 13677 13678 13679 13680 13681 13682 13683 13684 13685 13686 13687 13688 13689 13690 13691 13692 13693 13694 13695 13696 13697 13698 13699 13700 13701 13702 13703 13704 13705 13706 13707 13708 13709 13710 13711 13712 13713 13714 13715 13716 13717 13718 13719 13720 13721 13722 13723 13724 13725 13726 13727 13728 13729 13730 13731 13732 13733 13734 13735 13736 13737 13738 13739 13740 13741 13742 13743 13744 13745 13746 13747 13748 13749 13750 13751 13752 13753 13754 13755 13756 13757 13758 13759 13760 13761 13762 13763 13764 13765 13766 13767 13768 13769 13770 13771 13772 13773 13774 13775 13776 13777 13778 13779 13780 13781 13782 13783 13784 13785 13786 13787 13788 13789 13790 13791 13792 13793 13794 13795 13796 13797 13798 13799 13800 13801 13802 13803 13804 13805 13806 13807 13808 13809 13810 13811 13812 13813 13814 13815 13816 13817 13818 13819 13820 13821 13822 13823 13824 13825 13826 13827 13828 13829 13830 13831 13832 13833 13834 13835 13836 13837 13838 13839 13840 13841 13842 13843 13844 13845 13846 13847 13848 13849 13850 13851 13852 13853 13854 13855 13856 13857 13858 13859 13860 13861 13862 13863 13864 13865 13866 13867 13868 13869 13870 13871 13872 13873 13874 13875 13876 13877 13878 13879 13880 13881 13882 13883 13884 13885 13886 13887 13888 13889 13890 13891 13892 13893 13894 13895 13896 13897 13898 13899 13900 13901 13902 13903 13904 13905 13906 13907 13908 13909 13910 13911 13912 13913 13914 13915 13916 13917 13918 13919 13920 13921 13922 13923 13924 13925 13926 13927 13928 13929 13930 13931 13932 13933 13934 13935 13936 13937 13938 13939 13940 13941 13942 13943 13944 13945 13946 13947 13948 13949 13950 13951 13952 13953 13954 13955 13956 13957 13958 13959 13960 13961 13962 13963 13964 13965 13966 13967 13968 13969 13970 13971 13972 13973 13974 13975 13976 13977 13978 13979 13980 13981 13982 13983 13984 13985 13986 13987 13988 13989 13990 13991 13992 13993 13994 13995 13996 13997 13998 13999 14000 14001 14002 14003 14004 14005 14006 14007 14008 14009 14010 14011 14012 14013 14014 14015 14016 14017 14018 14019 14020 14021 14022 14023 14024 14025 14026 14027 14028 14029 14030 14031 14032 14033 14034 14035 14036 14037 14038 14039 14040 14041 14042 14043 14044 14045 14046 14047 14048 14049 14050 14051 14052 14053 14054 14055 14056 14057 14058 14059 14060 14061 14062 14063 14064 14065 14066 14067 14068 14069 14070 14071 14072 14073 14074 14075 14076 14077 14078 14079 14080 14081 14082 14083 14084 14085 14086 14087 14088 14089 14090 14091 14092 14093 14094 14095 14096 14097 14098 14099 14100 14101 14102 14103 14104 14105 14106 14107 14108 14109 14110 14111 14112 14113 14114 14115 14116 14117 14118 14119 14120 14121 14122 14123 14124 14125 14126 14127 14128 14129 14130 14131 14132 14133 14134 14135 14136 14137 14138 14139 14140 14141 14142 14143 14144 14145 14146 14147 14148 14149 14150 14151 14152 14153 14154 14155 14156 14157 14158 14159 14160 14161 14162 14163 14164 14165 14166 14167 14168 14169 14170 14171 14172 14173 14174 14175 14176 14177 14178 14179 14180 14181 14182 14183 14184 14185 14186 14187 14188 14189 14190 14191 14192 14193 14194 14195 14196 14197 14198 14199 14200 14201 14202 14203 14204 14205 14206 14207 14208 14209 14210 14211 14212 14213 14214 14215 14216 14217 14218 14219 14220 14221 14222 14223 14224 14225 14226 14227 14228 14229 14230 14231 14232 14233 14234 14235 14236 14237 14238 14239 14240 14241 14242 14243 14244 14245 14246 14247 14248 14249 14250 14251 14252 14253 14254 14255 14256 14257 14258 14259 14260 14261 14262 14263 14264 14265 14266 14267 14268 14269 14270 14271 14272 14273 14274 14275 14276 14277 14278 14279 14280 14281 14282 14283 14284 14285 14286 14287 14288 14289 14290 14291 14292 14293 14294 14295 14296 14297 14298 14299 14300 14301 14302 14303 14304 14305 14306 14307 14308 14309 14310 14311 14312 14313 14314 14315 14316 14317 14318 14319 14320 14321 14322 14323 14324 14325 14326 14327 14328 14329 14330 14331 14332 14333 14334 14335 14336 14337 14338 14339 14340 14341 14342 14343 14344 14345 14346 14347 14348 14349 14350 14351 14352 14353 14354 14355 14356 14357 14358 14359 14360 14361 14362 14363 14364 14365 14366 14367 14368 14369 14370 14371 14372 14373 14374 14375 14376 14377 14378 14379 14380 14381 14382 14383 14384 14385 14386 14387 14388 14389 14390 14391 14392 14393 14394 14395 14396 14397 14398 14399 14400 14401 14402 14403 14404 14405 14406 14407 14408 14409 14410 14411 14412 14413 14414 14415 14416 14417 14418 14419 14420 14421 14422 14423 14424 14425 14426 14427 14428 14429 14430 14431 14432 14433 14434 14435 14436 14437 14438 14439 14440 14441 14442 14443 14444 14445 14446 14447 14448 14449 14450 14451 14452 14453 14454 14455 14456 14457 14458 14459 14460 14461 14462 14463 14464 14465 14466 14467 14468 14469 14470 14471 14472 14473 14474 14475 14476 14477 14478 14479 14480 14481 14482 14483 14484 14485 14486 14487 14488 14489 14490 14491 14492 14493 14494 14495 14496 14497 14498 14499 14500 14501 14502 14503 14504 14505 14506 14507 14508 14509 14510 14511 14512 14513 14514 14515 14516 14517 14518 14519 14520 14521 14522 14523 14524 14525 14526 14527 14528 14529 14530 14531 14532 14533 14534 14535 14536 14537 14538 14539 14540 14541 14542 14543 14544 14545 14546 14547 14548 14549 14550 14551 14552 14553 14554 14555 14556 14557 14558 14559 14560 14561 14562 14563 14564 14565 14566 14567 14568 14569 14570 14571 14572 14573 14574 14575 14576 14577 14578 14579 14580 14581 14582 14583 14584 14585 14586 14587 14588 14589 14590 14591 14592 14593 14594 14595 14596 14597 14598 14599 14600 14601 14602 14603 14604 14605 14606 14607 14608 14609 14610 14611 14612 14613 14614 14615 14616 14617 14618 14619 14620 14621 14622 14623 14624 14625 14626 14627 14628 14629 14630 14631 14632 14633 14634 14635 14636 14637 14638 14639 14640 14641 14642 14643 14644 14645 14646 14647 14648 14649 14650 14651 14652 14653 14654 14655 14656 14657 14658 14659 14660 14661 14662 14663 14664 14665 14666 14667 14668 14669 14670 14671 14672 14673 14674 14675 14676 14677 14678 14679 14680 14681 14682 14683 14684 14685 14686 14687 14688 14689 14690 14691 14692 14693 14694 14695 14696 14697 14698 14699 14700 14701 14702 14703 14704 14705 14706 14707 14708 14709 14710 14711 14712 14713 14714 14715 14716 14717 14718 14719 14720 14721 14722 14723 14724 14725 14726 14727 14728 14729 14730 14731 14732 14733 14734 14735 14736 14737 14738 14739 14740 14741 14742 14743 14744 14745 14746 14747 14748 14749 14750 14751 14752 14753 14754 14755 14756 14757 14758 14759 14760 14761 14762 14763 14764 14765 14766 14767 14768 14769 14770 14771 14772 14773 14774 14775 14776 14777 14778 14779 14780 14781 14782 14783 14784 14785 14786 14787 14788 14789 14790 14791 14792 14793 14794 14795 14796 14797 14798 14799 14800 14801 14802 14803 14804 14805 14806 14807 14808 14809 14810 14811 14812 14813 14814 14815 14816 14817 14818 14819 14820 14821 14822 14823 14824 14825 14826 14827 14828 14829 14830 14831 14832 14833 14834 14835 14836 14837 14838 14839 14840 14841 14842 14843 14844 14845 14846 14847 14848 14849 14850 14851 14852 14853 14854 14855 14856 14857 14858 14859 14860 14861 14862 14863 14864 14865 14866 14867 14868 14869 14870 14871 14872 14873 14874 14875 14876 14877 14878 14879 14880 14881 14882 14883 14884 14885 14886 14887 14888 14889 14890 14891 14892 14893 14894 14895 14896 14897 14898 14899 14900 14901 14902 14903 14904 14905 14906 14907 14908 14909 14910 14911 14912 14913 14914 14915 14916 14917 14918 14919 14920 14921 14922 14923 14924 14925 14926 14927 14928 14929 14930 14931 14932 14933 14934 14935 14936 14937 14938 14939 14940 14941 14942 14943 14944 14945 14946 14947 14948 14949 14950 14951 14952 14953 14954 14955 14956 14957 14958 14959 14960 14961 14962 14963 14964 14965 14966 14967 14968 14969 14970 14971 14972 14973 14974 14975 14976 14977 14978 14979 14980 14981 14982 14983 14984 14985 14986 14987 14988 14989 14990 14991 14992 14993 14994 14995 14996 14997 14998 14999 15000 15001 15002 15003 15004 15005 15006 15007 15008 15009 15010 15011 15012 15013 15014 15015 15016 15017 15018 15019 15020 15021 15022 15023 15024 15025 15026 15027 15028 15029 15030 15031 15032 15033 15034 15035 15036 15037 15038 15039 15040 15041 15042 15043 15044 15045 15046 15047 15048 15049 15050 15051 15052 15053 15054 15055 15056 15057 15058 15059 15060 15061 15062 15063 15064 15065 15066 15067 15068 15069 15070 15071 15072 15073 15074 15075 15076 15077 15078 15079 15080 15081 15082 15083 15084 15085 15086 15087 15088 15089 15090 15091 15092 15093 15094 15095 15096 15097 15098 15099 15100 15101 15102 15103 15104 15105 15106 15107 15108 15109 15110 15111 15112 15113 15114 15115 15116 15117 15118 15119 15120 15121 15122 15123 15124 15125 15126 15127 15128 15129 15130 15131 15132 15133 15134 15135 15136 15137 15138 15139 15140 15141 15142 15143 15144 15145 15146 15147 15148 15149 15150 15151 15152 15153 15154 15155 15156 15157 15158 15159 15160 15161 15162 15163 15164 15165 15166 15167 15168 15169 15170 15171 15172 15173 15174 15175 15176 15177 15178 15179 15180 15181 15182 15183 15184 15185 15186 15187 15188 15189 15190 15191 15192 15193 15194 15195 15196 15197 15198 15199 15200 15201 15202 15203 15204 15205 15206 15207 15208 15209 15210 15211 15212 15213 15214 15215 15216 15217 15218 15219 15220 15221 15222 15223 15224 15225 15226 15227 15228 15229 15230 15231 15232 15233 15234 15235 15236 15237 15238 15239 15240 15241 15242 15243 15244 15245 15246 15247 15248 15249 15250 15251 15252 15253 15254 15255 15256 15257 15258 15259 15260 15261 15262 15263 15264 15265 15266 15267 15268 15269 15270 15271 15272 15273 15274 15275 15276 15277 15278 15279 15280 15281 15282 15283 15284 15285 15286 15287 15288 15289 15290 15291 15292 15293 15294 15295 15296 15297 15298 15299 15300 15301 15302 15303 15304 15305 15306 15307 15308 15309 15310 15311 15312 15313 15314 15315 15316 15317 15318 15319 15320 15321 15322 15323 15324 15325 15326 15327 15328 15329 15330 15331 15332 15333 15334 15335 15336 15337 15338 15339 15340 15341 15342 15343 15344 15345 15346 15347 15348 15349 15350 15351 15352 15353 15354 15355 15356 15357 15358 15359 15360 15361 15362 15363 15364 15365 15366 15367 15368 15369 15370 15371 15372 15373 15374 15375 15376 15377 15378 15379 15380 15381 15382 15383 15384 15385 15386 15387 15388 15389 15390 15391 15392 15393 15394 15395 15396 15397 15398 15399 15400 15401 15402 15403 15404 15405 15406 15407 15408 15409 15410 15411 15412 15413 15414 15415 15416 15417 15418 15419 15420 15421 15422 15423 15424 15425 15426 15427 15428 15429 15430 15431 15432 15433 15434 15435 15436 15437 15438 15439 15440 15441 15442 15443 15444 15445 15446 15447 15448 15449 15450 15451 15452 15453 15454 15455 15456 15457 15458 15459 15460 15461 15462 15463 15464 15465 15466 15467 15468 15469 15470 15471 15472 15473 15474 15475 15476 15477 15478 15479 15480 15481 15482 15483 15484 15485 15486 15487 15488 15489 15490 15491 15492 15493 15494 15495 15496 15497 15498 15499 15500 15501 15502 15503 15504 15505 15506 15507 15508 15509 15510 15511 15512 15513 15514 15515 15516 15517 15518 15519 15520 15521 15522 15523 15524 15525 15526 15527 15528 15529 15530 15531 15532 15533 15534 15535 15536 15537 15538 15539 15540 15541 15542 15543 15544 15545 15546 15547 15548 15549 15550 15551 15552 15553 15554 15555 15556 15557 15558 15559 15560 15561 15562 15563 15564 15565 15566 15567 15568 15569 15570 15571 15572 15573 15574 15575 15576 15577 15578 15579 15580 15581 15582 15583 15584 15585 15586 15587 15588 15589 15590 15591 15592 15593 15594 15595 15596 15597 15598 15599 15600 15601 15602 15603 15604 15605 15606 15607 15608 15609 15610 15611 15612 15613 15614 15615 15616 15617 15618 15619 15620 15621 15622 15623 15624 15625 15626 15627 15628 15629 15630 15631 15632 15633 15634 15635 15636 15637 15638 15639 15640 15641 15642 15643 15644 15645 15646 15647 15648 15649 15650 15651 15652 15653 15654 15655 15656 15657 15658 15659 15660 15661 15662 15663 15664 15665 15666 15667 15668 15669 15670 15671 15672 15673 15674 15675 15676 15677 15678 15679 15680 15681 15682 15683 15684 15685 15686 15687 15688 15689 15690 15691 15692 15693 15694 15695 15696 15697 15698 15699 15700 15701 15702 15703 15704 15705 15706 15707 15708 15709 15710 15711 15712 15713 15714 15715 15716 15717 15718 15719 15720 15721 15722 15723 15724 15725 15726 15727 15728 15729 15730 15731 15732 15733 15734 15735 15736 15737 15738 15739 15740 15741 15742 15743 15744 15745 15746 15747 15748 15749 15750 15751 15752 15753 15754 15755 15756 15757 15758 15759 15760 15761 15762 15763 15764 15765 15766 15767 15768 15769 15770 15771 15772 15773 15774 15775 15776 15777 15778 15779 15780 15781 15782 15783 15784 15785 15786 15787 15788 15789 15790 15791 15792 15793 15794 15795 15796 15797 15798 15799 15800 15801 15802 15803 15804 15805 15806 15807 15808 15809 15810 15811 15812 15813 15814 15815 15816 15817 15818 15819 15820 15821 15822 15823 15824 15825 15826 15827 15828 15829 15830 15831 15832 15833 15834 15835 15836 15837 15838 15839 15840 15841 15842 15843 15844 15845 15846 15847 15848 15849 15850 15851 15852 15853 15854 15855 15856 15857 15858 15859 15860 15861 15862 15863 15864 15865 15866 15867 15868 15869 15870 15871 15872 15873 15874 15875 15876 15877 15878 15879 15880 15881 15882 15883 15884 15885 15886 15887 15888 15889 15890 15891 15892 15893 15894 15895 15896 15897 15898 15899 15900 15901 15902 15903 15904 15905 15906 15907 15908 15909 15910 15911 15912 15913 15914 15915 15916 15917 15918 15919 15920 15921 15922 15923 15924 15925 15926 15927 15928 15929 15930 15931 15932 15933 15934 15935 15936 15937 15938 15939 15940 15941 15942 15943 15944 15945 15946 15947 15948 15949 15950 15951 15952 15953 15954 15955 15956 15957 15958 15959 15960 15961 15962 15963 15964 15965 15966 15967 15968 15969 15970 15971 15972 15973 15974 15975 15976 15977 15978 15979 15980 15981 15982 15983 15984 15985 15986 15987 15988 15989 15990 15991 15992 15993 15994 15995 15996 15997 15998 15999 16000 16001 16002 16003 16004 16005 16006 16007 16008 16009 16010 16011 16012 16013 16014 16015 16016 16017 16018 16019 16020 16021 16022 16023 16024 16025 16026 16027 16028 16029 16030 16031 16032 16033 16034 16035 16036 16037 16038 16039 16040 16041 16042 16043 16044 16045 16046 16047 16048 16049 16050 16051 16052 16053 16054 16055 16056 16057 16058 16059 16060 16061 16062 16063 16064 16065 16066 16067 16068 16069 16070 16071 16072 16073 16074 16075 16076 16077 16078 16079 16080 16081 16082 16083 16084 16085 16086 16087 16088 16089 16090 16091 16092 16093 16094 16095 16096 16097 16098 16099 16100 16101 16102 16103 16104 16105 16106 16107 16108 16109 16110 16111 16112 16113 16114 16115 16116 16117 16118 16119 16120 16121 16122 16123 16124 16125 16126 16127 16128 16129 16130 16131 16132 16133 16134 16135 16136 16137 16138 16139 16140 16141 16142 16143 16144 16145 16146 16147 16148 16149 16150 16151 16152 16153 16154 16155 16156 16157 16158 16159 16160 16161 16162 16163 16164 16165 16166 16167 16168 16169 16170 16171 16172 16173 16174 16175 16176 16177 16178 16179 16180 16181 16182 16183 16184 16185 16186 16187 16188 16189 16190 16191 16192 16193 16194 16195 16196 16197 16198 16199 16200 16201 16202 16203 16204 16205 16206 16207 16208 16209 16210 16211 16212 16213 16214 16215 16216 16217 16218 16219 16220 16221 16222 16223 16224 16225 16226 16227 16228 16229 16230 16231 16232 16233 16234 16235 16236 16237 16238 16239 16240 16241 16242 16243 16244 16245 16246 16247 16248 16249 16250 16251 16252 16253 16254 16255 16256 16257 16258 16259 16260 16261 16262 16263 16264 16265 16266 16267 16268 16269 16270 16271 16272 16273 16274 16275 16276 16277 16278 16279 16280 16281 16282 16283 16284 16285 16286 16287 16288 16289 16290 16291 16292 16293 16294 16295 16296 16297 16298 16299 16300 16301 16302 16303 16304 16305 16306 16307 16308 16309 16310 16311 16312 16313 16314 16315 16316 16317 16318 16319 16320 16321 16322 16323 16324 16325 16326 16327 16328 16329 16330 16331 16332 16333 16334 16335 16336 16337 16338 16339 16340 16341 16342 16343 16344 16345 16346 16347 16348 16349 16350 16351 16352 16353 16354 16355 16356 16357 16358 16359 16360 16361 16362 16363 16364 16365 16366 16367 16368 16369 16370 16371 16372 16373 16374 16375 16376 16377 16378 16379 16380 16381 16382 16383 16384 16385 16386 16387 16388 16389 16390 16391 16392 16393 16394 16395 16396 16397 16398 16399 16400 16401 16402 16403 16404 16405 16406 16407 16408 16409 16410 16411 16412 16413 16414 16415 16416 16417 16418 16419 16420 16421 16422 16423 16424 16425 16426 16427 16428 16429 16430 16431 16432 16433 16434 16435 16436 16437 16438 16439 16440 16441 16442 16443 16444 16445 16446 16447 16448 16449 16450 16451 16452 16453 16454 16455 16456 16457 16458 16459 16460 16461 16462 16463 16464 16465 16466 16467 16468 16469 16470 16471 16472 16473 16474 16475 16476 16477 16478 16479 16480 16481 16482 16483 16484 16485 16486 16487 16488 16489 16490 16491 16492 16493 16494 16495 16496 16497 16498 16499 16500 16501 16502 16503 16504 16505 16506 16507 16508 16509 16510 16511 16512 16513 16514 16515 16516 16517 16518 16519 16520 16521 16522 16523 16524 16525 16526 16527 16528 16529 16530 16531 16532 16533 16534 16535 16536 16537 16538 16539 16540 16541 16542 16543 16544 16545 16546 16547 16548 16549 16550 16551 16552 16553 16554 16555 16556 16557 16558 16559 16560 16561 16562 16563 16564 16565 16566 16567 16568 16569 16570 16571 16572 16573 16574 16575 16576 16577 16578 16579 16580 16581 16582 16583 16584 16585 16586 16587 16588 16589 16590 16591 16592 16593 16594 16595 16596 16597 16598 16599 16600 16601 16602 16603 16604 16605 16606 16607 16608 16609 16610 16611 16612 16613 16614 16615 16616 16617 16618 16619 16620 16621 16622 16623 16624 16625 16626 16627 16628 16629 16630 16631 16632 16633 16634 16635 16636 16637 16638 16639 16640 16641 16642 16643 16644 16645 16646 16647 16648 16649 16650 16651 16652 16653 16654 16655 16656 16657 16658 16659 16660 16661 16662 16663 16664 16665 16666 16667 16668 16669 16670 16671 16672 16673 16674 16675 16676 16677 16678 16679 16680 16681 16682 16683 16684 16685 16686 16687 16688 16689 16690 16691 16692 16693 16694 16695 16696 16697 16698 16699 16700 16701 16702 16703 16704 16705 16706 16707 16708 16709 16710 16711 16712 16713 16714 16715 16716 16717 16718 16719 16720 16721 16722 16723 16724 16725 16726 16727 16728 16729 16730 16731 16732 16733 16734 16735 16736 16737 16738 16739 16740 16741 16742 16743 16744 16745 16746 16747 16748 16749 16750 16751 16752 16753 16754 16755 16756 16757 16758 16759 16760 16761 16762 16763 16764 16765 16766 16767 16768 16769 16770 16771 16772 16773 16774 16775 16776 16777 16778 16779 16780 16781 16782 16783 16784 16785 16786 16787 16788 16789 16790 16791 16792 16793 16794 16795 16796 16797 16798 16799 16800 16801 16802 16803 16804 16805 16806 16807 16808 16809 16810 16811 16812 16813 16814 16815 16816 16817 16818 16819 16820 16821 16822 16823 16824 16825 16826 16827 16828 16829 16830 16831 16832 16833 16834 16835 16836 16837 16838 16839 16840 16841 16842 16843 16844 16845 16846 16847 16848 16849 16850 16851 16852 16853 16854 16855 16856 16857 16858 16859 16860 16861 16862 16863 16864 16865 16866 16867 16868 16869 16870 16871 16872 16873 16874 16875 16876 16877 16878 16879 16880 16881 16882 16883 16884 16885 16886 16887 16888 16889 16890 16891 16892 16893 16894 16895 16896 16897 16898 16899 16900 16901 16902 16903 16904 16905 16906 16907 16908 16909 16910 16911 16912 16913 16914 16915 16916 16917 16918 16919 16920 16921 16922 16923 16924 16925 16926 16927 16928 16929 16930 16931 16932 16933 16934 16935 16936 16937 16938 16939 16940 16941 16942 16943 16944 16945 16946 16947 16948 16949 16950 16951 16952 16953 16954 16955 16956 16957 16958 16959 16960 16961 16962 16963 16964 16965 16966 16967 16968 16969 16970 16971 16972 16973 16974 16975 16976 16977 16978 16979 16980 16981 16982 16983 16984 16985 16986 16987 16988 16989 16990 16991 16992 16993 16994 16995 16996 16997 16998 16999 17000 17001 17002 17003 17004 17005 17006 17007 17008 17009 17010 17011 17012 17013 17014 17015 17016 17017 17018 17019 17020 17021 17022 17023 17024 17025 17026 17027 17028 17029 17030 17031 17032 17033 17034 17035 17036 17037 17038 17039 17040 17041 17042 17043 17044 17045 17046 17047 17048 17049 17050 17051 17052 17053 17054 17055 17056 17057 17058 17059 17060 17061 17062 17063 17064 17065 17066 17067 17068 17069 17070 17071 17072 17073 17074 17075 17076 17077 17078 17079 17080 17081 17082 17083 17084 17085 17086 17087 17088 17089 17090 17091 17092 17093 17094 17095 17096 17097 17098 17099 17100 17101 17102 17103 17104 17105 17106 17107 17108 17109 17110 17111 17112 17113 17114 17115 17116 17117 17118 17119 17120 17121 17122 17123 17124 17125 17126 17127 17128 17129 17130 17131 17132 17133 17134 17135 17136 17137 17138 17139 17140 17141 17142 17143 17144 17145 17146 17147 17148 17149 17150 17151 17152 17153 17154 17155 17156 17157 17158 17159 17160 17161 17162 17163 17164 17165 17166 17167 17168 17169 17170 17171 17172 17173 17174 17175 17176 17177 17178 17179 17180 17181 17182 17183 17184 17185 17186 17187 17188 17189 17190 17191 17192 17193 17194 17195 17196 17197 17198 17199 17200 17201 17202 17203 17204 17205 17206 17207 17208 17209 17210 17211 17212 17213 17214 17215 17216 17217 17218 17219 17220 17221 17222 17223 17224 17225 17226 17227 17228 17229 17230 17231 17232 17233 17234 17235 17236 17237 17238 17239 17240 17241 17242 17243 17244 17245 17246 17247 17248 17249 17250 17251 17252 17253 17254 17255 17256 17257 17258 17259 17260 17261 17262 17263 17264 17265 17266 17267 17268 17269 17270 17271 17272 17273 17274 17275 17276 17277 17278 17279 17280 17281 17282 17283 17284 17285 17286 17287 17288 17289 17290 17291 17292 17293 17294 17295 17296 17297 17298 17299 17300 17301 17302 17303 17304 17305 17306 17307 17308 17309 17310 17311 17312 17313 17314 17315 17316 17317 17318 17319 17320 17321 17322 17323 17324 17325 17326 17327 17328 17329 17330 17331 17332 17333 17334 17335 17336 17337 17338 17339 17340 17341 17342 17343 17344 17345 17346 17347 17348 17349 17350 17351 17352 17353 17354 17355 17356 17357 17358 17359 17360 17361 17362 17363 17364 17365 17366 17367 17368 17369 17370 17371 17372 17373 17374 17375 17376 17377 17378 17379 17380 17381 17382 17383 17384 17385 17386 17387 17388 17389 17390 17391 17392 17393 17394 17395 17396 17397 17398 17399 17400 17401 17402 17403 17404 17405 17406 17407 17408 17409 17410 17411 17412 17413 17414 17415 17416 17417 17418 17419 17420 17421 17422 17423 17424 17425 17426 17427 17428 17429 17430 17431 17432 17433 17434 17435 17436 17437 17438 17439 17440 17441 17442 17443 17444 17445 17446 17447 17448 17449 17450 17451 17452 17453 17454 17455 17456 17457 17458 17459 17460 17461 17462 17463 17464 17465 17466 17467 17468 17469 17470 17471 17472 17473 17474 17475 17476 17477 17478 17479 17480 17481 17482 17483 17484 17485 17486 17487 17488 17489 17490 17491 17492 17493 17494 17495 17496 17497 17498 17499 17500 17501 17502 17503 17504 17505 17506 17507 17508 17509 17510 17511 17512 17513 17514 17515 17516 17517 17518 17519 17520 17521 17522 17523 17524 17525 17526 17527 17528 17529 17530 17531 17532 17533 17534 17535 17536 17537 17538 17539 17540 17541 17542 17543 17544 17545 17546 17547 17548 17549 17550 17551 17552 17553 17554 17555 17556 17557 17558 17559 17560 17561 17562 17563 17564 17565 17566 17567 17568 17569 17570 17571 17572 17573 17574 17575 17576 17577 17578 17579 17580 17581 17582 17583 17584 17585 17586 17587 17588 17589 17590 17591 17592 17593 17594 17595 17596 17597 17598 17599 17600 17601 17602 17603 17604 17605 17606 17607 17608 17609 17610 17611 17612 17613 17614 17615 17616 17617 17618 17619 17620 17621 17622 17623 17624 17625 17626 17627 17628 17629 17630 17631 17632 17633 17634 17635 17636 17637 17638 17639 17640 17641 17642 17643 17644 17645 17646 17647 17648 17649 17650 17651 17652 17653 17654 17655 17656 17657 17658 17659 17660 17661 17662 17663 17664 17665 17666 17667 17668 17669 17670 17671 17672 17673 17674 17675 17676 17677 17678 17679 17680 17681 17682 17683 17684 17685 17686 17687 17688 17689 17690 17691 17692 17693 17694 17695 17696 17697 17698 17699 17700 17701 17702 17703 17704 17705 17706 17707 17708 17709 17710 17711 17712 17713 17714 17715 17716 17717 17718 17719 17720 17721 17722 17723 17724 17725 17726 17727 17728 17729 17730 17731 17732 17733 17734 17735 17736 17737 17738 17739 17740 17741 17742 17743 17744 17745 17746 17747 17748 17749 17750 17751 17752 17753 17754 17755 17756 17757 17758 17759 17760 17761 17762 17763 17764 17765 17766 17767 17768 17769 17770 17771 17772 17773 17774 17775 17776 17777 17778 17779 17780 17781 17782 17783 17784 17785 17786 17787 17788 17789 17790 17791 17792 17793 17794 17795 17796 17797 17798 17799 17800 17801 17802 17803 17804 17805 17806 17807 17808 17809 17810 17811 17812 17813 17814 17815 17816 17817 17818 17819 17820 17821 17822 17823 17824 17825 17826 17827 17828 17829 17830 17831 17832 17833 17834 17835 17836 17837 17838 17839 17840 17841 17842 17843 17844 17845 17846 17847 17848 17849 17850 17851 17852 17853 17854 17855 17856 17857 17858 17859 17860 17861 17862 17863 17864 17865 17866 17867 17868 17869 17870 17871 17872 17873 17874 17875 17876 17877 17878 17879 17880 17881 17882 17883 17884 17885 17886 17887 17888 17889 17890 17891 17892 17893 17894 17895 17896 17897 17898 17899 17900 17901 17902 17903 17904 17905 17906 17907 17908 17909 17910 17911 17912 17913 17914 17915 17916 17917 17918 17919 17920 17921 17922 17923 17924 17925 17926 17927 17928 17929 17930 17931 17932 17933 17934 17935 17936 17937 17938 17939 17940 17941 17942 17943 17944 17945 17946 17947 17948 17949 17950 17951 17952 17953 17954 17955 17956 17957 17958 17959 17960 17961 17962 17963 17964 17965 17966 17967 17968 17969 17970 17971 17972 17973 17974 17975 17976 17977 17978 17979 17980 17981 17982 17983 17984 17985 17986 17987 17988 17989 17990 17991 17992 17993 17994 17995 17996 17997 17998 17999 18000 18001 18002 18003 18004 18005 18006 18007 18008 18009 18010 18011 18012 18013 18014 18015 18016 18017 18018 18019 18020 18021 18022 18023 18024 18025 18026 18027 18028 18029 18030 18031 18032 18033 18034 18035 18036 18037 18038 18039 18040 18041 18042 18043 18044 18045 18046 18047 18048 18049 18050 18051 18052 18053 18054 18055 18056 18057 18058 18059 18060 18061 18062 18063 18064 18065 18066 18067 18068 18069 18070 18071 18072 18073 18074 18075 18076 18077 18078 18079 18080 18081 18082 18083 18084 18085 18086 18087 18088 18089 18090 18091 18092 18093 18094 18095 18096 18097 18098 18099 18100 18101 18102 18103 18104 18105 18106 18107 18108 18109 18110 18111 18112 18113 18114 18115 18116 18117 18118 18119 18120 18121 18122 18123 18124 18125 18126 18127 18128 18129 18130 18131 18132 18133 18134 18135 18136 18137 18138 18139 18140 18141 18142 18143 18144 18145 18146 18147 18148 18149 18150 18151 18152 18153 18154 18155 18156 18157 18158 18159 18160 18161 18162 18163 18164 18165 18166 18167 18168 18169 18170 18171 18172 18173 18174 18175 18176 18177 18178 18179 18180 18181 18182 18183 18184 18185 18186 18187 18188 18189 18190 18191 18192 18193 18194 18195 18196 18197 18198 18199 18200 18201 18202 18203 18204 18205 18206 18207 18208 18209 18210 18211 18212 18213 18214 18215 18216 18217 18218 18219 18220 18221 18222 18223 18224 18225 18226 18227 18228 18229 18230 18231 18232 18233 18234 18235 18236 18237 18238 18239 18240 18241 18242 18243 18244 18245 18246 18247 18248 18249 18250 18251 18252 18253 18254 18255 18256 18257 18258 18259 18260 18261 18262 18263 18264 18265 18266 18267 18268 18269 18270 18271 18272 18273 18274 18275 18276 18277 18278 18279 18280 18281 18282 18283 18284 18285 18286 18287 18288 18289 18290 18291 18292 18293 18294 18295 18296 18297 18298 18299 18300 18301 18302 18303 18304 18305 18306 18307 18308 18309 18310 18311 18312 18313 18314 18315 18316 18317 18318 18319 18320 18321 18322 18323 18324 18325 18326 18327 18328 18329 18330 18331 18332 18333 18334 18335 18336 18337 18338 18339 18340 18341 18342 18343 18344 18345 18346 18347 18348 18349 18350 18351 18352 18353 18354 18355 18356 18357 18358 18359 18360 18361 18362 18363 18364 18365 18366 18367 18368 18369 18370 18371 18372 18373 18374 18375 18376 18377 18378 18379 18380 18381 18382 18383 18384 18385 18386 18387 18388 18389 18390 18391 18392 18393 18394 18395 18396 18397 18398 18399 18400 18401 18402 18403 18404 18405 18406 18407 18408 18409 18410 18411 18412 18413 18414 18415 18416 18417 18418 18419 18420 18421 18422 18423 18424 18425 18426 18427 18428 18429 18430 18431 18432 18433 18434 18435 18436 18437 18438 18439 18440 18441 18442 18443 18444 18445 18446 18447 18448 18449 18450 18451 18452 18453 18454 18455 18456 18457 18458 18459 18460 18461 18462 18463 18464 18465 18466 18467 18468 18469 18470 18471 18472 18473 18474 18475 18476 18477 18478 18479 18480 18481 18482 18483 18484 18485 18486 18487 18488 18489 18490 18491 18492 18493 18494 18495 18496 18497 18498 18499 18500 18501 18502 18503 18504 18505 18506 18507 18508 18509 18510 18511 18512 18513 18514 18515 18516 18517 18518 18519 18520 18521 18522 18523 18524 18525 18526 18527 18528 18529 18530 18531 18532 18533 18534 18535 18536 18537 18538 18539 18540 18541 18542 18543 18544 18545 18546 18547 18548 18549 18550 18551 18552 18553 18554 18555 18556 18557 18558 18559 18560 18561 18562 18563 18564 18565 18566 18567 18568 18569 18570 18571 18572 18573 18574 18575 18576 18577 18578 18579 18580 18581 18582 18583 18584 18585 18586 18587 18588 18589 18590 18591 18592 18593 18594 18595 18596 18597 18598 18599 18600 18601 18602 18603 18604 18605 18606 18607 18608 18609 18610 18611 18612 18613 18614 18615 18616 18617 18618 18619 18620 18621 18622 18623 18624 18625 18626 18627 18628 18629 18630 18631 18632 18633 18634 18635 18636 18637 18638 18639 18640 18641 18642 18643 18644 18645 18646 18647 18648 18649 18650 18651 18652 18653 18654 18655 18656 18657 18658 18659 18660 18661 18662 18663 18664 18665 18666 18667 18668 18669 18670 18671 18672 18673 18674 18675 18676 18677 18678 18679 18680 18681 18682 18683 18684 18685 18686 18687 18688 18689 18690 18691 18692 18693 18694 18695 18696 18697 18698 18699 18700 18701 18702 18703 18704 18705 18706 18707 18708 18709 18710 18711 18712 18713 18714 18715 18716 18717 18718 18719 18720 18721 18722 18723 18724 18725 18726 18727 18728 18729 18730 18731 18732 18733 18734 18735 18736 18737 18738 18739 18740 18741 18742 18743 18744 18745 18746 18747 18748 18749 18750 18751 18752 18753 18754 18755 18756 18757 18758 18759 18760 18761 18762 18763 18764 18765 18766 18767 18768 18769 18770 18771 18772 18773 18774 18775 18776 18777 18778 18779 18780 18781 18782 18783 18784 18785 18786 18787 18788 18789 18790 18791 18792 18793 18794 18795 18796 18797 18798 18799 18800 18801 18802 18803 18804 18805 18806 18807 18808 18809 18810 18811 18812 18813 18814 18815 18816 18817 18818 18819 18820 18821 18822 18823 18824 18825 18826 18827 18828 18829 18830 18831 18832 18833 18834 18835 18836 18837 18838 18839 18840 18841 18842 18843 18844 18845 18846 18847 18848 18849 18850 18851 18852 18853 18854 18855 18856 18857 18858 18859 18860 18861 18862 18863 18864 18865 18866 18867 18868 18869 18870 18871 18872 18873 18874 18875 18876 18877 18878 18879 18880 18881 18882 18883 18884 18885 18886 18887 18888 18889 18890 18891 18892 18893 18894 18895 18896 18897 18898 18899 18900 18901 18902 18903 18904 18905 18906 18907 18908 18909 18910 18911 18912 18913 18914 18915 18916 18917 18918 18919 18920 18921 18922 18923 18924 18925 18926 18927 18928 18929 18930 18931 18932 18933 18934 18935 18936 18937 18938 18939 18940 18941 18942 18943 18944 18945 18946 18947 18948 18949 18950 18951 18952 18953 18954 18955 18956 18957 18958 18959 18960 18961 18962 18963 18964 18965 18966 18967 18968 18969 18970 18971 18972 18973 18974 18975 18976 18977 18978 18979 18980 18981 18982 18983 18984 18985 18986 18987 18988 18989 18990 18991 18992 18993 18994 18995 18996 18997 18998 18999 19000 19001 19002 19003 19004 19005 19006 19007 19008 19009 19010 19011 19012 19013 19014 19015 19016 19017 19018 19019 19020 19021 19022 19023 19024 19025 19026 19027 19028 19029 19030 19031 19032 19033 19034 19035 19036 19037 19038 19039 19040 19041 19042 19043 19044 19045 19046 19047 19048 19049 19050 19051 19052 19053 19054 19055 19056 19057 19058 19059 19060 19061 19062 19063 19064 19065 19066 19067 19068 19069 19070 19071 19072 19073 19074 19075 19076 19077 19078 19079 19080 19081 19082 19083 19084 19085 19086 19087 19088 19089 19090 19091 19092 19093 19094 19095 19096 19097 19098 19099 19100 19101 19102 19103 19104 19105 19106 19107 19108 19109 19110 19111 19112 19113 19114 19115 19116 19117 19118 19119 19120 19121 19122 19123 19124 19125 19126 19127 19128 19129 19130 19131 19132 19133 19134 19135 19136 19137 19138 19139 19140 19141 19142 19143 19144 19145 19146 19147 19148 19149 19150 19151 19152 19153 19154 19155 19156 19157 19158 19159 19160 19161 19162 19163 19164 19165 19166 19167 19168 19169 19170 19171 19172 19173 19174 19175 19176 19177 19178 19179 19180 19181 19182 19183 19184 19185 19186 19187 19188 19189 19190 19191 19192 19193 19194 19195 19196 19197 19198 19199 19200 19201 19202 19203 19204 19205 19206 19207 19208 19209 19210 19211 19212 19213 19214 19215 19216 19217 19218 19219 19220 19221 19222 19223 19224 19225 19226 19227 19228 19229 19230 19231 19232 19233 19234 19235 19236 19237 19238 19239 19240 19241 19242 19243 19244 19245 19246 19247 19248 19249 19250 19251 19252 19253 19254 19255 19256 19257 19258 19259 19260 19261 19262 19263 19264 19265 19266 19267 19268 19269 19270 19271 19272 19273 19274 19275 19276 19277 19278 19279 19280 19281 19282 19283 19284 19285 19286 19287 19288 19289 19290 19291 19292 19293 19294 19295 19296 19297 19298 19299 19300 19301 19302 19303 19304 19305 19306 19307 19308 19309 19310 19311 19312 19313 19314 19315 19316 19317 19318 19319 19320 19321 19322 19323 19324 19325 19326 19327 19328 19329 19330 19331 19332 19333 19334 19335 19336 19337 19338 19339 19340 19341 19342 19343 19344 19345 19346 19347 19348 19349 19350 19351 19352 19353 19354 19355 19356 19357 19358 19359 19360 19361 19362 19363 19364 19365 19366 19367 19368 19369 19370 19371 19372 19373 19374 19375 19376 19377 19378 19379 19380 19381 19382 19383 19384 19385 19386 19387 19388 19389 19390 19391 19392 19393 19394 19395 19396 19397 19398 19399 19400 19401 19402 19403 19404 19405 19406 19407 19408 19409 19410 19411 19412 19413 19414 19415 19416 19417 19418 19419 19420 19421 19422 19423 19424 19425 19426 19427 19428 19429 19430 19431 19432 19433 19434 19435 19436 19437 19438 19439 19440 19441 19442 19443 19444 19445 19446 19447 19448 19449 19450 19451 19452 19453 19454 19455 19456 19457 19458 19459 19460 19461 19462 19463 19464 19465 19466 19467 19468 19469 19470 19471 19472 19473 19474 19475 19476 19477 19478 19479 19480 19481 19482 19483 19484 19485 19486 19487 19488 19489 19490 19491 19492 19493 19494 19495 19496 19497 19498 19499 19500 19501 19502 19503 19504 19505 19506 19507 19508 19509 19510 19511 19512 19513 19514 19515 19516 19517 19518 19519 19520 19521 19522 19523 19524 19525 19526 19527 19528 19529 19530 19531 19532 19533 19534 19535 19536 19537 19538 19539 19540 19541 19542 19543 19544 19545 19546 19547 19548 19549 19550 19551 19552 19553 19554 19555 19556 19557 19558 19559 19560 19561 19562 19563 19564 19565 19566 19567 19568 19569 19570 19571 19572 19573 19574 19575 19576 19577 19578 19579 19580 19581 19582 19583 19584 19585 19586 19587 19588 19589 19590 19591 19592 19593 19594 19595 19596 19597 19598 19599 19600 19601 19602 19603 19604 19605 19606 19607 19608 19609 19610 19611 19612 19613 19614 19615 19616 19617 19618 19619 19620 19621 19622 19623 19624 19625 19626 19627 19628 19629 19630 19631 19632 19633 19634 19635 19636 19637 19638 19639 19640 19641 19642 19643 19644 19645 19646 19647 19648 19649 19650 19651 19652 19653 19654 19655 19656 19657 19658 19659 19660 19661 19662 19663 19664 19665 19666 19667 19668 19669 19670 19671 19672 19673 19674 19675 19676 19677 19678 19679 19680 19681 19682 19683 19684 19685 19686 19687 19688 19689 19690 19691 19692 19693 19694 19695 19696 19697 19698 19699 19700 19701 19702 19703 19704 19705 19706 19707 19708 19709 19710 19711 19712 19713 19714 19715 19716 19717 19718 19719 19720 19721 19722 19723 19724 19725 19726 19727 19728 19729 19730 19731 19732 19733 19734 19735 19736 19737 19738 19739 19740 19741 19742 19743 19744 19745 19746 19747 19748 19749 19750 19751 19752 19753 19754 19755 19756 19757 19758 19759 19760 19761 19762 19763 19764 19765 19766 19767 19768 19769 19770 19771 19772 19773 19774 19775 19776 19777 19778 19779 19780 19781 19782 19783 19784 19785 19786 19787 19788 19789 19790 19791 19792 19793 19794 19795 19796 19797 19798 19799 19800 19801 19802 19803 19804 19805 19806 19807 19808 19809 19810 19811 19812 19813 19814 19815 19816 19817 19818 19819 19820 19821 19822 19823 19824 19825 19826 19827 19828 19829 19830 19831 19832 19833 19834 19835 19836 19837 19838 19839 19840 19841 19842 19843 19844 19845 19846 19847 19848 19849 19850 19851 19852 19853 19854 19855 19856 19857 19858 19859 19860 19861 19862 19863 19864 19865 19866 19867 19868 19869 19870 19871 19872 19873 19874 19875 19876 19877 19878 19879 19880 19881 19882 19883 19884 19885 19886 19887 19888 19889 19890 19891 19892 19893 19894 19895 19896 19897 19898 19899 19900 19901 19902 19903 19904 19905 19906 19907 19908 19909 19910 19911 19912 19913 19914 19915 19916 19917 19918 19919 19920 19921 19922 19923 19924 19925 19926 19927 19928 19929 19930 19931 19932 19933 19934 19935 19936 19937 19938 19939 19940 19941 19942 19943 19944 19945 19946 19947 19948 19949 19950 19951 19952 19953 19954 19955 19956 19957 19958 19959 19960 19961 19962 19963 19964 19965 19966 19967 19968 19969 19970 19971 19972 19973 19974 19975 19976 19977 19978 19979 19980 19981 19982 19983 19984 19985 19986 19987 19988 19989 19990 19991 19992 19993 19994 19995 19996 19997 19998 19999 20000 20001 20002 20003 20004 20005 20006 20007 20008 20009 20010 20011 20012 20013 20014 20015 20016 20017 20018 20019 20020 20021 20022 20023 20024 20025 20026 20027 20028 20029 20030 20031 20032 20033 20034 20035 20036 20037 20038 20039 20040 20041 20042 20043 20044 20045 20046 20047 20048 20049 20050 20051 20052 20053 20054 20055 20056 20057 20058 20059 20060 20061 20062 20063 20064 20065 20066 20067 20068 20069 20070 20071 20072 20073 20074 20075 20076 20077 20078 20079 20080 20081 20082 20083 20084 20085 20086 20087 20088 20089 20090 20091 20092 20093 20094 20095 20096 20097 20098 20099 20100 20101 20102 20103 20104 20105 20106 20107 20108 20109 20110 20111 20112 20113 20114 20115 20116 20117 20118 20119 20120 20121 20122 20123 20124 20125 20126 20127 20128 20129 20130 20131 20132 20133 20134 20135 20136 20137 20138 20139 20140 20141 20142 20143 20144 20145 20146 20147 20148 20149 20150 20151 20152 20153 20154 20155 20156 20157 20158 20159 20160 20161 20162 20163 20164 20165 20166 20167 20168 20169 20170 20171 20172 20173 20174 20175 20176 20177 20178 20179 20180 20181 20182 20183 20184 20185 20186 20187 20188 20189 20190 20191 20192 20193 20194 20195 20196 20197 20198 20199 20200 20201 20202 20203 20204 20205 20206 20207 20208 20209 20210 20211 20212 20213 20214 20215 20216 20217 20218 20219 20220 20221 20222 20223 20224 20225 20226 20227 20228 20229 20230 20231 20232 20233 20234 20235 20236 20237 20238 20239 20240 20241 20242 20243 20244 20245 20246 20247 20248 20249 20250 20251 20252 20253 20254 20255 20256 20257 20258 20259 20260 20261 20262 20263 20264 20265 20266 20267 20268 20269 20270 20271 20272 20273 20274 20275 20276 20277 20278 20279 20280 20281 20282 20283 20284 20285 20286 20287 20288 20289 20290 20291 20292 20293 20294 20295 20296 20297 20298 20299 20300 20301 20302 20303 20304 20305 20306 20307 20308 20309 20310 20311 20312 20313 20314 20315 20316 20317 20318 20319 20320 20321 20322 20323 20324 20325 20326 20327 20328 20329 20330 20331 20332 20333 20334 20335 20336 20337 20338 20339 20340 20341 20342 20343 20344 20345 20346 20347 20348 20349 20350 20351 20352 20353 20354 20355 20356 20357 20358 20359 20360 20361 20362 20363 20364 20365 20366 20367 20368 20369 20370 20371 20372 20373 20374 20375 20376 20377 20378 20379 20380 20381 20382 20383 20384 20385 20386 20387 20388 20389 20390 20391 20392 20393 20394 20395 20396 20397 20398 20399 20400 20401 20402 20403 20404 20405 20406 20407 20408 20409 20410 20411 20412 20413 20414 20415 20416 20417 20418 20419 20420 20421 20422 20423 20424 20425 20426 20427 20428 20429 20430 20431 20432 20433 20434 20435 20436 20437 20438 20439 20440 20441 20442 20443 20444 20445 20446 20447 20448 20449 20450 20451 20452 20453 20454 20455 20456 20457 20458 20459 20460 20461 20462 20463 20464 20465 20466 20467 20468 20469 20470 20471 20472 20473 20474 20475 20476 20477 20478 20479 20480 20481 20482 20483 20484 20485 20486 20487 20488 20489 20490 20491 20492 20493 20494 20495 20496 20497 20498 20499 20500 20501 20502 20503 20504 20505 20506 20507 20508 20509 20510 20511 20512 20513 20514 20515 20516 20517 20518 20519 20520 20521 20522 20523 20524 20525 20526 20527 20528 20529 20530 20531 20532 20533 20534 20535 20536 20537 20538 20539 20540 20541 20542 20543 20544 20545 20546 20547 20548 20549 20550 20551 20552 20553 20554 20555 20556 20557 20558 20559 20560 20561 20562 20563 20564 20565 20566 20567 20568 20569 20570 20571 20572 20573 20574 20575 20576 20577 20578 20579 20580 20581 20582 20583 20584 20585 20586 20587 20588 20589 20590 20591 20592 20593 20594 20595 20596 20597 20598 20599 20600 20601 20602 20603 20604 20605 20606 20607 20608 20609 20610 20611 20612 20613 20614 20615 20616 20617 20618 20619 20620 20621 20622 20623 20624 20625 20626 20627 20628 20629 20630 20631 20632 20633 20634 20635 20636 20637 20638 20639 20640 20641 20642 20643 20644 20645 20646 20647 20648 20649 20650 20651 20652 20653 20654 20655 20656 20657 20658 20659 20660 20661 20662 20663 20664 20665 20666 20667 20668 20669 20670 20671 20672 20673 20674 20675 20676 20677 20678 20679 20680 20681 20682 20683 20684 20685 20686 20687 20688 20689 20690 20691 20692 20693 20694 20695 20696 20697 20698 20699 20700 20701 20702 20703 20704 20705 20706 20707 20708 20709 20710 20711 20712 20713 20714 20715 20716 20717 20718 20719 20720 20721 20722 20723 20724 20725 20726 20727 20728 20729 20730 20731 20732 20733 20734 20735 20736 20737 20738 20739 20740 20741 20742 20743 20744 20745 20746 20747 20748 20749 20750 20751 20752 20753 20754 20755 20756 20757 20758 20759 20760 20761 20762 20763 20764 20765 20766 20767 20768 20769 20770 20771 20772 20773 20774 20775 20776 20777 20778 20779 20780 20781 20782 20783 20784 20785 20786 20787 20788 20789 20790 20791 20792 20793 20794 20795 20796 20797 20798 20799 20800 20801 20802 20803 20804 20805 20806 20807 20808 20809 20810 20811 20812 20813 20814 20815 20816 20817 20818 20819 20820 20821 20822 20823 20824 20825 20826 20827 20828 20829 20830 20831 20832 20833 20834 20835 20836 20837 20838 20839 20840 20841 20842 20843 20844 20845 20846 20847 20848 20849 20850 20851 20852 20853 20854 20855 20856 20857 20858 20859 20860 20861 20862 20863 20864 20865 20866 20867 20868 20869 20870 20871 20872 20873 20874 20875 20876 20877 20878 20879 20880 20881 20882 20883 20884 20885 20886 20887 20888 20889 20890 20891 20892 20893 20894 20895 20896 20897 20898 20899 20900 20901 20902 20903 20904 20905 20906 20907 20908 20909 20910 20911 20912 20913 20914 20915 20916 20917 20918 20919 20920 20921 20922 20923 20924 20925 20926 20927 20928 20929 20930 20931 20932 20933 20934 20935 20936 20937 20938 20939 20940 20941 20942 20943 20944 20945 20946 20947 20948 20949 20950 20951 20952 20953 20954 20955 20956 20957 20958 20959 20960 20961 20962 20963 20964 20965 20966 20967 20968 20969 20970 20971 20972 20973 20974 20975 20976 20977 20978 20979 20980 20981 20982 20983 20984 20985 20986 20987 20988 20989 20990 20991 20992 20993 20994 20995 20996 20997 20998 20999 21000 21001 21002 21003 21004 21005 21006 21007 21008 21009 21010 21011 21012 21013 21014 21015 21016 21017 21018 21019 21020 21021 21022 21023 21024 21025 21026 21027 21028 21029 21030 21031 21032 21033 21034 21035 21036 21037 21038 21039 21040 21041 21042 21043 21044 21045 21046 21047 21048 21049 21050 21051 21052 21053 21054 21055 21056 21057 21058 21059 21060 21061 21062 21063 21064 21065 21066 21067 21068 21069 21070 21071 21072 21073 21074 21075 21076 21077 21078 21079 21080 21081 21082 21083 21084 21085 21086 21087 21088 21089 21090 21091 21092 21093 21094 21095 21096 21097 21098 21099 21100 21101 21102 21103 21104 21105 21106 21107 21108 21109 21110 21111 21112 21113 21114 21115 21116 21117 21118 21119 21120 21121 21122 21123 21124 21125 21126 21127 21128 21129 21130 21131 21132 21133 21134 21135 21136 21137 21138 21139 21140 21141 21142 21143 21144 21145 21146 21147 21148 21149 21150 21151 21152 21153 21154 21155 21156 21157 21158 21159 21160 21161 21162 21163 21164 21165 21166 21167 21168 21169 21170 21171 21172 21173 21174 21175 21176 21177 21178 21179 21180 21181 21182 21183 21184 21185 21186 21187 21188 21189 21190 21191 21192 21193 21194 21195 21196 21197 21198 21199 21200 21201 21202 21203 21204 21205 21206 21207 21208 21209 21210 21211 21212 21213 21214 21215 21216 21217 21218 21219 21220 21221 21222 21223 21224 21225 21226 21227 21228 21229 21230 21231 21232 21233 21234 21235 21236 21237 21238 21239 21240 21241 21242 21243 21244 21245 21246 21247 21248 21249 21250 21251 21252 21253 21254 21255 21256 21257 21258 21259 21260 21261 21262 21263 21264 21265 21266 21267 21268 21269 21270 21271 21272 21273 21274 21275 21276 21277 21278 21279 21280 21281 21282 21283 21284 21285 21286 21287 21288 21289 21290 21291 21292 21293 21294 21295 21296 21297 21298 21299 21300 21301 21302 21303 21304 21305 21306 21307 21308 21309 21310 21311 21312 21313 21314 21315 21316 21317 21318 21319 21320 21321 21322 21323 21324 21325 21326 21327 21328 21329 21330 21331 21332 21333 21334 21335 21336 21337 21338 21339 21340 21341 21342 21343 21344 21345 21346 21347 21348 21349 21350 21351 21352 21353 21354 21355 21356 21357 21358 21359 21360 21361 21362 21363 21364 21365 21366 21367 21368 21369 21370 21371 21372 21373 21374 21375 21376 21377 21378 21379 21380 21381 21382 21383 21384 21385 21386 21387 21388 21389 21390 21391 21392 21393 21394 21395 21396 21397 21398 21399 21400 21401 21402 21403 21404 21405 21406 21407 21408 21409 21410 21411 21412 21413 21414 21415 21416 21417 21418 21419 21420 21421 21422 21423 21424 21425 21426 21427 21428 21429 21430 21431 21432 21433 21434 21435 21436 21437 21438 21439 21440 21441 21442 21443 21444 21445 21446 21447 21448 21449 21450 21451 21452 21453 21454 21455 21456 21457 21458 21459 21460 21461 21462 21463 21464 21465 21466 21467 21468 21469 21470 21471 21472 21473 21474 21475 21476 21477 21478 21479 21480 21481 21482 21483 21484 21485 21486 21487 21488 21489 21490 21491 21492 21493 21494 21495 21496 21497 21498 21499 21500 21501 21502 21503 21504 21505 21506 21507 21508 21509 21510 21511 21512 21513 21514 21515 21516 21517 21518 21519 21520 21521 21522 21523 21524 21525 21526 21527 21528 21529 21530 21531 21532 21533 21534 21535 21536 21537 21538 21539 21540 21541 21542 21543 21544 21545 21546 21547 21548 21549 21550 21551 21552 21553 21554 21555 21556 21557 21558 21559 21560 21561 21562 21563 21564 21565 21566 21567 21568 21569 21570 21571 21572 21573 21574 21575 21576 21577 21578 21579 21580 21581 21582 21583 21584 21585 21586 21587 21588 21589 21590 21591 21592 21593 21594 21595 21596 21597 21598 21599 21600 21601 21602 21603 21604 21605 21606 21607 21608 21609 21610 21611 21612 21613 21614 21615 21616 21617 21618 21619 21620 21621 21622 21623 21624 21625 21626 21627 21628 21629 21630 21631 21632 21633 21634 21635 21636 21637 21638 21639 21640 21641 21642 21643 21644 21645 21646 21647 21648 21649 21650 21651 21652 21653 21654 21655 21656 21657 21658 21659 21660 21661 21662 21663 21664 21665 21666 21667 21668 21669 21670 21671 21672 21673 21674 21675 21676 21677 21678 21679 21680 21681 21682 21683 21684 21685 21686 21687 21688 21689 21690 21691 21692 21693 21694 21695 21696 21697 21698 21699 21700 21701 21702 21703 21704 21705 21706 21707 21708 21709 21710 21711 21712 21713 21714 21715 21716 21717 21718 21719 21720 21721 21722 21723 21724 21725 21726 21727 21728 21729 21730 21731 21732 21733 21734 21735 21736 21737 21738 21739 21740 21741 21742 21743 21744 21745 21746 21747 21748 21749 21750 21751 21752 21753 21754 21755 21756 21757 21758 21759 21760 21761 21762 21763 21764 21765 21766 21767 21768 21769 21770 21771 21772 21773 21774 21775 21776 21777 21778 21779 21780 21781 21782 21783 21784 21785 21786 21787 21788 21789 21790 21791 21792 21793 21794 21795 21796 21797 21798 21799 21800 21801 21802 21803 21804 21805 21806 21807 21808 21809 21810 21811 21812 21813 21814 21815 21816 21817 21818 21819 21820 21821 21822 21823 21824 21825 21826 21827 21828 21829 21830 21831 21832 21833 21834 21835 21836 21837 21838 21839 21840 21841 21842 21843 21844 21845 21846 21847 21848 21849 21850 21851 21852 21853 21854 21855 21856 21857 21858 21859 21860 21861 21862 21863 21864 21865 21866 21867 21868 21869 21870 21871 21872 21873 21874 21875 21876 21877 21878 21879 21880 21881 21882 21883 21884 21885 21886 21887 21888 21889 21890 21891 21892 21893 21894 21895 21896 21897 21898 21899 21900 21901 21902 21903 21904 21905 21906 21907 21908 21909 21910 21911 21912 21913 21914 21915 21916 21917 21918 21919 21920 21921 21922 21923 21924 21925 21926 21927 21928 21929 21930 21931 21932 21933 21934 21935 21936 21937 21938 21939 21940 21941 21942 21943 21944 21945 21946 21947 21948 21949 21950 21951 21952 21953 21954 21955 21956 21957 21958 21959 21960 21961 21962 21963 21964 21965 21966 21967 21968 21969 21970 21971 21972 21973 21974 21975 21976 21977 21978 21979 21980 21981 21982 21983 21984 21985 21986 21987 21988 21989 21990 21991 21992 21993 21994 21995 21996 21997 21998 21999 22000 22001 22002 22003 22004 22005 22006 22007 22008 22009 22010 22011 22012 22013 22014 22015 22016 22017 22018 22019 22020 22021 22022 22023 22024 22025 22026 22027 22028 22029 22030 22031 22032 22033 22034 22035 22036 22037 22038 22039 22040 22041 22042 22043 22044 22045 22046 22047 22048 22049 22050 22051 22052 22053 22054 22055 22056 22057 22058 22059 22060 22061 22062 22063 22064 22065 22066 22067 22068 22069 22070 22071 22072 22073 22074 22075 22076 22077 22078 22079 22080 22081 22082 22083 22084 22085 22086 22087 22088 22089 22090 22091 22092 22093 22094 22095 22096 22097 22098 22099 22100 22101 22102 22103 22104 22105 22106 22107 22108 22109 22110 22111 22112 22113 22114 22115 22116 22117 22118 22119 22120 22121 22122 22123 22124 22125 22126 22127 22128 22129 22130 22131 22132 22133 22134 22135 22136 22137 22138 22139 22140 22141 22142 22143 22144 22145 22146 22147 22148 22149 22150 22151 22152 22153 22154 22155 22156 22157 22158 22159 22160 22161 22162 22163 22164 22165 22166 22167 22168 22169 22170 22171 22172 22173 22174 22175 22176 22177 22178 22179 22180 22181 22182 22183 22184 22185 22186 22187 22188 22189 22190 22191 22192 22193 22194 22195 22196 22197 22198 22199 22200 22201 22202 22203 22204 22205 22206 22207 22208 22209 22210 22211 22212 22213 22214 22215 22216 22217 22218 22219 22220 22221 22222 22223 22224 22225 22226 22227 22228 22229 22230 22231 22232 22233 22234 22235 22236 22237 22238 22239 22240 22241 22242 22243 22244 22245 22246 22247 22248 22249 22250 22251 22252 22253 22254 22255 22256 22257 22258 22259 22260 22261 22262 22263 22264 22265 22266 22267 22268 22269 22270 22271 22272 22273 22274 22275 22276 22277 22278 22279 22280 22281 22282 22283 22284 22285 22286 22287 22288 22289 22290 22291 22292 22293 22294 22295 22296 22297 22298 22299 22300 22301 22302 22303 22304 22305 22306 22307 22308 22309 22310 22311 22312 22313 22314 22315 22316 22317 22318 22319 22320 22321 22322 22323 22324 22325 22326 22327 22328 22329 22330 22331 22332 22333 22334 22335 22336 22337 22338 22339 22340 22341 22342 22343 22344 22345 22346 22347 22348 22349 22350 22351 22352 22353 22354 22355 22356 22357 22358 22359 22360 22361 22362 22363 22364 22365 22366 22367 22368 22369 22370 22371 22372 22373 22374 22375 22376 22377 22378 22379 22380 22381 22382 22383 22384 22385 22386 22387 22388 22389 22390 22391 22392 22393 22394 22395 22396 22397 22398 22399 22400 22401 22402 22403 22404 22405 22406 22407 22408 22409 22410 22411 22412 22413 22414 22415 22416 22417 22418 22419 22420 22421 22422 22423 22424 22425 22426 22427 22428 22429 22430 22431 22432 22433 22434 22435 22436 22437 22438 22439 22440 22441 22442 22443 22444 22445 22446 22447 22448 22449 22450 22451 22452 22453 22454 22455 22456 22457 22458 22459 22460 22461 22462 22463 22464 22465 22466 22467 22468 22469 22470 22471 22472 22473 22474 22475 22476 22477 22478 22479 22480 22481 22482 22483 22484 22485 22486 22487 22488 22489 22490 22491 22492 22493 22494 22495 22496 22497 22498 22499 22500 22501 22502 22503 22504 22505 22506 22507 22508 22509 22510 22511 22512 22513 22514 22515 22516 22517 22518 22519 22520 22521 22522 22523 22524 22525 22526 22527 22528 22529 22530 22531 22532 22533 22534 22535 22536 22537 22538 22539 22540 22541 22542 22543 22544 22545 22546 22547 22548 22549 22550 22551 22552 22553 22554 22555 22556 22557 22558 22559 22560 22561 22562 22563 22564 22565 22566 22567 22568 22569 22570 22571 22572 22573 22574 22575 22576 22577 22578 22579 22580 22581 22582 22583 22584 22585 22586 22587 22588 22589 22590 22591 22592 22593 22594 22595 22596 22597 22598 22599 22600 22601 22602 22603 22604 22605 22606 22607 22608 22609 22610 22611 22612 22613 22614 22615 22616 22617 22618 22619 22620 22621 22622 22623 22624 22625 22626 22627 22628 22629 22630 22631 22632 22633 22634 22635 22636 22637 22638 22639 22640 22641 22642 22643 22644 22645 22646 22647 22648 22649 22650 22651 22652 22653 22654 22655 22656 22657 22658 22659 22660 22661 22662 22663 22664 22665 22666 22667 22668 22669 22670 22671 22672 22673 22674 22675 22676 22677 22678 22679 22680 22681 22682 22683 22684 22685 22686 22687 22688 22689 22690 22691 22692 22693 22694 22695 22696 22697 22698 22699 22700 22701 22702 22703 22704 22705 22706 22707 22708 22709 22710 22711 22712 22713 22714 22715 22716 22717 22718 22719 22720 22721 22722 22723 22724 22725 22726 22727 22728 22729 22730 22731 22732 22733 22734 22735 22736 22737 22738 22739 22740 22741 22742 22743 22744 22745 22746 22747 22748 22749 22750 22751 22752 22753 22754 22755 22756 22757 22758 22759 22760 22761 22762 22763 22764 22765 22766 22767 22768 22769 22770 22771 22772 22773 22774 22775 22776 22777 22778 22779 22780 22781 22782 22783 22784 22785 22786 22787 22788 22789 22790 22791 22792 22793 22794 22795 22796 22797 22798 22799 22800 22801 22802 22803 22804 22805 22806 22807 22808 22809 22810 22811 22812 22813 22814 22815 22816 22817 22818 22819 22820 22821 22822 22823 22824 22825 22826 22827 22828 22829 22830 22831 22832 22833 22834 22835 22836 22837 22838 22839 22840 22841 22842 22843 22844 22845 22846 22847 22848 22849 22850 22851 22852 22853 22854 22855 22856 22857 22858 22859 22860 22861 22862 22863 22864 22865 22866 22867 22868 22869 22870 22871 22872 22873 22874 22875 22876 22877 22878 22879 22880 22881 22882 22883 22884 22885 22886 22887 22888 22889 22890 22891 22892 22893 22894 22895 22896 22897 22898 22899 22900 22901 22902 22903 22904 22905 22906 22907 22908 22909 22910 22911 22912 22913 22914 22915 22916 22917 22918 22919 22920 22921 22922 22923 22924 22925 22926 22927 22928 22929 22930 22931 22932 22933 22934 22935 22936 22937 22938 22939 22940 22941 22942 22943 22944 22945 22946 22947 22948 22949 22950 22951 22952 22953 22954 22955 22956 22957 22958 22959 22960 22961 22962 22963 22964 22965 22966 22967 22968 22969 22970 22971 22972 22973 22974 22975 22976 22977 22978 22979 22980 22981 22982 22983 22984 22985 22986 22987 22988 22989 22990 22991 22992 22993 22994 22995 22996 22997 22998 22999 23000 23001 23002 23003 23004 23005 23006 23007 23008 23009 23010 23011 23012 23013 23014 23015 23016 23017 23018 23019 23020 23021 23022 23023 23024 23025 23026 23027 23028 23029 23030 23031 23032 23033 23034 23035 23036 23037 23038 23039 23040 23041 23042 23043 23044 23045 23046 23047 23048 23049 23050 23051 23052 23053 23054 23055 23056 23057 23058 23059 23060 23061 23062 23063 23064 23065 23066 23067 23068 23069 23070 23071 23072 23073 23074 23075 23076 23077 23078 23079 23080 23081 23082 23083 23084 23085 23086 23087 23088 23089 23090 23091 23092 23093 23094 23095 23096 23097 23098 23099 23100 23101 23102 23103 23104 23105 23106 23107 23108 23109 23110 23111 23112 23113 23114 23115 23116 23117 23118 23119 23120 23121 23122 23123 23124 23125 23126 23127 23128 23129 23130 23131 23132 23133 23134 23135 23136 23137 23138 23139 23140 23141 23142 23143 23144 23145 23146 23147 23148 23149 23150 23151 23152 23153 23154 23155 23156 23157 23158 23159 23160 23161 23162 23163 23164 23165 23166 23167 23168 23169 23170 23171 23172 23173 23174 23175 23176 23177 23178 23179 23180 23181 23182 23183 23184 23185 23186 23187 23188 23189 23190 23191 23192 23193 23194 23195 23196 23197 23198 23199 23200 23201 23202 23203 23204 23205 23206 23207 23208 23209 23210 23211 23212 23213 23214 23215 23216 23217 23218 23219 23220 23221 23222 23223 23224 23225 23226 23227 23228 23229 23230 23231 23232 23233 23234 23235 23236 23237 23238 23239 23240 23241 23242 23243 23244 23245 23246 23247 23248 23249 23250 23251 23252 23253 23254 23255 23256 23257 23258 23259 23260 23261 23262 23263 23264 23265 23266 23267 23268 23269 23270 23271 23272 23273 23274 23275 23276 23277 23278 23279 23280 23281 23282 23283 23284 23285 23286 23287 23288 23289 23290 23291 23292 23293 23294 23295 23296 23297 23298 23299 23300 23301 23302 23303 23304 23305 23306 23307 23308 23309 23310 23311 23312 23313 23314 23315 23316 23317 23318 23319 23320 23321 23322 23323 23324 23325 23326 23327 23328 23329 23330 23331 23332 23333 23334 23335 23336 23337 23338 23339 23340 23341 23342 23343 23344 23345 23346 23347 23348 23349 23350 23351 23352 23353 23354 23355 23356 23357 23358 23359 23360 23361 23362 23363 23364 23365 23366 23367 23368 23369 23370 23371 23372 23373 23374 23375 23376 23377 23378 23379 23380 23381 23382 23383 23384 23385 23386 23387 23388 23389 23390 23391 23392 23393 23394 23395 23396 23397 23398 23399 23400 23401 23402 23403 23404 23405 23406 23407 23408 23409 23410 23411 23412 23413 23414 23415 23416 23417 23418 23419 23420 23421 23422 23423 23424 23425 23426 23427 23428 23429 23430 23431 23432 23433 23434 23435 23436 23437 23438 23439 23440 23441 23442 23443 23444 23445 23446 23447 23448 23449 23450 23451 23452 23453 23454 23455 23456 23457 23458 23459 23460 23461 23462 23463 23464 23465 23466 23467 23468 23469 23470 23471 23472 23473 23474 23475 23476 23477 23478 23479 23480 23481 23482 23483 23484 23485 23486 23487 23488 23489 23490 23491 23492 23493 23494 23495 23496 23497 23498 23499 23500 23501 23502 23503 23504 23505 23506 23507 23508 23509 23510 23511 23512 23513 23514 23515 23516 23517 23518 23519 23520 23521 23522 23523 23524 23525 23526 23527 23528 23529 23530 23531 23532 23533 23534 23535 23536 23537 23538 23539 23540 23541 23542 23543 23544 23545 23546 23547 23548 23549 23550 23551 23552 23553 23554 23555 23556 23557 23558 23559 23560 23561 23562 23563 23564 23565 23566 23567 23568 23569 23570 23571 23572 23573 23574 23575 23576 23577 23578 23579 23580 23581 23582 23583 23584 23585 23586 23587 23588 23589 23590 23591 23592 23593 23594 23595 23596 23597 23598 23599 23600 23601 23602 23603 23604 23605 23606 23607 23608 23609 23610 23611 23612 23613 23614 23615 23616 23617 23618 23619 23620 23621 23622 23623 23624 23625 23626 23627 23628 23629 23630 23631 23632 23633 23634 23635 23636 23637 23638 23639 23640 23641 23642 23643 23644 23645 23646 23647 23648 23649 23650 23651 23652 23653 23654 23655 23656 23657 23658 23659 23660 23661 23662 23663 23664 23665 23666 23667 23668 23669 23670 23671 23672 23673 23674 23675 23676 23677 23678 23679 23680 23681 23682 23683 23684 23685 23686 23687 23688 23689 23690 23691 23692 23693 23694 23695 23696 23697 23698 23699 23700 23701 23702 23703 23704 23705 23706 23707 23708 23709 23710 23711 23712 23713 23714 23715 23716 23717 23718 23719 23720 23721 23722 23723 23724 23725 23726 23727 23728 23729 23730 23731 23732 23733 23734 23735 23736 23737 23738 23739 23740 23741 23742 23743 23744 23745 23746 23747 23748 23749 23750 23751 23752 23753 23754 23755 23756 23757 23758 23759 23760 23761 23762 23763 23764 23765 23766 23767 23768 23769 23770 23771 23772 23773 23774 23775 23776 23777 23778 23779 23780 23781 23782 23783 23784 23785 23786 23787 23788 23789 23790 23791 23792 23793 23794 23795 23796 23797 23798 23799 23800 23801 23802 23803 23804 23805 23806 23807 23808 23809 23810 23811 23812 23813 23814 23815 23816 23817 23818 23819 23820 23821 23822 23823 23824 23825 23826 23827 23828 23829 23830 23831 23832 23833 23834 23835 23836 23837 23838 23839 23840 23841 23842 23843 23844 23845 23846 23847 23848 23849 23850 23851 23852 23853 23854 23855 23856 23857 23858 23859 23860 23861 23862 23863 23864 23865 23866 23867 23868 23869 23870 23871 23872 23873 23874 23875 23876 23877 23878 23879 23880 23881 23882 23883 23884 23885 23886 23887 23888 23889 23890 23891 23892 23893 23894 23895 23896 23897 23898 23899 23900 23901 23902 23903 23904 23905 23906 23907 23908 23909 23910 23911 23912 23913 23914 23915 23916 23917 23918 23919 23920 23921 23922 23923 23924 23925 23926 23927 23928 23929 23930 23931 23932 23933 23934 23935 23936 23937 23938 23939 23940 23941 23942 23943 23944 23945 23946 23947 23948 23949 23950 23951 23952 23953 23954 23955 23956 23957 23958 23959 23960 23961 23962 23963 23964 23965 23966 23967 23968 23969 23970 23971 23972 23973 23974 23975 23976 23977 23978 23979 23980 23981 23982 23983 23984 23985 23986 23987 23988 23989 23990 23991 23992 23993 23994 23995 23996 23997 23998 23999 24000 24001 24002 24003 24004 24005 24006 24007 24008 24009 24010 24011 24012 24013 24014 24015 24016 24017 24018 24019 24020 24021 24022 24023 24024 24025 24026 24027 24028 24029 24030 24031 24032 24033 24034 24035 24036 24037 24038 24039 24040 24041 24042 24043 24044 24045 24046 24047 24048 24049 24050 24051 24052 24053 24054 24055 24056 24057 24058 24059 24060 24061 24062 24063 24064 24065 24066 24067 24068 24069 24070 24071 24072 24073 24074 24075 24076 24077 24078 24079 24080 24081 24082 24083 24084 24085 24086 24087 24088 24089 24090 24091 24092 24093 24094 24095 24096 24097 24098 24099 24100 24101 24102 24103 24104 24105 24106 24107 24108 24109 24110 24111 24112 24113 24114 24115 24116 24117 24118 24119 24120 24121 24122 24123 24124 24125 24126 24127 24128 24129 24130 24131 24132 24133 24134 24135 24136 24137 24138 24139 24140 24141 24142 24143 24144 24145 24146 24147 24148 24149 24150 24151 24152 24153 24154 24155 24156 24157 24158 24159 24160 24161 24162 24163 24164 24165 24166 24167 24168 24169 24170 24171 24172 24173 24174 24175 24176 24177 24178 24179 24180 24181 24182 24183 24184 24185 24186 24187 24188 24189 24190 24191 24192 24193 24194 24195 24196 24197 24198 24199 24200 24201 24202 24203 24204 24205 24206 24207 24208 24209 24210 24211 24212 24213 24214 24215 24216 24217 24218 24219 24220 24221 24222 24223 24224 24225 24226 24227 24228 24229 24230 24231 24232 24233 24234 24235 24236 24237 24238 24239 24240 24241 24242 24243 24244 24245 24246 24247 24248 24249 24250 24251 24252 24253 24254 24255 24256 24257 24258 24259 24260 24261 24262 24263 24264 24265 24266 24267 24268 24269 24270 24271 24272 24273 24274 24275 24276 24277 24278 24279 24280 24281 24282 24283 24284 24285 24286 24287 24288 24289 24290 24291 24292 24293 24294 24295 24296 24297 24298 24299 24300 24301 24302 24303 24304 24305 24306 24307 24308 24309 24310 24311 24312 24313 24314 24315 24316 24317 24318 24319 24320 24321 24322 24323 24324 24325 24326 24327 24328 24329 24330 24331 24332 24333 24334 24335 24336 24337 24338 24339 24340 24341 24342 24343 24344 24345 24346 24347 24348 24349 24350 24351 24352 24353 24354 24355 24356 24357 24358 24359 24360 24361 24362 24363 24364 24365 24366 24367 24368 24369 24370 24371 24372 24373 24374 24375 24376 24377 24378 24379 24380 24381 24382 24383 24384 24385 24386 24387 24388 24389 24390 24391 24392 24393 24394 24395 24396 24397 24398 24399 24400 24401 24402 24403 24404 24405 24406 24407 24408 24409 24410 24411 24412 24413 24414 24415 24416 24417 24418 24419 24420 24421 24422 24423 24424 24425 24426 24427 24428 24429 24430 24431 24432 24433 24434 24435 24436 24437 24438 24439 24440 24441 24442 24443 24444 24445 24446 24447 24448 24449 24450 24451 24452 24453 24454 24455 24456 24457 24458 24459 24460 24461 24462 24463 24464 24465 24466 24467 24468 24469 24470 24471 24472 24473 24474 24475 24476 24477 24478 24479 24480 24481 24482 24483 24484 24485 24486 24487 24488 24489 24490 24491 24492 24493 24494 24495 24496 24497 24498 24499 24500 24501 24502 24503 24504 24505 24506 24507 24508 24509 24510 24511 24512 24513 24514 24515 24516 24517 24518 24519 24520 24521 24522 24523 24524 24525 24526 24527 24528 24529 24530 24531 24532 24533 24534 24535 24536 24537 24538 24539 24540 24541 24542 24543 24544 24545 24546 24547 24548 24549 24550 24551 24552 24553 24554 24555 24556 24557 24558 24559 24560 24561 24562 24563 24564 24565 24566 24567 24568 24569 24570 24571 24572 24573 24574 24575 24576 24577 24578 24579 24580 24581 24582 24583 24584 24585 24586 24587 24588 24589 24590 24591 24592 24593 24594 24595 24596 24597 24598 24599 24600 24601 24602 24603 24604 24605 24606 24607 24608 24609 24610 24611 24612 24613 24614 24615 24616 24617 24618 24619 24620 24621 24622 24623 24624 24625 24626 24627 24628 24629 24630 24631 24632 24633 24634 24635 24636 24637 24638 24639 24640 24641 24642 24643 24644 24645 24646 24647 24648 24649 24650 24651 24652 24653 24654 24655 24656 24657 24658 24659 24660 24661 24662 24663 24664 24665 24666 24667 24668 24669 24670 24671 24672 24673 24674 24675 24676 24677 24678 24679 24680 24681 24682 24683 24684 24685 24686 24687 24688 24689 24690 24691 24692 24693 24694 24695 24696 24697 24698 24699 24700 24701 24702 24703 24704 24705 24706 24707 24708 24709 24710 24711 24712 24713 24714 24715 24716 24717 24718 24719 24720 24721 24722 24723 24724 24725 24726 24727 24728 24729 24730 24731 24732 24733 24734 24735 24736 24737 24738 24739 24740 24741 24742 24743 24744 24745 24746 24747 24748 24749 24750 24751 24752 24753 24754 24755 24756 24757 24758 24759 24760 24761 24762 24763 24764 24765 24766 24767 24768 24769 24770 24771 24772 24773 24774 24775 24776 24777 24778 24779 24780 24781 24782 24783 24784 24785 24786 24787 24788 24789 24790 24791 24792 24793 24794 24795 24796 24797 24798 24799 24800 24801 24802 24803 24804 24805 24806 24807 24808 24809 24810 24811 24812 24813 24814 24815 24816 24817 24818 24819 24820 24821 24822 24823 24824 24825 24826 24827 24828 24829 24830 24831 24832 24833 24834 24835 24836 24837 24838 24839 24840 24841 24842 24843 24844 24845 24846 24847 24848 24849 24850 24851 24852 24853 24854 24855 24856 24857 24858 24859 24860 24861 24862 24863 24864 24865 24866 24867 24868 24869 24870 24871 24872 24873 24874 24875 24876 24877 24878 24879 24880 24881 24882 24883 24884 24885 24886 24887 24888 24889 24890 24891 24892 24893 24894 24895 24896 24897 24898 24899 24900 24901 24902 24903 24904 24905 24906 24907 24908 24909 24910 24911 24912 24913 24914 24915 24916 24917 24918 24919 24920 24921 24922 24923 24924 24925 24926 24927 24928 24929 24930 24931 24932 24933 24934 24935 24936 24937 24938 24939 24940 24941 24942 24943 24944 24945 24946 24947 24948 24949 24950 24951 24952 24953 24954 24955 24956 24957 24958 24959 24960 24961 24962 24963 24964 24965 24966 24967 24968 24969 24970 24971 24972 24973 24974 24975 24976 24977 24978 24979 24980 24981 24982 24983 24984 24985 24986 24987 24988 24989 24990 24991 24992 24993 24994 24995 24996 24997 24998 24999 25000 25001 25002 25003 25004 25005 25006 25007 25008 25009 25010 25011 25012 25013 25014 25015 25016 25017 25018 25019 25020 25021 25022 25023 25024 25025 25026 25027 25028 25029 25030 25031 25032 25033 25034 25035 25036 25037 25038 25039 25040 25041 25042 25043 25044 25045 25046 25047 25048 25049 25050 25051 25052 25053 25054 25055 25056 25057 25058 25059 25060 25061 25062 25063 25064 25065 25066 25067 25068 25069 25070 25071 25072 25073 25074 25075 25076 25077 25078 25079 25080 25081 25082 25083 25084 25085 25086 25087 25088 25089 25090 25091 25092 25093 25094 25095 25096 25097 25098 25099 25100 25101 25102 25103 25104 25105 25106 25107 25108 25109 25110 25111 25112 25113 25114 25115 25116 25117 25118 25119 25120 25121 25122 25123 25124 25125 25126 25127 25128 25129 25130 25131 25132 25133 25134 25135 25136 25137 25138 25139 25140 25141 25142 25143 25144 25145 25146 25147 25148 25149 25150 25151 25152 25153 25154 25155 25156 25157 25158 25159 25160 25161 25162 25163 25164 25165 25166 25167 25168 25169 25170 25171 25172 25173 25174 25175 25176 25177 25178 25179 25180 25181 25182 25183 25184 25185 25186 25187 25188 25189 25190 25191 25192 25193 25194 25195 25196 25197 25198 25199 25200 25201 25202 25203 25204 25205 25206 25207 25208 25209 25210 25211 25212 25213 25214 25215 25216 25217 25218 25219 25220 25221 25222 25223 25224 25225 25226 25227 25228 25229 25230 25231 25232 25233 25234 25235 25236 25237 25238 25239 25240 25241 25242 25243 25244 25245 25246 25247 25248 25249 25250 25251 25252 25253 25254 25255 25256 25257 25258 25259 25260 25261 25262 25263 25264 25265 25266 25267 25268 25269 25270 25271 25272 25273 25274 25275 25276 25277 25278 25279 25280 25281 25282 25283 25284 25285 25286 25287 25288 25289 25290 25291 25292 25293 25294 25295 25296 25297 25298 25299 25300 25301 25302 25303 25304 25305 25306 25307 25308 25309 25310 25311 25312 25313 25314 25315 25316 25317 25318 25319 25320 25321 25322 25323 25324 25325 25326 25327 25328 25329 25330 25331 25332 25333 25334 25335 25336 25337 25338 25339 25340 25341 25342 25343 25344 25345 25346 25347 25348 25349 25350 25351 25352 25353 25354 25355 25356 25357 25358 25359 25360 25361 25362 25363 25364 25365 25366 25367 25368 25369 25370 25371 25372 25373 25374 25375 25376 25377 25378 25379 25380 25381 25382 25383 25384 25385 25386 25387 25388 25389 25390 25391 25392 25393 25394 25395 25396 25397 25398 25399 25400 25401 25402 25403 25404 25405 25406 25407 25408 25409 25410 25411 25412 25413 25414 25415 25416 25417 25418 25419 25420 25421 25422 25423 25424 25425 25426 25427 25428 25429 25430 25431 25432 25433 25434 25435 25436 25437 25438 25439 25440 25441 25442 25443 25444 25445 25446 25447 25448 25449 25450 25451 25452 25453 25454 25455 25456 25457 25458 25459 25460 25461 25462 25463 25464 25465 25466 25467 25468 25469 25470 25471 25472 25473 25474 25475 25476 25477 25478 25479 25480 25481 25482 25483 25484 25485 25486 25487 25488 25489 25490 25491 25492 25493 25494 25495 25496 25497 25498 25499 25500 25501 25502 25503 25504 25505 25506 25507 25508 25509 25510 25511 25512 25513 25514 25515 25516 25517 25518 25519 25520 25521 25522 25523 25524 25525 25526 25527 25528 25529 25530 25531 25532 25533 25534 25535 25536 25537 25538 25539 25540 25541 25542 25543 25544 25545 25546 25547 25548 25549 25550 25551 25552 25553 25554 25555 25556 25557 25558 25559 25560 25561 25562 25563 25564 25565 25566 25567 25568 25569 25570 25571 25572 25573 25574 25575 25576 25577 25578 25579 25580 25581 25582 25583 25584 25585 25586 25587 25588 25589 25590 25591 25592 25593 25594 25595 25596 25597 25598 25599 25600 25601 25602 25603 25604 25605 25606 25607 25608 25609 25610 25611 25612 25613 25614 25615 25616 25617 25618 25619 25620 25621 25622 25623 25624 25625 25626 25627 25628 25629 25630 25631 25632 25633 25634 25635 25636 25637 25638 25639 25640 25641 25642 25643 25644 25645 25646 25647 25648 25649 25650 25651 25652 25653 25654 25655 25656 25657 25658 25659 25660 25661 25662 25663 25664 25665 25666 25667 25668 25669 25670 25671 25672 25673 25674 25675 25676 25677 25678 25679 25680 25681 25682 25683 25684 25685 25686 25687 25688 25689 25690 25691 25692 25693 25694 25695 25696 25697 25698 25699 25700 25701 25702 25703 25704 25705 25706 25707 25708 25709 25710 25711 25712 25713 25714 25715 25716 25717 25718 25719 25720 25721 25722 25723 25724 25725 25726 25727 25728 25729 25730 25731 25732 25733 25734 25735 25736 25737 25738 25739 25740 25741 25742 25743 25744 25745 25746 25747 25748 25749 25750 25751 25752 25753 25754 25755 25756 25757 25758 25759 25760 25761 25762 25763 25764 25765 25766 25767 25768 25769 25770 25771 25772 25773 25774 25775 25776 25777 25778 25779 25780 25781 25782 25783 25784 25785 25786 25787 25788 25789 25790 25791 25792 25793 25794 25795 25796 25797 25798 25799 25800 25801 25802 25803 25804 25805 25806 25807 25808 25809 25810 25811 25812 25813 25814 25815 25816 25817 25818 25819 25820 25821 25822 25823 25824 25825 25826 25827 25828 25829 25830 25831 25832 25833 25834 25835 25836 25837 25838 25839 25840 25841 25842 25843 25844 25845 25846 25847 25848 25849 25850 25851 25852 25853 25854 25855 25856 25857 25858 25859 25860 25861 25862 25863 25864 25865 25866 25867 25868 25869 25870 25871 25872 25873 25874 25875 25876 25877 25878 25879 25880 25881 25882 25883 25884 25885 25886 25887 25888 25889 25890 25891 25892 25893 25894 25895 25896 25897 25898 25899 25900 25901 25902 25903 25904 25905 25906 25907 25908 25909 25910 25911 25912 25913 25914 25915 25916 25917 25918 25919 25920 25921 25922 25923 25924 25925 25926 25927 25928 25929 25930 25931 25932 25933 25934 25935 25936 25937 25938 25939 25940 25941 25942 25943 25944 25945 25946 25947 25948 25949 25950 25951 25952 25953 25954 25955 25956 25957 25958 25959 25960 25961 25962 25963 25964 25965 25966 25967 25968 25969 25970 25971 25972 25973 25974 25975 25976 25977 25978 25979 25980 25981 25982 25983 25984 25985 25986 25987 25988 25989 25990 25991 25992 25993 25994 25995 25996 25997 25998 25999 26000 26001 26002 26003 26004 26005 26006 26007 26008 26009 26010 26011 26012 26013 26014 26015 26016 26017 26018 26019 26020 26021 26022 26023 26024 26025 26026 26027 26028 26029 26030 26031 26032 26033 26034 26035 26036 26037 26038 26039 26040 26041 26042 26043 26044 26045 26046 26047 26048 26049 26050 26051 26052 26053 26054 26055 26056 26057 26058 26059 26060 26061 26062 26063 26064 26065 26066 26067 26068 26069 26070 26071 26072 26073 26074 26075 26076 26077 26078 26079 26080 26081 26082 26083 26084 26085 26086 26087 26088 26089 26090 26091 26092 26093 26094 26095 26096 26097 26098 26099 26100 26101 26102 26103 26104 26105 26106 26107 26108 26109 26110 26111 26112 26113 26114 26115 26116 26117 26118 26119 26120 26121 26122 26123 26124 26125 26126 26127 26128 26129 26130 26131 26132 26133 26134 26135 26136 26137 26138 26139 26140 26141 26142 26143 26144 26145 26146 26147 26148 26149 26150 26151 26152 26153 26154 26155 26156 26157 26158 26159 26160 26161 26162 26163 26164 26165 26166 26167 26168 26169 26170 26171 26172 26173 26174 26175 26176 26177 26178 26179 26180 26181 26182 26183 26184 26185 26186 26187 26188 26189 26190 26191 26192 26193 26194 26195 26196 26197 26198 26199 26200 26201 26202 26203 26204 26205 26206 26207 26208 26209 26210 26211 26212 26213 26214 26215 26216 26217 26218 26219 26220 26221 26222 26223 26224 26225 26226 26227 26228 26229 26230 26231 26232 26233 26234 26235 26236 26237 26238 26239 26240 26241 26242 26243 26244 26245 26246 26247 26248 26249 26250 26251 26252 26253 26254 26255 26256 26257 26258 26259 26260 26261 26262 26263 26264 26265 26266 26267 26268 26269 26270 26271 26272 26273 26274 26275 26276 26277 26278 26279 26280 26281 26282 26283 26284 26285 26286 26287 26288 26289 26290 26291 26292 26293 26294 26295 26296 26297 26298 26299 26300 26301 26302 26303 26304 26305 26306 26307 26308 26309 26310 26311 26312 26313 26314 26315 26316 26317 26318 26319 26320 26321 26322 26323 26324 26325 26326 26327 26328 26329 26330 26331 26332 26333 26334 26335 26336 26337 26338 26339 26340 26341 26342 26343 26344 26345 26346 26347 26348 26349 26350 26351 26352 26353 26354 26355 26356 26357 26358 26359 26360 26361 26362 26363 26364 26365 26366 26367 26368 26369 26370 26371 26372 26373 26374 26375 26376 26377 26378 26379 26380 26381 26382 26383 26384 26385 26386 26387 26388 26389 26390 26391 26392 26393 26394 26395 26396 26397 26398 26399 26400 26401 26402 26403 26404 26405 26406 26407 26408 26409 26410 26411 26412 26413 26414 26415 26416 26417 26418 26419 26420 26421 26422 26423 26424 26425 26426 26427 26428 26429 26430 26431 26432 26433 26434 26435 26436 26437 26438 26439 26440 26441 26442 26443 26444 26445 26446 26447 26448 26449 26450 26451 26452 26453 26454 26455 26456 26457 26458 26459 26460 26461 26462 26463 26464 26465 26466 26467 26468 26469 26470 26471 26472 26473 26474 26475 26476 26477 26478 26479 26480 26481 26482 26483 26484 26485 26486 26487 26488 26489 26490 26491 26492 26493 26494 26495 26496 26497 26498 26499 26500 26501 26502 26503 26504 26505 26506 26507 26508 26509 26510 26511 26512 26513 26514 26515 26516 26517 26518 26519 26520 26521 26522 26523 26524 26525 26526 26527 26528 26529 26530 26531 26532 26533 26534 26535 26536 26537 26538 26539 26540 26541 26542 26543 26544 26545 26546 26547 26548 26549 26550 26551 26552 26553 26554 26555 26556 26557 26558 26559 26560 26561 26562 26563 26564 26565 26566 26567 26568 26569 26570 26571 26572 26573 26574 26575 26576 26577 26578 26579 26580 26581 26582 26583 26584 26585 26586 26587 26588 26589 26590 26591 26592 26593 26594 26595 26596 26597 26598 26599 26600 26601 26602 26603 26604 26605 26606 26607 26608 26609 26610 26611 26612 26613 26614 26615 26616 26617 26618 26619 26620 26621 26622 26623 26624 26625 26626 26627 26628 26629 26630 26631 26632 26633 26634 26635 26636 26637 26638 26639 26640 26641 26642 26643 26644 26645 26646 26647 26648 26649 26650 26651 26652 26653 26654 26655 26656 26657 26658 26659 26660 26661 26662 26663 26664 26665 26666 26667 26668 26669 26670 26671 26672 26673 26674 26675 26676 26677 26678 26679 26680 26681 26682 26683 26684 26685 26686 26687 26688 26689 26690 26691 26692 26693 26694 26695 26696 26697 26698 26699 26700 26701 26702 26703 26704 26705 26706 26707 26708 26709 26710 26711 26712 26713 26714 26715 26716 26717 26718 26719 26720 26721 26722 26723 26724 26725 26726 26727 26728 26729 26730 26731 26732 26733 26734 26735 26736 26737 26738 26739 26740 26741 26742 26743 26744 26745 26746 26747 26748 26749 26750 26751 26752 26753 26754 26755 26756 26757 26758 26759 26760 26761 26762 26763 26764 26765 26766 26767 26768 26769 26770 26771 26772 26773 26774 26775 26776 26777 26778 26779 26780 26781 26782 26783 26784 26785 26786 26787 26788 26789 26790 26791 26792 26793 26794 26795 26796 26797 26798 26799 26800 26801 26802 26803 26804 26805 26806 26807 26808 26809 26810 26811 26812 26813 26814 26815 26816 26817 26818 26819 26820 26821 26822 26823 26824 26825 26826 26827 26828 26829 26830 26831 26832 26833 26834 26835 26836 26837 26838 26839 26840 26841 26842 26843 26844 26845 26846 26847 26848 26849 26850 26851 26852 26853 26854 26855 26856 26857 26858 26859 26860 26861 26862 26863 26864 26865 26866 26867 26868 26869 26870 26871 26872 26873 26874 26875 26876 26877 26878 26879 26880 26881 26882 26883 26884 26885 26886 26887 26888 26889 26890 26891 26892 26893 26894 26895 26896 26897 26898 26899 26900 26901 26902 26903 26904 26905 26906 26907 26908 26909 26910 26911 26912 26913 26914 26915 26916 26917 26918 26919 26920 26921 26922 26923 26924 26925 26926 26927 26928 26929 26930 26931 26932 26933 26934 26935 26936 26937 26938 26939 26940 26941 26942 26943 26944 26945 26946 26947 26948 26949 26950 26951 26952 26953 26954 26955 26956 26957 26958 26959 26960 26961 26962 26963 26964 26965 26966 26967 26968 26969 26970 26971 26972 26973 26974 26975 26976 26977 26978 26979 26980 26981 26982 26983 26984 26985 26986 26987 26988 26989 26990 26991 26992 26993 26994 26995 26996 26997 26998 26999 27000 27001 27002 27003 27004 27005 27006 27007 27008 27009 27010 27011 27012 27013 27014 27015 27016 27017 27018 27019 27020 27021 27022 27023 27024 27025 27026 27027 27028 27029 27030 27031 27032 27033 27034 27035 27036 27037 27038 27039 27040 27041 27042 27043 27044 27045 27046 27047 27048 27049 27050 27051 27052 27053 27054 27055 27056 27057 27058 27059 27060 27061 27062 27063 27064 27065 27066 27067 27068 27069 27070 27071 27072 27073 27074 27075 27076 27077 27078 27079 27080 27081 27082 27083 27084 27085 27086 27087 27088 27089 27090 27091 27092 27093 27094 27095 27096 27097 27098 27099 27100 27101 27102 27103 27104 27105 27106 27107 27108 27109 27110 27111 27112 27113 27114 27115 27116 27117 27118 27119 27120 27121 27122 27123 27124 27125 27126 27127 27128 27129 27130 27131 27132 27133 27134 27135 27136 27137 27138 27139 27140 27141 27142 27143 27144 27145 27146 27147 27148 27149 27150 27151 27152 27153 27154 27155 27156 27157 27158 27159 27160 27161 27162 27163 27164 27165 27166 27167 27168 27169 27170 27171 27172 27173 27174 27175 27176 27177 27178 27179 27180 27181 27182 27183 27184 27185 27186 27187 27188 27189 27190 27191 27192 27193 27194 27195 27196 27197 27198 27199 27200 27201 27202 27203 27204 27205 27206 27207 27208 27209 27210 27211 27212 27213 27214 27215 27216 27217 27218 27219 27220 27221 27222 27223 27224 27225 27226 27227 27228 27229 27230 27231 27232 27233 27234 27235 27236 27237 27238 27239 27240 27241 27242 27243 27244 27245 27246 27247 27248 27249 27250 27251 27252 27253 27254 27255 27256 27257 27258 27259 27260 27261 27262 27263 27264 27265 27266 27267 27268 27269 27270 27271 27272 27273 27274 27275 27276 27277 27278 27279 27280 27281 27282 27283 27284 27285 27286 27287 27288 27289 27290 27291 27292 27293 27294 27295 27296 27297 27298 27299 27300 27301 27302 27303 27304 27305 27306 27307 27308 27309 27310 27311 27312 27313 27314 27315 27316 27317 27318 27319 27320 27321 27322 27323 27324 27325 27326 27327 27328 27329 27330 27331 27332 27333 27334 27335 27336 27337 27338 27339 27340 27341 27342 27343 27344 27345 27346 27347 27348 27349 27350 27351 27352 27353 27354 27355 27356 27357 27358 27359 27360 27361 27362 27363 27364 27365 27366 27367 27368 27369 27370 27371 27372 27373 27374 27375 27376 27377 27378 27379 27380 27381 27382 27383 27384 27385 27386 27387 27388 27389 27390 27391 27392 27393 27394 27395 27396 27397 27398 27399 27400 27401 27402 27403 27404 27405 27406 27407 27408 27409 27410 27411 27412 27413 27414 27415 27416 27417 27418 27419 27420 27421 27422 27423 27424 27425 27426 27427 27428 27429 27430 27431 27432 27433 27434 27435 27436 27437 27438 27439 27440 27441 27442 27443 27444 27445 27446 27447 27448 27449 27450 27451 27452 27453 27454 27455 27456 27457 27458 27459 27460 27461 27462 27463 27464 27465 27466 27467 27468 27469 27470 27471 27472 27473 27474 27475 27476 27477 27478 27479 27480 27481 27482 27483 27484 27485 27486 27487 27488 27489 27490 27491 27492 27493 27494 27495 27496 27497 27498 27499 27500 27501 27502 27503 27504 27505 27506 27507 27508 27509 27510 27511 27512 27513 27514 27515 27516 27517 27518 27519 27520 27521 27522 27523 27524 27525 27526 27527 27528 27529 27530 27531 27532 27533 27534 27535 27536 27537 27538 27539 27540 27541 27542 27543 27544 27545 27546 27547 27548 27549 27550 27551 27552 27553 27554 27555 27556 27557 27558 27559 27560 27561 27562 27563 27564 27565 27566 27567 27568 27569 27570 27571 27572 27573 27574 27575 27576 27577 27578 27579 27580 27581 27582 27583 27584 27585 27586 27587 27588 27589 27590 27591 27592 27593 27594 27595 27596 27597 27598 27599 27600 27601 27602 27603 27604 27605 27606 27607 27608 27609 27610 27611 27612 27613 27614 27615 27616 27617 27618 27619 27620 27621 27622 27623 27624 27625 27626 27627 27628 27629 27630 27631 27632 27633 27634 27635 27636 27637 27638 27639 27640 27641 27642 27643 27644 27645 27646 27647 27648 27649 27650 27651 27652 27653 27654 27655 27656 27657 27658 27659 27660 27661 27662 27663 27664 27665 27666 27667 27668 27669 27670 27671 27672 27673 27674 27675 27676 27677 27678 27679 27680 27681 27682 27683 27684 27685 27686 27687 27688 27689 27690 27691 27692 27693 27694 27695 27696 27697 27698 27699 27700 27701 27702 27703 27704 27705 27706 27707 27708 27709 27710 27711 27712 27713 27714 27715 27716 27717 27718 27719 27720 27721 27722 27723 27724 27725 27726 27727 27728 27729 27730 27731 27732 27733 27734 27735 27736 27737 27738 27739 27740 27741 27742 27743 27744 27745 27746 27747 27748 27749 27750 27751 27752 27753 27754 27755 27756 27757 27758 27759 27760 27761 27762 27763 27764 27765 27766 27767 27768 27769 27770 27771 27772 27773 27774 27775 27776 27777 27778 27779 27780 27781 27782 27783 27784 27785 27786 27787 27788 27789 27790 27791 27792 27793 27794 27795 27796 27797 27798 27799 27800 27801 27802 27803 27804 27805 27806 27807 27808 27809 27810 27811 27812 27813 27814 27815 27816 27817 27818 27819 27820 27821 27822 27823 27824 27825 27826 27827 27828 27829 27830 27831 27832 27833 27834 27835 27836 27837 27838 27839 27840 27841 27842 27843 27844 27845 27846 27847 27848 27849 27850 27851 27852 27853 27854 27855 27856 27857 27858 27859 27860 27861 27862 27863 27864 27865 27866 27867 27868 27869 27870 27871 27872 27873 27874 27875 27876 27877 27878 27879 27880 27881 27882 27883 27884 27885 27886 27887 27888 27889 27890 27891 27892 27893 27894 27895 27896 27897 27898 27899 27900 27901 27902 27903 27904 27905 27906 27907 27908 27909 27910 27911 27912 27913 27914 27915 27916 27917 27918 27919 27920 27921 27922 27923 27924 27925 27926 27927 27928 27929 27930 27931 27932 27933 27934 27935 27936 27937 27938 27939 27940 27941 27942 27943 27944 27945 27946 27947 27948 27949 27950 27951 27952 27953 27954 27955 27956 27957 27958 27959 27960 27961 27962 27963 27964 27965 27966 27967 27968 27969 27970 27971 27972 27973 27974 27975 27976 27977 27978 27979 27980 27981 27982 27983 27984 27985 27986 27987 27988 27989 27990 27991 27992 27993 27994 27995 27996 27997 27998 27999 28000 28001 28002 28003 28004 28005 28006 28007 28008 28009 28010 28011 28012 28013 28014 28015 28016 28017 28018 28019 28020 28021 28022 28023 28024 28025 28026 28027 28028 28029 28030 28031 28032 28033 28034 28035 28036 28037 28038 28039 28040 28041 28042 28043 28044 28045 28046 28047 28048 28049 28050 28051 28052 28053 28054 28055 28056 28057 28058 28059 28060 28061 28062 28063 28064 28065 28066 28067 28068 28069 28070 28071 28072 28073 28074 28075 28076 28077 28078 28079 28080 28081 28082 28083 28084 28085 28086 28087 28088 28089 28090 28091 28092 28093 28094 28095 28096 28097 28098 28099 28100 28101 28102 28103 28104 28105 28106 28107 28108 28109 28110 28111 28112 28113 28114 28115 28116 28117 28118 28119 28120 28121 28122 28123 28124 28125 28126 28127 28128 28129 28130 28131 28132 28133 28134 28135 28136 28137 28138 28139 28140 28141 28142 28143 28144 28145 28146 28147 28148 28149 28150 28151 28152 28153 28154 28155 28156 28157 28158 28159 28160 28161 28162 28163 28164 28165 28166 28167 28168 28169 28170 28171 28172 28173 28174 28175 28176 28177 28178 28179 28180 28181 28182 28183 28184 28185 28186 28187 28188 28189 28190 28191 28192 28193 28194 28195 28196 28197 28198 28199 28200 28201 28202 28203 28204 28205 28206 28207 28208 28209 28210 28211 28212 28213 28214 28215 28216 28217 28218 28219 28220 28221 28222 28223 28224 28225 28226 28227 28228 28229 28230 28231 28232 28233 28234 28235 28236 28237 28238 28239 28240 28241 28242 28243 28244 28245 28246 28247 28248 28249 28250 28251 28252 28253 28254 28255 28256 28257 28258 28259 28260 28261 28262 28263 28264 28265 28266 28267 28268 28269 28270 28271 28272 28273 28274 28275 28276 28277 28278 28279 28280 28281 28282 28283 28284 28285 28286 28287 28288 28289 28290 28291 28292 28293 28294 28295 28296 28297 28298 28299 28300 28301 28302 28303 28304 28305 28306 28307 28308 28309 28310 28311 28312 28313 28314 28315 28316 28317 28318 28319 28320 28321 28322 28323 28324 28325 28326 28327 28328 28329 28330 28331 28332 28333 28334 28335 28336 28337 28338 28339 28340 28341 28342 28343 28344 28345 28346 28347 28348 28349 28350 28351 28352 28353 28354 28355 28356 28357 28358 28359 28360 28361 28362 28363 28364 28365 28366 28367 28368 28369 28370 28371 28372 28373 28374 28375 28376 28377 28378 28379 28380 28381 28382 28383 28384 28385 28386 28387 28388 28389 28390 28391 28392 28393 28394 28395 28396 28397 28398 28399 28400 28401 28402 28403 28404 28405 28406 28407 28408 28409 28410 28411 28412 28413 28414 28415 28416 28417 28418 28419 28420 28421 28422 28423 28424 28425 28426 28427 28428 28429 28430 28431 28432 28433 28434 28435 28436 28437 28438 28439 28440 28441 28442 28443 28444 28445 28446 28447 28448 28449 28450 28451 28452 28453 28454 28455 28456 28457 28458 28459 28460 28461 28462 28463 28464 28465 28466 28467 28468 28469 28470 28471 28472 28473 28474 28475 28476 28477 28478 28479 28480 28481 28482 28483 28484 28485 28486 28487 28488 28489 28490 28491 28492 28493 28494 28495 28496 28497 28498 28499 28500 28501 28502 28503 28504 28505 28506 28507 28508 28509 28510 28511 28512 28513 28514 28515 28516 28517 28518 28519 28520 28521 28522 28523 28524 28525 28526 28527 28528 28529 28530 28531 28532 28533 28534 28535 28536 28537 28538 28539 28540 28541 28542 28543 28544 28545 28546 28547 28548 28549 28550 28551 28552 28553 28554 28555 28556 28557 28558 28559 28560 28561 28562 28563 28564 28565 28566 28567 28568 28569 28570 28571 28572 28573 28574 28575 28576 28577 28578 28579 28580 28581 28582 28583 28584 28585 28586 28587 28588 28589 28590 28591 28592 28593 28594 28595 28596 28597 28598 28599 28600 28601 28602 28603 28604 28605 28606 28607 28608 28609 28610 28611 28612 28613 28614 28615 28616 28617 28618 28619 28620 28621 28622 28623 28624 28625 28626 28627 28628 28629 28630 28631 28632 28633 28634 28635 28636 28637 28638 28639 28640 28641 28642 28643 28644 28645 28646 28647 28648 28649 28650 28651 28652 28653 28654 28655 28656 28657 28658 28659 28660 28661 28662 28663 28664 28665 28666 28667 28668 28669 28670 28671 28672 28673 28674 28675 28676 28677 28678 28679 28680 28681 28682 28683 28684 28685 28686 28687 28688 28689 28690 28691 28692 28693 28694 28695 28696 28697 28698 28699 28700 28701 28702 28703 28704 28705 28706 28707 28708 28709 28710 28711 28712 28713 28714 28715 28716 28717 28718 28719 28720 28721 28722 28723 28724 28725 28726 28727 28728 28729 28730 28731 28732 28733 28734 28735 28736 28737 28738 28739 28740 28741 28742 28743 28744 28745 28746 28747 28748 28749 28750 28751 28752 28753 28754 28755 28756 28757 28758 28759 28760 28761 28762 28763 28764 28765 28766 28767 28768 28769 28770 28771 28772 28773 28774 28775 28776 28777 28778 28779 28780 28781 28782 28783 28784 28785 28786 28787 28788 28789 28790 28791 28792 28793 28794 28795 28796 28797 28798 28799 28800 28801 28802 28803 28804 28805 28806 28807 28808 28809 28810 28811 28812 28813 28814 28815 28816 28817 28818 28819 28820 28821 28822 28823 28824 28825 28826 28827 28828 28829 28830 28831 28832 28833 28834 28835 28836 28837 28838 28839 28840 28841 28842 28843 28844 28845 28846 28847 28848 28849 28850 28851 28852 28853 28854 28855 28856 28857 28858 28859 28860 28861 28862 28863 28864 28865 28866 28867 28868 28869 28870 28871 28872 28873 28874 28875 28876 28877 28878 28879 28880 28881 28882 28883 28884 28885 28886 28887 28888 28889 28890 28891 28892 28893 28894 28895 28896 28897 28898 28899 28900 28901 28902 28903 28904 28905 28906 28907 28908 28909 28910 28911 28912 28913 28914 28915 28916 28917 28918 28919 28920 28921 28922 28923 28924 28925 28926 28927 28928 28929 28930 28931 28932 28933 28934 28935 28936 28937 28938 28939 28940 28941 28942 28943 28944 28945 28946 28947 28948 28949 28950 28951 28952 28953 28954 28955 28956 28957 28958 28959 28960 28961 28962 28963 28964 28965 28966 28967 28968 28969 28970 28971 28972 28973 28974 28975 28976 28977 28978 28979 28980 28981 28982 28983 28984 28985 28986 28987 28988 28989 28990 28991 28992 28993 28994 28995 28996 28997 28998 28999 29000 29001 29002 29003 29004 29005 29006 29007 29008 29009 29010 29011 29012 29013 29014 29015 29016 29017 29018 29019 29020 29021 29022 29023 29024 29025 29026 29027 29028 29029 29030 29031 29032 29033 29034 29035 29036 29037 29038 29039 29040 29041 29042 29043 29044 29045 29046 29047 29048 29049 29050 29051 29052 29053 29054 29055 29056 29057 29058 29059 29060 29061 29062 29063 29064 29065 29066 29067 29068 29069 29070 29071 29072 29073 29074 29075 29076 29077 29078 29079 29080 29081 29082 29083 29084 29085 29086 29087 29088 29089 29090 29091 29092 29093 29094 29095 29096 29097 29098 29099 29100 29101 29102 29103 29104 29105 29106 29107 29108 29109 29110 29111 29112 29113 29114 29115 29116 29117 29118 29119 29120 29121 29122 29123 29124 29125 29126 29127 29128 29129 29130 29131 29132 29133 29134 29135 29136 29137 29138 29139 29140 29141 29142 29143 29144 29145 29146 29147 29148 29149 29150 29151 29152 29153 29154 29155 29156 29157 29158 29159 29160 29161 29162 29163 29164 29165 29166 29167 29168 29169 29170 29171 29172 29173 29174 29175 29176 29177 29178 29179 29180 29181 29182 29183 29184 29185 29186 29187 29188 29189 29190 29191 29192 29193 29194 29195 29196 29197 29198 29199 29200 29201 29202 29203 29204 29205 29206 29207 29208 29209 29210 29211 29212 29213 29214 29215 29216 29217 29218 29219 29220 29221 29222 29223 29224 29225 29226 29227 29228 29229 29230 29231 29232 29233 29234 29235 29236 29237 29238 29239 29240 29241 29242 29243 29244 29245 29246 29247 29248 29249 29250 29251 29252 29253 29254 29255 29256 29257 29258 29259 29260 29261 29262 29263 29264 29265 29266 29267 29268 29269 29270 29271 29272 29273 29274 29275 29276 29277 29278 29279 29280 29281 29282 29283 29284 29285 29286 29287 29288 29289 29290 29291 29292 29293 29294 29295 29296 29297 29298 29299 29300 29301 29302 29303 29304 29305 29306 29307 29308 29309 29310 29311 29312 29313 29314 29315 29316 29317 29318 29319 29320 29321 29322 29323 29324 29325 29326 29327 29328 29329 29330 29331 29332 29333 29334 29335 29336 29337 29338 29339 29340 29341 29342 29343 29344 29345 29346 29347 29348 29349 29350 29351 29352 29353 29354 29355 29356 29357 29358 29359 29360 29361 29362 29363 29364 29365 29366 29367 29368 29369 29370 29371 29372 29373 29374 29375 29376 29377 29378 29379 29380 29381 29382 29383 29384 29385 29386 29387 29388 29389 29390 29391 29392 29393 29394 29395 29396 29397 29398 29399 29400 29401 29402 29403 29404 29405 29406 29407 29408 29409 29410 29411 29412 29413 29414 29415 29416 29417 29418 29419 29420 29421 29422 29423 29424 29425 29426 29427 29428 29429 29430 29431 29432 29433 29434 29435 29436 29437 29438 29439 29440 29441 29442 29443 29444 29445 29446 29447 29448 29449 29450 29451 29452 29453 29454 29455 29456 29457 29458 29459 29460 29461 29462 29463 29464 29465 29466 29467 29468 29469 29470 29471 29472 29473 29474 29475 29476 29477 29478 29479 29480 29481 29482 29483 29484 29485 29486 29487 29488 29489 29490 29491 29492 29493 29494 29495 29496 29497 29498 29499 29500 29501 29502 29503 29504 29505 29506 29507 29508 29509 29510 29511 29512 29513 29514 29515 29516 29517 29518 29519 29520 29521 29522 29523 29524 29525 29526 29527 29528 29529 29530 29531 29532 29533 29534 29535 29536 29537 29538 29539 29540 29541 29542 29543 29544 29545 29546 29547 29548 29549 29550 29551 29552 29553 29554 29555 29556 29557 29558 29559 29560 29561 29562 29563 29564 29565 29566 29567 29568 29569 29570 29571 29572 29573 29574 29575 29576 29577 29578 29579 29580 29581 29582 29583 29584 29585 29586 29587 29588 29589 29590 29591 29592 29593 29594 29595 29596 29597 29598 29599 29600 29601 29602 29603 29604 29605 29606 29607 29608 29609 29610 29611 29612 29613 29614 29615 29616 29617 29618 29619 29620 29621 29622 29623 29624 29625 29626 29627 29628 29629 29630 29631 29632 29633 29634 29635 29636 29637 29638 29639 29640 29641 29642 29643 29644 29645 29646 29647 29648 29649 29650 29651 29652 29653 29654 29655 29656 29657 29658 29659 29660 29661 29662 29663 29664 29665 29666 29667 29668 29669 29670 29671 29672 29673 29674 29675 29676 29677 29678 29679 29680 29681 29682 29683 29684 29685 29686 29687 29688 29689 29690 29691 29692 29693 29694 29695 29696 29697 29698 29699 29700 29701 29702 29703 29704 29705 29706 29707 29708 29709 29710 29711 29712 29713 29714 29715 29716 29717 29718 29719 29720 29721 29722 29723 29724 29725 29726 29727 29728 29729 29730 29731 29732 29733 29734 29735 29736 29737 29738 29739 29740 29741 29742 29743 29744 29745 29746 29747 29748 29749 29750 29751 29752 29753 29754 29755 29756 29757 29758 29759 29760 29761 29762 29763 29764 29765 29766 29767 29768 29769 29770 29771 29772 29773 29774 29775 29776 29777 29778 29779 29780 29781 29782 29783 29784 29785 29786 29787 29788 29789 29790 29791 29792 29793 29794 29795 29796 29797 29798 29799 29800 29801 29802 29803 29804 29805 29806 29807 29808 29809 29810 29811 29812 29813 29814 29815 29816 29817 29818 29819 29820 29821 29822 29823 29824 29825 29826 29827 29828 29829 29830 29831 29832 29833 29834 29835 29836 29837 29838 29839 29840 29841 29842 29843 29844 29845 29846 29847 29848 29849 29850 29851 29852 29853 29854 29855 29856 29857 29858 29859 29860 29861 29862 29863 29864 29865 29866 29867 29868 29869 29870 29871 29872 29873 29874 29875 29876 29877 29878 29879 29880 29881 29882 29883 29884 29885 29886 29887 29888 29889 29890 29891 29892 29893 29894 29895 29896 29897 29898 29899 29900 29901 29902 29903 29904 29905 29906 29907 29908 29909 29910 29911 29912 29913 29914 29915 29916 29917 29918 29919 29920 29921 29922 29923 29924 29925 29926 29927 29928 29929 29930 29931 29932 29933 29934 29935 29936 29937 29938 29939 29940 29941 29942 29943 29944 29945 29946 29947 29948 29949 29950 29951 29952 29953 29954 29955 29956 29957 29958 29959 29960 29961 29962 29963 29964 29965 29966 29967 29968 29969 29970 29971 29972 29973 29974 29975 29976 29977 29978 29979 29980 29981 29982 29983 29984 29985 29986 29987 29988 29989 29990 29991 29992 29993 29994 29995 29996 29997 29998 29999 30000 30001 30002 30003 30004 30005 30006 30007 30008 30009 30010 30011 30012 30013 30014 30015 30016 30017 30018 30019 30020 30021 30022 30023 30024 30025 30026 30027 30028 30029 30030 30031 30032 30033 30034 30035 30036 30037 30038 30039 30040 30041 30042 30043 30044 30045 30046 30047 30048 30049 30050 30051 30052 30053 30054 30055 30056 30057 30058 30059 30060 30061 30062 30063 30064 30065 30066 30067 30068 30069 30070 30071 30072 30073 30074 30075 30076 30077 30078 30079 30080 30081 30082 30083 30084 30085 30086 30087 30088 30089 30090 30091 30092 30093 30094 30095 30096 30097 30098 30099 30100 30101 30102 30103 30104 30105 30106 30107 30108 30109 30110 30111 30112 30113 30114 30115 30116 30117 30118 30119 30120 30121 30122 30123 30124 30125 30126 30127 30128 30129 30130 30131 30132 30133 30134 30135 30136 30137 30138 30139 30140 30141 30142 30143 30144 30145 30146 30147 30148 30149 30150 30151 30152 30153 30154 30155 30156 30157 30158 30159 30160 30161 30162 30163 30164 30165 30166 30167 30168 30169 30170 30171 30172 30173 30174 30175 30176 30177 30178 30179 30180 30181 30182 30183 30184 30185 30186 30187 30188 30189 30190 30191 30192 30193 30194 30195 30196 30197 30198 30199 30200 30201 30202 30203 30204 30205 30206 30207 30208 30209 30210 30211 30212 30213 30214 30215 30216 30217 30218 30219 30220 30221 30222 30223 30224 30225 30226 30227 30228 30229 30230 30231 30232 30233 30234 30235 30236 30237 30238 30239 30240 30241 30242 30243 30244 30245 30246 30247 30248 30249 30250 30251 30252 30253 30254 30255 30256 30257 30258 30259 30260 30261 30262 30263 30264 30265 30266 30267 30268 30269 30270 30271 30272 30273 30274 30275 30276 30277 30278 30279 30280 30281 30282 30283 30284 30285 30286 30287 30288 30289 30290 30291 30292 30293 30294 30295 30296 30297 30298 30299 30300 30301 30302 30303 30304 30305 30306 30307 30308 30309 30310 30311 30312 30313 30314 30315 30316 30317 30318 30319 30320 30321 30322 30323 30324 30325 30326 30327 30328 30329 30330 30331 30332 30333 30334 30335 30336 30337 30338 30339 30340 30341 30342 30343 30344 30345 30346 30347 30348 30349 30350 30351 30352 30353 30354 30355 30356 30357 30358 30359 30360 30361 30362 30363 30364 30365 30366 30367 30368 30369 30370 30371 30372 30373 30374 30375 30376 30377 30378 30379 30380 30381 30382 30383 30384 30385 30386 30387 30388 30389 30390 30391 30392 30393 30394 30395 30396 30397 30398 30399 30400 30401 30402 30403 30404 30405 30406 30407 30408 30409 30410 30411 30412 30413 30414 30415 30416 30417 30418 30419 30420 30421 30422 30423 30424 30425 30426 30427 30428 30429 30430 30431 30432 30433 30434 30435 30436 30437 30438 30439 30440 30441 30442 30443 30444 30445 30446 30447 30448 30449 30450 30451 30452 30453 30454 30455 30456 30457 30458 30459 30460 30461 30462 30463 30464 30465 30466 30467 30468 30469 30470 30471 30472 30473 30474 30475 30476 30477 30478 30479 30480 30481 30482 30483 30484 30485 30486 30487 30488 30489 30490 30491 30492 30493 30494 30495 30496 30497 30498 30499 30500 30501 30502 30503 30504 30505 30506 30507 30508 30509 30510 30511 30512 30513 30514 30515 30516 30517 30518 30519 30520 30521 30522 30523 30524 30525 30526 30527 30528 30529 30530 30531 30532 30533 30534 30535 30536 30537 30538 30539 30540 30541 30542 30543 30544 30545 30546 30547 30548 30549 30550 30551 30552 30553 30554 30555 30556 30557 30558 30559 30560 30561 30562 30563 30564 30565 30566 30567 30568 30569 30570 30571 30572 30573 30574 30575 30576 30577 30578 30579 30580 30581 30582 30583 30584 30585 30586 30587 30588 30589 30590 30591 30592 30593 30594 30595 30596 30597 30598 30599 30600 30601 30602 30603 30604 30605 30606 30607 30608 30609 30610 30611 30612 30613 30614 30615 30616 30617 30618 30619 30620 30621 30622 30623 30624 30625 30626 30627 30628 30629 30630 30631 30632 30633 30634 30635 30636 30637 30638 30639 30640 30641 30642 30643 30644 30645 30646 30647 30648 30649 30650 30651 30652 30653 30654 30655 30656 30657 30658 30659 30660 30661 30662 30663 30664 30665 30666 30667 30668 30669 30670 30671 30672 30673 30674 30675 30676 30677 30678 30679 30680 30681 30682 30683 30684 30685 30686 30687 30688 30689 30690 30691 30692 30693 30694 30695 30696 30697 30698 30699 30700 30701 30702 30703 30704 30705 30706 30707 30708 30709 30710 30711 30712 30713 30714 30715 30716 30717 30718 30719 30720 30721 30722 30723 30724 30725 30726 30727 30728 30729 30730 30731 30732 30733 30734 30735 30736 30737 30738 30739 30740 30741 30742 30743 30744 30745 30746 30747 30748 30749 30750 30751 30752 30753 30754 30755 30756 30757 30758 30759 30760 30761 30762 30763 30764 30765 30766 30767 30768 30769 30770 30771 30772 30773 30774 30775 30776 30777 30778 30779 30780 30781 30782 30783 30784 30785 30786 30787 30788 30789 30790 30791 30792 30793 30794 30795 30796 30797 30798 30799 30800 30801 30802 30803 30804 30805 30806 30807 30808 30809 30810 30811 30812 30813 30814 30815 30816 30817 30818 30819 30820 30821 30822 30823 30824 30825 30826 30827 30828 30829 30830 30831 30832 30833 30834 30835 30836 30837 30838 30839 30840 30841 30842 30843 30844 30845 30846 30847 30848 30849 30850 30851 30852 30853 30854 30855 30856 30857 30858 30859 30860 30861 30862 30863 30864 30865 30866 30867 30868 30869 30870 30871 30872 30873 30874 30875 30876 30877 30878 30879 30880 30881 30882 30883 30884 30885 30886 30887 30888 30889 30890 30891 30892 30893 30894 30895 30896 30897 30898 30899 30900 30901 30902 30903 30904 30905 30906 30907 30908 30909 30910 30911 30912 30913 30914 30915 30916 30917 30918 30919 30920 30921 30922 30923 30924 30925 30926 30927 30928 30929 30930 30931 30932 30933 30934 30935 30936 30937 30938 30939 30940 30941 30942 30943 30944 30945 30946 30947 30948 30949 30950 30951 30952 30953 30954 30955 30956 30957 30958 30959 30960 30961 30962 30963 30964 30965 30966 30967 30968 30969 30970 30971 30972 30973 30974 30975 30976 30977 30978 30979 30980 30981 30982 30983 30984 30985 30986 30987 30988 30989 30990 30991 30992 30993 30994 30995 30996 30997 30998 30999 31000 31001 31002 31003 31004 31005 31006 31007 31008 31009 31010 31011 31012 31013 31014 31015 31016 31017 31018 31019 31020 31021 31022 31023 31024 31025 31026 31027 31028 31029 31030 31031 31032 31033 31034 31035 31036 31037 31038 31039 31040 31041 31042 31043 31044 31045 31046 31047 31048 31049 31050 31051 31052 31053 31054 31055 31056 31057 31058 31059 31060 31061 31062 31063 31064 31065 31066 31067 31068 31069 31070 31071 31072 31073 31074 31075 31076 31077 31078 31079 31080 31081 31082 31083 31084 31085 31086 31087 31088 31089 31090 31091 31092 31093 31094 31095 31096 31097 31098 31099 31100 31101 31102 31103 31104 31105 31106 31107 31108 31109 31110 31111 31112 31113 31114 31115 31116 31117 31118 31119 31120 31121 31122 31123 31124 31125 31126 31127 31128 31129 31130 31131 31132 31133 31134 31135 31136 31137 31138 31139 31140 31141 31142 31143 31144 31145 31146 31147 31148 31149 31150 31151 31152 31153 31154 31155 31156 31157 31158 31159 31160 31161 31162 31163 31164 31165 31166 31167 31168 31169 31170 31171 31172 31173 31174 31175 31176 31177 31178 31179 31180 31181 31182 31183 31184 31185 31186 31187 31188 31189 31190 31191 31192 31193 31194 31195 31196 31197 31198 31199 31200 31201 31202 31203 31204 31205 31206 31207 31208 31209 31210 31211 31212 31213 31214 31215 31216 31217 31218 31219 31220 31221 31222 31223 31224 31225 31226 31227 31228 31229 31230 31231 31232 31233 31234 31235 31236 31237 31238 31239 31240 31241 31242 31243 31244 31245 31246 31247 31248 31249 31250 31251 31252 31253 31254 31255 31256 31257 31258 31259 31260 31261 31262 31263 31264 31265 31266 31267 31268 31269 31270 31271 31272 31273 31274 31275 31276 31277 31278 31279 31280 31281 31282 31283 31284 31285 31286 31287 31288 31289 31290 31291 31292 31293 31294 31295 31296 31297 31298 31299 31300 31301 31302 31303 31304 31305 31306 31307 31308 31309 31310 31311 31312 31313 31314 31315 31316 31317 31318 31319 31320 31321 31322 31323 31324 31325 31326 31327 31328 31329 31330 31331 31332 31333 31334 31335 31336 31337 31338 31339 31340 31341 31342 31343 31344 31345 31346 31347 31348 31349 31350 31351 31352 31353 31354 31355 31356 31357 31358 31359 31360 31361 31362 31363 31364 31365 31366 31367 31368 31369 31370 31371 31372 31373 31374 31375 31376 31377 31378 31379 31380 31381 31382 31383 31384 31385 31386 31387 31388 31389 31390 31391 31392 31393 31394 31395 31396 31397 31398 31399 31400 31401 31402 31403 31404 31405 31406 31407 31408 31409 31410 31411 31412 31413 31414 31415 31416 31417 31418 31419 31420 31421 31422 31423 31424 31425 31426 31427 31428 31429 31430 31431 31432 31433 31434 31435 31436 31437 31438 31439 31440 31441 31442 31443 31444 31445 31446 31447 31448 31449 31450 31451 31452 31453 31454 31455 31456 31457 31458 31459 31460 31461 31462 31463 31464 31465 31466 31467 31468 31469 31470 31471 31472 31473 31474 31475 31476 31477 31478 31479 31480 31481 31482 31483 31484 31485 31486 31487 31488 31489 31490 31491 31492 31493 31494 31495 31496 31497 31498 31499 31500 31501 31502 31503 31504 31505 31506 31507 31508 31509 31510 31511 31512 31513 31514 31515 31516 31517 31518 31519 31520 31521 31522 31523 31524 31525 31526 31527 31528 31529 31530 31531 31532 31533 31534 31535 31536 31537 31538 31539 31540 31541 31542 31543 31544 31545 31546 31547 31548 
</DataArray>
<DataArray type="UInt32" Name="offsets" format="ascii">
3 5 8 11 14 17 20 22 25 28 30 33 35 38 40 43 46 49 52 54 57 60 62 65 68 70 73 75 78 81 84 87 90 92 95 97 100 103 105 108 111 114 117 120 123 126 129 132 135 138 141 144 147 150 153 156 159 162 165 168 171 173 176 179 182 185 188 190 193 196 199 202 205 208 211 213 216 219 222 225 228 231 234 237 240 243 246 249 252 255 258 261 264 267 270 273 276 279 282 285 288 291 294 297 300 303 306 309 312 315 318 321 323 326 328 331 333 336 339 341 344 347 349 352 355 358 361 363 366 369 371 374 377 380 383 386 389 392 395 398 401 404 407 410 413 415 418 421 424 427 430 432 435 438 441 444 447 450 453 456 458 460 463 466 469 472 474 477 480 483 486 489 492 494 497 500 503 506 509 512 515 518 521 524 527 530 532 535 538 541 544 547 549 552 555 558 561 564 567 570 573 576 579 582 585 588 591 594 597 600 603 606 609 612 615 618 621 624 627 630 633 636 639 642 645 648 651 654 657 660 663 666 669 672 674 677 680 682 685 688 690 693 696 699 702 705 708 711 714 717 720 723 726 729 732 735 738 741 744 746 749 752 755 757 760 763 766 769 772 775 778 781 784 787 790 793 796 799 802 804 807 810 813 816 819 821 824 827 830 833 835 838 841 844 847 850 853 856 859 862 865 868 871 874 877 879 882 885 888 890 893 896 899 902 905 908 911 914 917 920 923 926 929 932 934 936 939 942 945 948 951 953 956 959 961 963 966 969 971 974 977 980 983 986 989 992 995 998 1001 1004 1007 1010 1013 1016 1018 1021 1023 1025 1028 1031 1034 1037 1040 1043 1046 1048 1051 1054 1057 1060 1063 1065 1068 1071 1074 1077 1079 1082 1085 1088 1091 1094 1097 1100 1103 1106 1108 1111 1114 1117 1120 1123 1126 1128 1131 1134 1137 1140 1143 1146 1149 1151 1154 1157 1160 1163 1166 1169 1172 1175 1178 1181 1184 1187 1190 1192 1195 1198 1200 1203 1206 1209 1212 1215 1218 1221 1223 1226 1229 1232 1235 1238 1241 1243 1246 1249 1251 1254 1257 1260 1263 1265 1268 1271 1274 1277 1280 1283 1286 1289 1292 1295 1298 1301 1304 1307 1310 1313 1316 1319 1322 1325 1328 1331 1334 1337 1340 1343 1346 1349 1352 1355 1357 1360 1363 1366 1369 1372 1375 1378 1381 1384 1387 1389 1392 1395 1398 1400 1403 1406 1409 1412 1415 1418 1421 1424 1427 1430 1433 1436 1439 1442 1445 1448 1451 1454 1457 1460 1463 1466 1469 1472 1475 1478 1481 1484 1487 1490 1493 1496 1499 1502 1505 1508 1511 1514 1517 1520 1523 1526 1529 1531 1533 1536 1539 1542 1545 1547 1549 1552 1554 1557 1560 1563 1566 1569 1571 1574 1577 1580 1583 1586 1589 1592 1595 1598 1601 1604 1606 1609 1612 1615 1617 1620 1622 1624 1627 1630 1633 1636 1639 1641 1644 1647 1650 1652 1655 1658 1660 1663 1666 1669 1671 1673 1676 1679 1682 1685 1688 1690 1693 1696 1699 1702 1705 1708 1710 1713 1716 1719 1722 1725 1728 1731 1734 1737 1740 1743 1746 1749 1752 1755 1758 1761 1764 1767 1769 1772 1775 1778 1781 1784 1787 1790 1793 1796 1799 1802 1805 1808 1811 1814 1817 1819 1822 1825 1828 1831 1834 1836 1838 1841 1844 1847 1849 1852 1855 1858 1861 1864 1867 1870 1872 1875 1878 1880 1883 1885 1888 1891 1894 1897 1900 1903 1906 1909 1912 1915 1918 1921 1924 1927 1930 1933 1936 1939 1942 1945 1948 1951 1954 1957 1960 1962 1965 1968 1971 1974 1976 1978 1981 1984 1987 1990 1992 1995 1998 2001 2004 2007 2010 2013 2016 2019 2022 2025 2028 2031 2034 2037 2039 2042 2045 2048 2051 2054 2057 2060 2063 2066 2068 2071 2074 2077 2080 2083 2086 2089 2092 2095 2098 2101 2103 2106 2109 2112 2115 2118 2120 2123 2126 2128 2131 2134 2137 2140 2143 2146 2149 2152 2155 2158 2161 2163 2166 2168 2171 2174 2177 2180 2183 2186 2189 2192 2195 2198 2201 2204 2207 2210 2213 2216 2218 2221 2223 2226 2229 2232 2235 2237 2240 2243 2246 2249 2252 2255 2257 2260 2263 2266 2268 2271 2274 2277 2279 2281 2284 2287 2289 2292 2294 2296 2299 2302 2304 2306 2309 2312 2315 2317 2320 2323 2326 2329 2332 2335 2338 2341 2344 2347 2350 2352 2354 2357 2360 2363 2366 2368 2370 2372 2375 2378 2381 2384 2387 2390 2393 2396 2398 2401 2404 2407 2410 2413 2416 2419 2422 2425 2428 2430 2433 2436 2439 2442 2445 2448 2451 2454 2456 2459 2462 2465 2467 2470 2472 2475 2478 2481 2483 2486 2489 2491 2493 2496 2498 2500 2502 2505 2507 2510 2513 2516 2519 2522 2524 2527 2529 2532 2535 2538 2540 2543 2546 2548 2551 2554 2556 2559 2561 2564 2567 2570 2573 2576 2579 2582 2584 2587 2590 2593 2596 2598 2601 2604 2607 2610 2613 2616 2618 2620 2623 2626 2628 2630 2633 2635 2638 2641 2644 2646 2649 2652 2655 2658 2660 2662 2664 2666 2669 2671 2674 2677 2680 2683 2686 2688 2690 2692 2694 2697 2700 2703 2705 2707 2710 2712 2714 2716 2719 2721 2723 2726 2728 2730 2732 2735 2738 2741 2743 2746 2748 2750 2753 2756 2759 2762 2765 2767 2770 2772 2775 2777 2780 2783 2785 2788 2790 2793 2796 2799 2801 2804 2807 2809 2812 2814 2817 2820 2822 2824 2827 2830 2832 2835 2837 2840 2843 2845 2847 2850 2853 2855 2858 2861 2864 2866 2868 2871 2874 2876 2879 2882 2885 2888 2891 2893 2896 2899 2902 2904 2907 2910 2913 2915 2918 2921 2924 2927 2930 2933 2935 2938 2941 2943 2946 2949 2952 2955 2958 2961 2964 2967 2969 2971 2974 2977 2980 2983 2986 2989 2992 2994 2997 3000 3003 3006 3008 3011 3014 3017 3020 3023 3026 3029 3031 3034 3037 3040 3043 3046 3049 3052 3054 3057 3060 3063 3065 3068 3071 3074 3077 3079 3082 3084 3086 3089 3092 3095 3097 3099 3101 3104 3107 3109 3111 3114 3117 3120 3123 3125 3128 3131 3134 3137 3140 3143 3146 3149 3152 3155 3158 3161 3164 3166 3169 3172 3175 3178 3181 3184 3186 3189 3192 3195 3198 3201 3204 3206 3209 3212 3215 3217 3220 3223 3226 3229 3232 3235 3238 3241 3244 3246 3248 3250 3253 3256 3259 3262 3265 3268 3271 3274 3277 3280 3283 3286 3289 3292 3295 3298 3300 3303 3306 3308 3311 3314 3317 3320 3323 3326 3329 3332 3335 3338 3341 3344 3347 3350 3352 3355 3358 3361 3364 3367 3370 3373 3376 3379 3382 3385 3388 3391 3393 3396 3399 3401 3403 3406 3409 3411 3414 3417 3419 3422 3425 3427 3430 3433 3436 3439 3441 3444 3447 3450 3453 3456 3459 3462 3465 3468 3471 3474 3477 3480 3482 3484 3486 3489 3491 3494 3496 3499 3502 3505 3508 3511 3514 3517 3520 3522 3525 3527 3530 3533 3536 3539 3542 3545 3548 3551 3554 3557 3560 3563 3566 3569 3572 3575 3578 3581 3584 3587 3590 3593 3596 3599 3602 3605 3608 3610 3613 3616 3619 3622 3625 3628 3631 3634 3637 3640 3643 3646 3649 3651 3654 3657 3660 3663 3666 3669 3672 3675 3678 3680 3682 3685 3688 3691 3694 3696 3699 3701 3704 3707 3710 3713 3716 3719 3721 3723 3726 3729 3732 3735 3738 3741 3744 3747 3750 3753 3756 3759 3762 3765 3768 3771 3774 3777 3780 3783 3786 3789 3792 3795 3797 3800 3802 3805 3807 3810 3813 3816 3819 3822 3825 3827 3830 3833 3835 3838 3841 3844 3847 3850 3853 3856 3859 3862 3865 3867 3870 3873 3876 3879 3882 3885 3887 3890 3893 3896 3899 3902 3905 3908 3910 3913 3916 3919 3922 3925 3928 3931 3934 3937 3940 3943 3946 3949 3952 3955 3958 3961 3964 3967 3970 3973 3976 3978 3981 3984 3987 3990 3993 3996 3999 4002 4005 4008 4011 4014 4017 4020 4023 4026 4029 4032 4035 4038 4041 4044 4046 4049 4052 4055 4057 4060 4063 4066 4069 4072 4075 4077 4080 4082 4085 4088 4091 4094 4097 4100 4103 4106 4108 4111 4113 4116 4119 4122 4124 4127 4130 4133 4135 4138 4141 4144 4147 4149 4151 4154 4157 4160 4163 4166 4169 4172 4175 4178 4181 4184 4187 4190 4193 4196 4199 4202 4205 4208 4211 4214 4216 4219 4222 4225 4228 4231 4234 4236 4239 4241 4244 4247 4250 4253 4256 4259 4262 4265 4268 4271 4274 4277 4280 4283 4286 4289 4292 4295 4298 4301 4304 4307 4310 4313 4316 4319 4322 4325 4328 4331 4334 4337 4339 4341 4344 4346 4349 4352 4355 4357 4360 4363 4366 4368 4371 4373 4376 4379 4382 4385 4388 4391 4394 4396 4399 4401 4404 4407 4410 4413 4416 4418 4421 4423 4426 4429 4432 4434 4437 4440 4443 4446 4449 4452 4455 4458 4461 4464 4467 4470 4473 4476 4479 4482 4485 4487 4490 4492 4495 4498 4500 4503 4506 4509 4512 4515 4518 4521 4524 4527 4530 4533 4536 4539 4542 4544 4547 4550 4553 4556 4559 4562 4565 4567 4570 4573 4576 4579 4582 4585 4588 4590 4593 4596 4599 4602 4605 4608 4611 4614 4617 4619 4622 4624 4627 4630 4633 4636 4639 4642 4645 4648 4651 4654 4657 4660 4663 4666 4669 4672 4675 4678 4681 4684 4687 4690 4693 4696 4699 4702 4705 4708 4710 4713 4716 4719 4722 4725 4728 4731 4734 4737 4740 4743 4746 4749 4752 4755 4758 4761 4764 4767 4769 4772 4775 4778 4781 4783 4786 4789 4791 4794 4797 4800 4803 4806 4809 4812 4815 4818 4821 4824 4827 4830 4833 4836 4839 4842 4844 4847 4850 4852 4855 4858 4861 4864 4867 4870 4873 4876 4879 4882 4885 4888 4891 4894 4897 4899 4902 4905 4908 4911 4914 4917 4920 4923 4926 4929 4932 4935 4938 4941 4944 4947 4950 4953 4956 4959 4962 4965 4968 4971 4974 4977 4979 4982 4984 4987 4990 4993 4996 4999 5002 5005 5008 5011 5013 5016 5019 5022 5025 5027 5030 5033 5035 5038 5041 5043 5046 5049 5052 5055 5058 5061 5063 5066 5069 5072 5075 5078 5081 5084 5087 5090 5093 5096 5099 5102 5105 5108 5111 5114 5117 5120 5123 5126 5129 5132 5135 5138 5141 5144 5147 5150 5153 5156 5159 5162 5165 5168 5171 5174 5177 5180 5183 5186 5189 5192 5195 5198 5201 5204 5207 5210 5213 5216 5219 5222 5225 5228 5231 5234 5237 5240 5243 5246 5249 5252 5255 5258 5261 5264 5267 5269 5272 5275 5278 5281 5284 5287 5290 5293 5296 5299 5301 5304 5307 5310 5312 5315 5317 5319 5322 5325 5328 5331 5334 5337 5340 5343 5346 5349 5352 5355 5358 5361 5364 5367 5370 5373 5376 5378 5381 5384 5386 5389 5392 5394 5397 5399 5402 5404 5407 5410 5413 5416 5419 5421 5424 5427 5430 5433 5436 5439 5442 5445 5448 5451 5454 5457 5460 5463 5466 5469 5472 5475 5478 5481 5484 5487 5490 5493 5496 5499 5502 5505 5508 5511 5514 5516 5519 5522 5525 5527 5530 5533 5536 5539 5542 5545 5548 5551 5554 5557 5560 5563 5566 5569 5572 5575 5578 5581 5584 5587 5590 5593 5595 5598 5600 5603 5606 5609 5611 5614 5617 5620 5623 5626 5629 5632 5635 5638 5641 5644 5647 5650 5653 5656 5659 5662 5665 5668 5671 5674 5677 5680 5683 5686 5689 5692 5695 5698 5701 5704 5707 5710 5713 5716 5718 5721 5724 5727 5730 5733 5736 5739 5742 5745 5747 5750 5753 5756 5759 5761 5764 5767 5770 5773 5776 5779 5781 5784 5786 5789 5792 5795 5798 5801 5803 5806 5809 5812 5815 5818 5820 5823 5826 5829 5831 5834 5837 5840 5842 5845 5848 5851 5853 5856 5859 5862 5865 5867 5870 5873 5875 5878 5881 5883 5886 5889 5891 5894 5897 5899 5902 5905 5908 5911 5914 5917 5920 5923 5926 5929 5932 5934 5937 5940 5943 5946 5949 5952 5954 5957 5960 5963 5965 5968 5971 5974 5976 5979 5981 5984 5987 5990 5992 5995 5998 6001 6004 6007 6010 6013 6016 6019 6022 6025 6028 6031 6034 6037 6040 6043 6046 6049 6052 6055 6058 6061 6064 6067 6070 6072 6075 6078 6081 6083 6086 6089 6091 6094 6096 6099 6102 6105 6108 6110 6112 6115 6118 6120 6123 6126 6129 6132 6135 6138 6141 6144 6146 6148 6151 6154 6157 6160 6163 6165 6168 6171 6174 6177 6180 6183 6185 6188 6191 6194 6197 6200 6203 6205 6208 6211 6214 6217 6220 6223 6226 6229 6232 6235 6238 6241 6244 6246 6248 6251 6254 6257 6260 6262 6265 6267 6270 6273 6276 6279 6282 6285 6288 6291 6293 6296 6299 6302 6305 6308 6311 6314 6317 6320 6322 6325 6328 6331 6333 6336 6339 6341 6343 6346 6348 6351 6353 6356 6359 6362 6365 6368 6371 6374 6377 6380 6383 6386 6389 6392 6395 6397 6400 6403 6406 6409 6411 6414 6417 6420 6422 6425 6428 6431 6434 6437 6439 6441 6444 6447 6450 6453 6456 6459 6462 6465 6468 6471 6474 6477 6480 6483 6486 6489 6492 6495 6498 6501 6504 6507 6510 6513 6516 6519 6522 6525 6528 6531 6534 6537 6540 6543 6546 6549 6552 6555 6558 6561 6564 6567 6570 6573 6576 6579 6582 6585 6588 6591 6593 6596 6599 6602 6605 6608 6611 6614 6617 6620 6623 6626 6629 6632 6634 6637 6640 6643 6646 6649 6652 6655 6658 6661 6664 6667 6670 6673 6676 6679 6682 6685 6688 6691 6694 6696 6699 6702 6705 6707 6710 6712 6715 6718 6721 6723 6726 6729 6732 6735 6738 6741 6744 6747 6750 6753 6756 6759 6762 6765 6768 6771 6774 6777 6780 6783 6785 6788 6790 6793 6796 6799 6801 6804 6807 6809 6812 6815 6818 6820 6822 6825 6828 6830 6832 6835 6838 6841 6844 6847 6850 6853 6856 6859 6862 6865 6868 6871 6874 6876 6879 6882 6885 6888 6890 6893 6896 6899 6902 6905 6908 6911 6914 6917 6920 6923 6925 6928 6931 6934 6936 6939 6942 6945 6948 6951 6954 6957 6960 6963 6966 6969 6972 6975 6978 6981 6984 6987 6990 6993 6996 6999 7002 7005 7008 7010 7013 7016 7018 7021 7023 7025 7028 7031 7034 7036 7039 7042 7045 7048 7051 7054 7057 7060 7063 7066 7069 7072 7075 7078 7081 7083 7086 7089 7092 7095 7098 7101 7104 7107 7110 7113 7116 7119 7122 7125 7127 7130 7133 7135 7138 7141 7143 7146 7149 7151 7154 7157 7159 7162 7165 7168 7171 7174 7177 7180 7183 7186 7189 7192 7195 7198 7201 7203 7205 7208 7211 7214 7217 7219 7222 7225 7228 7231 7234 7236 7239 7242 7245 7247 7250 7253 7256 7259 7262 7265 7268 7270 7272 7275 7278 7280 7283 7286 7289 7291 7294 7296 7299 7301 7304 7306 7309 7312 7315 7318 7321 7324 7327 7330 7333 7335 7338 7341 7343 7345 7348 7351 7354 7357 7360 7363 7366 7369 7372 7375 7378 7380 7383 7386 7389 7392 7394 7397 7400 7403 7405 7407 7410 7413 7416 7418 7420 7423 7426 7429 7432 7434 7437 7439 7442 7445 7448 7451 7453 7456 7458 7460 7463 7466 7469 7472 7475 7478 7481 7484 7486 7489 7492 7495 7497 7500 7503 7505 7508 7511 7513 7515 7518 7520 7522 7525 7528 7531 7534 7536 7539 7541 7544 7547 7550 7553 7556 7558 7560 7563 7566 7568 7571 7574 7577 7579 7582 7585 7588 7590 7593 7595 7598 7601 7604 7607 7610 7612 7614 7617 7620 7623 7626 7629 7632 7635 7638 7641 7643 7646 7649 7652 7655 7658 7661 7664 7667 7670 7672 7675 7678 7681 7684 7687 7690 7693 7696 7698 7701 7704 7707 7710 7712 7715 7718 7720 7722 7725 7728 7731 7733 7735 7738 7741 7744 7747 7749 7752 7755 7758 7761 7764 7767 7770 7773 7776 7779 7782 7785 7788 7791 7794 7796 7798 7800 7802 7805 7808 7810 7813 7816 7818 7820 7823 7826 7829 7832 7834 7836 7839 7842 7845 7847 7850 7853 7856 7858 7861 7864 7867 7869 7872 7875 7878 7881 7884 7887 7890 7893 7895 7898 7900 7903 7906 7908 7911 7914 7917 7920 7923 7926 7929 7931 7934 7937 7940 7943 7945 7948 7951 7954 7957 7959 7961 7964 7967 7970 7973 7975 7978 7981 7984 7987 7990 7992 7995 7998 8001 8004 8006 8009 8012 8015 8018 8021 8024 8027 8029 8032 8035 8038 8041 8044 8046 8049 8052 8054 8057 8060 8063 8066 8069 8072 8074 8077 8080 8083 8086 8089 8091 8094 8097 8100 8102 8105 8108 8111 8114 8117 8120 8123 8125 8128 8131 8133 8136 8138 8141 8144 8147 8150 8153 8156 8159 8162 8165 8168 8171 8173 8176 8179 8182 8185 8188 8191 8194 8197 8199 8202 8205 8208 8211 8214 8217 8220 8223 8226 8228 8231 8234 8237 8239 8242 8244 8247 8250 8253 8256 8258 8261 8264 8267 8270 8273 8276 8279 8282 8285 8287 8290 8293 8296 8298 8301 8304 8307 8309 8312 8315 8318 8321 8323 8326 8329 8332 8335 8337 8340 8343 8346 8349 8352 8355 8358 8361 8364 8367 8370 8373 8376 8379 8382 8385 8388 8391 8394 8396 8399 8401 8404 8407 8410 8413 8416 8419 8422 8425 8428 8431 8434 8437 8439 8442 8444 8447 8450 8453 8456 8459 8462 8464 8466 8468 8471 8474 8477 8480 8483 8486 8489 8492 8495 8498 8500 8503 8506 8508 8511 8514 8517 8519 8522 8525 8528 8531 8534 8537 8540 8543 8546 8549 8551 8554 8557 8560 8562 8564 8567 8569 8572 8575 8578 8581 8584 8587 8590 8593 8595 8598 8600 8603 8606 8609 8612 8615 8618 8621 8624 8627 8629 8632 8635 8638 8641 8643 8646 8649 8652 8655 8658 8661 8663 8666 8669 8672 8675 8678 8681 8684 8687 8689 8692 8694 8697 8699 8702 8704 8707 8710 8713 8716 8719 8722 8725 8728 8730 8733 8736 8739 8742 8745 8747 8750 8753 8756 8759 8761 8764 8767 8770 8772 8775 8778 8781 8784 8787 8790 8793 8795 8798 8801 8804 8807 8810 8813 8815 8818 8821 8824 8826 8829 8832 8835 8838 8841 8844 8847 8850 8853 8856 8859 8862 8865 8868 8871 8873 8876 8879 8882 8885 8888 8891 8894 8897 8899 8902 8905 8908 8911 8914 8917 8920 8923 8926 8929 8932 8935 8938 8941 8943 8946 8949 8951 8954 8957 8960 8962 8965 8967 8969 8972 8975 8978 8981 8983 8986 8988 8991 8994 8997 9000 9003 9006 9009 9012 9015 9017 9019 9022 9025 9028 9030 9032 9035 9038 9040 9042 9045 9047 9050 9053 9055 9058 9060 9063 9066 9069 9072 9075 9078 9081 9084 9087 9090 9092 9095 9097 9100 9103 9106 9108 9111 9113 9116 9119 9121 9124 9126 9128 9131 9133 9136 9139 9141 9144 9147 9150 9152 9154 9156 9158 9161 9163 9166 9168 9171 9174 9177 9180 9183 9186 9189 9192 9194 9197 9200 9203 9206 9209 9212 9215 9218 9221 9224 9226 9228 9231 9233 9236 9239 9242 9245 9248 9251 9254 9256 9259 9261 9264 9267 9270 9273 9276 9279 9281 9284 9286 9289 9292 9294 9297 9300 9302 9305 9308 9311 9313 9316 9319 9322 9325 9327 9329 9332 9334 9337 9340 9343 9346 9348 9350 9353 9356 9359 9362 9365 9368 9371 9374 9377 9380 9383 9386 9389 9391 9394 9397 9400 9403 9406 9409 9412 9415 9417 9420 9423 9426 9429 9432 9435 9438 9441 9444 9447 9449 9452 9455 9457 9459 9462 9465 9468 9470 9473 9476 9479 9482 9485 9488 9491 9493 9496 9499 9502 9505 9507 9510 9513 9515 9518 9521 9524 9527 9530 9533 9536 9539 9542 9545 9547 9550 9553 9556 9559 9561 9563 9566 9569 9571 9573 9576 9579 9582 9585 9588 9590 9593 9596 9599 9602 9605 9607 9609 9612 9615 9617 9620 9623 9626 9628 9630 9633 9636 9639 9641 9643 9645 9648 9651 9654 9656 9659 9661 9664 9667 9670 9673 9676 9679 9682 9685 9688 9691 9694 9697 9700 9703 9706 9709 9711 9713 9715 9718 9721 9724 9727 9730 9733 9736 9739 9742 9745 9748 9751 9754 9757 9760 9763 9766 9769 9772 9775 9777 9780 9782 9785 9788 9791 9794 9797 9800 9802 9805 9808 9811 9814 9817 9820 9823 9826 9829 9832 9835 9838 9840 9843 9846 9849 9852 9855 9858 9861 9864 9867 9870 9872 9874 9877 9880 9883 9886 9889 9892 9894 9897 9900 9903 9905 9908 9911 9914 9916 9919 9922 9925 9928 9931 9934 9936 9939 9941 9944 9946 9949 9952 9955 9957 9959 9962 9965 9968 9970 9973 9976 9979 9982 9985 9988 9990 9993 9996 9999 10002 10004 10007 10009 10012 10015 10018 10020 10023 10026 10028 10031 10034 10037 10039 10042 10045 10048 10051 10054 10056 10059 10062 10064 10066 10068 10071 10074 10077 10080 10083 10086 10089 10092 10094 10097 10099 10102 10105 10108 10111 10114 10117 10120 10123 10126 10129 10132 10134 10137 10140 10142 10145 10148 10151 10154 10157 10160 10163 10166 10169 10172 10174 10177 10180 10183 10186 10189 10192 10194 10197 10200 10202 10205 10208 10211 10214 10217 10219 10222 10225 10228 10231 10234 10237 10239 10242 10245 10248 10251 10254 10257 10259 10261 10263 10266 10269 10272 10274 10277 10280 10283 10286 10288 10291 10294 10296 10299 10301 10304 10307 10309 10312 10315 10318 10321 10324 10327 10329 10332 10335 10338 10341 10343 10345 10347 10350 10353 10356 10359 10362 10365 10368 10371 10374 10377 10379 10382 10385 10388 10391 10394 10397 10400 10403 10406 10409 10412 10415 10418 10420 10423 10426 10429 10432 10435 10438 10441 10444 10447 10450 10453 10456 10459 10462 10465 10468 10471 10474 10477 10480 10483 10486 10489 10492 10495 10498 10501 10504 10507 10509 10512 10515 10518 10521 10524 10527 10530 10533 10536 10539 10542 10545 10548 10551 10554 10557 10560 10563 10566 10569 10572 10575 10577 10580 10583 10586 10589 10592 10595 10598 10601 10604 10606 10609 10612 10614 10617 10620 10623 10625 10628 10631 10633 10636 10639 10642 10645 10648 10651 10654 10657 10660 10663 10665 10668 10671 10674 10677 10680 10683 10686 10688 10691 10694 10697 10699 10702 10705 10708 10711 10714 10717 10720 10722 10725 10727 10729 10732 10735 10738 10741 10743 10745 10748 10751 10754 10757 10760 10763 10766 10769 10772 10775 10778 10781 10784 10787 10790 10793 10796 10799 10802 10805 10808 10811 10814 10817 10820 10823 10826 10829 10831 10834 10837 10840 10842 10845 10848 10851 10853 10856 10859 10862 10864 10867 10870 10873 10875 10878 10881 10884 10887 10890 10893 10896 10899 10902 10905 10908 10911 10913 10916 10919 10921 10923 10926 10929 10932 10935 10938 10941 10944 10947 10950 10953 10956 10958 10961 10964 10967 10969 10971 10973 10975 10978 10981 10984 10987 10990 10993 10996 10999 11002 11004 11007 11009 11012 11015 11018 11020 11023 11026 11028 11031 11033 11036 11039 11042 11045 11048 11051 11054 11057 11059 11062 11065 11068 11070 11073 11076 11078 11081 11084 11087 11089 11092 11094 11097 11100 11103 11106 11109 11112 11115 11118 11121 11124 11127 11130 11133 11136 11139 11142 11144 11147 11150 11153 11156 11159 11162 11165 11168 11171 11174 11177 11180 11183 11186 11189 11192 11195 11198 11200 11202 11204 11207 11210 11213 11216 11219 11222 11225 11228 11231 11234 11237 11239 11242 11245 11248 11250 11252 11255 11257 11260 11263 11266 11268 11271 11273 11275 11278 11281 11284 11287 11290 11293 11296 11299 11302 11305 11308 11311 11313 11316 11319 11322 11325 11328 11330 11333 11336 11339 11342 11345 11348 11350 11352 11355 11358 11361 11363 11366 11369 11372 11375 11378 11381 11384 11387 11390 11393 11396 11399 11402 11405 11408 11411 11414 11417 11420 11422 11425 11428 11431 11433 11436 11439 11442 11445 11447 11449 11452 11455 11458 11461 11464 11467 11470 11473 11476 11479 11482 11485 11488 11491 11494 11497 11500 11503 11506 11508 11511 11514 11517 11519 11522 11525 11528 11531 11533 11536 11539 11542 11545 11547 11550 11552 11554 11557 11559 11562 11565 11568 11571 11574 11577 11580 11583 11585 11588 11590 11593 11596 11598 11601 11604 11606 11609 11612 11615 11618 11621 11624 11626 11629 11632 11635 11638 11640 11643 11646 11649 11652 11655 11658 11661 11664 11666 11669 11672 11674 11677 11679 11682 11685 11687 11689 11691 11694 11697 11700 11702 11705 11708 11711 11714 11716 11719 11722 11725 11728 11730 11732 11735 11738 11741 11744 11747 11750 11753 11756 11759 11762 11765 11767 11770 11773 11776 11779 11782 11785 11788 11791 11794 11797 11800 11803 11806 11809 11812 11815 11818 11821 11824 11827 11830 11833 11836 11839 11842 11845 11848 11851 11854 11857 11860 11862 11864 11867 11869 11872 11875 11878 11881 11883 11886 11889 11892 11895 11897 11899 11901 11903 11906 11909 11912 11915 11918 11920 11923 11926 11928 11931 11933 11936 11939 11942 11945 11948 11951 11954 11956 11959 11962 11965 11968 11971 11974 11977 11980 11983 11985 11988 11991 11994 11996 11999 12001 12004 12007 12010 12013 12015 12018 12021 12023 12026 12028 12031 12034 12036 12039 12042 12044 12047 12049 12052 12055 12058 12060 12063 12066 12069 12072 12075 12078 12081 12084 12087 12090 12093 12096 12099 12102 12105 12108 12111 12114 12117 12120 12123 12126 12129 12132 12135 12138 12141 12144 12147 12150 12153 12156 12159 12162 12165 12168 12171 12174 12177 12180 12183 12186 12189 12192 12195 12198 12201 12204 12207 12210 12213 12216 12219 12222 12225 12228 12231 12234 12237 12240 12243 12246 12249 12252 12255 12258 12261 12263 12266 12269 12272 12275 12278 12281 12284 12287 12290 12293 12296 12298 12301 12304 12307 12309 12312 12315 12318 12321 12324 12327 12330 12333 12336 12339 12342 12345 12348 12351 12354 12357 12360 12363 12366 12369 12372 12375 12378 12381 12384 12387 12390 12393 12396 12399 12402 12405 12408 12411 12414 12417 12420 12423 12426 12428 12430 12433 12436 12439 12442 12445 12448 12451 12454 12456 12459 12461 12463 12466 12469 12472 12475 12478 12481 12484 12487 12490 12493 12496 12499 12502 12505 12508 12511 12514 12517 12520 12523 12526 12529 12532 12535 12538 12541 12544 12547 12550 12553 12556 12559 12562 12565 12568 12571 12574 12576 12579 12582 12585 12587 12589 12592 12595 12597 12600 12603 12606 12609 12612 12615 12617 12620 12623 12626 12629 12632 12635 12638 12640 12643 12646 12649 12652 12655 12658 12661 12663 12666 12669 12672 12675 12677 12680 12683 12686 12688 12690 12692 12695 12698 12701 12704 12707 12710 12712 12715 12717 12720 12723 12726 12728 12730 12732 12735 12738 12741 12744 12747 12749 12752 12755 12758 12761 12764 12766 12768 12771 12774 12777 12780 12783 12786 12789 12792 12795 12798 12801 12804 12807 12810 12813 12816 12819 12822 12825 12828 12831 12834 12837 12840 12843 12845 12848 12851 12854 12857 12860 12863 12866 12868 12871 12873 12875 12878 12881 12884 12886 12889 12892 12895 12898 12901 12904 12907 12910 12913 12916 12919 12922 12925 12927 12930 12933 12936 12939 12942 12945 12948 12951 12954 12957 12960 12963 12966 12969 12972 12975 12978 12981 12984 12987 12990 12993 12996 12999 13002 13005 13007 13010 13013 13016 13019 13022 13025 13028 13031 13034 13037 13040 13043 13046 13049 13052 13055 13058 13061 13063 13066 13069 13072 13075 13077 13080 13083 13086 13089 13092 13095 13098 13101 13104 13107 13110 13113 13116 13119 13122 13125 13128 13131 13134 13137 13140 13143 13146 13149 13152 13155 13158 13161 13164 13167 13170 13173 13176 13179 13182 13185 13188 13190 13193 13196 13199 13202 13204 13207 13210 13213 13216 13219 13222 13224 13227 13230 13233 13236 13239 13242 13244 13247 13250 13253 13256 13259 13262 13264 13267 13269 13271 13274 13277 13280 13282 13285 13288 13291 13294 13297 13300 13302 13305 13307 13310 13313 13316 13319 13322 13325 13328 13331 13333 13336 13338 13341 13344 13347 13349 13352 13355 13358 13360 13363 13366 13369 13372 13375 13378 13381 13384 13387 13390 13392 13395 13398 13401 13404 13407 13409 13412 13415 13418 13420 13423 13426 13429 13432 13435 13438 13441 13444 13447 13449 13452 13455 13458 13461 13464 13467 13470 13473 13476 13479 13482 13485 13488 13491 13494 13497 13500 13503 13506 13509 13512 13515 13518 13521 13524 13527 13530 13533 13536 13539 13542 13545 13548 13551 13554 13557 13560 13563 13566 13569 13572 13575 13578 13580 13583 13586 13589 13592 13595 13598 13601 13604 13607 13610 13613 13615 13617 13620 13623 13626 13628 13630 13633 13636 13638 13641 13644 13647 13650 13653 13655 13657 13660 13663 13666 13669 13672 13674 13677 13680 13683 13686 13689 13691 13694 13697 13700 13702 13705 13708 13711 13714 13717 13720 13723 13726 13729 13732 13735 13738 13741 13744 13746 13749 13751 13754 13757 13760 13763 13766 13769 13772 13775 13778 13780 13783 13786 13789 13792 13794 13797 13800 13803 13805 13808 13811 13814 13817 13820 13823 13825 13828 13831 13834 13837 13840 13843 13845 13848 13851 13854 13857 13860 13863 13866 13869 13872 13875 13877 13880 13882 13885 13888 13891 13894 13897 13900 13903 13905 13908 13911 13914 13917 13920 13923 13926 13929 13932 13935 13937 13940 13943 13946 13948 13951 13954 13957 13960 13963 13966 13969 13972 13975 13978 13981 13984 13987 13990 13993 13996 13999 14002 14005 14008 14010 14013 14016 14019 14022 14025 14028 14031 14034 14037 14040 14043 14046 14049 14052 14054 14057 14060 14062 14065 14068 14071 14073 14076 14079 14082 14085 14088 14091 14094 14097 14100 14103 14106 14109 14112 14115 14118 14121 14123 14125 14128 14131 14134 14136 14139 14142 14145 14148 14151 14154 14157 14160 14162 14165 14168 14171 14174 14177 14179 14182 14185 14188 14191 14193 14196 14199 14202 14204 14207 14210 14213 14215 14217 14220 14223 14226 14229 14232 14235 14238 14240 14243 14246 14249 14251 14254 14257 14260 14263 14265 14268 14271 14274 14277 14280 14283 14286 14289 14291 14294 14297 14300 14303 14306 14309 14312 14315 14318 14321 14324 14327 14330 14333 14336 14339 14342 14345 14348 14351 14353 14356 14359 14362 14365 14368 14370 14373 14376 14379 14382 14384 14387 14390 14393 14396 14399 14402 14405 14408 14411 14414 14416 14419 14422 14425 14428 14431 14434 14437 14439 14442 14445 14448 14451 14454 14457 14459 14462 14465 14468 14471 14474 14477 14480 14483 14486 14489 14492 14495 14498 14501 14504 14506 14509 14512 14515 14518 14521 14524 14527 14530 14533 14536 14538 14541 14544 14547 14549 14552 14555 14558 14561 14564 14567 14570 14573 14576 14579 14582 14585 14588 14591 14594 14597 14600 14603 14606 14609 14612 14615 14618 14621 14624 14626 14629 14632 14634 14637 14640 14643 14646 14649 14652 14654 14657 14660 14663 14666 14669 14672 14675 14678 14681 14684 14687 14689 14691 14694 14697 14700 14703 14706 14708 14711 14713 14716 14719 14722 14725 14728 14731 14734 14736 14739 14742 14745 14748 14751 14754 14757 14760 14763 14766 14769 14772 14775 14778 14781 14784 14787 14790 14792 14795 14798 14800 14803 14806 14809 14811 14814 14816 14819 14822 14825 14828 14831 14833 14835 14838 14841 14844 14846 14849 14851 14854 14857 14860 14863 14866 14869 14872 14875 14878 14881 14884 14887 14890 14893 14896 14899 14902 14905 14908 14911 14914 14917 14920 14922 14925 14928 14930 14933 14936 14939 14942 14945 14947 14950 14953 14956 14959 14962 14965 14968 14971 14974 14977 14980 14983 14986 14989 14991 14994 14996 14999 15001 15003 15006 15009 15012 15015 15018 15020 15022 15025 15028 15031 15034 15037 15040 15043 15046 15049 15052 15055 15058 15061 15064 15067 15070 15073 15075 15078 15081 15084 15087 15090 15093 15096 15098 15101 15104 15107 15110 15113 15116 15119 15122 15125 15128 15131 15134 15137 15140 15143 15146 15149 15152 15154 15157 15160 15163 15166 15169 15172 15175 15178 15181 15184 15187 15190 15193 15196 15199 15202 15205 15208 15211 15214 15217 15220 15222 15225 15227 15229 15232 15234 15236 15239 15242 15245 15248 15251 15253 15256 15259 15261 15264 15267 15270 15273 15275 15277 15280 15283 15285 15287 15290 15293 15296 15299 15301 15303 15306 15309 15312 15315 15318 15321 15324 15327 15329 15331 15334 15337 15340 15343 15346 15349 15352 15355 15358 15361 15364 15367 15370 15372 15375 15377 15380 15383 15385 15388 15391 15393 15395 15398 15401 15404 15406 15408 15411 15414 15416 15419 15422 15425 15427 15430 15433 15435 15438 15441 15444 15447 15450 15453 15456 15459 15462 15465 15468 15470 15473 15476 15479 15482 15485 15488 15490 15493 15495 15497 15500 15503 15506 15509 15512 15514 15517 15520 15523 15526 15529 15532 15535 15538 15541 15543 15546 15549 15552 15555 15558 15560 15563 15566 15569 15572 15575 15578 15581 15584 15587 15590 15593 15596 15599 15602 15605 15608 15611 15614 15617 15620 15622 15625 15628 15631 15634 15637 15640 15643 15646 15649 15651 15654 15657 15660 15662 15665 15668 15671 15673 15676 15679 15682 15685 15687 15690 15693 15696 15699 15701 15703 15706 15709 15711 15713 15716 15719 15722 15725 15728 15731 15734 15737 15740 15743 15745 15748 15751 15754 15757 15759 15762 15765 15768 15770 15773 15776 15779 15782 15785 15787 15790 15793 15796 15799 15802 15805 15808 15811 15813 15816 15818 15821 15824 15827 15830 15833 15836 15839 15841 15844 15847 15849 15852 15855 15858 15860 15863 15866 15869 15872 15875 15878 15881 15884 15887 15889 15892 15895 15898 15901 15904 15907 15910 15913 15915 15918 15921 15924 15927 15930 15933 15936 15938 15940 15943 15946 15948 15951 15954 15956 15959 15962 15964 15967 15970 15973 15975 15978 15980 15983 15986 15989 15991 15994 15996 15999 16001 16003 16006 16009 16012 16015 16018 16021 16023 16026 16029 16032 16035 16037 16040 16043 16046 16049 16052 16055 16058 16061 16064 16067 16070 16072 16075 16078 16081 16084 16087 16090 16092 16095 16098 16101 16103 16105 16108 16110 16113 16116 16119 16122 16125 16128 16131 16134 16136 16139 16141 16143 16146 16149 16152 16155 16158 16161 16163 16166 16169 16172 16175 16178 16181 16184 16186 16189 16192 16195 16198 16201 16204 16207 16210 16213 16215 16217 16220 16223 16226 16229 16231 16234 16237 16240 16243 16246 16248 16251 16254 16256 16259 16262 16265 16268 16270 16273 16276 16279 16282 16285 16287 16289 16292 16295 16298 16301 16303 16306 16309 16312 16315 16318 16321 16324 16327 16330 16333 16336 16339 16342 16345 16348 16351 16354 16357 16360 16363 16366 16369 16372 16375 16378 16381 16384 16387 16390 16393 16396 16399 16402 16405 16408 16411 16414 16417 16420 16423 16426 16429 16432 16435 16438 16441 16444 16447 16450 16453 16456 16459 16462 16464 16467 16470 16473 16476 16478 16480 16483 16485 16488 16491 16494 16497 16500 16503 16506 16509 16512 16515 16518 16521 16524 16527 16530 16533 16536 16539 16542 16545 16548 16551 16554 16557 16560 16563 16566 16569 16572 16575 16578 16581 16583 16586 16588 16591 16594 16597 16599 16602 16605 16608 16611 16613 16616 16619 16622 16624 16627 16630 16632 16635 16638 16641 16644 16646 16648 16651 16654 16657 16659 16662 16665 16668 16671 16673 16676 16678 16681 16684 16687 16690 16693 16695 16698 16701 16704 16707 16710 16713 16715 16718 16721 16724 16727 16729 16732 16735 16737 16740 16743 16745 16748 16751 16754 16757 16760 16763 16766 16769 16772 16775 16778 16781 16784 16787 16790 16792 16795 16798 16801 16804 16806 16809 16812 16815 16817 16820 16823 16826 16828 16831 16834 16837 16840 16843 16846 16849 16852 16855 16858 16861 16864 16866 16869 16872 16875 16878 16881 16884 16887 16890 16893 16896 16899 16902 16905 16908 16911 16914 16917 16920 16922 16925 16928 16931 16934 16936 16939 16941 16944 16947 16949 16952 16954 16956 16959 16962 16965 16967 16970 16972 16975 16977 16979 16982 16985 16987 16990 16993 16996 16999 17001 17004 17007 17010 17012 17015 17018 17021 17024 17027 17030 17033 17036 17039 17042 17044 17047 17049 17051 17054 17057 17059 17062 17065 17068 17071 17073 17076 17079 17081 17084 17087 17090 17093 17096 17098 17101 17103 17106 17109 17112 17115 17117 17120 17123 17126 17129 17132 17135 17138 17140 17143 17146 17149 17152 17154 17156 17159 17162 17165 17168 17171 17173 17175 17178 17181 17184 17187 17190 17193 17196 17199 17201 17204 17207 17210 17213 17216 17219 17222 17224 17227 17229 17232 17235 17238 17240 17243 17246 17248 17251 17254 17256 17259 17262 17265 17268 17271 17273 17276 17279 17281 17284 17287 17290 17293 17296 17299 17302 17305 17307 17309 17312 17315 17317 17320 17323 17326 17328 17331 17334 17336 17339 17341 17344 17347 17350 17352 17355 17358 17360 17363 17365 17368 17370 17372 17374 17377 17379 17382 17384 17387 17390 17392 17395 17398 17400 17403 17406 17409 17412 17415 17418 17421 17424 17426 17428 17431 17434 17437 17440 17443 17446 17449 17451 17453 17456 17459 17462 17465 17468 17471 17474 17477 17479 17482 17485 17488 17491 17493 17496 17499 17502 17505 17508 17510 17513 17516 17519 17522 17525 17528 17530 17533 17536 17539 17542 17545 17548 17550 17553 17556 17559 17562 17565 17568 17571 17574 17577 17580 17583 17586 17588 17591 17594 17597 17600 17602 17605 17608 17611 17613 17616 17619 17622 17625 17627 17630 17633 17635 17638 17641 17644 17647 17650 17653 17656 17659 17662 17665 17668 17671 17673 17676 17679 17682 17685 17688 17691 17694 17696 17699 17702 17705 17708 17711 17714 17717 17719 17722 17725 17728 17730 17733 17735 17738 17741 17744 17747 17750 17753 17756 17759 17762 17765 17768 17771 17774 17777 17780 17783 17786 17789 17792 17795 17798 17801 17803 17806 17809 17812 17815 17818 17821 17824 17827 17830 17833 17836 17839 17842 17845 17848 17850 17853 17856 17859 17862 17865 17868 17871 17874 17877 17879 17882 17885 17888 17891 17894 17897 17900 17903 17905 17908 17911 17914 17917 17919 17922 17925 17927 17930 17933 17935 17938 17940 17942 17944 17947 17950 17953 17956 17959 17962 17965 17967 17970 17973 17976 17979 17982 17985 17988 17991 17994 17997 18000 18003 18006 18009 18012 18015 18018 18021 18024 18027 18030 18032 18035 18037 18040 18043 18046 18049 18052 18055 18058 18061 18064 18066 18069 18072 18075 18078 18081 18084 18087 18090 18092 18095 18098 18100 18102 18105 18108 18111 18114 18117 18120 18123 18126 18129 18132 18135 18138 18141 18144 18146 18149 18152 18155 18158 18161 18164 18167 18170 18173 18176 18179 18181 18184 18187 18190 18192 18195 18198 18201 18204 18207 18210 18212 18215 18218 18221 18224 18227 18230 18233 18235 18237 18240 18243 18246 18249 18251 18253 18255 18257 18260 18263 18265 18268 18271 18273 18276 18279 18282 18285 18288 18290 18293 18296 18299 18301 18303 18306 18309 18312 18314 18317 18319 18322 18324 18327 18329 18332 18335 18338 18341 18344 18347 18349 18352 18355 18357 18359 18361 18364 18367 18369 18372 18374 18377 18379 18381 18384 18387 18390 18393 18396 18399 18402 18405 18408 18410 18413 18415 18418 18421 18424 18427 18429 18431 18434 18437 18440 18442 18444 18446 18449 18452 18454 18457 18459 18462 18465 18468 18471 18473 18476 18478 18481 18483 18485 18488 18491 18493 18496 18498 18501 18504 18507 18510 18513 18516 18519 18522 18525 18528 18531 18533 18536 18539 18541 18544 18546 18549 18552 18555 18557 18560 18562 18565 18568 18570 18573 18575 18578 18581 18584 18586 18588 18591 18594 18597 18600 18603 18606 18608 18611 18614 18617 18620 18623 18626 18629 18632 18635 18638 18641 18643 18646 18648 18651 18654 18657 18660 18663 18666 18669 18671 18674 18677 18680 18683 18686 18689 18692 18694 18697 18700 18703 18706 18708 18711 18714 18717 18720 18723 18726 18729 18732 18735 18738 18741 18744 18747 18750 18753 18756 18759 18762 18765 18768 18771 18774 18777 18780 18783 18785 18788 18791 18794 18797 18800 18803 18806 18809 18812 18815 18817 18820 18822 18825 18828 18830 18833 18836 18839 18841 18844 18847 18850 18852 18855 18858 18861 18863 18866 18869 18871 18874 18877 18879 18881 18883 18886 18889 18891 18893 18896 18899 18902 18905 18907 18910 18913 18916 18919 18922 18925 18928 18931 18934 18936 18939 18942 18945 18948 18951 18954 18957 18960 18963 18966 18969 18972 18975 18978 18980 18983 18986 18989 18992 18995 18998 19001 19004 19007 19010 19012 19015 19018 19021 19024 19027 19029 19031 19034 19037 19040 19043 19046 19049 19052 19055 19058 19061 19064 19067 19069 19071 19074 19077 19080 19083 19086 19089 19092 19095 19098 19101 19103 19106 19109 19112 19115 19118 19121 19124 19127 19130 19133 19136 19139 19142 19145 19148 19151 19154 19157 19160 19162 19165 19168 19171 19174 19177 19180 19183 19186 19189 19192 19195 19198 19201 19203 19206 19209 19212 19215 19218 19220 19223 19226 19229 19232 19235 19238 19241 19244 19247 19250 19253 19256 19259 19262 19265 19268 19271 19274 19276 19279 19282 19285 19287 19290 19293 19296 19299 19302 19305 19308 19311 19313 19316 19319 19322 19325 19328 19331 19334 19337 19339 19341 19343 19346 19349 19351 19354 19357 19360 19363 19366 19369 19372 19375 19378 19381 19384 19387 19390 19393 19396 19399 19402 19405 19408 19410 19413 19416 19419 19422 19425 19428 19431 19433 19436 19439 19442 19445 19448 19451 19454 19457 19460 19462 19465 19468 19471 19474 19476 19479 19482 19485 19487 19490 19493 19496 19499 19502 19505 19508 19511 19514 19517 19520 19523 19526 19529 19532 19535 19538 19541 19543 19546 19549 19552 19555 19558 19561 19564 19567 19569 19572 19575 19578 19581 19584 19586 19589 19592 19594 19597 19600 19603 19606 19609 19612 19615 19617 19619 19622 19625 19628 19630 19633 19636 19639 19641 19644 19646 19649 19652 19654 19657 19660 19663 19666 19669 19672 19675 19678 19681 19684 19687 19690 19693 19696 19699 19702 19705 19708 19710 19713 19716 19719 19722 19725 19728 19731 19733 19736 19739 19742 19745 19748 19751 19754 19757 19759 19762 19765 19768 19771 19774 19777 19780 19783 19786 19789 19792 19795 19798 19801 19804 19807 19809 19812 19814 19817 19820 19823 19826 19828 19831 19834 19837 19840 19843 19846 19849 19852 19854 19857 19860 19862 19865 19867 19870 19872 19875 19878 19881 19884 19886 19889 19891 19894 19897 19900 19903 19905 19908 19911 19914 19917 19919 19922 19925 19928 19931 19934 19937 19940 19943 19946 19949 19952 19955 19958 19961 19964 19967 19970 19973 19976 19979 19982 19985 19988 19990 19993 19995 19998 20001 20004 20006 20009 20012 20015 20017 20020 20023 20025 20028 20031 20034 20037 20040 20043 20046 20049 20052 20055 20058 20061 20064 20067 20070 20073 20076 20079 20081 20084 20087 20089 20092 20095 20097 20100 20103 20105 20108 20111 20114 20117 20120 20123 20126 20129 20132 20135 20138 20141 20144 20147 20150 20153 20156 20159 20162 20165 20168 20171 20174 20177 20179 20182 20185 20188 20191 20193 20196 20199 20202 20205 20207 20210 20212 20215 20218 20221 20223 20226 20229 20232 20234 20237 20240 20243 20245 20248 20251 20254 20257 20260 20263 20266 20269 20272 20275 20278 20280 20283 20286 20288 20290 20293 20296 20299 20302 20305 20308 20310 20313 20316 20319 20321 20323 20326 20329 20331 20334 20337 20340 20343 20346 20349 20352 20355 20358 20360 20363 20365 20368 20371 20373 20376 20379 20382 20385 20388 20391 20394 20397 20400 20403 20405 20408 20411 20414 20417 20420 20423 20426 20429 20431 20434 20436 20439 20442 20445 20447 20450 20453 20456 20459 20462 20465 20468 20471 20474 20477 20480 20483 20486 20488 20491 20494 20497 20500 20503 20506 20509 20512 20515 20518 20521 20524 20527 20530 20533 20536 20538 20541 20544 20547 20550 20553 20556 20558 20561 20564 20567 20570 20573 20576 20579 20582 20585 20588 20591 20594 20597 20599 20602 20605 20608 20610 20613 20616 20618 20620 20622 20625 20628 20630 20633 20635 20637 20640 20642 20645 20647 20650 20653 20656 20659 20662 20665 20668 20671 20674 20677 20680 20683 20686 20689 20692 20695 20697 20700 20703 20706 20709 20712 20714 20716 20719 20721 20724 20727 20730 20732 20734 20737 20740 20743 20746 20749 20752 20754 20757 20759 20762 20765 20768 20770 20773 20776 20778 20781 20783 20786 20789 20792 20795 20798 20801 20804 20807 20809 20812 20814 20817 20820 20823 20826 20829 20832 20834 20837 20840 20843 20846 20848 20851 20854 20857 20860 20863 20866 20868 20871 20873 20876 20879 20881 20884 20887 20890 20892 20895 20897 20900 20903 20905 20907 20910 20913 20915 20918 20921 20924 20927 20930 20933 20936 20939 20942 20945 20948 20951 20954 20957 20960 20963 20966 20969 20971 20974 20977 20980 20983 20986 20989 20991 20994 20997 21000 21002 21005 21008 21011 21014 21017 21020 21023 21026 21029 21032 21035 21037 21040 21043 21046 21049 21051 21054 21056 21059 21062 21065 21068 21071 21074 21077 21080 21083 21086 21089 21092 21094 21096 21099 21102 21105 21108 21111 21114 21117 21120 21123 21126 21129 21132 21135 21138 21141 21144 21147 21150 21153 21156 21159 21162 21165 21168 21171 21174 21177 21180 21183 21186 21189 21192 21195 21198 21201 21204 21207 21210 21213 21216 21219 21222 21225 21228 21231 21234 21237 21240 21243 21246 21249 21252 21255 21258 21261 21264 21267 21270 21273 21276 21279 21282 21285 21287 21290 21293 21295 21298 21301 21303 21306 21309 21312 21315 21317 21320 21323 21326 21328 21330 21333 21336 21339 21341 21344 21346 21349 21352 21355 21358 21361 21364 21366 21369 21372 21374 21377 21379 21382 21385 21388 21391 21393 21396 21399 21402 21405 21407 21409 21412 21415 21418 21420 21423 21425 21428 21431 21434 21437 21440 21443 21446 21449 21452 21455 21458 21461 21464 21467 21470 21473 21476 21479 21481 21484 21487 21489 21492 21495 21498 21501 21503 21505 21508 21511 21514 21517 21519 21522 21525 21527 21529 21532 21535 21538 21540 21543 21546 21549 21551 21554 21557 21560 21563 21566 21569 21572 21575 21577 21580 21582 21584 21587 21590 21592 21595 21597 21600 21603 21606 21608 21610 21613 21616 21619 21621 21624 21627 21630 21632 21634 21637 21640 21642 21645 21648 21651 21653 21656 21659 21662 21665 21668 21671 21674 21677 21679 21681 21684 21687 21690 21693 21696 21699 21702 21705 21708 21711 21714 21717 21720 21723 21726 21729 21732 21735 21738 21741 21744 21747 21750 21753 21756 21759 21762 21765 21767 21770 21773 21776 21779 21782 21785 21788 21791 21794 21797 21800 21803 21806 21809 21811 21814 21817 21820 21823 21826 21829 21832 21835 21837 21840 21843 21846 21848 21851 21854 21857 21860 21863 21866 21868 21871 21874 21877 21879 21882 21885 21887 21890 21893 21895 21898 21901 21903 21906 21908 21911 21914 21917 21920 21923 21926 21929 21932 21934 21936 21939 21942 21945 21948 21951 21954 21957 21960 21963 21966 21969 21972 21974 21977 21980 21983 21986 21989 21992 21995 21998 22001 22004 22007 22010 22013 22016 22019 22022 22025 22027 22029 22032 22034 22037 22040 22042 22045 22048 22050 22053 22056 22058 22061 22064 22067 22069 22072 22074 22076 22079 22082 22084 22087 22090 22093 22096 22099 22102 22105 22108 22111 22113 22116 22119 22122 22124 22127 22130 22133 22136 22139 22142 22144 22147 22149 22152 22155 22158 22161 22164 22167 22169 22172 22175 22178 22181 22184 22187 22189 22192 22195 22198 22201 22203 22206 22209 22212 22215 22218 22221 22224 22227 22230 22233 22236 22239 22241 22244 22247 22249 22252 22255 22258 22261 22264 22267 22269 22272 22275 22278 22281 22284 22286 22289 22292 22295 22298 22301 22304 22306 22309 22312 22315 22318 22321 22324 22327 22330 22333 22336 22339 22342 22345 22347 22350 22353 22356 22359 22362 22365 22368 22371 22374 22377 22380 22382 22385 22387 22389 22392 22395 22397 22400 22403 22405 22408 22411 22413 22415 22418 22421 22424 22427 22430 22433 22435 22438 22441 22443 22445 22448 22451 22454 22457 22460 22463 22466 22468 22470 22473 22476 22478 22480 22483 22486 22488 22491 22493 22496 22499 22502 22504 22506 22509 22511 22514 22517 22520 22523 22526 22529 22532 22535 22538 22541 22544 22547 22550 22553 22555 22558 22561 22564 22566 22569 22572 22575 22578 22581 22584 22586 22589 22592 22595 22597 22600 22603 22605 22608 22611 22614 22617 22620 22622 22625 22628 22631 22634 22637 22640 22643 22645 22648 22651 22653 22656 22659 22661 22664 22666 22669 22672 22675 22678 22680 22683 22686 22689 22692 22694 22697 22700 22703 22706 22709 22711 22714 22716 22719 22722 22725 22728 22731 22734 22737 22740 22743 22746 22749 22751 22754 22757 22760 22763 22766 22768 22771 22774 22777 22779 22782 22785 22788 22791 22793 22796 22799 22802 22805 22808 22811 22813 22816 22819 22822 22824 22827 22830 22833 22836 22839 22842 22844 22847 22849 22852 22855 22858 22861 22864 22866 22869 22872 22875 22878 22881 22884 22887 22890 22893 22896 22899 22902 22905 22908 22911 22914 22917 22920 22923 22926 22929 22932 22935 22938 22940 22942 22945 22947 22950 22953 22956 22959 22962 22965 22968 22970 22973 22976 22979 22982 22985 22988 22991 22994 22996 22999 23002 23004 23007 23010 23013 23016 23019 23022 23025 23028 23031 23034 23037 23040 23043 23045 23048 23051 23053 23056 23059 23061 23064 23067 23069 23072 23074 23077 23080 23083 23086 23089 23092 23094 23097 23100 23103 23106 23109 23112 23115 23118 23121 23124 23127 23130 23133 23136 23139 23142 23145 23148 23151 23154 23156 23159 23162 23165 23168 23170 23173 23176 23178 23181 23184 23186 23189 23192 23195 23198 23201 23203 23206 23209 23212 23215 23218 23221 23224 23227 23230 23233 23236 23239 23242 23245 23248 23251 23254 23257 23260 23263 23266 23269 23271 23274 23277 23280 23283 23286 23289 23292 23295 23298 23301 23304 23307 23310 23313 23316 23319 23322 23325 23327 23330 23333 23336 23339 23341 23344 23347 23350 23353 23356 23358 23361 23364 23367 23370 23373 23376 23379 23382 23385 23388 23391 23394 23397 23400 23403 23406 23409 23411 23414 23417 23420 23423 23425 23428 23431 23434 23437 23440 23442 23445 23447 23450 23453 23456 23459 23462 23464 23467 23470 23472 23475 23478 23481 23484 23487 23490 23493 23496 23499 23502 23505 23508 23511 23514 23517 23520 23523 23526 23528 23531 23534 23537 23539 23542 23545 23548 23551 23554 23556 23558 23561 23564 23567 23570 23572 23575 23578 23580 23583 23586 23589 23592 23594 23597 23600 23603 23606 23609 23612 23615 23617 23620 23623 23626 23629 23632 23635 23638 23641 23644 23647 23650 23653 23656 23659 23662 23665 23668 23671 23674 23677 23680 23683 23686 23689 23692 23695 23698 23701 23704 23707 23710 23713 23716 23719 23721 23724 23727 23729 23732 23735 23738 23741 23744 23747 23750 23753 23756 23759 23761 23764 23767 23770 23773 23776 23779 23782 23785 23788 23791 23794 23797 23800 23803 23806 23809 23812 23815 23818 23821 23824 23827 23829 23832 23834 23837 23840 23843 23845 23848 23851 23854 23857 23860 23863 23866 23869 23872 23875 23878 23881 23884 23887 23890 23893 23896 23899 23902 23905 23908 23911 23914 23917 23920 23923 23926 23929 23932 23935 23938 23941 23944 23947 23950 23952 23955 23958 23960 23963 23966 23969 23972 23975 23978 23981 23984 23987 23990 23993 23996 23998 24001 24004 24007 24010 24013 24016 24019 24022 24025 24028 24031 24034 24036 24038 24041 24043 24046 24048 24051 24054 24057 24060 24063 24066 24069 24072 24075 24078 24080 24083 24086 24089 24092 24095 24098 24101 24104 24106 24109 24112 24114 24117 24120 24123 24126 24128 24130 24133 24136 24139 24142 24145 24148 24150 24153 24155 24158 24161 24164 24167 24170 24173 24175 24178 24180 24183 24186 24189 24191 24194 24197 24200 24202 24205 24208 24211 24213 24216 24219 24222 24225 24228 24231 24234 24237 24240 24243 24246 24249 24252 24255 24258 24260 24263 24265 24268 24271 24274 24277 24279 24281 24284 24287 24290 24293 24296 24299 24302 24305 24308 24311 24314 24317 24320 24323 24326 24329 24331 24334 24336 24339 24342 24345 24348 24350 24353 24356 24359 24362 24365 24368 24371 24374 24377 24380 24383 24385 24388 24391 24394 24396 24399 24402 24405 24408 24410 24413 24416 24419 24421 24424 24427 24429 24432 24435 24437 24440 24443 24446 24448 24451 24454 24457 24460 24463 24466 24469 24472 24475 24478 24480 24483 24486 24489 24492 24495 24498 24500 24503 24505 24508 24510 24513 24516 24518 24521 24524 24527 24530 24533 24535 24537 24540 24542 24545 24548 24550 24553 24556 24559 24562 24565 24568 24571 24574 24577 24580 24583 24586 24589 24592 24595 24598 24601 24604 24607 24610 24613 24616 24619 24622 24625 24628 24631 24634 24637 24640 24643 24646 24649 24652 24655 24658 24660 24663 24666 24669 24672 24675 24678 24681 24683 24686 24689 24692 24695 24698 24701 24704 24707 24710 24713 24716 24719 24722 24725 24728 24730 24733 24736 24739 24742 24745 24748 24751 24754 24757 24760 24763 24766 24769 24772 24775 24778 24781 24784 24787 24790 24793 24796 24799 24802 24805 24808 24811 24814 24817 24820 24823 24826 24828 24831 24834 24837 24840 24843 24846 24849 24851 24854 24857 24860 24863 24866 24869 24872 24875 24877 24880 24883 24886 24888 24891 24894 24897 24900 24903 24905 24908 24911 24914 24916 24919 24922 24925 24928 24931 24934 24937 24939 24941 24944 24947 24950 24953 24955 24958 24961 24964 24967 24970 24973 24975 24978 24981 24984 24987 24990 24993 24996 24999 25002 25005 25008 25011 25014 25017 25020 25023 25026 25029 25032 25035 25038 25041 25044 25047 25050 25052 25054 25056 25058 25061 25064 25067 25070 25073 25075 25078 25081 25084 25087 25090 25093 25096 25099 25102 25105 25108 25111 25114 25117 25120 25123 25126 25129 25132 25135 25138 25141 25144 25147 25150 25153 25156 25159 25162 25165 25168 25171 25174 25177 25180 25183 25186 25189 25192 25195 25198 25201 25204 25207 25210 25212 25215 25218 25220 25223 25226 25229 25232 25235 25238 25241 25244 25247 25250 25253 25256 25259 25262 25265 25268 25270 25272 25275 25278 25281 25284 25287 25290 25293 25296 25299 25302 25305 25308 25310 25313 25316 25319 25322 25325 25328 25331 25334 25337 25340 25342 25345 25348 25350 25352 25355 25358 25361 25363 25366 25369 25372 25375 25378 25381 25384 25387 25389 25392 25395 25398 25401 25404 25406 25409 25412 25415 25418 25421 25423 25426 25429 25432 25435 25438 25441 25444 25447 25450 25453 25456 25459 25462 25464 25467 25470 25473 25476 25479 25482 25485 25488 25491 25494 25497 25500 25503 25506 25508 25511 25514 25517 25520 25523 25526 25529 25531 25534 25537 25540 25543 25546 25549 25552 25555 25558 25561 25564 25567 25570 25573 25576 25579 25582 25585 25588 25591 25594 25597 25600 25603 25606 25609 25612 25615 25618 25621 25624 25627 25630 25633 25636 25639 25642 25645 25648 25650 25653 25656 25659 25662 25665 25668 25671 25673 25676 25679 25682 25685 25688 25691 25694 25697 25700 25703 25706 25709 25712 25715 25717 25719 25721 25724 25727 25730 25732 25735 25738 25740 25743 25746 25749 25751 25754 25757 25759 25762 25765 25768 25771 25773 25776 25778 25781 25783 25786 25789 25791 25794 25797 25800 25803 25805 25808 25811 25814 25817 25820 25823 25826 25828 25831 25834 25837 25840 25842 25845 25848 25850 25853 25856 25859 25861 25863 25866 25869 25872 25875 25878 25880 25883 25885 25888 25891 25894 25897 25900 25903 25906 25909 25912 25915 25918 25921 25924 25927 25930 25933 25936 25939 25942 25945 25948 25951 25954 25957 25960 25963 25966 25969 25971 25974 25977 25980 25982 25985 25988 25991 25994 25997 26000 26003 26006 26009 26012 26015 26018 26021 26024 26027 26030 26032 26035 26037 26039 26042 26045 26048 26051 26054 26056 26059 26062 26065 26068 26070 26073 26076 26079 26082 26085 26088 26091 26094 26097 26100 26103 26106 26108 26111 26114 26117 26119 26122 26125 26128 26130 26133 26136 26138 26141 26143 26146 26148 26151 26154 26157 26159 26162 26164 26167 26170 26173 26175 26178 26180 26183 26186 26188 26191 26194 26196 26199 26202 26205 26208 26211 26214 26217 26220 26223 26225 26228 26231 26233 26236 26239 26242 26244 26247 26250 26253 26256 26259 26262 26265 26268 26270 26273 26275 26278 26281 26284 26286 26289 26291 26294 26296 26298 26301 26304 26306 26309 26312 26314 26317 26320 26323 26325 26328 26331 26334 26337 26340 26343 26345 26347 26350 26352 26354 26357 26359 26361 26364 26367 26370 26373 26376 26379 26382 26385 26388 26391 26393 26396 26399 26402 26405 26408 26410 26413 26416 26419 26422 26425 26427 26430 26432 26435 26438 26441 26444 26447 26449 26452 26455 26458 26461 26464 26467 26470 26473 26476 26478 26480 26483 26486 26488 26490 26493 26495 26498 26500 26502 26505 26508 26510 26513 26515 26518 26521 26524 26527 26530 26533 26536 26539 26542 26545 26548 26551 26553 26556 26559 26562 26565 26568 26571 26574 26577 26580 26583 26586 26589 26592 26595 26598 26601 26604 26607 26610 26613 26616 26619 26622 26625 26628 26631 26634 26637 26640 26642 26645 26648 26651 26654 26656 26659 26662 26665 26668 26671 26674 26677 26680 26683 26686 26689 26692 26695 26698 26700 26703 26705 26708 26710 26713 26716 26719 26722 26725 26728 26731 26733 26736 26739 26742 26745 26747 26750 26752 26755 26758 26761 26764 26767 26769 26772 26775 26778 26781 26784 26787 26790 26792 26795 26798 26800 26803 26806 26809 26812 26815 26818 26821 26824 26826 26829 26831 26834 26837 26840 26843 26845 26848 26851 26854 26857 26860 26862 26865 26868 26871 26873 26876 26879 26882 26885 26888 26891 26894 26897 26900 26903 26906 26909 26912 26915 26918 26921 26924 26926 26929 26932 26935 26938 26941 26944 26947 26950 26953 26956 26959 26962 26965 26968 26971 26974 26976 26979 26982 26985 26988 26991 26993 26996 26999 27002 27005 27008 27010 27013 27016 27019 27021 27024 27027 27030 27032 27035 27038 27040 27043 27045 27048 27050 27053 27056 27059 27062 27065 27068 27071 27073 27076 27079 27082 27085 27088 27090 27093 27096 27098 27101 27103 27106 27109 27112 27115 27117 27120 27123 27126 27129 27131 27134 27137 27140 27143 27146 27149 27152 27155 27158 27161 27164 27167 27170 27173 27176 27179 27182 27185 27187 27190 27193 27195 27198 27201 27204 27207 27210 27213 27216 27219 27222 27225 27228 27230 27233 27236 27239 27242 27245 27248 27251 27254 27257 27260 27263 27266 27269 27272 27275 27278 27281 27284 27286 27289 27292 27295 27298 27300 27303 27306 27309 27312 27315 27318 27321 27324 27327 27330 27333 27336 27339 27342 27345 27348 27351 27354 27357 27360 27363 27366 27369 27372 27375 27377 27379 27382 27385 27388 27390 27393 27396 27399 27401 27404 27407 27410 27413 27416 27419 27422 27425 27428 27430 27433 27436 27439 27442 27445 27448 27451 27454 27457 27460 27463 27466 27469 27472 27475 27478 27481 27484 27487 27490 27493 27496 27499 27502 27505 27508 27511 27514 27517 27520 27523 27526 27529 27532 27535 27538 27541 27544 27547 27550 27553 27556 27559 27562 27565 27568 27571 27574 27577 27580 27583 27586 27589 27592 27594 27597 27600 27603 27605 27608 27611 27614 27617 27620 27623 27625 27628 27630 27633 27636 27639 27642 27645 27648 27651 27654 27656 27659 27662 27664 27667 27670 27673 27676 27679 27682 27685 27688 27691 27694 27697 27700 27703 27706 27709 27712 27715 27718 27721 27724 27726 27729 27732 27735 27737 27740 27743 27746 27749 27752 27755 27758 27761 27764 27767 27770 27773 27776 27779 27781 27784 27786 27789 27792 27794 27796 27799 27802 27805 27808 27811 27814 27817 27819 27822 27825 27828 27831 27834 27837 27840 27843 27846 27848 27851 27854 27857 27860 27862 27865 27868 27870 27872 27875 27877 27880 27882 27885 27888 27891 27894 27896 27899 27902 27905 27908 27911 27913 27916 27919 27921 27924 27926 27928 27931 27934 27937 27940 27943 27946 27949 27952 27955 27958 27961 27964 27967 27970 27973 27976 27979 27982 27985 27988 27991 27994 27997 28000 28003 28006 28009 28012 28015 28018 28021 28024 28027 28030 28033 28036 28039 28042 28045 28048 28051 28054 28057 28060 28063 28065 28068 28070 28073 28076 28079 28082 28085 28087 28089 28092 28095 28098 28101 28104 28107 28110 28113 28116 28118 28121 28124 28127 28130 28133 28135 28138 28141 28144 28147 28150 28153 28156 28159 28162 28164 28167 28170 28172 28175 28177 28179 28182 28185 28188 28191 28194 28197 28200 28203 28206 28208 28210 28213 28216 28219 28222 28225 28227 28230 28233 28236 28239 28242 28245 28248 28251 28254 28257 28260 28263 28266 28269 28272 28275 28277 28280 28283 28286 28289 28292 28295 28298 28301 28304 28307 28310 28312 28315 28318 28321 28323 28326 28329 28332 28335 28337 28340 28342 28345 28348 28351 28354 28357 28360 28363 28366 28369 28372 28375 28378 28381 28384 28387 28390 28393 28396 28399 28402 28405 28408 28411 28414 28417 28420 28423 28426 28429 28432 28435 28438 28441 28444 28447 28450 28453 28456 28459 28462 28465 28468 28471 28474 28477 28480 28483 28486 28489 28492 28494 28497 28500 28503 28506 28509 28512 28515 28517 28520 28523 28526 28529 28532 28535 28537 28540 28543 28545 28548 28551 28554 28557 28560 28563 28566 28569 28572 28575 28578 28580 28583 28585 28587 28590 28593 28596 28598 28601 28603 28605 28608 28611 28613 28615 28618 28621 28623 28625 28628 28631 28633 28636 28639 28642 28645 28648 28651 28653 28656 28658 28660 28663 28665 28668 28670 28672 28674 28677 28680 28683 28685 28688 28691 28693 28696 28699 28702 28705 28708 28711 28714 28717 28720 28723 28726 28729 28732 28735 28738 28740 28743 28745 28748 28751 28754 28757 28760 28763 28766 28769 28772 28775 28778 28781 28784 28787 28790 28793 28796 28799 28802 28805 28807 28809 28812 28815 28818 28821 28824 28827 28830 28833 28836 28839 28842 28845 28848 28851 28853 28856 28859 28862 28865 28868 28870 28873 28876 28879 28882 28885 28888 28891 28894 28897 28900 28903 28906 28908 28910 28913 28916 28919 28922 28925 28928 28931 28934 28937 28940 28943 28946 28949 28952 28955 28958 28961 28964 28967 28970 28973 28976 28979 28982 28984 28987 28990 28993 28996 28999 29001 29004 29007 29010 29013 29016 29019 29022 29025 29028 29031 29034 29037 29040 29043 29045 29048 29051 29054 29057 29060 29063 29066 29069 29072 29075 29078 29081 29084 29086 29089 29092 29095 29098 29101 29104 29106 29109 29112 29115 29118 29121 29124 29127 29130 29133 29136 29139 29142 29145 29147 29149 29152 29155 29158 29161 29163 29166 29169 29172 29175 29177 29179 29182 29184 29187 29190 29192 29195 29198 29201 29203 29206 29209 29212 29214 29217 29220 29222 29224 29227 29230 29233 29235 29238 29241 29244 29246 29249 29252 29255 29258 29261 29263 29265 29267 29270 29273 29276 29278 29280 29283 29286 29289 29292 29294 29297 29300 29303 29306 29308 29311 29314 29317 29320 29323 29326 29328 29331 29334 29336 29339 29342 29344 29347 29350 29353 29356 29359 29361 29363 29366 29369 29372 29374 29377 29380 29382 29385 29388 29391 29394 29397 29400 29403 29406 29409 29412 29415 29418 29421 29424 29426 29428 29431 29434 29437 29440 29443 29446 29449 29451 29454 29457 29460 29462 29465 29468 29470 29473 29475 29478 29481 29484 29487 29490 29493 29496 29499 29502 29504 29507 29510 29513 29516 29519 29522 29524 29527 29530 29533 29535 29538 29541 29544 29547 29550 29552 29554 29556 29559 29562 29564 29567 29570 29573 29576 29579 29581 29584 29587 29590 29592 29595 29598 29601 29604 29607 29610 29612 29614 29616 29619 29622 29625 29628 29631 29634 29636 29639 29642 29645 29648 29651 29654 29657 29660 29663 29666 29669 29672 29675 29678 29681 29684 29687 29690 29693 29696 29699 29701 29704 29707 29709 29712 29715 29717 29720 29723 29726 29729 29732 29734 29737 29740 29742 29745 29747 29749 29752 29755 29758 29761 29764 29767 29770 29773 29776 29779 29781 29784 29787 29790 29793 29796 29799 29802 29805 29808 29811 29814 29817 29820 29823 29826 29829 29831 29834 29837 29840 29842 29845 29848 29850 29853 29856 29859 29862 29865 29868 29871 29874 29877 29880 29883 29886 29889 29892 29895 29898 29900 29903 29906 29909 29912 29915 29918 29921 29924 29927 29930 29932 29934 29937 29940 29943 29946 29948 29951 29953 29955 29957 29960 29963 29966 29969 29972 29975 29977 29979 29982 29985 29988 29991 29994 29997 30000 30002 30005 30008 30011 30014 30016 30019 30022 30024 30027 30029 30031 30033 30036 30039 30042 30045 30048 30050 30052 30055 30057 30060 30063 30066 30069 30072 30075 30078 30081 30084 30087 30089 30092 30094 30097 30100 30103 30106 30109 30111 30114 30117 30119 30122 30124 30127 30130 30133 30136 30139 30142 30144 30147 30150 30153 30155 30158 30161 30164 30167 30170 30173 30176 30179 30182 30185 30188 30191 30193 30196 30199 30202 30205 30208 30211 30214 30217 30220 30223 30225 30228 30231 30234 30237 30240 30243 30246 30249 30252 30254 30257 30260 30263 30265 30268 30271 30274 30277 30280 30282 30285 30288 30291 30294 30297 30300 30303 30306 30309 30312 30315 30318 30321 30323 30326 30329 30332 30335 30338 30341 30343 30346 30349 30352 30354 30357 30359 30362 30365 30368 30370 30373 30376 30379 30381 30383 30386 30389 30392 30394 30396 30398 30401 30404 30407 30410 30413 30415 30418 30421 30424 30426 30429 30432 30435 30437 30440 30443 30446 30449 30452 30455 30458 30461 30464 30467 30469 30472 30475 30478 30481 30484 30487 30490 30493 30496 30499 30502 30505 30508 30511 30514 30517 30520 30523 30526 30529 30532 30535 30538 30541 30544 30547 30550 30553 30556 30559 30562 30565 30567 30569 30572 30574 30577 30580 30583 30586 30589 30591 30594 30596 30599 30602 30605 30608 30611 30614 30616 30619 30622 30624 30627 30630 30632 30635 30638 30641 30643 30645 30648 30651 30654 30657 30660 30662 30665 30668 30671 30674 30677 30680 30683 30686 30688 30691 30694 30697 30700 30703 30706 30709 30712 30714 30717 30720 30723 30726 30728 30731 30734 30737 30739 30742 30745 30748 30751 30753 30756 30758 30760 30763 30766 30768 30771 30774 30777 30780 30783 30786 30789 30792 30795 30798 30801 30804 30807 30810 30812 30815 30818 30821 30824 30826 30829 30832 30835 30837 30840 30843 30846 30849 30852 30855 30858 30861 30864 30867 30870 30873 30876 30878 30880 30883 30885 30888 30890 30893 30896 30898 30901 30904 30907 30910 30913 30916 30919 30922 30925 30928 30931 30934 30937 30940 30943 30946 30949 30952 30955 30958 30961 30964 30967 30970 30973 30976 30979 30982 30985 30988 30991 30993 30996 30999 31002 31004 31007 31010 31013 31016 31018 31021 31024 31027 31030 31032 31034 31037 31040 31043 31046 31049 31052 31054 31057 31060 31063 31066 31068 31071 31074 31077 31080 31083 31086 31089 31091 31094 31097 31100 31103 31106 31109 31112 31115 31118 31120 31123 31126 31128 31131 31134 31137 31140 31143 31146 31149 31152 31154 31157 31160 31162 31165 31168 31171 31174 31177 31180 31183 31185 31188 31191 31194 31196 31198 31201 31203 31206 31208 31211 31214 31217 31220 31222 31224 31227 31230 31233 31235 31238 31240 31243 31246 31248 31251 31254 31256 31258 31261 31264 31267 31270 31273 31276 31279 31282 31285 31288 31291 31294 31296 31299 31302 31305 31308 31311 31314 31316 31319 31322 31325 31328 31331 31334 31337 31340 31343 31346 31349 31351 31354 31357 31360 31363 31366 31368 31370 31373 31376 31379 31382 31385 31388 31391 31394 31397 31400 31403 31406 31409 31412 31415 31418 31421 31424 31427 31430 31433 31436 31439 31442 31445 31448 31451 31453 31456 31459 31462 31465 31468 31471 31474 31477 31480 31483 31486 31489 31492 31495 31498 31501 31504 31507 31510 31513 31516 31519 31522 31525 31528 31531 31534 31537 31540 31543 31546 31549 
</DataArray>
<DataArray type="UInt32" Name="types" format="ascii">
5 3 5 5 5 5 5 3 5 5 3 5 3 5 3 5 5 5 5 3 5 5 3 5 5 3 5 3 5 5 5 5 5 3 5 3 5 5 3 5 5 5 5 5 5 5 5 5 5 5 5 5 5 5 5 5 5 5 5 5 5 3 5 5 5 5 5 3 5 5 5 5 5 5 5 3 5 5 5 5 5 5 5 5 5 5 5 5 5 5 5 5 5 5 5 5 5 5 5 5 5 5 5 5 5 5 5 5 5 5 5 5 3 5 3 5 3 5 5 3 5 5 3 5 5 5 5 3 5 5 3 5 5 5 5 5 5 5 5 5 5 5 5 5 5 3 5 5 5 5 5 3 5 5 5 5 5 5 5 5 3 3 5 5 5 5 3 5 5 5 5 5 5 3 5 5 5 5 5 5 5 5 5 5 5 5 3 5 5 5 5 5 3 5 5 5 5 5 5 5 5 5 5 5 5 5 5 5 5 5 5 5 5 5 5 5 5 5 5 5 5 5 5 5 5 5 5 5 5 5 5 5 5 5 3 5 5 3 5 5 3 5 5 5 5 5 5 5 5 5 5 5 5 5 5 5 5 5 5 3 5 5 5 3 5 5 5 5 5 5 5 5 5 5 5 5 5 5 5 3 5 5 5 5 5 3 5 5 5 5 3 5 5 5 5 5 5 5 5 5 5 5 5 5 5 3 5 5 5 3 5 5 5 5 5 5 5 5 5 5 5 5 5 5 3 3 5 5 5 5 5 3 5 5 3 3 5 5 3 5 5 5 5 5 5 5 5 5 5 5 5 5 5 5 3 5 3 3 5 5 5 5 5 5 5 3 5 5 5 5 5 3 5 5 5 5 3 5 5 5 5 5 5 5 5 5 3 5 5 5 5 5 5 3 5 5 5 5 5 5 5 3 5 5 5 5 5 5 5 5 5 5 5 5 5 3 5 5 3 5 5 5 5 5 5 5 3 5 5 5 5 5 5 3 5 5 3 5 5 5 5 3 5 5 5 5 5 5 5 5 5 5 5 5 5 5 5 5 5 5 5 5 5 5 5 5 5 5 5 5 5 5 3 5 5 5 5 5 5 5 5 5 5 3 5 5 5 3 5 5 5 5 5 5 5 5 5 5 5 5 5 5 5 5 5 5 5 5 5 5 5 5 5 5 5 5 5 5 5 5 5 5 5 5 5 5 5 5 5 5 5 3 3 5 5 5 5 3 3 5 3 5 5 5 5 5 3 5 5 5 5 5 5 5 5 5 5 5 3 5 5 5 3 5 3 3 5 5 5 5 5 3 5 5 5 3 5 5 3 5 5 5 3 3 5 5 5 5 5 3 5 5 5 5 5 5 3 5 5 5 5 5 5 5 5 5 5 5 5 5 5 5 5 5 5 5 3 5 5 5 5 5 5 5 5 5 5 5 5 5 5 5 5 3 5 5 5 5 5 3 3 5 5 5 3 5 5 5 5 5 5 5 3 5 5 3 5 3 5 5 5 5 5 5 5 5 5 5 5 5 5 5 5 5 5 5 5 5 5 5 5 5 5 3 5 5 5 5 3 3 5 5 5 5 3 5 5 5 5 5 5 5 5 5 5 5 5 5 5 5 3 5 5 5 5 5 5 5 5 5 3 5 5 5 5 5 5 5 5 5 5 5 3 5 5 5 5 5 3 5 5 3 5 5 5 5 5 5 5 5 5 5 5 3 5 3 5 5 5 5 5 5 5 5 5 5 5 5 5 5 5 5 3 5 3 5 5 5 5 3 5 5 5 5 5 5 3 5 5 5 3 5 5 5 3 3 5 5 3 5 3 3 5 5 3 3 5 5 5 3 5 5 5 5 5 5 5 5 5 5 5 3 3 5 5 5 5 3 3 3 5 5 5 5 5 5 5 5 3 5 5 5 5 5 5 5 5 5 5 3 5 5 5 5 5 5 5 5 3 5 5 5 3 5 3 5 5 5 3 5 5 3 3 5 3 3 3 5 3 5 5 5 5 5 3 5 3 5 5 5 3 5 5 3 5 5 3 5 3 5 5 5 5 5 5 5 3 5 5 5 5 3 5 5 5 5 5 5 3 3 5 5 3 3 5 3 5 5 5 3 5 5 5 5 3 3 3 3 5 3 5 5 5 5 5 3 3 3 3 5 5 5 3 3 5 3 3 3 5 3 3 5 3 3 3 5 5 5 3 5 3 3 5 5 5 5 5 3 5 3 5 3 5 5 3 5 3 5 5 5 3 5 5 3 5 3 5 5 3 3 5 5 3 5 3 5 5 3 3 5 5 3 5 5 5 3 3 5 5 3 5 5 5 5 5 3 5 5 5 3 5 5 5 3 5 5 5 5 5 5 3 5 5 3 5 5 5 5 5 5 5 5 3 3 5 5 5 5 5 5 5 3 5 5 5 5 3 5 5 5 5 5 5 5 3 5 5 5 5 5 5 5 3 5 5 5 3 5 5 5 5 3 5 3 3 5 5 5 3 3 3 5 5 3 3 5 5 5 5 3 5 5 5 5 5 5 5 5 5 5 5 5 5 3 5 5 5 5 5 5 3 5 5 5 5 5 5 3 5 5 5 3 5 5 5 5 5 5 5 5 5 3 3 3 5 5 5 5 5 5 5 5 5 5 5 5 5 5 5 5 3 5 5 3 5 5 5 5 5 5 5 5 5 5 5 5 5 5 3 5 5 5 5 5 5 5 5 5 5 5 5 5 3 5 5 3 3 5 5 3 5 5 3 5 5 3 5 5 5 5 3 5 5 5 5 5 5 5 5 5 5 5 5 5 3 3 3 5 3 5 3 5 5 5 5 5 5 5 5 3 5 3 5 5 5 5 5 5 5 5 5 5 5 5 5 5 5 5 5 5 5 5 5 5 5 5 5 5 5 3 5 5 5 5 5 5 5 5 5 5 5 5 5 3 5 5 5 5 5 5 5 5 5 3 3 5 5 5 5 3 5 3 5 5 5 5 5 5 3 3 5 5 5 5 5 5 5 5 5 5 5 5 5 5 5 5 5 5 5 5 5 5 5 5 3 5 3 5 3 5 5 5 5 5 5 3 5 5 3 5 5 5 5 5 5 5 5 5 5 3 5 5 5 5 5 5 3 5 5 5 5 5 5 5 3 5 5 5 5 5 5 5 5 5 5 5 5 5 5 5 5 5 5 5 5 5 5 3 5 5 5 5 5 5 5 5 5 5 5 5 5 5 5 5 5 5 5 5 5 5 3 5 5 5 3 5 5 5 5 5 5 3 5 3 5 5 5 5 5 5 5 5 3 5 3 5 5 5 3 5 5 5 3 5 5 5 5 3 3 5 5 5 5 5 5 5 5 5 5 5 5 5 5 5 5 5 5 5 5 5 3 5 5 5 5 5 5 3 5 3 5 5 5 5 5 5 5 5 5 5 5 5 5 5 5 5 5 5 5 5 5 5 5 5 5 5 5 5 5 5 5 5 3 3 5 3 5 5 5 3 5 5 5 3 5 3 5 5 5 5 5 5 5 3 5 3 5 5 5 5 5 3 5 3 5 5 5 3 5 5 5 5 5 5 5 5 5 5 5 5 5 5 5 5 5 3 5 3 5 5 3 5 5 5 5 5 5 5 5 5 5 5 5 5 5 3 5 5 5 5 5 5 5 3 5 5 5 5 5 5 5 3 5 5 5 5 5 5 5 5 5 3 5 3 5 5 5 5 5 5 5 5 5 5 5 5 5 5 5 5 5 5 5 5 5 5 5 5 5 5 5 5 3 5 5 5 5 5 5 5 5 5 5 5 5 5 5 5 5 5 5 5 3 5 5 5 5 3 5 5 3 5 5 5 5 5 5 5 5 5 5 5 5 5 5 5 5 5 3 5 5 3 5 5 5 5 5 5 5 5 5 5 5 5 5 5 5 3 5 5 5 5 5 5 5 5 5 5 5 5 5 5 5 5 5 5 5 5 5 5 5 5 5 5 3 5 3 5 5 5 5 5 5 5 5 5 3 5 5 5 5 3 5 5 3 5 5 3 5 5 5 5 5 5 3 5 5 5 5 5 5 5 5 5 5 5 5 5 5 5 5 5 5 5 5 5 5 5 5 5 5 5 5 5 5 5 5 5 5 5 5 5 5 5 5 5 5 5 5 5 5 5 5 5 5 5 5 5 5 5 5 5 5 5 5 5 5 5 5 5 5 5 5 3 5 5 5 5 5 5 5 5 5 5 3 5 5 5 3 5 3 3 5 5 5 5 5 5 5 5 5 5 5 5 5 5 5 5 5 5 5 3 5 5 3 5 5 3 5 3 5 3 5 5 5 5 5 3 5 5 5 5 5 5 5 5 5 5 5 5 5 5 5 5 5 5 5 5 5 5 5 5 5 5 5 5 5 5 5 3 5 5 5 3 5 5 5 5 5 5 5 5 5 5 5 5 5 5 5 5 5 5 5 5 5 5 3 5 3 5 5 5 3 5 5 5 5 5 5 5 5 5 5 5 5 5 5 5 5 5 5 5 5 5 5 5 5 5 5 5 5 5 5 5 5 5 5 5 3 5 5 5 5 5 5 5 5 5 3 5 5 5 5 3 5 5 5 5 5 5 3 5 3 5 5 5 5 5 3 5 5 5 5 5 3 5 5 5 3 5 5 5 3 5 5 5 3 5 5 5 5 3 5 5 3 5 5 3 5 5 3 5 5 3 5 5 5 5 5 5 5 5 5 5 5 3 5 5 5 5 5 5 3 5 5 5 3 5 5 5 3 5 3 5 5 5 3 5 5 5 5 5 5 5 5 5 5 5 5 5 5 5 5 5 5 5 5 5 5 5 5 5 5 3 5 5 5 3 5 5 3 5 3 5 5 5 5 3 3 5 5 3 5 5 5 5 5 5 5 5 3 3 5 5 5 5 5 3 5 5 5 5 5 5 3 5 5 5 5 5 5 3 5 5 5 5 5 5 5 5 5 5 5 5 5 3 3 5 5 5 5 3 5 3 5 5 5 5 5 5 5 5 3 5 5 5 5 5 5 5 5 5 3 5 5 5 3 5 5 3 3 5 3 5 3 5 5 5 5 5 5 5 5 5 5 5 5 5 5 3 5 5 5 5 3 5 5 5 3 5 5 5 5 5 3 3 5 5 5 5 5 5 5 5 5 5 5 5 5 5 5 5 5 5 5 5 5 5 5 5 5 5 5 5 5 5 5 5 5 5 5 5 5 5 5 5 5 5 5 5 5 5 5 5 5 5 3 5 5 5 5 5 5 5 5 5 5 5 5 5 3 5 5 5 5 5 5 5 5 5 5 5 5 5 5 5 5 5 5 5 5 3 5 5 5 3 5 3 5 5 5 3 5 5 5 5 5 5 5 5 5 5 5 5 5 5 5 5 5 5 5 5 3 5 3 5 5 5 3 5 5 3 5 5 5 3 3 5 5 3 3 5 5 5 5 5 5 5 5 5 5 5 5 5 5 3 5 5 5 5 3 5 5 5 5 5 5 5 5 5 5 5 3 5 5 5 3 5 5 5 5 5 5 5 5 5 5 5 5 5 5 5 5 5 5 5 5 5 5 5 5 3 5 5 3 5 3 3 5 5 5 3 5 5 5 5 5 5 5 5 5 5 5 5 5 5 5 3 5 5 5 5 5 5 5 5 5 5 5 5 5 5 3 5 5 3 5 5 3 5 5 3 5 5 3 5 5 5 5 5 5 5 5 5 5 5 5 5 5 3 3 5 5 5 5 3 5 5 5 5 5 3 5 5 5 3 5 5 5 5 5 5 5 3 3 5 5 3 5 5 5 3 5 3 5 3 5 3 5 5 5 5 5 5 5 5 5 3 5 5 3 3 5 5 5 5 5 5 5 5 5 5 5 3 5 5 5 5 3 5 5 5 3 3 5 5 5 3 3 5 5 5 5 3 5 3 5 5 5 5 3 5 3 3 5 5 5 5 5 5 5 5 3 5 5 5 3 5 5 3 5 5 3 3 5 3 3 5 5 5 5 3 5 3 5 5 5 5 5 3 3 5 5 3 5 5 5 3 5 5 5 3 5 3 5 5 5 5 5 3 3 5 5 5 5 5 5 5 5 5 3 5 5 5 5 5 5 5 5 5 3 5 5 5 5 5 5 5 5 3 5 5 5 5 3 5 5 3 3 5 5 5 3 3 5 5 5 5 3 5 5 5 5 5 5 5 5 5 5 5 5 5 5 5 3 3 3 3 5 5 3 5 5 3 3 5 5 5 5 3 3 5 5 5 3 5 5 5 3 5 5 5 3 5 5 5 5 5 5 5 5 3 5 3 5 5 3 5 5 5 5 5 5 5 3 5 5 5 5 3 5 5 5 5 3 3 5 5 5 5 3 5 5 5 5 5 3 5 5 5 5 3 5 5 5 5 5 5 5 3 5 5 5 5 5 3 5 5 3 5 5 5 5 5 5 3 5 5 5 5 5 3 5 5 5 3 5 5 5 5 5 5 5 3 5 5 3 5 3 5 5 5 5 5 5 5 5 5 5 5 3 5 5 5 5 5 5 5 5 3 5 5 5 5 5 5 5 5 5 3 5 5 5 3 5 3 5 5 5 5 3 5 5 5 5 5 5 5 5 5 3 5 5 5 3 5 5 5 3 5 5 5 5 3 5 5 5 5 3 5 5 5 5 5 5 5 5 5 5 5 5 5 5 5 5 5 5 5 3 5 3 5 5 5 5 5 5 5 5 5 5 5 5 3 5 3 5 5 5 5 5 5 3 3 3 5 5 5 5 5 5 5 5 5 5 3 5 5 3 5 5 5 3 5 5 5 5 5 5 5 5 5 5 3 5 5 5 3 3 5 3 5 5 5 5 5 5 5 5 3 5 3 5 5 5 5 5 5 5 5 5 3 5 5 5 5 3 5 5 5 5 5 5 3 5 5 5 5 5 5 5 5 3 5 3 5 3 5 3 5 5 5 5 5 5 5 5 3 5 5 5 5 5 3 5 5 5 5 3 5 5 5 3 5 5 5 5 5 5 5 3 5 5 5 5 5 5 3 5 5 5 3 5 5 5 5 5 5 5 5 5 5 5 5 5 5 5 3 5 5 5 5 5 5 5 5 3 5 5 5 5 5 5 5 5 5 5 5 5 5 5 3 5 5 3 5 5 5 3 5 3 3 5 5 5 5 3 5 3 5 5 5 5 5 5 5 5 5 3 3 5 5 5 3 3 5 5 3 3 5 3 5 5 3 5 3 5 5 5 5 5 5 5 5 5 5 3 5 3 5 5 5 3 5 3 5 5 3 5 3 3 5 3 5 5 3 5 5 5 3 3 3 3 5 3 5 3 5 5 5 5 5 5 5 5 3 5 5 5 5 5 5 5 5 5 5 3 3 5 3 5 5 5 5 5 5 5 3 5 3 5 5 5 5 5 5 3 5 3 5 5 3 5 5 3 5 5 5 3 5 5 5 5 3 3 5 3 5 5 5 5 3 3 5 5 5 5 5 5 5 5 5 5 5 5 5 3 5 5 5 5 5 5 5 5 3 5 5 5 5 5 5 5 5 5 5 3 5 5 3 3 5 5 5 3 5 5 5 5 5 5 5 3 5 5 5 5 3 5 5 3 5 5 5 5 5 5 5 5 5 5 3 5 5 5 5 3 3 5 5 3 3 5 5 5 5 5 3 5 5 5 5 5 3 3 5 5 3 5 5 5 3 3 5 5 5 3 3 3 5 5 5 3 5 3 5 5 5 5 5 5 5 5 5 5 5 5 5 5 5 5 3 3 3 5 5 5 5 5 5 5 5 5 5 5 5 5 5 5 5 5 5 5 5 3 5 3 5 5 5 5 5 5 3 5 5 5 5 5 5 5 5 5 5 5 5 3 5 5 5 5 5 5 5 5 5 5 3 3 5 5 5 5 5 5 3 5 5 5 3 5 5 5 3 5 5 5 5 5 5 3 5 3 5 3 5 5 5 3 3 5 5 5 3 5 5 5 5 5 5 3 5 5 5 5 3 5 3 5 5 5 3 5 5 3 5 5 5 3 5 5 5 5 5 3 5 5 3 3 3 5 5 5 5 5 5 5 5 3 5 3 5 5 5 5 5 5 5 5 5 5 5 3 5 5 3 5 5 5 5 5 5 5 5 5 5 3 5 5 5 5 5 5 3 5 5 3 5 5 5 5 5 3 5 5 5 5 5 5 3 5 5 5 5 5 5 3 3 3 5 5 5 3 5 5 5 5 3 5 5 3 5 3 5 5 3 5 5 5 5 5 5 3 5 5 5 5 3 3 3 5 5 5 5 5 5 5 5 5 5 3 5 5 5 5 5 5 5 5 5 5 5 5 5 3 5 5 5 5 5 5 5 5 5 5 5 5 5 5 5 5 5 5 5 5 5 5 5 5 5 5 5 5 5 3 5 5 5 5 5 5 5 5 5 5 5 5 5 5 5 5 5 5 5 5 5 5 3 5 5 5 5 5 5 5 5 5 3 5 5 3 5 5 5 3 5 5 3 5 5 5 5 5 5 5 5 5 5 3 5 5 5 5 5 5 5 3 5 5 5 3 5 5 5 5 5 5 5 3 5 3 3 5 5 5 5 3 3 5 5 5 5 5 5 5 5 5 5 5 5 5 5 5 5 5 5 5 5 5 5 5 5 5 5 5 5 3 5 5 5 3 5 5 5 3 5 5 5 3 5 5 5 3 5 5 5 5 5 5 5 5 5 5 5 5 3 5 5 3 3 5 5 5 5 5 5 5 5 5 5 5 3 5 5 5 3 3 3 3 5 5 5 5 5 5 5 5 5 3 5 3 5 5 5 3 5 5 3 5 3 5 5 5 5 5 5 5 5 3 5 5 5 3 5 5 3 5 5 5 3 5 3 5 5 5 5 5 5 5 5 5 5 5 5 5 5 5 5 3 5 5 5 5 5 5 5 5 5 5 5 5 5 5 5 5 5 5 3 3 3 5 5 5 5 5 5 5 5 5 5 5 3 5 5 5 3 3 5 3 5 5 5 3 5 3 3 5 5 5 5 5 5 5 5 5 5 5 5 3 5 5 5 5 5 3 5 5 5 5 5 5 3 3 5 5 5 3 5 5 5 5 5 5 5 5 5 5 5 5 5 5 5 5 5 5 5 3 5 5 5 3 5 5 5 5 3 3 5 5 5 5 5 5 5 5 5 5 5 5 5 5 5 5 5 5 5 3 5 5 5 3 5 5 5 5 3 5 5 5 5 3 5 3 3 5 3 5 5 5 5 5 5 5 5 3 5 3 5 5 3 5 5 3 5 5 5 5 5 5 3 5 5 5 5 3 5 5 5 5 5 5 5 5 3 5 5 3 5 3 5 5 3 3 3 5 5 5 3 5 5 5 5 3 5 5 5 5 3 3 5 5 5 5 5 5 5 5 5 5 5 3 5 5 5 5 5 5 5 5 5 5 5 5 5 5 5 5 5 5 5 5 5 5 5 5 5 5 5 5 5 5 5 3 3 5 3 5 5 5 5 3 5 5 5 5 3 3 3 3 5 5 5 5 5 3 5 5 3 5 3 5 5 5 5 5 5 5 3 5 5 5 5 5 5 5 5 5 3 5 5 5 3 5 3 5 5 5 5 3 5 5 3 5 3 5 5 3 5 5 3 5 3 5 5 5 3 5 5 5 5 5 5 5 5 5 5 5 5 5 5 5 5 5 5 5 5 5 5 5 5 5 5 5 5 5 5 5 5 5 5 5 5 5 5 5 5 5 5 5 5 5 5 5 5 5 5 5 5 5 5 5 5 5 5 5 5 5 5 5 5 5 5 5 3 5 5 5 5 5 5 5 5 5 5 5 3 5 5 5 3 5 5 5 5 5 5 5 5 5 5 5 5 5 5 5 5 5 5 5 5 5 5 5 5 5 5 5 5 5 5 5 5 5 5 5 5 5 5 5 3 3 5 5 5 5 5 5 5 5 3 5 3 3 5 5 5 5 5 5 5 5 5 5 5 5 5 5 5 5 5 5 5 5 5 5 5 5 5 5 5 5 5 5 5 5 5 5 5 5 5 3 5 5 5 3 3 5 5 3 5 5 5 5 5 5 3 5 5 5 5 5 5 5 3 5 5 5 5 5 5 5 3 5 5 5 5 3 5 5 5 3 3 3 5 5 5 5 5 5 3 5 3 5 5 5 3 3 3 5 5 5 5 5 3 5 5 5 5 5 3 3 5 5 5 5 5 5 5 5 5 5 5 5 5 5 5 5 5 5 5 5 5 5 5 5 5 3 5 5 5 5 5 5 5 3 5 3 3 5 5 5 3 5 5 5 5 5 5 5 5 5 5 5 5 5 3 5 5 5 5 5 5 5 5 5 5 5 5 5 5 5 5 5 5 5 5 5 5 5 5 5 5 3 5 5 5 5 5 5 5 5 5 5 5 5 5 5 5 5 5 5 3 5 5 5 5 3 5 5 5 5 5 5 5 5 5 5 5 5 5 5 5 5 5 5 5 5 5 5 5 5 5 5 5 5 5 5 5 5 5 5 5 5 5 3 5 5 5 5 3 5 5 5 5 5 5 3 5 5 5 5 5 5 3 5 5 5 5 5 5 3 5 3 3 5 5 5 3 5 5 5 5 5 5 3 5 3 5 5 5 5 5 5 5 5 3 5 3 5 5 5 3 5 5 5 3 5 5 5 5 5 5 5 5 5 5 3 5 5 5 5 5 3 5 5 5 3 5 5 5 5 5 5 5 5 5 3 5 5 5 5 5 5 5 5 5 5 5 5 5 5 5 5 5 5 5 5 5 5 5 5 5 5 5 5 5 5 5 5 5 5 5 5 5 5 5 5 5 5 5 3 5 5 5 5 5 5 5 5 5 5 5 3 3 5 5 5 3 3 5 5 3 5 5 5 5 5 3 3 5 5 5 5 5 3 5 5 5 5 5 3 5 5 5 3 5 5 5 5 5 5 5 5 5 5 5 5 5 5 3 5 3 5 5 5 5 5 5 5 5 5 3 5 5 5 5 3 5 5 5 3 5 5 5 5 5 5 3 5 5 5 5 5 5 3 5 5 5 5 5 5 5 5 5 5 3 5 3 5 5 5 5 5 5 5 3 5 5 5 5 5 5 5 5 5 5 3 5 5 5 3 5 5 5 5 5 5 5 5 5 5 5 5 5 5 5 5 5 5 5 5 3 5 5 5 5 5 5 5 5 5 5 5 5 5 5 3 5 5 3 5 5 5 3 5 5 5 5 5 5 5 5 5 5 5 5 5 5 5 5 3 3 5 5 5 3 5 5 5 5 5 5 5 5 3 5 5 5 5 5 3 5 5 5 5 3 5 5 5 3 5 5 5 3 3 5 5 5 5 5 5 5 3 5 5 5 3 5 5 5 5 3 5 5 5 5 5 5 5 5 3 5 5 5 5 5 5 5 5 5 5 5 5 5 5 5 5 5 5 5 5 3 5 5 5 5 5 3 5 5 5 5 3 5 5 5 5 5 5 5 5 5 5 3 5 5 5 5 5 5 5 3 5 5 5 5 5 5 3 5 5 5 5 5 5 5 5 5 5 5 5 5 5 5 3 5 5 5 5 5 5 5 5 5 5 3 5 5 5 3 5 5 5 5 5 5 5 5 5 5 5 5 5 5 5 5 5 5 5 5 5 5 5 5 5 3 5 5 3 5 5 5 5 5 5 3 5 5 5 5 5 5 5 5 5 5 5 3 3 5 5 5 5 5 3 5 3 5 5 5 5 5 5 5 3 5 5 5 5 5 5 5 5 5 5 5 5 5 5 5 5 5 5 3 5 5 3 5 5 5 3 5 3 5 5 5 5 5 3 3 5 5 5 3 5 3 5 5 5 5 5 5 5 5 5 5 5 5 5 5 5 5 5 5 5 5 5 5 5 3 5 5 3 5 5 5 5 5 3 5 5 5 5 5 5 5 5 5 5 5 5 5 5 3 5 3 5 3 3 5 5 5 5 5 3 3 5 5 5 5 5 5 5 5 5 5 5 5 5 5 5 5 5 3 5 5 5 5 5 5 5 3 5 5 5 5 5 5 5 5 5 5 5 5 5 5 5 5 5 5 3 5 5 5 5 5 5 5 5 5 5 5 5 5 5 5 5 5 5 5 5 5 5 3 5 3 3 5 3 3 5 5 5 5 5 3 5 5 3 5 5 5 5 3 3 5 5 3 3 5 5 5 5 3 3 5 5 5 5 5 5 5 5 3 3 5 5 5 5 5 5 5 5 5 5 5 5 5 3 5 3 5 5 3 5 5 3 3 5 5 5 3 3 5 5 3 5 5 5 3 5 5 3 5 5 5 5 5 5 5 5 5 5 5 3 5 5 5 5 5 5 3 5 3 3 5 5 5 5 5 3 5 5 5 5 5 5 5 5 5 3 5 5 5 5 5 3 5 5 5 5 5 5 5 5 5 5 5 5 5 5 5 5 5 5 5 5 3 5 5 5 5 5 5 5 5 5 3 5 5 5 3 5 5 5 3 5 5 5 5 3 5 5 5 5 3 3 5 5 3 3 5 5 5 5 5 5 5 5 5 5 3 5 5 5 5 3 5 5 5 3 5 5 5 5 5 3 5 5 5 5 5 5 5 5 3 5 3 5 5 5 5 5 5 5 3 5 5 3 5 5 5 3 5 5 5 5 5 5 5 5 5 3 5 5 5 5 5 5 5 5 3 5 5 5 5 5 5 5 3 3 5 5 3 5 5 3 5 5 3 5 5 5 3 5 3 5 5 5 3 5 3 5 3 3 5 5 5 5 5 5 3 5 5 5 5 3 5 5 5 5 5 5 5 5 5 5 5 3 5 5 5 5 5 5 3 5 5 5 3 3 5 3 5 5 5 5 5 5 5 5 3 5 3 3 5 5 5 5 5 5 3 5 5 5 5 5 5 5 3 5 5 5 5 5 5 5 5 5 3 3 5 5 5 5 3 5 5 5 5 5 3 5 5 3 5 5 5 5 3 5 5 5 5 5 3 3 5 5 5 5 3 5 5 5 5 5 5 5 5 5 5 5 5 5 5 5 5 5 5 5 5 5 5 5 5 5 5 5 5 5 5 5 5 5 5 5 5 5 5 5 5 5 5 5 5 5 5 5 5 5 5 5 5 5 3 5 5 5 5 3 3 5 3 5 5 5 5 5 5 5 5 5 5 5 5 5 5 5 5 5 5 5 5 5 5 5 5 5 5 5 5 5 5 5 5 3 5 3 5 5 5 3 5 5 5 5 3 5 5 5 3 5 5 3 5 5 5 5 3 3 5 5 5 3 5 5 5 5 3 5 3 5 5 5 5 5 3 5 5 5 5 5 5 3 5 5 5 5 3 5 5 3 5 5 3 5 5 5 5 5 5 5 5 5 5 5 5 5 5 5 3 5 5 5 5 3 5 5 5 3 5 5 5 3 5 5 5 5 5 5 5 5 5 5 5 5 3 5 5 5 5 5 5 5 5 5 5 5 5 5 5 5 5 5 5 3 5 5 5 5 3 5 3 5 5 3 5 3 3 5 5 5 3 5 3 5 3 3 5 5 3 5 5 5 5 3 5 5 5 3 5 5 5 5 5 5 5 5 5 5 3 5 3 3 5 5 3 5 5 5 5 3 5 5 3 5 5 5 5 5 3 5 3 5 5 5 5 3 5 5 5 5 5 5 5 3 5 5 5 5 3 3 5 5 5 5 5 3 3 5 5 5 5 5 5 5 5 3 5 5 5 5 5 5 5 3 5 3 5 5 5 3 5 5 3 5 5 3 5 5 5 5 5 3 5 5 3 5 5 5 5 5 5 5 5 3 3 5 5 3 5 5 5 3 5 5 3 5 3 5 5 5 3 5 5 3 5 3 5 3 3 3 5 3 5 3 5 5 3 5 5 3 5 5 5 5 5 5 5 5 3 3 5 5 5 5 5 5 5 3 3 5 5 5 5 5 5 5 5 3 5 5 5 5 3 5 5 5 5 5 3 5 5 5 5 5 5 3 5 5 5 5 5 5 3 5 5 5 5 5 5 5 5 5 5 5 5 3 5 5 5 5 3 5 5 5 3 5 5 5 5 3 5 5 3 5 5 5 5 5 5 5 5 5 5 5 5 3 5 5 5 5 5 5 5 3 5 5 5 5 5 5 5 3 5 5 5 3 5 3 5 5 5 5 5 5 5 5 5 5 5 5 5 5 5 5 5 5 5 5 5 5 3 5 5 5 5 5 5 5 5 5 5 5 5 5 5 5 3 5 5 5 5 5 5 5 5 5 3 5 5 5 5 5 5 5 5 3 5 5 5 5 3 5 5 3 5 5 3 5 3 3 3 5 5 5 5 5 5 5 3 5 5 5 5 5 5 5 5 5 5 5 5 5 5 5 5 5 5 5 5 5 3 5 3 5 5 5 5 5 5 5 5 5 3 5 5 5 5 5 5 5 5 3 5 5 3 3 5 5 5 5 5 5 5 5 5 5 5 5 5 5 3 5 5 5 5 5 5 5 5 5 5 5 3 5 5 5 3 5 5 5 5 5 5 3 5 5 5 5 5 5 5 3 3 5 5 5 5 3 3 3 3 5 5 3 5 5 3 5 5 5 5 5 3 5 5 5 3 3 5 5 5 3 5 3 5 3 5 3 5 5 5 5 5 5 3 5 5 3 3 3 5 5 3 5 3 5 3 3 5 5 5 5 5 5 5 5 5 3 5 3 5 5 5 5 3 3 5 5 5 3 3 3 5 5 3 5 3 5 5 5 5 3 5 3 5 3 3 5 5 3 5 3 5 5 5 5 5 5 5 5 5 5 5 3 5 5 3 5 3 5 5 5 3 5 3 5 5 3 5 3 5 5 5 3 3 5 5 5 5 5 5 3 5 5 5 5 5 5 5 5 5 5 5 3 5 3 5 5 5 5 5 5 5 3 5 5 5 5 5 5 5 3 5 5 5 5 3 5 5 5 5 5 5 5 5 5 5 5 5 5 5 5 5 5 5 5 5 5 5 5 5 5 3 5 5 5 5 5 5 5 5 5 5 3 5 3 5 5 3 5 5 5 3 5 5 5 3 5 5 5 3 5 5 3 5 5 3 3 3 5 5 3 3 5 5 5 5 3 5 5 5 5 5 5 5 5 5 3 5 5 5 5 5 5 5 5 5 5 5 5 5 5 3 5 5 5 5 5 5 5 5 5 5 3 5 5 5 5 5 3 3 5 5 5 5 5 5 5 5 5 5 5 5 3 3 5 5 5 5 5 5 5 5 5 5 3 5 5 5 5 5 5 5 5 5 5 5 5 5 5 5 5 5 5 5 3 5 5 5 5 5 5 5 5 5 5 5 5 5 3 5 5 5 5 5 3 5 5 5 5 5 5 5 5 5 5 5 5 5 5 5 5 5 5 3 5 5 5 3 5 5 5 5 5 5 5 5 3 5 5 5 5 5 5 5 5 3 3 3 5 5 3 5 5 5 5 5 5 5 5 5 5 5 5 5 5 5 5 5 5 5 3 5 5 5 5 5 5 5 3 5 5 5 5 5 5 5 5 5 3 5 5 5 5 3 5 5 5 3 5 5 5 5 5 5 5 5 5 5 5 5 5 5 5 5 5 5 3 5 5 5 5 5 5 5 5 3 5 5 5 5 5 3 5 5 3 5 5 5 5 5 5 5 3 3 5 5 5 3 5 5 5 3 5 3 5 5 3 5 5 5 5 5 5 5 5 5 5 5 5 5 5 5 5 5 5 3 5 5 5 5 5 5 5 3 5 5 5 5 5 5 5 5 3 5 5 5 5 5 5 5 5 5 5 5 5 5 5 5 5 3 5 3 5 5 5 5 3 5 5 5 5 5 5 5 5 3 5 5 3 5 3 5 3 5 5 5 5 3 5 3 5 5 5 5 3 5 5 5 5 3 5 5 5 5 5 5 5 5 5 5 5 5 5 5 5 5 5 5 5 5 5 5 5 3 5 3 5 5 5 3 5 5 5 3 5 5 3 5 5 5 5 5 5 5 5 5 5 5 5 5 5 5 5 5 5 3 5 5 3 5 5 3 5 5 3 5 5 5 5 5 5 5 5 5 5 5 5 5 5 5 5 5 5 5 5 5 5 5 5 3 5 5 5 5 3 5 5 5 5 3 5 3 5 5 5 3 5 5 5 3 5 5 5 3 5 5 5 5 5 5 5 5 5 5 5 3 5 5 3 3 5 5 5 5 5 5 3 5 5 5 3 3 5 5 3 5 5 5 5 5 5 5 5 5 3 5 3 5 5 3 5 5 5 5 5 5 5 5 5 5 3 5 5 5 5 5 5 5 5 3 5 3 5 5 5 3 5 5 5 5 5 5 5 5 5 5 5 5 5 3 5 5 5 5 5 5 5 5 5 5 5 5 5 5 5 5 3 5 5 5 5 5 5 3 5 5 5 5 5 5 5 5 5 5 5 5 5 3 5 5 5 3 5 5 3 3 3 5 5 3 5 3 3 5 3 5 3 5 5 5 5 5 5 5 5 5 5 5 5 5 5 5 5 3 5 5 5 5 5 3 3 5 3 5 5 5 3 3 5 5 5 5 5 5 3 5 3 5 5 5 3 5 5 3 5 3 5 5 5 5 5 5 5 5 3 5 3 5 5 5 5 5 5 3 5 5 5 5 3 5 5 5 5 5 5 3 5 3 5 5 3 5 5 5 3 5 3 5 5 3 3 5 5 3 5 5 5 5 5 5 5 5 5 5 5 5 5 5 5 5 5 5 3 5 5 5 5 5 5 3 5 5 5 3 5 5 5 5 5 5 5 5 5 5 5 3 5 5 5 5 3 5 3 5 5 5 5 5 5 5 5 5 5 5 5 3 3 5 5 5 5 5 5 5 5 5 5 5 5 5 5 5 5 5 5 5 5 5 5 5 5 5 5 5 5 5 5 5 5 5 5 5 5 5 5 5 5 5 5 5 5 5 5 5 5 5 5 5 5 5 5 5 5 5 5 5 5 5 5 5 3 5 5 3 5 5 3 5 5 5 5 3 5 5 5 3 3 5 5 5 3 5 3 5 5 5 5 5 5 3 5 5 3 5 3 5 5 5 5 3 5 5 5 5 3 3 5 5 5 3 5 3 5 5 5 5 5 5 5 5 5 5 5 5 5 5 5 5 5 5 3 5 5 3 5 5 5 5 3 3 5 5 5 5 3 5 5 3 3 5 5 5 3 5 5 5 3 5 5 5 5 5 5 5 5 3 5 3 3 5 5 3 5 3 5 5 5 3 3 5 5 5 3 5 5 5 3 3 5 5 3 5 5 5 3 5 5 5 5 5 5 5 5 3 3 5 5 5 5 5 5 5 5 5 5 5 5 5 5 5 5 5 5 5 5 5 5 5 5 5 5 5 5 3 5 5 5 5 5 5 5 5 5 5 5 5 5 5 3 5 5 5 5 5 5 5 5 3 5 5 5 3 5 5 5 5 5 5 3 5 5 5 3 5 5 3 5 5 3 5 5 3 5 3 5 5 5 5 5 5 5 5 3 3 5 5 5 5 5 5 5 5 5 5 5 5 3 5 5 5 5 5 5 5 5 5 5 5 5 5 5 5 5 5 3 3 5 3 5 5 3 5 5 3 5 5 3 5 5 5 3 5 3 3 5 5 3 5 5 5 5 5 5 5 5 5 3 5 5 5 3 5 5 5 5 5 5 3 5 3 5 5 5 5 5 5 3 5 5 5 5 5 5 3 5 5 5 5 3 5 5 5 5 5 5 5 5 5 5 5 5 3 5 5 3 5 5 5 5 5 5 3 5 5 5 5 5 3 5 5 5 5 5 5 3 5 5 5 5 5 5 5 5 5 5 5 5 5 3 5 5 5 5 5 5 5 5 5 5 5 3 5 3 3 5 5 3 5 5 3 5 5 3 3 5 5 5 5 5 5 3 5 5 3 3 5 5 5 5 5 5 5 3 3 5 5 3 3 5 5 3 5 3 5 5 5 3 3 5 3 5 5 5 5 5 5 5 5 5 5 5 5 5 5 3 5 5 5 3 5 5 5 5 5 5 3 5 5 5 3 5 5 3 5 5 5 5 5 3 5 5 5 5 5 5 5 3 5 5 3 5 5 3 5 3 5 5 5 5 3 5 5 5 5 3 5 5 5 5 5 3 5 3 5 5 5 5 5 5 5 5 5 5 5 3 5 5 5 5 5 3 5 5 5 3 5 5 5 5 3 5 5 5 5 5 5 3 5 5 5 3 5 5 5 5 5 5 3 5 3 5 5 5 5 5 3 5 5 5 5 5 5 5 5 5 5 5 5 5 5 5 5 5 5 5 5 5 5 5 5 3 3 5 3 5 5 5 5 5 5 5 3 5 5 5 5 5 5 5 5 3 5 5 3 5 5 5 5 5 5 5 5 5 5 5 5 5 3 5 5 3 5 5 3 5 5 3 5 3 5 5 5 5 5 5 3 5 5 5 5 5 5 5 5 5 5 5 5 5 5 5 5 5 5 5 5 3 5 5 5 5 3 5 5 3 5 5 3 5 5 5 5 5 3 5 5 5 5 5 5 5 5 5 5 5 5 5 5 5 5 5 5 5 5 5 5 3 5 5 5 5 5 5 5 5 5 5 5 5 5 5 5 5 5 5 3 5 5 5 5 3 5 5 5 5 5 3 5 5 5 5 5 5 5 5 5 5 5 5 5 5 5 5 5 3 5 5 5 5 3 5 5 5 5 5 3 5 3 5 5 5 5 5 3 5 5 3 5 5 5 5 5 5 5 5 5 5 5 5 5 5 5 5 5 5 3 5 5 5 3 5 5 5 5 5 3 3 5 5 5 5 3 5 5 3 5 5 5 5 3 5 5 5 5 5 5 5 3 5 5 5 5 5 5 5 5 5 5 5 5 5 5 5 5 5 5 5 5 5 5 5 5 5 5 5 5 5 5 5 5 5 5 3 5 5 3 5 5 5 5 5 5 5 5 5 5 3 5 5 5 5 5 5 5 5 5 5 5 5 5 5 5 5 5 5 5 5 5 5 3 5 3 5 5 5 3 5 5 5 5 5 5 5 5 5 5 5 5 5 5 5 5 5 5 5 5 5 5 5 5 5 5 5 5 5 5 5 5 5 5 5 3 5 5 3 5 5 5 5 5 5 5 5 5 5 5 5 3 5 5 5 5 5 5 5 5 5 5 5 5 3 3 5 3 5 3 5 5 5 5 5 5 5 5 5 5 3 5 5 5 5 5 5 5 5 3 5 5 3 5 5 5 5 3 3 5 5 5 5 5 5 3 5 3 5 5 5 5 5 5 3 5 3 5 5 5 3 5 5 5 3 5 5 5 3 5 5 5 5 5 5 5 5 5 5 5 5 5 5 5 3 5 3 5 5 5 5 3 3 5 5 5 5 5 5 5 5 5 5 5 5 5 5 5 5 3 5 3 5 5 5 5 3 5 5 5 5 5 5 5 5 5 5 5 3 5 5 5 3 5 5 5 5 3 5 5 5 3 5 5 3 5 5 3 5 5 5 3 5 5 5 5 5 5 5 5 5 5 3 5 5 5 5 5 5 3 5 3 5 3 5 5 3 5 5 5 5 5 3 3 5 3 5 5 3 5 5 5 5 5 5 5 5 5 5 5 5 5 5 5 5 5 5 5 5 5 5 5 5 5 5 5 5 5 5 5 5 5 5 5 5 3 5 5 5 5 5 5 5 3 5 5 5 5 5 5 5 5 5 5 5 5 5 5 5 3 5 5 5 5 5 5 5 5 5 5 5 5 5 5 5 5 5 5 5 5 5 5 5 5 5 5 5 5 5 5 5 5 3 5 5 5 5 5 5 5 3 5 5 5 5 5 5 5 5 3 5 5 5 3 5 5 5 5 5 3 5 5 5 3 5 5 5 5 5 5 5 3 3 5 5 5 5 3 5 5 5 5 5 5 3 5 5 5 5 5 5 5 5 5 5 5 5 5 5 5 5 5 5 5 5 5 5 5 5 5 3 3 3 3 5 5 5 5 5 3 5 5 5 5 5 5 5 5 5 5 5 5 5 5 5 5 5 5 5 5 5 5 5 5 5 5 5 5 5 5 5 5 5 5 5 5 5 5 5 5 5 5 5 5 5 3 5 5 3 5 5 5 5 5 5 5 5 5 5 5 5 5 5 5 5 3 3 5 5 5 5 5 5 5 5 5 5 5 5 3 5 5 5 5 5 5 5 5 5 5 3 5 5 3 3 5 5 5 3 5 5 5 5 5 5 5 5 3 5 5 5 5 5 3 5 5 5 5 5 3 5 5 5 5 5 5 5 5 5 5 5 5 5 3 5 5 5 5 5 5 5 5 5 5 5 5 5 5 3 5 5 5 5 5 5 5 3 5 5 5 5 5 5 5 5 5 5 5 5 5 5 5 5 5 5 5 5 5 5 5 5 5 5 5 5 5 5 5 5 5 5 5 5 5 5 5 3 5 5 5 5 5 5 5 3 5 5 5 5 5 5 5 5 5 5 5 5 5 5 3 3 3 5 5 5 3 5 5 3 5 5 5 3 5 5 3 5 5 5 5 3 5 3 5 3 5 5 3 5 5 5 5 3 5 5 5 5 5 5 5 3 5 5 5 5 3 5 5 3 5 5 5 3 3 5 5 5 5 5 3 5 3 5 5 5 5 5 5 5 5 5 5 5 5 5 5 5 5 5 5 5 5 5 5 5 5 5 5 5 5 3 5 5 5 3 5 5 5 5 5 5 5 5 5 5 5 5 5 5 5 5 3 5 3 3 5 5 5 5 5 3 5 5 5 5 3 5 5 5 5 5 5 5 5 5 5 5 5 3 5 5 5 3 5 5 5 3 5 5 3 5 3 5 3 5 5 5 3 5 3 5 5 5 3 5 3 5 5 3 5 5 3 5 5 5 5 5 5 5 5 5 3 5 5 3 5 5 5 3 5 5 5 5 5 5 5 5 3 5 3 5 5 5 3 5 3 5 3 3 5 5 3 5 5 3 5 5 5 3 5 5 5 5 5 5 3 3 5 3 3 5 3 3 5 5 5 5 5 5 5 5 5 5 3 5 5 5 5 5 3 5 5 5 5 5 3 5 3 5 5 5 5 5 3 5 5 5 5 5 5 5 5 5 3 3 5 5 3 3 5 3 5 3 3 5 5 3 5 3 5 5 5 5 5 5 5 5 5 5 5 5 3 5 5 5 5 5 5 5 5 5 5 5 5 5 5 5 5 5 5 5 5 5 5 5 5 5 5 5 5 5 3 5 5 5 5 3 5 5 5 5 5 5 5 5 5 5 5 5 5 5 3 5 3 5 3 5 5 5 5 5 5 5 3 5 5 5 5 3 5 3 5 5 5 5 5 3 5 5 5 5 5 5 5 3 5 5 3 5 5 5 5 5 5 5 5 3 5 3 5 5 5 5 3 5 5 5 5 5 3 5 5 5 3 5 5 5 5 5 5 5 5 5 5 5 5 5 5 5 5 5 3 5 5 5 5 5 5 5 5 5 5 5 5 5 5 5 5 3 5 5 5 5 5 3 5 5 5 5 5 3 5 5 5 3 5 5 5 3 5 5 3 5 3 5 3 5 5 5 5 5 5 5 3 5 5 5 5 5 3 5 5 3 5 3 5 5 5 5 3 5 5 5 5 3 5 5 5 5 5 5 5 5 5 5 5 5 5 5 5 5 5 5 3 5 5 3 5 5 5 5 5 5 5 5 5 5 5 3 5 5 5 5 5 5 5 5 5 5 5 5 5 5 5 5 5 5 3 5 5 5 5 3 5 5 5 5 5 5 5 5 5 5 5 5 5 5 5 5 5 5 5 5 5 5 5 5 5 3 3 5 5 5 3 5 5 5 3 5 5 5 5 5 5 5 5 5 3 5 5 5 5 5 5 5 5 5 5 5 5 5 5 5 5 5 5 5 5 5 5 5 5 5 5 5 5 5 5 5 5 5 5 5 5 5 5 5 5 5 5 5 5 5 5 5 5 5 5 5 5 5 5 3 5 5 5 3 5 5 5 5 5 5 3 5 3 5 5 5 5 5 5 5 5 3 5 5 3 5 5 5 5 5 5 5 5 5 5 5 5 5 5 5 5 5 5 5 5 3 5 5 5 3 5 5 5 5 5 5 5 5 5 5 5 5 5 5 3 5 3 5 5 3 3 5 5 5 5 5 5 5 3 5 5 5 5 5 5 5 5 5 3 5 5 5 5 3 5 5 3 3 5 3 5 3 5 5 5 5 3 5 5 5 5 5 3 5 5 3 5 3 3 5 5 5 5 5 5 5 5 5 5 5 5 5 5 5 5 5 5 5 5 5 5 5 5 5 5 5 5 5 5 5 5 5 5 5 5 5 5 5 5 5 5 5 5 5 3 5 3 5 5 5 5 5 3 3 5 5 5 5 5 5 5 5 5 3 5 5 5 5 5 3 5 5 5 5 5 5 5 5 5 3 5 5 3 5 3 3 5 5 5 5 5 5 5 5 5 3 3 5 5 5 5 5 3 5 5 5 5 5 5 5 5 5 5 5 5 5 5 5 5 3 5 5 5 5 5 5 5 5 5 5 5 3 5 5 5 3 5 5 5 5 3 5 3 5 5 5 5 5 5 5 5 5 5 5 5 5 5 5 5 5 5 5 5 5 5 5 5 5 5 5 5 5 5 5 5 5 5 5 5 5 5 5 5 5 5 5 5 5 5 5 5 5 5 3 5 5 5 5 5 5 5 3 5 5 5 5 5 5 3 5 5 3 5 5 5 5 5 5 5 5 5 5 5 3 5 3 3 5 5 5 3 5 3 3 5 5 3 3 5 5 3 3 5 5 3 5 5 5 5 5 5 3 5 3 3 5 3 5 3 3 3 5 5 5 3 5 5 3 5 5 5 5 5 5 5 5 5 5 5 5 5 5 5 3 5 3 5 5 5 5 5 5 5 5 5 5 5 5 5 5 5 5 5 5 5 5 3 3 5 5 5 5 5 5 5 5 5 5 5 5 5 5 3 5 5 5 5 5 3 5 5 5 5 5 5 5 5 5 5 5 5 3 3 5 5 5 5 5 5 5 5 5 5 5 5 5 5 5 5 5 5 5 5 5 5 5 5 3 5 5 5 5 5 3 5 5 5 5 5 5 5 5 5 5 5 5 5 5 3 5 5 5 5 5 5 5 5 5 5 5 5 5 3 5 5 5 5 5 5 3 5 5 5 5 5 5 5 5 5 5 5 5 5 3 3 5 5 5 5 3 5 5 5 5 3 3 5 3 5 5 3 5 5 5 3 5 5 5 3 5 5 3 3 5 5 5 3 5 5 5 3 5 5 5 5 5 3 3 3 5 5 5 3 3 5 5 5 5 3 5 5 5 5 3 5 5 5 5 5 5 3 5 5 3 5 5 3 5 5 5 5 5 3 3 5 5 5 3 5 5 3 5 5 5 5 5 5 5 5 5 5 5 5 5 5 3 3 5 5 5 5 5 5 5 3 5 5 5 3 5 5 3 5 3 5 5 5 5 5 5 5 5 5 3 5 5 5 5 5 5 3 5 5 5 3 5 5 5 5 5 3 3 3 5 5 3 5 5 5 5 5 3 5 5 5 3 5 5 5 5 5 5 3 3 3 5 5 5 5 5 5 3 5 5 5 5 5 5 5 5 5 5 5 5 5 5 5 5 5 5 5 5 5 3 5 5 3 5 5 3 5 5 5 5 5 3 5 5 3 5 3 3 5 5 5 5 5 5 5 5 5 5 3 5 5 5 5 5 5 5 5 5 5 5 5 5 5 5 5 3 5 5 5 3 5 5 3 5 5 5 5 5 5 5 5 5 5 5 5 5 5 5 5 3 5 5 5 5 5 5 5 5 5 5 3 3 5 5 5 5 3 5 3 3 3 5 5 5 5 5 5 3 3 5 5 5 5 5 5 5 3 5 5 5 5 3 5 5 3 5 3 3 3 5 5 5 5 5 3 3 5 3 5 5 5 5 5 5 5 5 5 5 3 5 3 5 5 5 5 5 3 5 5 3 5 3 5 5 5 5 5 5 3 5 5 5 3 5 5 5 5 5 5 5 5 5 5 5 5 3 5 5 5 5 5 5 5 5 5 5 3 5 5 5 5 5 5 5 5 5 3 5 5 5 3 5 5 5 5 5 3 5 5 5 5 5 5 5 5 5 5 5 5 5 3 5 5 5 5 5 5 3 5 5 5 3 5 3 5 5 5 3 5 5 5 3 3 5 5 5 3 3 3 5 5 5 5 5 3 5 5 5 3 5 5 5 3 5 5 5 5 5 5 5 5 5 5 3 5 5 5 5 5 5 5 5 5 5 5 5 5 5 5 5 5 5 5 5 5 5 5 5 5 5 5 5 5 5 5 5 3 3 5 3 5 5 5 5 5 3 5 3 5 5 5 5 5 5 3 5 5 3 5 5 3 5 5 5 3 3 5 5 5 5 5 3 5 5 5 5 5 5 5 5 3 5 5 5 5 5 5 5 5 3 5 5 5 5 3 5 5 5 3 5 5 5 5 3 5 3 3 5 5 3 5 5 5 5 5 5 5 5 5 5 5 5 5 5 3 5 5 5 5 3 5 5 5 3 5 5 5 5 5 5 5 5 5 5 5 5 5 3 3 5 3 5 3 5 5 3 5 5 5 5 5 5 5 5 5 5 5 5 5 5 5 5 5 5 5 5 5 5 5 5 5 5 5 5 5 5 5 3 5 5 5 3 5 5 5 5 3 5 5 5 5 3 3 5 5 5 5 5 5 3 5 5 5 5 3 5 5 5 5 5 5 5 3 5 5 5 5 5 5 5 5 5 3 5 5 3 5 5 5 5 5 5 5 5 3 5 5 3 5 5 5 5 5 5 5 3 5 5 5 3 3 5 3 5 3 5 5 5 5 3 3 5 5 5 3 5 3 5 5 3 5 5 3 3 5 5 5 5 5 5 5 5 5 5 5 5 3 5 5 5 5 5 5 3 5 5 5 5 5 5 5 5 5 5 5 3 5 5 5 5 5 3 3 5 5 5 5 5 5 5 5 5 5 5 5 5 5 5 5 5 5 5 5 5 5 5 5 5 5 5 3 5 5 5 5 5 5 5 5 5 5 5 5 5 5 5 5 5 5 5 5 5 5 5 5 5 5 5 5 5 5 5 5 
</DataArray>
</Cells>
<PointData Scalars="" Vectors="displacement," Tensors="">
<DataArray type="Float64" Name="displacement" NumberOfComponents="3" format="ascii">
-3.8717482190472707e-07 -0.034999581111277739 0 -0.00025557378736005881 -0.0336366138001074 0 -0.00015596227562880821 -0.033264193324437814 0 -1.1670287911365833e-07 -0.034999617957875227 0 -8.6278834929251106e-05 -0.034269629892440631 0 -5.2308624673943276e-09 -0.034997882278769918 0 -3.8717482190472707e-07 -0.034999581111277739 0 -0.00025557378736005881 -0.0336366138001074 0 -3.8717482190472707e-07 -0.034999581111277739 0 -0.00015596227562880821 -0.033264193324437814 0 6.5176973528388453e-07 -0.032117189873832781 0 9.9692333257020945e-05 -0.034808128557192945 0 7.1510312676670388e-05 -0.034899883010829649 0 0.00012759493816064482 -0.034693069196800298 0 7.7847702185570322e-08 -0.034999882741784935 0 7.1510312676670388e-05 -0.034899883010829649 0 6.5037338192917538e-09 -0.034999816202156871 0 7.7847702185570322e-08 -0.034999882741784935 0 9.9692333257020945e-05 -0.034808128557192945 0 7.1510312676670388e-05 -0.034899883010829649 0 4.5882639820843622e-07 -0.035000399385290967 0 -0.00013731222572820208 -0.03417037158571945 0 7.1510312676670388e-05 -0.034899883010829649 0 6.5037338192917538e-09 -0.034999816202156871 0 0.00014500744156449222 -0.035025613816531208 0 -1.0710063107805746e-08 -0.035000097260078626 0 -6.5660895064894087e-05 -0.035034214156900931 0 -5.8789619426343445e-05 -0.035005983004459895 0 0.00021030643717122872 -0.03510499104774651 0 -0.00013731222572820208 -0.03417037158571945 0 9.9692333257020945e-05 -0.034808128557192945 0 0.00012759493816064482 -0.034693069196800298 0 0.00035038787252804121 -0.034431268302336372 0 -0.00013731222572820208 -0.03417037158571945 0 -0.00049105795790623061 -0.03330451295988749 0 -6.5660895064894087e-05 -0.035034214156900931 0 -5.8789619426343445e-05 -0.035005983004459895 0 -0.00020187524167602423 -0.035004949300825601 0 -0.00013731222572820208 -0.03417037158571945 0 -0.0008118997439685551 -0.033298162379542605 0 -0.0010735362914342183 -0.032045528461147159 0 -0.0012159219041412855 -0.031871634105769132 0 -0.0012153132206973137 -0.031974259240241977 0 -1.0710063107805746e-08 -0.035000097260078626 0 -5.8789619426343445e-05 -0.035005983004459895 0 -4.9193281509265619e-08 -0.035000002946846492 0 -5.8789619426343445e-05 -0.035005983004459895 0 -4.9193281509265619e-08 -0.035000002946846492 0 -5.1548604737283933e-05 -0.034922400952253289 0 -0.00085995674363593423 -0.031487660422775406 0 -0.00082368093764865319 -0.031500712418628694 0 -0.00083873345554550175 -0.031641578097469446 0 -0.00044901518532397636 -0.032245654689723111 0 -0.00067925647709385232 -0.030583290140621711 0 -0.0012865467898543234 -0.03188450050275092 0 -0.0012159219041412855 -0.031871634105769132 0 -0.0012608395887383583 -0.031871379531725218 0 -0.0012865467898543234 -0.03188450050275092 0 -0.0012159219041412855 -0.031871634105769132 0 -0.0012153132206973137 -0.031974259240241977 0 -0.00044901518532397636 -0.032245654689723111 0 -0.00049105795790623061 -0.03330451295988749 0 0.00012759493816064482 -0.034693069196800298 0 0.00024230992094763091 -0.034611487984579734 0 0.00035038787252804121 -0.034431268302336372 0 0.00059247562969727834 -0.034876628916852996 0 0.00024230992094763091 -0.034611487984579734 0 0.00035038787252804121 -0.034431268302336372 0 -0.00044901518532397636 -0.032245654689723111 0 0.00033597729919359389 -0.032805683970185649 0 0.00059247562969727834 -0.034876628916852996 0 0.00035038787252804121 -0.034431268302336372 0 0.00050316917470554184 -0.033931397996279311 0 -0.00067925647709385232 -0.030583290140621711 0 0.00014287379994160521 -0.029914202597784028 0 -8.0246218872556418e-06 -0.03141090951990954 0 -1.025763432124137e-05 -0.031407646243003219 0 8.3467120720314366e-06 -0.031411037676811769 0 -8.0246218872556418e-06 -0.03141090951990954 0 8.3467120720314366e-06 -0.031411037676811769 0 -8.2029710857411844e-06 -0.031277196427467034 0 8.3467120720314366e-06 -0.031411037676811769 0 -8.2029710857411844e-06 -0.031277196427467034 0 -0.00010387457033679877 -0.031402321369665982 0 -0.00025557378736005881 -0.0336366138001074 0 0.00050316917470554184 -0.033931397996279311 0 -0.00015596227562880821 -0.033264193324437814 0 -0.00025557378736005881 -0.0336366138001074 0 0.00035038787252804121 -0.034431268302336372 0 0.00050316917470554184 -0.033931397996279311 0 -8.6278834929251106e-05 -0.034269629892440631 0 0.0003626298434586393 -0.034444127614399557 0 0.00050316917470554184 -0.033931397996279311 0 -0.00015596227562880821 -0.033264193324437814 0 6.5176973528388453e-07 -0.032117189873832781 0 0.00033597729919359389 -0.032805683970185649 0 -1.7622261157300845e-08 -0.032113769064319453 0 -8.2029710857411844e-06 -0.031277196427467034 0 1.3655359176970727e-08 -0.032109576972174411 0 -0.00010387457033679877 -0.031402321369665982 0 1.3655359176970727e-08 -0.032109576972174411 0 -0.00010387457033679877 -0.031402321369665982 0 -1.2588156934971046e-08 -0.030737868860090972 0 0.00014287379994160521 -0.029914202597784028 0 -1.0930165615374565e-08 -0.030733509559553274 0 8.3467120720314366e-06 -0.031411037676811769 0 -0.00010387457033679877 -0.031402321369665982 0 -1.2588156934971046e-08 -0.030737868860090972 0 1.3112878204544699e-06 -0.030729672077176549 0 -8.1016570055558339e-07 -0.029260955010746773 0 -0.0003296610064122894 -0.028616842789141662 0 -8.1016570055558339e-07 -0.029260955010746773 0 -0.00025775879498941595 -0.028144761459973331 0 -6.4625152139551734e-07 -0.027786045962404318 0 -8.1016570055558339e-07 -0.029260955010746773 0 -0.0003296610064122894 -0.028616842789141662 0 -0.00025775879498941595 -0.028144761459973331 0 -0.0003296610064122894 -0.028616842789141662 0 -0.00025775879498941595 -0.028144761459973331 0 -0.00039860661188116685 -0.028132378373170477 0 0.00016551854165989529 -0.028672259546857318 0 1.3112878204544699e-06 -0.030729672077176549 0 -0.0003296610064122894 -0.028616842789141662 0 0.00016551854165989529 -0.028672259546857318 0 -0.0003296610064122894 -0.028616842789141662 0 -0.000386565820444932 -0.028433717146735649 0 1.0676501487403764e-06 -0.026315758676664854 0 -6.4625152139551734e-07 -0.027786045962404318 0 -0.0001404779182313803 -0.027465497984254603 0 1.0676501487403764e-06 -0.026315758676664854 0 -0.0001404779182313803 -0.027465497984254603 0 0.0003691993174395226 -0.026944330113428856 0 -0.00025775879498941595 -0.028144761459973331 0 -6.4625152139551734e-07 -0.027786045962404318 0 -0.0001404779182313803 -0.027465497984254603 0 -0.00025775879498941595 -0.028144761459973331 0 -0.0001404779182313803 -0.027465497984254603 0 -0.00039860661188116685 -0.028132378373170477 0 -0.0001404779182313803 -0.027465497984254603 0 4.1904440117038148e-05 -0.027743343124368887 0 -0.00039860661188116685 -0.028132378373170477 0 -0.0001404779182313803 -0.027465497984254603 0 4.1904440117038148e-05 -0.027743343124368887 0 0.0003691993174395226 -0.026944330113428856 0 4.1904440117038148e-05 -0.027743343124368887 0 -0.00014864084236022938 -0.028550663720913767 0 0.00082749347708525585 -0.027711635288712233 0 4.1904440117038148e-05 -0.027743343124368887 0 -0.00039860661188116685 -0.028132378373170477 0 -0.00014864084236022938 -0.028550663720913767 0 -0.00049950908762841741 -0.028533685730384763 0 -0.00014864084236022938 -0.028550663720913767 0 -0.00058863094708639112 -0.029171006909037598 0 -0.00039860661188116685 -0.028132378373170477 0 -0.00049950908762841741 -0.028533685730384763 0 -0.00014864084236022938 -0.028550663720913767 0 -0.00017023084261554798 -0.028381498308790928 0 0.00016551854165989529 -0.028672259546857318 0 -0.000386565820444932 -0.028433717146735649 0 -0.00039860661188116685 -0.028132378373170477 0 -0.00049950908762841741 -0.028533685730384763 0 -0.000386565820444932 -0.028433717146735649 0 -0.0003296610064122894 -0.028616842789141662 0 -0.00039860661188116685 -0.028132378373170477 0 -0.000386565820444932 -0.028433717146735649 0 -0.00049950908762841741 -0.028533685730384763 0 -0.00049861103400567245 -0.028526098010588061 0 -0.00058863094708639112 -0.029171006909037598 0 -0.00049950908762841741 -0.028533685730384763 0 -0.000386565820444932 -0.028433717146735649 0 -0.00049861103400567245 -0.028526098010588061 0 -0.00067925647709385232 -0.030583290140621711 0 -0.00044592829330051528 -0.029782060862198863 0 -0.00017023084261554798 -0.028381498308790928 0 -0.000386565820444932 -0.028433717146735649 0 -0.00049861103400567245 -0.028526098010588061 0 -0.00097765858317161534 -0.030907680329626402 0 -0.00038585597129453991 -0.031153841016174764 0 -0.00069980293976656613 -0.031385517275269115 0 -0.00038585597129453991 -0.031153841016174764 0 -0.00069980293976656613 -0.031385517275269115 0 -0.00055548992590962268 -0.031712075607515329 0 -0.00069980293976656613 -0.031385517275269115 0 -0.00055548992590962268 -0.031712075607515329 0 -0.0010194783631566927 -0.031724768437046018 0 -0.00038585597129453991 -0.031153841016174764 0 -0.00024031908300454363 -0.031477098528232661 0 -0.00055548992590962268 -0.031712075607515329 0 -0.00044592829330051528 -0.029782060862198863 0 -0.00023378637004475443 -0.030130646162001423 0 -0.00038585597129453991 -0.031153841016174764 0 -0.00024031908300454363 -0.031477098528232661 0 -8.897871647459832e-05 -0.031054616407358075 0 -0.00024031908300454363 -0.031477098528232661 0 -0.00055548992590962268 -0.031712075607515329 0 -0.00029622320843604541 -0.032038379664756603 0 -0.00024031908300454363 -0.031477098528232661 0 -3.4057528282372907e-05 -0.031408090836354804 0 -0.00029622320843604541 -0.032038379664756603 0 -0.00055548992590962268 -0.031712075607515329 0 -0.00055184026086030672 -0.032426405745902123 0 -0.00029622320843604541 -0.032038379664756603 0 -0.00055548992590962268 -0.031712075607515329 0 -0.00055184026086030672 -0.032426405745902123 0 -0.0010131048504167771 -0.032002225498243483 0 -0.00014864084236022938 -0.028550663720913767 0 0.00015784771663055332 -0.030316289633061523 0 0.00049879438474922553 -0.029118310917134068 0 -0.00014864084236022938 -0.028550663720913767 0 0.00015784771663055332 -0.030316289633061523 0 -0.00058863094708639112 -0.029171006909037598 0 0.00020071001521416364 -0.030332762949756512 0 -0.00023378637004475443 -0.030130646162001423 0 0.00015784771663055332 -0.030316289633061523 0 -8.897871647459832e-05 -0.031054616407358075 0 -3.4057528282372907e-05 -0.031408090836354804 0 -0.00024031908300454363 -0.031477098528232661 0 -8.897871647459832e-05 -0.031054616407358075 0 -3.4057528282372907e-05 -0.031408090836354804 0 0.00015784771663055332 -0.030316289633061523 0 -3.4057528282372907e-05 -0.031408090836354804 0 0.00036964605600667337 -0.031101280015921041 0 -3.4057528282372907e-05 -0.031408090836354804 0 0.00036964605600667337 -0.031101280015921041 0 0.00048245161173143624 -0.031675806298697498 0 -3.4057528282372907e-05 -0.031408090836354804 0 -9.1830683194546407e-05 -0.032304808505770562 0 0.00048245161173143624 -0.031675806298697498 0 -3.4057528282372907e-05 -0.031408090836354804 0 -9.1830683194546407e-05 -0.032304808505770562 0 -0.00029622320843604541 -0.032038379664756603 0 -9.1830683194546407e-05 -0.032304808505770562 0 0.00048245161173143624 -0.031675806298697498 0 0.00039405711987931048 -0.032240906771235339 0 -0.00055184026086030672 -0.032426405745902123 0 -0.00042185046429007024 -0.032785835508869342 0 -0.00081699556913879669 -0.033239177235807216 0 -0.00055184026086030672 -0.032426405745902123 0 -0.00029622320843604541 -0.032038379664756603 0 -0.00042185046429007024 -0.032785835508869342 0 -9.1830683194546407e-05 -0.032304808505770562 0 -0.00029622320843604541 -0.032038379664756603 0 -0.00042185046429007024 -0.032785835508869342 0 -9.1830683194546407e-05 -0.032304808505770562 0 -0.00042185046429007024 -0.032785835508869342 0 -0.0003855097830489824 -0.032978220283030976 0 -0.00042185046429007024 -0.032785835508869342 0 -0.00053004425549219253 -0.03329588609848113 0 -0.0003855097830489824 -0.032978220283030976 0 -0.00042185046429007024 -0.032785835508869342 0 -0.00053004425549219253 -0.03329588609848113 0 -0.00081699556913879669 -0.033239177235807216 0 -0.00053004425549219253 -0.03329588609848113 0 -0.00044432505464466127 -0.03376682379401505 0 -0.00039053762189220016 -0.033613811976627453 0 -0.00053004425549219253 -0.03329588609848113 0 -0.00081699556913879669 -0.033239177235807216 0 -0.00044432505464466127 -0.03376682379401505 0 -0.00081699556913879669 -0.033239177235807216 0 -0.00041968403028659141 -0.033975336721705177 0 -0.00044432505464466127 -0.03376682379401505 0 -0.00055184026086030672 -0.032426405745902123 0 -0.00081699556913879669 -0.033239177235807216 0 -0.0010131048504167771 -0.032002225498243483 0 -0.00081699556913879669 -0.033239177235807216 0 -0.00041968403028659141 -0.033975336721705177 0 -0.00053994117446821575 -0.034686443526536943 0 -0.00041968403028659141 -0.033975336721705177 0 -0.00022355841873296676 -0.03427557228223152 0 -0.00019571676631995668 -0.034506788874348084 0 -0.00041968403028659141 -0.033975336721705177 0 -0.00044432505464466127 -0.03376682379401505 0 -0.00022355841873296676 -0.03427557228223152 0 -0.00044432505464466127 -0.03376682379401505 0 -0.00022355841873296676 -0.03427557228223152 0 -0.00021742855543425521 -0.034289331229788077 0 -9.8968260639541368e-05 -0.034612089292866764 0 -0.00022355841873296676 -0.03427557228223152 0 -0.00021742855543425521 -0.034289331229788077 0 -9.8968260639541368e-05 -0.034612089292866764 0 -5.6777708619518107e-05 -0.034703541055556064 0 -0.00022355841873296676 -0.03427557228223152 0 -9.0184106085559032e-08 -0.034999340969529939 0 -9.8968260639541368e-05 -0.034612089292866764 0 -5.6777708619518107e-05 -0.034703541055556064 0 -9.0184106085559032e-08 -0.034999340969529939 0 -5.6777708619518107e-05 -0.034703541055556064 0 5.1616707965764256e-08 -0.034999634211239979 0 -5.6777708619518107e-05 -0.034703541055556064 0 -0.00022355841873296676 -0.03427557228223152 0 -0.00019571676631995668 -0.034506788874348084 0 -5.6777708619518107e-05 -0.034703541055556064 0 -0.00019571676631995668 -0.034506788874348084 0 -8.8210922404682892e-05 -0.034774932583870773 0 -0.00019571676631995668 -0.034506788874348084 0 -8.8210922404682892e-05 -0.034774932583870773 0 -0.00021361886992333107 -0.034802953983745825 0 -8.8210922404682892e-05 -0.034774932583870773 0 5.1616707965764256e-08 -0.034999634211239979 0 -5.1548604737283933e-05 -0.034922400952253289 0 -5.6777708619518107e-05 -0.034703541055556064 0 -8.8210922404682892e-05 -0.034774932583870773 0 5.1616707965764256e-08 -0.034999634211239979 0 -4.9193281509265619e-08 -0.035000002946846492 0 5.1616707965764256e-08 -0.034999634211239979 0 -5.1548604737283933e-05 -0.034922400952253289 0 -5.8789619426343445e-05 -0.035005983004459895 0 -0.00020187524167602423 -0.035004949300825601 0 -5.1548604737283933e-05 -0.034922400952253289 0 -0.00020187524167602423 -0.035004949300825601 0 -0.00021361886992333107 -0.034802953983745825 0 -5.1548604737283933e-05 -0.034922400952253289 0 -8.8210922404682892e-05 -0.034774932583870773 0 -0.00021361886992333107 -0.034802953983745825 0 -5.1548604737283933e-05 -0.034922400952253289 0 -0.0012159219041412855 -0.031871634105769132 0 -0.0012608395887383583 -0.031871379531725218 0 -0.0013922833668873985 -0.031943018296211656 0 -0.00020187524167602423 -0.035004949300825601 0 -0.00021361886992333107 -0.034802953983745825 0 -0.00053994117446821575 -0.034686443526536943 0 -0.0008118997439685551 -0.033298162379542605 0 -0.0009005754308705205 -0.03335060915246027 0 -0.0012865467898543234 -0.03188450050275092 0 -0.0012608395887383583 -0.031871379531725218 0 -0.0011072833282437483 -0.031888645700916866 0 -0.00044901518532397636 -0.032245654689723111 0 -0.001076337381340236 -0.03173803681983324 0 -0.00097765858317161534 -0.030907680329626402 0 -0.00069980293976656613 -0.031385517275269115 0 -0.0010194783631566927 -0.031724768437046018 0 -0.00067925647709385232 -0.030583290140621711 0 -0.001076337381340236 -0.03173803681983324 0 -0.0012608395887383583 -0.031871379531725218 0 -0.0011072833282437483 -0.031888645700916866 0 -0.0013922833668873985 -0.031943018296211656 0 -0.0011072833282437483 -0.031888645700916866 0 -0.0010131048504167771 -0.032002225498243483 0 -0.0013922833668873985 -0.031943018296211656 0 -0.00084284569829320586 -0.033276424318531755 0 -0.0009005754308705205 -0.03335060915246027 0 -0.00081699556913879669 -0.033239177235807216 0 -0.0010131048504167771 -0.032002225498243483 0 -0.0013922833668873985 -0.031943018296211656 0 -0.00055548992590962268 -0.031712075607515329 0 -0.0010194783631566927 -0.031724768437046018 0 -0.0010131048504167771 -0.032002225498243483 0 -0.001076337381340236 -0.03173803681983324 0 -0.001070227888425451 -0.031877196900639081 0 -0.00041968403028659141 -0.033975336721705177 0 -0.00019571676631995668 -0.034506788874348084 0 -0.00053994117446821575 -0.034686443526536943 0 -0.00019571676631995668 -0.034506788874348084 0 -0.00021361886992333107 -0.034802953983745825 0 -0.00053994117446821575 -0.034686443526536943 0 -0.00051055942903726367 -0.020474477349597037 0 -0.00052213610935121643 -0.020630652124905623 0 -0.00058740997838490337 -0.02084895345622333 0 -0.00051055942903726367 -0.020474477349597037 0 -0.00052213610935121643 -0.020630652124905623 0 -0.00017854152075146633 -0.020161396506975657 0 0.0013248333467486904 -0.025381916945732025 0 0.00060592608451216659 -0.023779526350482177 0 0.0029586288550512273 -0.029748315999379226 0 0.0026525809723676563 -0.029483043983423031 0 0.0026835509034294131 -0.029682193703390567 0 -0.00052213610935121643 -0.020630652124905623 0 -0.00061271225009181234 -0.020961745568384687 0 -0.00058740997838490337 -0.02084895345622333 0 0.00060592608451216659 -0.023779526350482177 0 -0.00077270869825367405 -0.022194103043498975 0 -0.00053552074189689759 -0.021245104881780399 0 -0.00058740997838490337 -0.02084895345622333 0 -0.00055849179307348789 -0.021271278261390417 0 -0.00053552074189689759 -0.021245104881780399 0 -0.00055849179307348789 -0.021271278261390417 0 -0.00048872088949945098 -0.021462339675247497 0 -0.00051055942903726367 -0.020474477349597037 0 -0.00058740997838490337 -0.02084895345622333 0 -0.00057486300141411048 -0.020781216814537568 0 -0.00058740997838490337 -0.02084895345622333 0 -0.00057486300141411048 -0.020781216814537568 0 -0.00055849179307348789 -0.021271278261390417 0 -0.00057486300141411048 -0.020781216814537568 0 -0.00055849179307348789 -0.021271278261390417 0 -0.0005469164167024366 -0.021554449031030459 0 -0.00057486300141411048 -0.020781216814537568 0 -0.00051050838734712823 -0.020182996604503539 0 -0.0005469164167024366 -0.021554449031030459 0 -0.00057486300141411048 -0.020781216814537568 0 -0.00037830611336677584 -0.019910495740990394 0 -0.00051050838734712823 -0.020182996604503539 0 -0.00051055942903726367 -0.020474477349597037 0 -0.00057486300141411048 -0.020781216814537568 0 -0.00037830611336677584 -0.019910495740990394 0 -0.00051055942903726367 -0.020474477349597037 0 -0.00037830611336677584 -0.019910495740990394 0 -0.00017854152075146633 -0.020161396506975657 0 -0.00037830611336677584 -0.019910495740990394 0 -0.00051050838734712823 -0.020182996604503539 0 -0.00011088192513492869 -0.017953742297513942 0 -3.6984684454911482e-07 -0.018105990438171612 0 -0.00051050838734712823 -0.020182996604503539 0 -0.00011088192513492869 -0.017953742297513942 0 -3.6984684454911482e-07 -0.018105990438171612 0 -0.00051050838734712823 -0.020182996604503539 0 -8.8437609055982476e-07 -0.020156977127075589 0 -0.00025400283278480013 -0.023390652530133518 0 -0.00014583686151398864 -0.022718178740551456 0 -0.0005469164167024366 -0.021554449031030459 0 -0.00051050838734712823 -0.020182996604503539 0 -0.00025400283278480013 -0.023390652530133518 0 -0.0005469164167024366 -0.021554449031030459 0 -0.00040589215655472414 -0.020515984400071272 0 -0.000123520626772468 -0.021989850062566478 0 -0.00051050838734712823 -0.020182996604503539 0 -0.00014836159580127416 -0.020655643439500451 0 -8.8437609055982476e-07 -0.020156977127075589 0 -0.00014836159580127416 -0.020655643439500451 0 2.3915904650077044e-08 -0.022208821896850268 0 2.4865475429122645e-05 -0.022229313319880848 0 -0.00014836159580127416 -0.020655643439500451 0 -8.8437609055982476e-07 -0.020156977127075589 0 2.3915904650077044e-08 -0.022208821896850268 0 -0.00025400283278480013 -0.023390652530133518 0 -0.00014583686151398864 -0.022718178740551456 0 0.00047253027537917154 -0.023975570883562655 0 -0.00025400283278480013 -0.023390652530133518 0 0.00047253027537917154 -0.023975570883562655 0 0.00079354436366559306 -0.025274728629385707 0 -0.000123520626772468 -0.021989850062566478 0 0.00036873839091512147 -0.023730707468783488 0 -0.00014583686151398864 -0.022718178740551456 0 -0.00035094831748852642 -0.021989497544845665 0 0.00020737551067478256 -0.02287635736220495 0 -0.00014583686151398864 -0.022718178740551456 0 0.00020737551067478256 -0.02287635736220495 0 0.00047253027537917154 -0.023975570883562655 0 -0.00014583686151398864 -0.022718178740551456 0 -0.0005469164167024366 -0.021554449031030459 0 -0.00035094831748852642 -0.021989497544845665 0 -0.00055849179307348789 -0.021271278261390417 0 -0.0005469164167024366 -0.021554449031030459 0 -0.00035094831748852642 -0.021989497544845665 0 -0.00055849179307348789 -0.021271278261390417 0 -0.00035094831748852642 -0.021989497544845665 0 -0.00048872088949945098 -0.021462339675247497 0 0.0026525809723676563 -0.029483043983423031 0 0.0024700946360928741 -0.029578051033715733 0 0.0022727164591074068 -0.029258349027255125 0 -0.00060111844202407965 -0.021192830152220697 0 -0.00048872088949945098 -0.021462339675247497 0 0.00020737551067478256 -0.02287635736220495 0 -0.00035094831748852642 -0.021989497544845665 0 -0.00048872088949945098 -0.021462339675247497 0 0.00020737551067478256 -0.02287635736220495 0 0.00060592608451216659 -0.023779526350482177 0 0.0012366641277673826 -0.026267381967058141 0 0.00060592608451216659 -0.023779526350482177 0 -9.7306119389327573e-05 -0.023233231434878959 0 0.0026525809723676563 -0.029483043983423031 0 0.0024700946360928741 -0.029578051033715733 0 0.0026835509034294131 -0.029682193703390567 0 0.0024700946360928741 -0.029578051033715733 0 0.0022727164591074068 -0.029258349027255125 0 0.0022323096715893415 -0.029706853223479286 0 0.0022727164591074068 -0.029258349027255125 0 0.0017313165896055262 -0.028730476061320703 0 0.0017637824127578958 -0.029519688336366239 0 0.0022727164591074068 -0.029258349027255125 0 0.0017637824127578958 -0.029519688336366239 0 0.0022323096715893415 -0.029706853223479286 0 0.0012366641277673826 -0.026267381967058141 0 0.0012019744972916714 -0.026885186358243513 0 0.0017313165896055262 -0.028730476061320703 0 0.00082749347708525585 -0.027711635288712233 0 0.0017637824127578958 -0.029519688336366239 0 0.0010610644771350025 -0.025081648282511346 0 0.000912566205225624 -0.025058944098251906 0 0.0010952357326235718 -0.025795409281204187 0 0.0010610644771350025 -0.025081648282511346 0 0.00047253027537917154 -0.023975570883562655 0 0.000912566205225624 -0.025058944098251906 0 0.00020737551067478256 -0.02287635736220495 0 0.0010610644771350025 -0.025081648282511346 0 0.00047253027537917154 -0.023975570883562655 0 0.00047253027537917154 -0.023975570883562655 0 0.00079354436366559306 -0.025274728629385707 0 0.000912566205225624 -0.025058944098251906 0 2.4865475429122645e-05 -0.022229313319880848 0 1.047665850344225e-07 -0.024260867014070448 0 2.7960904982387792e-05 -0.024231315907477034 0 0.00036873839091512147 -0.023730707468783488 0 0.00044213608131000217 -0.025116334597877443 0 0.00079354436366559306 -0.025274728629385707 0 0.00099094941092187842 -0.02558768371232728 0 0.0010436267602948429 -0.026053618568400435 0 2.3915904650077044e-08 -0.022208821896850268 0 2.4865475429122645e-05 -0.022229313319880848 0 1.047665850344225e-07 -0.024260867014070448 0 0.00099094941092187842 -0.02558768371232728 0 0.0010182381785812614 -0.02590263198464747 0 0.0010436267602948429 -0.026053618568400435 0 0.00099094941092187842 -0.02558768371232728 0 0.0010952357326235718 -0.025795409281204187 0 0.0010182381785812614 -0.02590263198464747 0 0.00079354436366559306 -0.025274728629385707 0 0.00099094941092187842 -0.02558768371232728 0 0.000912566205225624 -0.025058944098251906 0 0.00099094941092187842 -0.02558768371232728 0 0.000912566205225624 -0.025058944098251906 0 0.0010952357326235718 -0.025795409281204187 0 0.0010952357326235718 -0.025795409281204187 0 0.00089615378313071187 -0.026323229965254505 0 0.0010182381785812614 -0.02590263198464747 0 0.00089615378313071187 -0.026323229965254505 0 0.0010182381785812614 -0.02590263198464747 0 0.0010436267602948429 -0.026053618568400435 0 1.3348276626073196e-07 -0.026313068384834947 0 1.047665850344225e-07 -0.024260867014070448 0 2.7960904982387792e-05 -0.024231315907477034 0 0.00089615378313071187 -0.026323229965254505 0 0.0010436267602948429 -0.026053618568400435 0 0.00061153719722305548 -0.026432822550272336 0 1.0676501487403764e-06 -0.026315758676664854 0 0.00061153719722305548 -0.026432822550272336 0 0.0003691993174395226 -0.026944330113428856 0 1.0676501487403764e-06 -0.026315758676664854 0 0.0010436267602948429 -0.026053618568400435 0 0.00061153719722305548 -0.026432822550272336 0 -6.0486555543367246e-08 -0.026313082440173035 0 0.00044213608131000217 -0.025116334597877443 0 0.00089615378313071187 -0.026323229965254505 0 0.0003691993174395226 -0.026944330113428856 0 0.00082749347708525585 -0.027711635288712233 0 0.00089615378313071187 -0.026323229965254505 0 0.00061153719722305548 -0.026432822550272336 0 0.0003691993174395226 -0.026944330113428856 0 4.1904440117038148e-05 -0.027743343124368887 0 0.0003691993174395226 -0.026944330113428856 0 0.00082749347708525585 -0.027711635288712233 0 0.0010610644771350025 -0.025081648282511346 0 0.0010952357326235718 -0.025795409281204187 0 0.00082749347708525585 -0.027711635288712233 0 0.0010952357326235718 -0.025795409281204187 0 0.00089615378313071187 -0.026323229965254505 0 0.00082749347708525585 -0.027711635288712233 0 0.0012019744972916714 -0.026885186358243513 0 0.00071274931585245253 -0.027561568190081109 0 0.00082749347708525585 -0.027711635288712233 0 0.0011509749050417587 -0.029846321242576961 0 0.0017637824127578958 -0.029519688336366239 0 -0.00014864084236022938 -0.028550663720913767 0 0.00082749347708525585 -0.027711635288712233 0 0.00049879438474922553 -0.029118310917134068 0 0.00082749347708525585 -0.027711635288712233 0 0.00049879438474922553 -0.029118310917134068 0 0.0011509749050417587 -0.029846321242576961 0 0.00015784771663055332 -0.030316289633061523 0 0.00049879438474922553 -0.029118310917134068 0 0.0011509749050417587 -0.029846321242576961 0 0.0011509749050417587 -0.029846321242576961 0 0.00094219791376910962 -0.030857405790176401 0 0.0016075758738917402 -0.030273070457706049 0 0.00094219791376910962 -0.030857405790176401 0 0.0015056257663765974 -0.030887704677074763 0 0.0016075758738917402 -0.030273070457706049 0 0.00015784771663055332 -0.030316289633061523 0 0.0011509749050417587 -0.029846321242576961 0 0.00094219791376910962 -0.030857405790176401 0 0.00015784771663055332 -0.030316289633061523 0 0.00036964605600667337 -0.031101280015921041 0 0.00094219791376910962 -0.030857405790176401 0 0.00048245161173143624 -0.031675806298697498 0 0.0011527376311912126 -0.031407193456730646 0 0.00094219791376910962 -0.030857405790176401 0 0.00036964605600667337 -0.031101280015921041 0 0.00048245161173143624 -0.031675806298697498 0 0.00094219791376910962 -0.030857405790176401 0 0.00048245161173143624 -0.031675806298697498 0 0.0011527376311912126 -0.031407193456730646 0 0.00086258407841733795 -0.03201307957772264 0 0.0011527376311912126 -0.031407193456730646 0 0.00094219791376910962 -0.030857405790176401 0 0.0015056257663765974 -0.030887704677074763 0 0.0011527376311912126 -0.031407193456730646 0 0.0015056257663765974 -0.030887704677074763 0 0.0017640305796061645 -0.031120678716269914 0 0.0011527376311912126 -0.031407193456730646 0 0.0017640305796061645 -0.031120678716269914 0 0.0014725988015156096 -0.031700188447885823 0 0.0017640305796061645 -0.031120678716269914 0 0.0020960846101449118 -0.03112624750580319 0 0.0019315756491033417 -0.03143146356641973 0 0.0017640305796061645 -0.031120678716269914 0 0.0019315756491033417 -0.03143146356641973 0 0.0014725988015156096 -0.031700188447885823 0 0.0017640305796061645 -0.031120678716269914 0 0.0020370152182873722 -0.030519185113391179 0 0.0020960846101449118 -0.03112624750580319 0 0.0015056257663765974 -0.030887704677074763 0 0.0017640305796061645 -0.031120678716269914 0 0.0020370152182873722 -0.030519185113391179 0 0.0020370152182873722 -0.030519185113391179 0 0.0016075758738917402 -0.030273070457706049 0 0.0019568842178593567 -0.0299890141154362 0 0.0020370152182873722 -0.030519185113391179 0 0.0019568842178593567 -0.0299890141154362 0 0.0022323096715893415 -0.029706853223479286 0 0.0015056257663765974 -0.030887704677074763 0 0.0020370152182873722 -0.030519185113391179 0 0.0016075758738917402 -0.030273070457706049 0 0.0011509749050417587 -0.029846321242576961 0 0.0016075758738917402 -0.030273070457706049 0 0.0017637824127578958 -0.029519688336366239 0 0.0016075758738917402 -0.030273070457706049 0 0.0017637824127578958 -0.029519688336366239 0 0.0019568842178593567 -0.0299890141154362 0 0.0017637824127578958 -0.029519688336366239 0 0.0019568842178593567 -0.0299890141154362 0 0.0022323096715893415 -0.029706853223479286 0 0.0024700946360928741 -0.029578051033715733 0 0.0022323096715893415 -0.029706853223479286 0 0.0024837996756557788 -0.0297677574157253 0 0.0022323096715893415 -0.029706853223479286 0 0.0024837996756557788 -0.0297677574157253 0 0.0023829815800618854 -0.030151490117308027 0 0.0024837996756557788 -0.0297677574157253 0 0.0025917568434962396 -0.029924256543448338 0 0.0026835509034294131 -0.029682193703390567 0 0.0024700946360928741 -0.029578051033715733 0 0.0024837996756557788 -0.0297677574157253 0 0.0026835509034294131 -0.029682193703390567 0 0.0024837996756557788 -0.0297677574157253 0 0.0025917568434962396 -0.029924256543448338 0 0.0023829815800618854 -0.030151490117308027 0 0.0025917568434962396 -0.029924256543448338 0 0.0023829815800618854 -0.030151490117308027 0 0.0026097971052430843 -0.030252745037945471 0 0.0023829815800618854 -0.030151490117308027 0 0.0022709414400643984 -0.030794687480792185 0 0.0026097971052430843 -0.030252745037945471 0 0.0020370152182873722 -0.030519185113391179 0 0.0023829815800618854 -0.030151490117308027 0 0.0022709414400643984 -0.030794687480792185 0 0.0020370152182873722 -0.030519185113391179 0 0.0022323096715893415 -0.029706853223479286 0 0.0023829815800618854 -0.030151490117308027 0 0.0020370152182873722 -0.030519185113391179 0 0.0020960846101449118 -0.03112624750580319 0 0.0022709414400643984 -0.030794687480792185 0 0.0020960846101449118 -0.03112624750580319 0 0.0021988899534448429 -0.031240754499037508 0 0.0021431469412373891 -0.0313780342596107 0 0.0020960846101449118 -0.03112624750580319 0 0.0021988899534448429 -0.031240754499037508 0 0.0022709414400643984 -0.030794687480792185 0 0.0021988899534448429 -0.031240754499037508 0 0.0022709414400643984 -0.030794687480792185 0 0.002356637851062709 -0.031105669637209159 0 0.0022709414400643984 -0.030794687480792185 0 0.002356637851062709 -0.031105669637209159 0 0.0026097971052430843 -0.030252745037945471 0 0.002356637851062709 -0.031105669637209159 0 0.0031597794562447327 -0.030539837990560616 0 0.0026097971052430843 -0.030252745037945471 0 0.0021988899534448429 -0.031240754499037508 0 0.002356637851062709 -0.031105669637209159 0 0.0020102086374732988 -0.031184120992649514 0 0.002356637851062709 -0.031105669637209159 0 0.0018894637326256367 -0.031275166953157733 0 0.0020102086374732988 -0.031184120992649514 0 0.0024464491271317147 -0.031443477772554393 0 0.0024977610171406112 -0.029202656508360299 0 0.002356637851062709 -0.031105669637209159 0 0.0032274253613667888 -0.031218141460775499 0 0.0031597794562447327 -0.030539837990560616 0 0.0030356369924171619 -0.02894236508412909 0 0.0030687554002730598 -0.029344005097753895 0 0.0027521223484373364 -0.029080940233010878 0 0.0024977610171406112 -0.029202656508360299 0 0.0031221076182608083 -0.030107455892137511 0 0.0031597794562447327 -0.030539837990560616 0 0.0030439201592672147 -0.029867673636571029 0 0.0026097971052430843 -0.030252745037945471 0 0.0030687554002730598 -0.029344005097753895 0 0.0030439201592672147 -0.029867673636571029 0 0.0027873927238026967 -0.029652410330541269 0 0.0031221076182608083 -0.030107455892137511 0 0.0030589910478398602 -0.029815881075776325 0 0.0030439201592672147 -0.029867673636571029 0 0.0029086260762401293 -0.029803803563729914 0 0.0027873927238026967 -0.029652410330541269 0 0.0030439201592672147 -0.029867673636571029 0 0.0026097971052430843 -0.030252745037945471 0 0.0027835572099138011 -0.02980432143985447 0 0.0025917568434962396 -0.029924256543448338 0 0.0026097971052430843 -0.030252745037945471 0 0.0027835572099138011 -0.02980432143985447 0 0.0029586288550512273 -0.029748315999379226 0 0.0027835572099138011 -0.02980432143985447 0 0.0026835509034294131 -0.029682193703390567 0 0.0025917568434962396 -0.029924256543448338 0 0.0027835572099138011 -0.02980432143985447 0 0.0026835509034294131 -0.029682193703390567 0 0.0029586288550512273 -0.029748315999379226 0 0.0027835572099138011 -0.02980432143985447 0 0.0029378189361756197 -0.029807065926691381 0 0.0029586288550512273 -0.029748315999379226 0 0.0029086260762401293 -0.029803803563729914 0 0.0029378189361756197 -0.029807065926691381 0 0.0030439201592672147 -0.029867673636571029 0 0.0029086260762401293 -0.029803803563729914 0 0.0029378189361756197 -0.029807065926691381 0 0.0030439201592672147 -0.029867673636571029 0 0.0027835572099138011 -0.02980432143985447 0 0.0029378189361756197 -0.029807065926691381 0 0.001237480581379365 -0.030379849527754407 0 0.0011761564917617423 -0.030752940145559973 0 0.00074847550860868432 -0.030021395694595759 0 0.001237480581379365 -0.030379849527754407 0 0.0010987428186926588 -0.029883739876156619 0 0.00074847550860868432 -0.030021395694595759 0 0.001237480581379365 -0.030379849527754407 0 0.0013826083239535079 -0.029910157970565912 0 0.0010987428186926588 -0.029883739876156619 0 0.0017152555897652136 -0.030391499586575839 0 0.0017497555642611248 -0.029765438167251201 0 0.0013826083239535079 -0.029910157970565912 0 0.001237480581379365 -0.030379849527754407 0 0.0017152555897652136 -0.030391499586575839 0 0.0013826083239535079 -0.029910157970565912 0 0.001237480581379365 -0.030379849527754407 0 0.0017152555897652136 -0.030391499586575839 0 0.0016921003543865303 -0.030814826380214572 0 0.0017152555897652136 -0.030391499586575839 0 0.0016921003543865303 -0.030814826380214572 0 0.0020168491883399446 -0.030883423265523662 0 0.001237480581379365 -0.030379849527754407 0 0.0016921003543865303 -0.030814826380214572 0 0.0011761564917617423 -0.030752940145559973 0 0.0016921003543865303 -0.030814826380214572 0 0.0017269737279842607 -0.031046811562279675 0 0.0011761564917617423 -0.030752940145559973 0 0.0014073430045452588 -0.028406073997887568 0 0.0012931323001109376 -0.028745640442860831 0 0.0017269737279842607 -0.031046811562279675 0 0.0016221874593485841 -0.031120466225530666 0 0.0011761564917617423 -0.030752940145559973 0 0.0018894637326256367 -0.031275166953157733 0 0.0016221874593485841 -0.031120466225530666 0 0.0020102086374732988 -0.031184120992649514 0 0.0017269737279842607 -0.031046811562279675 0 0.0016221874593485841 -0.031120466225530666 0 0.0020102086374732988 -0.031184120992649514 0 0.0024977610171406112 -0.029202656508360299 0 0.0014073430045452588 -0.028406073997887568 0 0.0021988899534448429 -0.031240754499037508 0 0.0020102086374732988 -0.031184120992649514 0 0.0020150628347374807 -0.031205177075856353 0 0.0016921003543865303 -0.030814826380214572 0 0.0017269737279842607 -0.031046811562279675 0 0.0020150628347374807 -0.031205177075856353 0 0.0017269737279842607 -0.031046811562279675 0 0.0020102086374732988 -0.031184120992649514 0 0.0020150628347374807 -0.031205177075856353 0 0.0020150628347374807 -0.031205177075856353 0 0.0021167154802080204 -0.031352963956305768 0 0.0020168491883399446 -0.030883423265523662 0 0.0020150628347374807 -0.031205177075856353 0 0.0021431469412373891 -0.0313780342596107 0 0.0021167154802080204 -0.031352963956305768 0 0.0021988899534448429 -0.031240754499037508 0 0.0020150628347374807 -0.031205177075856353 0 0.0021431469412373891 -0.0313780342596107 0 0.0021431469412373891 -0.0313780342596107 0 0.0020570309016101009 -0.031751256530616404 0 0.0019315756491033417 -0.03143146356641973 0 0.0020960846101449118 -0.03112624750580319 0 0.0021431469412373891 -0.0313780342596107 0 0.0019315756491033417 -0.03143146356641973 0 0.0021431469412373891 -0.0313780342596107 0 0.0021167154802080204 -0.031352963956305768 0 0.0020570309016101009 -0.031751256530616404 0 0.0021167154802080204 -0.031352963956305768 0 0.0025116863066380743 -0.030911134285146642 0 0.0020570309016101009 -0.031751256530616404 0 0.0025116863066380743 -0.030911134285146642 0 0.0020168491883399446 -0.030883423265523662 0 0.002142756219091472 -0.030258878338279387 0 0.0021167154802080204 -0.031352963956305768 0 0.0025116863066380743 -0.030911134285146642 0 0.0020168491883399446 -0.030883423265523662 0 0.0016921003543865303 -0.030814826380214572 0 0.0020150628347374807 -0.031205177075856353 0 0.0020168491883399446 -0.030883423265523662 0 0.0017152555897652136 -0.030391499586575839 0 0.002142756219091472 -0.030258878338279387 0 0.0017497555642611248 -0.029765438167251201 0 0.0017152555897652136 -0.030391499586575839 0 0.0020168491883399446 -0.030883423265523662 0 0.002142756219091472 -0.030258878338279387 0 0.0021644081062703576 -0.031728970694122775 0 0.0011299920802301142 -0.031848939692410941 0 0.0025116863066380743 -0.030911134285146642 0 0.002142756219091472 -0.030258878338279387 0 0.0026194932614079232 -0.030119661505046996 0 0.0017897988061430527 -0.032729469547692791 0 0.0013907951350475216 -0.033134985284270724 0 0.0012628198348575463 -0.033057342609190424 0 0.0012628198348575463 -0.033057342609190424 0 0.00094771427297321933 -0.033080449622502346 0 0.0010493038903865619 -0.03321055296220727 0 0.0012628198348575463 -0.033057342609190424 0 0.0011658226348942203 -0.032564017440927247 0 0.00094771427297321933 -0.033080449622502346 0 0.0017897988061430527 -0.032729469547692791 0 0.0012628198348575463 -0.033057342609190424 0 0.0011658226348942203 -0.032564017440927247 0 0.0021644081062703576 -0.031728970694122775 0 0.0020666176163222252 -0.03170598219808092 0 0.0017897988061430527 -0.032729469547692791 0 0.0020570309016101009 -0.031751256530616404 0 0.0011658226348942203 -0.032564017440927247 0 0.0020570309016101009 -0.031751256530616404 0 0.0019315756491033417 -0.03143146356641973 0 0.0014725988015156096 -0.031700188447885823 0 0.0020570309016101009 -0.031751256530616404 0 0.0014725988015156096 -0.031700188447885823 0 0.0011658226348942203 -0.032564017440927247 0 0.0011658226348942203 -0.032564017440927247 0 0.00086258407841733795 -0.03201307957772264 0 0.00060284179326632449 -0.032517717403510983 0 0.0011545481026549839 -0.032609285606698464 0 0.00070809758436426128 -0.032736236933533405 0 0.0014725988015156096 -0.031700188447885823 0 0.0011658226348942203 -0.032564017440927247 0 0.00086258407841733795 -0.03201307957772264 0 0.0011527376311912126 -0.031407193456730646 0 0.0014725988015156096 -0.031700188447885823 0 0.00086258407841733795 -0.03201307957772264 0 0.00086258407841733795 -0.03201307957772264 0 0.00060284179326632449 -0.032517717403510983 0 0.00039405711987931048 -0.032240906771235339 0 0.00048245161173143624 -0.031675806298697498 0 0.00086258407841733795 -0.03201307957772264 0 0.00039405711987931048 -0.032240906771235339 0 0.00077711717030763076 -0.032960554467894233 0 0.00094771427297321933 -0.033080449622502346 0 0.0007596463384448327 -0.03327151924233341 0 0.00077711717030763076 -0.032960554467894233 0 0.0007596463384448327 -0.03327151924233341 0 0.00062744059486301762 -0.033241570697997706 0 0.0011658226348942203 -0.032564017440927247 0 0.00077711717030763076 -0.032960554467894233 0 0.00094771427297321933 -0.033080449622502346 0 0.00094771427297321933 -0.033080449622502346 0 0.0007596463384448327 -0.03327151924233341 0 0.00090306436398028718 -0.033282960421358289 0 0.0007596463384448327 -0.03327151924233341 0 0.00090306436398028718 -0.033282960421358289 0 0.00078428433230758846 -0.033337553170766948 0 0.00094771427297321933 -0.033080449622502346 0 0.00090306436398028718 -0.033282960421358289 0 0.0010493038903865619 -0.03321055296220727 0 0.00090306436398028718 -0.033282960421358289 0 0.00095385795547957492 -0.033253784850576867 0 0.0010493038903865619 -0.03321055296220727 0 0.00090306436398028718 -0.033282960421358289 0 0.00094113391120314996 -0.033275633997452252 0 0.00095385795547957492 -0.033253784850576867 0 0.00090306436398028718 -0.033282960421358289 0 0.00094113391120314996 -0.033275633997452252 0 0.00078428433230758846 -0.033337553170766948 0 0.0007365776681292586 -0.033391959641368381 0 0.00066789181202739399 -0.033636452572761828 0 0.00069335258061910244 -0.033553165157198694 0 0.0008457479825752179 -0.033334044470958342 0 0.00071913770165418344 -0.03348119351105782 0 0.0007365776681292586 -0.033391959641368381 0 0.00081227371143524575 -0.033265246447272516 0 0.00069335258061910244 -0.033553165157198694 0 0.00081227371143524575 -0.033265246447272516 0 0.00090147017209684993 -0.033103387728630584 0 0.00096888663874252227 -0.032974597042500879 0 0.00094113391120314996 -0.033275633997452252 0 0.00090147017209684993 -0.033103387728630584 0 0.00095385795547957492 -0.033253784850576867 0 0.0008457479825752179 -0.033334044470958342 0 0.00088742995026266046 -0.03314089174462731 0 0.0007365776681292586 -0.033391959641368381 0 0.00081227371143524575 -0.033265246447272516 0 0.00090147017209684993 -0.033103387728630584 0 0.00090147017209684993 -0.033103387728630584 0 0.00081399680868855491 -0.03311183600145555 0 0.00095385795547957492 -0.033253784850576867 0 0.00081399680868855491 -0.03311183600145555 0 0.00086858819533276461 -0.033179842607200125 0 0.00095385795547957492 -0.033253784850576867 0 0.00081399680868855491 -0.03311183600145555 0 0.00061761301505846016 -0.032957293796475849 0 0.00091322267312569103 -0.032802296359236066 0 0.00090147017209684993 -0.033103387728630584 0 0.00081399680868855491 -0.03311183600145555 0 0.00091322267312569103 -0.032802296359236066 0 0.00061761301505846016 -0.032957293796475849 0 0.00086858819533276461 -0.033179842607200125 0 0.00076571864489736639 -0.033119487462122073 0 0.00081399680868855491 -0.03311183600145555 0 0.00061761301505846016 -0.032957293796475849 0 0.00086858819533276461 -0.033179842607200125 0 0.00086858819533276461 -0.033179842607200125 0 0.0011038738988786688 -0.033230843516752109 0 0.00098405434331736937 -0.033213571187808349 0 0.00086858819533276461 -0.033179842607200125 0 0.00095385795547957492 -0.033253784850576867 0 0.0011038738988786688 -0.033230843516752109 0 0.00095385795547957492 -0.033253784850576867 0 0.0010493038903865619 -0.03321055296220727 0 0.0011038738988786688 -0.033230843516752109 0 0.0012628198348575463 -0.033057342609190424 0 0.0010493038903865619 -0.03321055296220727 0 0.0011038738988786688 -0.033230843516752109 0 0.0013907951350475216 -0.033134985284270724 0 0.0012628198348575463 -0.033057342609190424 0 0.0011038738988786688 -0.033230843516752109 0 0.0013907951350475216 -0.033134985284270724 0 0.0011038738988786688 -0.033230843516752109 0 0.00098405434331736937 -0.033213571187808349 0 0.002142756219091472 -0.030258878338279387 0 0.0026194932614079232 -0.030119661505046996 0 0.0021711533501949307 -0.02930351798256136 0 0.0011299920802301142 -0.031848939692410941 0 0.00063941940933008958 -0.032650127712689929 0 0.0011299920802301142 -0.031848939692410941 0 0.0013379428098143989 -0.030469447144998985 0 9.700152002745014e-05 -0.032024042610008491 0 0.00011708692818250106 -0.032073564368010121 0 8.4019411066882989e-05 -0.032093692882494529 0 0.0021711533501949307 -0.02930351798256136 0 0.0015192567534281648 -0.029141997604571767 0 0.0017497555642611248 -0.029765438167251201 0 0.002142756219091472 -0.030258878338279387 0 0.0021711533501949307 -0.02930351798256136 0 0.0017497555642611248 -0.029765438167251201 0 0.00011708692818250106 -0.032073564368010121 0 8.4019411066882989e-05 -0.032093692882494529 0 0.00011010866644019217 -0.032121641648752294 0 0.00011708692818250106 -0.032073564368010121 0 0.00011010866644019217 -0.032121641648752294 0 0.00015065149765286777 -0.032127389660133371 0 0.0013379428098143989 -0.030469447144998985 0 -0.00087156840738836846 -0.031453685670637554 0 0.00086858819533276461 -0.033179842607200125 0 0.00098405434331736937 -0.033213571187808349 0 0.00076571864489736639 -0.033119487462122073 0 8.4019411066882989e-05 -0.032093692882494529 0 7.9764889942197698e-05 -0.032177625784832832 0 0.00011010866644019217 -0.032121641648752294 0 0.00063941940933008958 -0.032650127712689929 0 -0.00081028366172081027 -0.033352585362017101 0 0.000690946775296427 -0.033022697765897169 0 -0.00081028366172081027 -0.033352585362017101 0 0.00061761301505846016 -0.032957293796475849 0 -0.001683839785213394 -0.034055360928024532 0 -0.00069493956004906419 -0.032946790340903018 0 -0.0017122824155225208 -0.034012036414920239 0 -0.0017538961092826255 -0.033703787379096642 0 -0.002360139296489548 -0.033708835031479367 0 -0.00081028366172081027 -0.033352585362017101 0 -0.0009002838769477388 -0.033475428332175511 0 -0.001683839785213394 -0.034055360928024532 0 -0.0017538961092826255 -0.033703787379096642 0 -0.0014198650662628467 -0.033357434630078855 0 -0.001683839785213394 -0.034055360928024532 0 -0.0014198650662628467 -0.033357434630078855 0 -0.00069493956004906419 -0.032946790340903018 0 -0.0017538961092826255 -0.033703787379096642 0 -0.0014198650662628467 -0.033357434630078855 0 -0.0018831225968066576 -0.033187911244343768 0 -0.0017538961092826255 -0.033703787379096642 0 -0.0018831225968066576 -0.033187911244343768 0 -0.0021848215639581319 -0.033423910052591869 0 -0.0018831225968066576 -0.033187911244343768 0 -0.0012772986579802201 -0.032847332880652544 0 -0.0019707196465794745 -0.032712285804347666 0 -0.0014198650662628467 -0.033357434630078855 0 -0.0018831225968066576 -0.033187911244343768 0 -0.0012772986579802201 -0.032847332880652544 0 -0.0014198650662628467 -0.033357434630078855 0 -0.00069493956004906419 -0.032946790340903018 0 -0.0012772986579802201 -0.032847332880652544 0 -0.0027164210732391128 -0.033047760899162379 0 -0.0031791255611862278 -0.034040410443903192 0 -0.0038186622978382272 -0.0332248511797332 0 -0.0027164210732391128 -0.033047760899162379 0 -0.002360139296489548 -0.033708835031479367 0 -0.0031791255611862278 -0.034040410443903192 0 -0.0018831225968066576 -0.033187911244343768 0 -0.0027164210732391128 -0.033047760899162379 0 -0.0021848215639581319 -0.033423910052591869 0 -0.0018831225968066576 -0.033187911244343768 0 -0.0027164210732391128 -0.033047760899162379 0 -0.0019707196465794745 -0.032712285804347666 0 -0.0027164210732391128 -0.033047760899162379 0 -0.0021848215639581319 -0.033423910052591869 0 -0.002360139296489548 -0.033708835031479367 0 -0.0017538961092826255 -0.033703787379096642 0 -0.0021848215639581319 -0.033423910052591869 0 -0.002360139296489548 -0.033708835031479367 0 -0.0017122824155225208 -0.034012036414920239 0 -0.002360139296489548 -0.033708835031479367 0 -0.0031791255611862278 -0.034040410443903192 0 7.9764889942197698e-05 -0.032177625784832832 0 0.00011010866644019217 -0.032121641648752294 0 0.00015065149765286777 -0.032127389660133371 0 -0.00081028366172081027 -0.033352585362017101 0 -0.00087156840738836846 -0.031453685670637554 0 -0.0017122824155225208 -0.034012036414920239 0 -0.0031791255611862278 -0.034040410443903192 0 -0.0040816331719506485 -0.035109561605822875 0 -0.00087156840738836846 -0.031453685670637554 0 0.0011794172873489592 -0.028834313914023073 0 -0.00087156840738836846 -0.031453685670637554 0 -0.0013166915336257049 -0.030051032507353984 0 -0.0031791255611862278 -0.034040410443903192 0 -0.0040816331719506485 -0.035109561605822875 0 -0.0041598016135842306 -0.033996994684239744 0 -0.0041598016135842306 -0.033996994684239744 0 -0.0038186622978382272 -0.0332248511797332 0 -0.0053167834977109708 -0.033645481752412026 0 -0.0031791255611862278 -0.034040410443903192 0 -0.0041598016135842306 -0.033996994684239744 0 -0.0038186622978382272 -0.0332248511797332 0 -0.0038186622978382272 -0.0332248511797332 0 -0.0053167834977109708 -0.033645481752412026 0 -0.0037402309631049046 -0.031839893106754377 0 -0.0040816331719506485 -0.035109561605822875 0 -0.0041598016135842306 -0.033996994684239744 0 -0.0053167834977109708 -0.033645481752412026 0 -0.00052632572309844626 -0.02706372174081164 0 -0.0006538467015223396 -0.027310155252108254 0 -0.0002298115056169383 -0.027125250918655697 0 -0.00052632572309844626 -0.02706372174081164 0 -0.0006538467015223396 -0.027310155252108254 0 -0.00085378435566380777 -0.027026865008247216 0 -0.0015749911080293376 -0.027872792148919797 0 -0.0013166915336257049 -0.030051032507353984 0 -0.00052632572309844626 -0.02706372174081164 0 -0.00085378435566380777 -0.027026865008247216 0 -0.0003819272980685842 -0.026799702704335574 0 0.00039783189596353965 -0.030069524030754056 0 0.00055784955286757737 -0.029581609139253676 0 0.0012065240567777837 -0.029217589449403315 0 -0.00012817636765082068 -0.029466432772522609 0 0.00039783189596353965 -0.030069524030754056 0 0.00055784955286757737 -0.029581609139253676 0 -0.00012817636765082068 -0.029466432772522609 0 0.00052051259499845859 -0.02936762868929671 0 0.00044901479112795321 -0.029166020829559814 0 -0.00012817636765082068 -0.029466432772522609 0 0.00055784955286757737 -0.029581609139253676 0 0.00052051259499845859 -0.02936762868929671 0 -0.0013166915336257049 -0.030051032507353984 0 0.00020572862761499141 -0.025497318426497891 0 0.00055784955286757737 -0.029581609139253676 0 0.00076069072582902574 -0.029201655982261647 0 0.0012065240567777837 -0.029217589449403315 0 -0.00085378435566380777 -0.027026865008247216 0 -0.00020032326361866116 -0.02633339431602312 0 -0.0003819272980685842 -0.026799702704335574 0 0.00052051259499845859 -0.02936762868929671 0 0.00076069072582902574 -0.029201655982261647 0 0.00044901479112795321 -0.029166020829559814 0 0.00055784955286757737 -0.029581609139253676 0 0.00052051259499845859 -0.02936762868929671 0 0.00076069072582902574 -0.029201655982261647 0 0.0011794172873489592 -0.028834313914023073 0 0.00086961599841167583 -0.028980523072905214 0 0.0010163624904772138 -0.029072698286797007 0 0.0010989388535025718 -0.028821282999724349 0 0.0010244730800986379 -0.028918247863448644 0 0.00076069072582902574 -0.029201655982261647 0 0.00044901479112795321 -0.029166020829559814 0 0.0010244730800986379 -0.028918247863448644 0 0.0010163624904772138 -0.029072698286797007 0 0.0010872842874798678 -0.028681876733383963 0 0.0010244730800986379 -0.028918247863448644 0 0.0010163624904772138 -0.029072698286797007 0 0.0010989388535025718 -0.028821282999724349 0 0.0015192567534281648 -0.029141997604571767 0 0.0015791974866419969 -0.028571233831304721 0 0.0010989388535025718 -0.028821282999724349 0 0.0015192567534281648 -0.029141997604571767 0 0.0021711533501949307 -0.02930351798256136 0 0.0015791974866419969 -0.028571233831304721 0 0.0015192567534281648 -0.029141997604571767 0 0.0010163624904772138 -0.029072698286797007 0 0.0015192567534281648 -0.029141997604571767 0 0.0014342848357338431 -0.029472118174908867 0 0.0015192567534281648 -0.029141997604571767 0 0.0014342848357338431 -0.029472118174908867 0 0.0017497555642611248 -0.029765438167251201 0 0.0014342848357338431 -0.029472118174908867 0 0.0017497555642611248 -0.029765438167251201 0 0.0013826083239535079 -0.029910157970565912 0 0.00089292813343652471 -0.029225476023197791 0 0.0010821692909744661 -0.028367744862764083 0 0.0010163624904772138 -0.029072698286797007 0 0.0014342848357338431 -0.029472118174908867 0 0.0013826083239535079 -0.029910157970565912 0 0.0010163624904772138 -0.029072698286797007 0 0.0010198506440634485 -0.028265607240876674 0 0.00092041794777145342 -0.028002927455173483 0 0.0010163624904772138 -0.029072698286797007 0 0.0013826083239535079 -0.029910157970565912 0 0.0010987428186926588 -0.029883739876156619 0 0.0010163624904772138 -0.029072698286797007 0 0.0010987428186926588 -0.029883739876156619 0 0.00074847550860868432 -0.030021395694595759 0 0.0010163624904772138 -0.029072698286797007 0 0.0010872842874798678 -0.028681876733383963 0 0.0010198506440634485 -0.028265607240876674 0 -0.00028567463202459241 -0.034047942525184408 0 -0.00023776333367936544 -0.033854981150370833 0 -0.00033836723932121167 -0.033986273147324053 0 2.232883887265798e-06 -0.034300499420084972 0 0.00010464406752180596 -0.034052260451445535 0 0.00030422362215631182 -0.034494738733213029 0 0.00043300100530380516 -0.03425134334674073 0 0.00037688362802517316 -0.034410701676383153 0 0.00043300100530380516 -0.03425134334674073 0 0.0004561962378923842 -0.034167445368924493 0 0.00037688362802517316 -0.034410701676383153 0 0.00030422362215631182 -0.034494738733213029 0 0.00037688362802517316 -0.034410701676383153 0 0.00018862513919208875 -0.034709734301663263 0 0.00037688362802517316 -0.034410701676383153 0 0.00018862513919208875 -0.034709734301663263 0 0.00032707476342709601 -0.034544534170754433 0 0.00018862513919208875 -0.034709734301663263 0 -1.5171050784889191e-07 -0.034999589703311178 0 8.1992228312832625e-07 -0.034999059238393693 0 0.00018862513919208875 -0.034709734301663263 0 -1.5171050784889191e-07 -0.034999589703311178 0 1.073744673220342e-06 -0.034721015160459223 0 0.00030422362215631182 -0.034494738733213029 0 0.00018862513919208875 -0.034709734301663263 0 1.073744673220342e-06 -0.034721015160459223 0 2.232883887265798e-06 -0.034300499420084972 0 4.3978729828422481e-07 -0.034622710364575121 0 -0.00028567463202459241 -0.034047942525184408 0 -0.00011192339851117837 -0.03453787608187868 0 -0.00033836723932121167 -0.033986273147324053 0 -0.00028567463202459241 -0.034047942525184408 0 -0.00011192339851117837 -0.03453787608187868 0 1.073744673220342e-06 -0.034721015160459223 0 -1.5171050784889191e-07 -0.034999589703311178 0 -1.8225985331159953e-09 -0.034999124474481398 0 1.073744673220342e-06 -0.034721015160459223 0 -0.00011192339851117837 -0.03453787608187868 0 -1.8225985331159953e-09 -0.034999124474481398 0 1.073744673220342e-06 -0.034721015160459223 0 -9.0184106085559032e-08 -0.034999340969529939 0 -9.8968260639541368e-05 -0.034612089292866764 0 -1.8225985331159953e-09 -0.034999124474481398 0 -9.8968260639541368e-05 -0.034612089292866764 0 -0.00011192339851117837 -0.03453787608187868 0 -1.8225985331159953e-09 -0.034999124474481398 0 -9.8968260639541368e-05 -0.034612089292866764 0 -0.00011192339851117837 -0.03453787608187868 0 -0.00021742855543425521 -0.034289331229788077 0 -0.00011192339851117837 -0.03453787608187868 0 -0.00021742855543425521 -0.034289331229788077 0 -0.00033836723932121167 -0.033986273147324053 0 -0.00023776333367936544 -0.033854981150370833 0 -0.00039053762189220016 -0.033613811976627453 0 -4.0936774123638004e-05 -0.033609472058753198 0 -0.00044432505464466127 -0.03376682379401505 0 -0.00033836723932121167 -0.033986273147324053 0 -0.00039053762189220016 -0.033613811976627453 0 -0.00044432505464466127 -0.03376682379401505 0 -0.00021742855543425521 -0.034289331229788077 0 -0.00033836723932121167 -0.033986273147324053 0 -0.00023776333367936544 -0.033854981150370833 0 -0.00033836723932121167 -0.033986273147324053 0 -0.00039053762189220016 -0.033613811976627453 0 -0.00053004425549219253 -0.03329588609848113 0 -0.00039053762189220016 -0.033613811976627453 0 -0.0003855097830489824 -0.032978220283030976 0 -0.00038263040925062749 -0.0335266793376525 0 -0.00016580940392444676 -0.033191859654755428 0 7.2952882063116723e-05 -0.033361949941823121 0 0.00049698497076080151 -0.033185815178291111 0 0.00025056897638032057 -0.033463261181262013 0 7.2952882063116723e-05 -0.033361949941823121 0 -4.0936774123638004e-05 -0.033609472058753198 0 0.00025056897638032057 -0.033463261181262013 0 -0.00016580940392444676 -0.033191859654755428 0 0.00026591196629339081 -0.032924758298989637 0 -0.00039053762189220016 -0.033613811976627453 0 7.2952882063116723e-05 -0.033361949941823121 0 -4.0936774123638004e-05 -0.033609472058753198 0 -9.1830683194546407e-05 -0.032304808505770562 0 0.00039405711987931048 -0.032240906771235339 0 4.8645940519855003e-05 -0.032659588026802765 0 -9.1830683194546407e-05 -0.032304808505770562 0 -0.0003855097830489824 -0.032978220283030976 0 4.8645940519855003e-05 -0.032659588026802765 0 0.00049698497076080151 -0.033185815178291111 0 0.00062744059486301762 -0.033241570697997706 0 0.00047613516444706939 -0.033371827691852818 0 0.00049698497076080151 -0.033185815178291111 0 0.00047613516444706939 -0.033371827691852818 0 0.00025056897638032057 -0.033463261181262013 0 0.00060284179326632449 -0.032517717403510983 0 0.00039405711987931048 -0.032240906771235339 0 4.8645940519855003e-05 -0.032659588026802765 0 0.00077711717030763076 -0.032960554467894233 0 0.00049698497076080151 -0.033185815178291111 0 0.00062744059486301762 -0.033241570697997706 0 0.00070809758436426128 -0.032736236933533405 0 0.00026591196629339081 -0.032924758298989637 0 0.0007596463384448327 -0.03327151924233341 0 0.00062744059486301762 -0.033241570697997706 0 0.00056442541068951594 -0.033538556751900282 0 0.00062744059486301762 -0.033241570697997706 0 0.00047613516444706939 -0.033371827691852818 0 0.00056442541068951594 -0.033538556751900282 0 0.00047613516444706939 -0.033371827691852818 0 0.00039394083565067676 -0.033532104116485016 0 0.00056442541068951594 -0.033538556751900282 0 0.00047613516444706939 -0.033371827691852818 0 0.00039394083565067676 -0.033532104116485016 0 0.00025056897638032057 -0.033463261181262013 0 0.0005246799659491823 -0.033629621032597291 0 0.00056442541068951594 -0.033538556751900282 0 0.00060020107538898181 -0.033672935286180469 0 0.00039394083565067676 -0.033532104116485016 0 0.0005246799659491823 -0.033629621032597291 0 0.00056442541068951594 -0.033538556751900282 0 0.00057858198773229493 -0.03351217615422062 0 0.00071913770165418344 -0.03348119351105782 0 0.0007596463384448327 -0.03327151924233341 0 0.00056442541068951594 -0.033538556751900282 0 0.00078428433230758846 -0.033337553170766948 0 -0.00023776333367936544 -0.033854981150370833 0 -4.0936774123638004e-05 -0.033609472058753198 0 8.8609032284613396e-05 -0.033732916078207914 0 0.00010464406752180596 -0.034052260451445535 0 0.00029907200300647994 -0.033848786773953948 0 0.00039394083565067676 -0.033532104116485016 0 0.00025056897638032057 -0.033463261181262013 0 8.8609032284613396e-05 -0.033732916078207914 0 -4.0936774123638004e-05 -0.033609472058753198 0 0.00025056897638032057 -0.033463261181262013 0 8.8609032284613396e-05 -0.033732916078207914 0 0.0005246799659491823 -0.033629621032597291 0 0.00048932531869579283 -0.033978824104644791 0 0.00051797560779766403 -0.033830354664398543 0 0.00039394083565067676 -0.033532104116485016 0 0.0005246799659491823 -0.033629621032597291 0 8.8609032284613396e-05 -0.033732916078207914 0 0.00050513702722957668 -0.033685578475874216 0 0.00029907200300647994 -0.033848786773953948 0 0.0004561962378923842 -0.034167445368924493 0 0.00048932531869579283 -0.033978824104644791 0 0.00050505800798204012 -0.033976668868707122 0 0.00043300100530380516 -0.03425134334674073 0 0.0004561962378923842 -0.034167445368924493 0 0.00048932531869579283 -0.033978824104644791 0 0.00050505800798204012 -0.033976668868707122 0 0.00051797560779766403 -0.033830354664398543 0 0.00055018074019193709 -0.033811340358386115 0 0.00048932531869579283 -0.033978824104644791 0 0.00050505800798204012 -0.033976668868707122 0 0.00051797560779766403 -0.033830354664398543 0 0.00051797560779766403 -0.033830354664398543 0 0.00055018074019193709 -0.033811340358386115 0 0.00059654044736669523 -0.033694645317322837 0 0.00050505800798204012 -0.033976668868707122 0 0.00055018074019193709 -0.033811340358386115 0 0.00057231513061304338 -0.03377890872512284 0 0.00055018074019193709 -0.033811340358386115 0 0.00059654044736669523 -0.033694645317322837 0 0.00062461059122972463 -0.033649248629361951 0 0.00055018074019193709 -0.033811340358386115 0 0.00057231513061304338 -0.03377890872512284 0 0.00062461059122972463 -0.033649248629361951 0 0.00050505800798204012 -0.033976668868707122 0 0.00057231513061304338 -0.03377890872512284 0 0.00053566523904851758 -0.033943716756985418 0 0.00056442541068951594 -0.033538556751900282 0 0.00066789181202739399 -0.033636452572761828 0 0.00060020107538898181 -0.033672935286180469 0 0.00066789181202739399 -0.033636452572761828 0 0.00060020107538898181 -0.033672935286180469 0 0.00069335258061910244 -0.033553165157198694 0 0.00060020107538898181 -0.033672935286180469 0 0.0005558995939613083 -0.033720822473509909 0 0.00059654044736669523 -0.033694645317322837 0 0.0005246799659491823 -0.033629621032597291 0 0.00060020107538898181 -0.033672935286180469 0 0.0005558995939613083 -0.033720822473509909 0 0.0005246799659491823 -0.033629621032597291 0 0.00051797560779766403 -0.033830354664398543 0 0.0005558995939613083 -0.033720822473509909 0 0.00051797560779766403 -0.033830354664398543 0 0.0005558995939613083 -0.033720822473509909 0 0.00059654044736669523 -0.033694645317322837 0 0.00060020107538898181 -0.033672935286180469 0 0.00059654044736669523 -0.033694645317322837 0 0.00069335258061910244 -0.033553165157198694 0 0.00059654044736669523 -0.033694645317322837 0 0.00069335258061910244 -0.033553165157198694 0 0.00062461059122972463 -0.033649248629361951 0 0.00081227371143524575 -0.033265246447272516 0 0.00069335258061910244 -0.033553165157198694 0 0.00069414755430750603 -0.033450140053210231 0 0.00062461059122972463 -0.033649248629361951 0 0.00069414755430750603 -0.033450140053210231 0 0.00062530242082333939 -0.033627705837160821 0 0.00069335258061910244 -0.033553165157198694 0 0.00062461059122972463 -0.033649248629361951 0 0.00069414755430750603 -0.033450140053210231 0 0.00081227371143524575 -0.033265246447272516 0 0.00069414755430750603 -0.033450140053210231 0 0.00079237456087551984 -0.033176386326424452 0 0.00057231513061304338 -0.03377890872512284 0 0.00059665774961599808 -0.033716342052110555 0 0.00053566523904851758 -0.033943716756985418 0 0.00057231513061304338 -0.03377890872512284 0 0.00062530242082333939 -0.033627705837160821 0 0.00059665774961599808 -0.033716342052110555 0 0.00057231513061304338 -0.03377890872512284 0 0.00062461059122972463 -0.033649248629361951 0 0.00062530242082333939 -0.033627705837160821 0 0.00062530242082333939 -0.033627705837160821 0 0.00064478771621480086 -0.033536891624577951 0 0.00059665774961599808 -0.033716342052110555 0 0.00069414755430750603 -0.033450140053210231 0 0.00062530242082333939 -0.033627705837160821 0 0.00064478771621480086 -0.033536891624577951 0 0.00064478771621480086 -0.033536891624577951 0 0.00059665774961599808 -0.033716342052110555 0 0.00066342371177169075 -0.033633809552322529 0 -1.2949690478389314e-06 -0.034995588707267565 0 8.4432100721513078e-07 -0.034995097683679435 0 -7.646662730474973e-06 -0.034992168507059357 0 0.00058025246394305082 -0.033969745551760591 0 0.00053566523904851758 -0.033943716756985418 0 0.00066342371177169075 -0.033633809552322529 0 0.00059665774961599808 -0.033716342052110555 0 0.00053566523904851758 -0.033943716756985418 0 0.00066342371177169075 -0.033633809552322529 0 0.00027550095211933132 -0.034475143592773802 0 0.00031913496068710831 -0.034309566681181597 0 0.00058025246394305082 -0.033969745551760591 0 0.00053566523904851758 -0.033943716756985418 0 0.00046902827843412761 -0.034203903144351268 0 0.00050505800798204012 -0.033976668868707122 0 0.00053566523904851758 -0.033943716756985418 0 0.00044839446234811641 -0.034223475981914324 0 0.00053566523904851758 -0.033943716756985418 0 0.00046902827843412761 -0.034203903144351268 0 0.00044839446234811641 -0.034223475981914324 0 0.00037688362802517316 -0.034410701676383153 0 0.00044839446234811641 -0.034223475981914324 0 0.00032707476342709601 -0.034544534170754433 0 0.00046902827843412761 -0.034203903144351268 0 0.00044839446234811641 -0.034223475981914324 0 0.00032707476342709601 -0.034544534170754433 0 0.0004561962378923842 -0.034167445368924493 0 0.00037688362802517316 -0.034410701676383153 0 0.00044839446234811641 -0.034223475981914324 0 0.0004561962378923842 -0.034167445368924493 0 0.00050505800798204012 -0.033976668868707122 0 0.00044839446234811641 -0.034223475981914324 0 8.1992228312832625e-07 -0.034999059238393693 0 0.00032707476342709601 -0.034544534170754433 0 0.0003998518240221075 -0.034423011972391705 0 0.00018862513919208875 -0.034709734301663263 0 8.1992228312832625e-07 -0.034999059238393693 0 0.00032707476342709601 -0.034544534170754433 0 0.00046902827843412761 -0.034203903144351268 0 0.00032707476342709601 -0.034544534170754433 0 0.0003998518240221075 -0.034423011972391705 0 9.6857301285111106e-09 -0.034999813501040221 0 0.00016885014027854102 -0.034691866096576332 0 4.4144064894701268e-11 -0.034999999143854654 0 5.1597344621191847e-07 -0.034998193022450434 0 9.8937781611899632e-10 -0.034999996319723704 0 5.1597344621191847e-07 -0.034998193022450434 0 9.8937781611899632e-10 -0.034999996319723704 0 4.2055447267322048e-07 -0.034997732590897813 0 -1.2949690478389314e-06 -0.034995588707267565 0 5.1597344621191847e-07 -0.034998193022450434 0 4.2055447267322048e-07 -0.034997732590897813 0 0.00027550095211933132 -0.034475143592773802 0 0.00016885014027854102 -0.034691866096576332 0 0.00058025246394305082 -0.033969745551760591 0 0.00046902827843412761 -0.034203903144351268 0 0.0003998518240221075 -0.034423011972391705 0 -1.2949690478389314e-06 -0.034995588707267565 0 4.2055447267322048e-07 -0.034997732590897813 0 8.4432100721513078e-07 -0.034995097683679435 0 4.2055447267322048e-07 -0.034997732590897813 0 -7.8509743229165926e-10 -0.034999996758259037 0 8.4432100721513078e-07 -0.034995097683679435 0 9.8937781611899632e-10 -0.034999996319723704 0 4.2055447267322048e-07 -0.034997732590897813 0 -7.8509743229165926e-10 -0.034999996758259037 0 8.4432100721513078e-07 -0.034995097683679435 0 6.6340078486203323e-09 -0.03499998593093593 0 1.084056091634805e-06 -0.034987990356170444 0 -7.8509743229165926e-10 -0.034999996758259037 0 8.4432100721513078e-07 -0.034995097683679435 0 6.6340078486203323e-09 -0.03499998593093593 0 -7.646662730474973e-06 -0.034992168507059357 0 1.084056091634805e-06 -0.034987990356170444 0 -8.0466401392112841e-06 -0.034974191976536416 0 -7.646662730474973e-06 -0.034992168507059357 0 -8.0466401392112841e-06 -0.034974191976536416 0 -2.6441666642551291e-05 -0.034982032355694283 0 8.4432100721513078e-07 -0.034995097683679435 0 -7.646662730474973e-06 -0.034992168507059357 0 1.084056091634805e-06 -0.034987990356170444 0 1.084056091634805e-06 -0.034987990356170444 0 -8.0466401392112841e-06 -0.034974191976536416 0 3.7147092874110398e-06 -0.034966372646737638 0 -8.0466401392112841e-06 -0.034974191976536416 0 3.7147092874110398e-06 -0.034966372646737638 0 -1.3345048071873875e-06 -0.034942457744198359 0 -8.0466401392112841e-06 -0.034974191976536416 0 -1.3345048071873875e-06 -0.034942457744198359 0 -3.0696732919104082e-05 -0.034951998216667071 0 6.6340078486203323e-09 -0.03499998593093593 0 1.084056091634805e-06 -0.034987990356170444 0 4.0252789410886208e-06 -0.034986742933016013 0 6.6340078486203323e-09 -0.03499998593093593 0 4.0252789410886208e-06 -0.034986742933016013 0 3.0273552754047129e-09 -0.034999978565491009 0 1.084056091634805e-06 -0.034987990356170444 0 3.7147092874110398e-06 -0.034966372646737638 0 4.0252789410886208e-06 -0.034986742933016013 0 3.7147092874110398e-06 -0.034966372646737638 0 4.0252789410886208e-06 -0.034986742933016013 0 6.5663573378156411e-06 -0.034980497762688911 0 4.0252789410886208e-06 -0.034986742933016013 0 3.0273552754047129e-09 -0.034999978565491009 0 6.5663573378156411e-06 -0.034980497762688911 0 3.0273552754047129e-09 -0.034999978565491009 0 1.5145445822599707e-08 -0.034999948427233446 0 6.5663573378156411e-06 -0.034980497762688911 0 1.5145445822599707e-08 -0.034999948427233446 0 1.0408577706556615e-05 -0.034978514485571759 0 6.5663573378156411e-06 -0.034980497762688911 0 1.0408577706556615e-05 -0.034978514485571759 0 6.5663573378156411e-06 -0.034980497762688911 0 4.5807116079004954e-06 -0.034954980429875583 0 1.0408577706556615e-05 -0.034978514485571759 0 4.5807116079004954e-06 -0.034954980429875583 0 5.3482880480635181e-06 -0.034939917658140862 0 3.7147092874110398e-06 -0.034966372646737638 0 6.5663573378156411e-06 -0.034980497762688911 0 4.5807116079004954e-06 -0.034954980429875583 0 3.7147092874110398e-06 -0.034966372646737638 0 -1.3345048071873875e-06 -0.034942457744198359 0 4.5807116079004954e-06 -0.034954980429875583 0 -1.3345048071873875e-06 -0.034942457744198359 0 -1.3196607028846363e-06 -0.034930688081301883 0 4.5807116079004954e-06 -0.034954980429875583 0 -1.3345048071873875e-06 -0.034942457744198359 0 -1.3196607028846363e-06 -0.034930688081301883 0 1.7082618840428574e-06 -0.034903286135600231 0 -1.3196607028846363e-06 -0.034930688081301883 0 -9.7568224634404997e-07 -0.034918577746873014 0 1.7082618840428574e-06 -0.034903286135600231 0 -1.3196607028846363e-06 -0.034930688081301883 0 9.4054339753701584e-07 -0.034926400006512696 0 -9.7568224634404997e-07 -0.034918577746873014 0 4.5807116079004954e-06 -0.034954980429875583 0 5.3482880480635181e-06 -0.034939917658140862 0 9.4054339753701584e-07 -0.034926400006512696 0 -1.3196607028846363e-06 -0.034930688081301883 0 4.5807116079004954e-06 -0.034954980429875583 0 9.4054339753701584e-07 -0.034926400006512696 0 5.3482880480635181e-06 -0.034939917658140862 0 9.4054339753701584e-07 -0.034926400006512696 0 5.0345778555555036e-06 -0.034913563106836659 0 9.4054339753701584e-07 -0.034926400006512696 0 4.6792112970942636e-06 -0.034909942698415186 0 5.0345778555555036e-06 -0.034913563106836659 0 9.4054339753701584e-07 -0.034926400006512696 0 4.6792112970942636e-06 -0.034909942698415186 0 1.2858011352848682e-06 -0.034910771161279205 0 9.4054339753701584e-07 -0.034926400006512696 0 1.2858011352848682e-06 -0.034910771161279205 0 -9.7568224634404997e-07 -0.034918577746873014 0 4.6792112970942636e-06 -0.034909942698415186 0 7.3465380348823216e-06 -0.03489916846219468 0 1.2858011352848682e-06 -0.034910771161279205 0 4.6792112970942636e-06 -0.034909942698415186 0 8.6059358563720589e-06 -0.034898398077923914 0 5.0345778555555036e-06 -0.034913563106836659 0 4.6792112970942636e-06 -0.034909942698415186 0 8.6059358563720589e-06 -0.034898398077923914 0 7.3465380348823216e-06 -0.03489916846219468 0 8.6059358563720589e-06 -0.034898398077923914 0 5.0345778555555036e-06 -0.034913563106836659 0 7.2385231464201878e-06 -0.034899165294414662 0 5.0345778555555036e-06 -0.034913563106836659 0 1.9611945451659063e-05 -0.034908882185402647 0 7.2385231464201878e-06 -0.034899165294414662 0 5.3482880480635181e-06 -0.034939917658140862 0 5.0345778555555036e-06 -0.034913563106836659 0 1.9611945451659063e-05 -0.034908882185402647 0 4.347703592388447e-06 -0.035000603877463572 0 -5.9016537631557991e-09 -0.035000003507516197 0 2.0745438754601198e-09 -0.035000004980806493 0 1.5145445822599707e-08 -0.034999948427233446 0 1.0408577706556615e-05 -0.034978514485571759 0 -5.9016537631557991e-09 -0.035000003507516197 0 1.0408577706556615e-05 -0.034978514485571759 0 4.347703592388447e-06 -0.035000603877463572 0 -5.9016537631557991e-09 -0.035000003507516197 0 1.0408577706556615e-05 -0.034978514485571759 0 5.3482880480635181e-06 -0.034939917658140862 0 1.9611945451659063e-05 -0.034908882185402647 0 1.1198159032547502e-05 -0.034975529510730526 0 1.0317578039053424e-05 -0.034955127485440808 0 -0.00011488521505762157 -0.034796660613920331 0 -6.4950495605630272e-05 -0.034747300946572843 0 -0.00032158145094684918 -0.034574292109684733 0 -0.00036761830033365676 -0.034461948339194581 0 -0.00027410549113114527 -0.034333924312225692 0 -0.00032158145094684918 -0.034574292109684733 0 -0.00027410549113114527 -0.034333924312225692 0 -7.8681137980821973e-05 -0.034656429818584397 0 -0.00032158145094684918 -0.034574292109684733 0 -7.8681137980821973e-05 -0.034656429818584397 0 -0.00024629686486091516 -0.034680649638381626 0 -0.00032158145094684918 -0.034574292109684733 0 -0.00024629686486091516 -0.034680649638381626 0 -0.0003605961896738821 -0.034656313017226284 0 0.00029916427534536216 -0.031682638313648773 0 0.00034601137065777185 -0.031723854858016286 0 -0.00010140636135243834 -0.033118468633893693 0 -3.8765110233920718e-05 -0.033453895753662546 0 -0.00036761830033365676 -0.034461948339194581 0 -0.00049290396985161855 -0.034355537056812449 0 -0.00037688496551060231 -0.034667374643477966 0 -0.00045161866524486558 -0.034398908698112352 0 -3.8765110233920718e-05 -0.033453895753662546 0 -0.00032158145094684918 -0.034574292109684733 0 -0.00036761830033365676 -0.034461948339194581 0 -0.00037688496551060231 -0.034667374643477966 0 0.00030667298025400321 -0.031716997170197457 0 0.00026711256277676932 -0.03176016087616184 0 0.00035057693851065131 -0.031850351205579476 0 0.00028923022711336118 -0.031911996517908728 0 0.00026711256277676932 -0.03176016087616184 0 0.00035057693851065131 -0.031850351205579476 0 -0.00049290396985161855 -0.034355537056812449 0 -0.00027410549113114527 -0.034333924312225692 0 -0.00055828078332466823 -0.033968504023925677 0 -0.00036761830033365676 -0.034461948339194581 0 -0.00049290396985161855 -0.034355537056812449 0 -0.00027410549113114527 -0.034333924312225692 0 -0.00010140636135243834 -0.033118468633893693 0 -0.0001686643476957101 -0.032885022975690431 0 -3.5673168322092933e-05 -0.034894092496781229 0 -8.9715231367429644e-06 -0.034899255267799842 0 -1.485173174239304e-05 -0.034875104353556993 0 -8.9715231367429644e-06 -0.034899255267799842 0 5.9731969617723589e-07 -0.034890064151103059 0 -1.485173174239304e-05 -0.034875104353556993 0 -8.9715231367429644e-06 -0.034899255267799842 0 5.9731969617723589e-07 -0.034890064151103059 0 1.2858011352848682e-06 -0.034910771161279205 0 7.3465380348823216e-06 -0.03489916846219468 0 5.9731969617723589e-07 -0.034890064151103059 0 1.2858011352848682e-06 -0.034910771161279205 0 7.3465380348823216e-06 -0.03489916846219468 0 5.9731969617723589e-07 -0.034890064151103059 0 1.4591975304747986e-05 -0.034887108524429888 0 1.2858011352848682e-06 -0.034910771161279205 0 -6.0245298437341646e-06 -0.034916882120176268 0 -9.7568224634404997e-07 -0.034918577746873014 0 -8.9715231367429644e-06 -0.034899255267799842 0 1.2858011352848682e-06 -0.034910771161279205 0 -6.0245298437341646e-06 -0.034916882120176268 0 -3.5673168322092933e-05 -0.034894092496781229 0 -8.9715231367429644e-06 -0.034899255267799842 0 -6.0245298437341646e-06 -0.034916882120176268 0 -7.8681137980821973e-05 -0.034656429818584397 0 1.7082618840428574e-06 -0.034903286135600231 0 -7.6783557525377427e-05 -0.034919661428954668 0 -7.8681137980821973e-05 -0.034656429818584397 0 -7.6783557525377427e-05 -0.034919661428954668 0 -0.000201855697632239 -0.034783518345731512 0 -6.0245298437341646e-06 -0.034916882120176268 0 -9.7568224634404997e-07 -0.034918577746873014 0 1.7082618840428574e-06 -0.034903286135600231 0 -6.4950495605630272e-05 -0.034747300946572843 0 9.2954531007222132e-06 -0.03490371838375881 0 -1.3345048071873875e-06 -0.034942457744198359 0 1.7082618840428574e-06 -0.034903286135600231 0 -3.0696732919104082e-05 -0.034951998216667071 0 1.7082618840428574e-06 -0.034903286135600231 0 -7.6783557525377427e-05 -0.034919661428954668 0 -3.0696732919104082e-05 -0.034951998216667071 0 -7.6783557525377427e-05 -0.034919661428954668 0 -0.00024314571181703552 -0.034961441594729026 0 -0.000201855697632239 -0.034783518345731512 0 -0.0002042667639816859 -0.034932313474010587 0 6.8453284837495146e-05 -0.034327000927399633 0 -7.6783557525377427e-05 -0.034919661428954668 0 -8.0836281261486279e-05 -0.034919750691350088 0 -8.0175648401314219e-05 -0.034923199681568422 0 6.8453284837495146e-05 -0.034327000927399633 0 0.00048403574792075084 -0.033558217795939073 0 6.8453284837495146e-05 -0.034327000927399633 0 -3.8765110233920718e-05 -0.033453895753662546 0 -0.00024314571181703552 -0.034961441594729026 0 -0.000201855697632239 -0.034783518345731512 0 -0.0003605961896738821 -0.034656313017226284 0 -0.000201855697632239 -0.034783518345731512 0 -0.00024629686486091516 -0.034680649638381626 0 -0.0003605961896738821 -0.034656313017226284 0 -7.8681137980821973e-05 -0.034656429818584397 0 -0.000201855697632239 -0.034783518345731512 0 -0.00024629686486091516 -0.034680649638381626 0 0.00030667298025400321 -0.031716997170197457 0 0.00031897687533238134 -0.031721372996920065 0 0.00023635010871025531 -0.031600536892281851 0 0.00030667298025400321 -0.031716997170197457 0 0.00026711256277676932 -0.03176016087616184 0 0.00031897687533238134 -0.031721372996920065 0 -3.8765110233920718e-05 -0.033453895753662546 0 0.00092573854744239757 -0.031316327542733502 0 0.0010902809748515043 -0.032292073255222327 0 0.00078308836089024557 -0.03197480597598016 0 0.0013771588031847057 -0.031827637749558595 0 0.00038676633018844373 -0.033218590521715961 0 0.00031052614296935558 -0.032991334720521584 0 0.00023171980437156075 -0.033120807980572653 0 0.00038676633018844373 -0.033218590521715961 0 0.00023171980437156075 -0.033120807980572653 0 0.00032707332650194223 -0.033230342388622623 0 0.00092573854744239757 -0.031316327542733502 0 0.00048403574792075084 -0.033558217795939073 0 0.000764449277336279 -0.033316910870105458 0 0.00078200733106869777 -0.033173851168690698 0 0.00088252853469615881 -0.033191387173816388 0 0.000764449277336279 -0.033316910870105458 0 0.00093503145067276952 -0.03329205206041707 0 0.00088252853469615881 -0.033191387173816388 0 0.00048403574792075084 -0.033558217795939073 0 0.001717089665895995 -0.031225794356095755 0 -8.2413540365197289e-05 -0.034905476515233014 0 -9.7417674962772311e-05 -0.034908270830758821 0 -8.0175648401314219e-05 -0.034923199681568422 0 -9.7417674962772311e-05 -0.034908270830758821 0 -8.0175648401314219e-05 -0.034923199681568422 0 -6.4796933803872316e-05 -0.034957169237016243 0 0.000764449277336279 -0.033316910870105458 0 0.00078200733106869777 -0.033173851168690698 0 0.00070763856156176564 -0.033257773220147911 0 0.00048403574792075084 -0.033558217795939073 0 0.00032243115892551373 -0.034198985630086706 0 6.8453284837495146e-05 -0.034327000927399633 0 9.4536389685826702e-05 -0.034751344194708295 0 0.00078200733106869777 -0.033173851168690698 0 0.00070763856156176564 -0.033257773220147911 0 0.0007230797363368454 -0.03325462365791395 0 -3.0696732919104082e-05 -0.034951998216667071 0 -6.4994963977794149e-05 -0.034936862263288591 0 -6.4796933803872316e-05 -0.034957169237016243 0 -7.6783557525377427e-05 -0.034919661428954668 0 -3.0696732919104082e-05 -0.034951998216667071 0 -6.4994963977794149e-05 -0.034936862263288591 0 -7.6783557525377427e-05 -0.034919661428954668 0 -8.0175648401314219e-05 -0.034923199681568422 0 -6.4994963977794149e-05 -0.034936862263288591 0 -8.0175648401314219e-05 -0.034923199681568422 0 -6.4994963977794149e-05 -0.034936862263288591 0 -6.4796933803872316e-05 -0.034957169237016243 0 0.00032243115892551373 -0.034198985630086706 0 0.00032318723181579552 -0.034164262576231286 0 -3.0696732919104082e-05 -0.034951998216667071 0 -6.4796933803872316e-05 -0.034957169237016243 0 -2.6441666642551291e-05 -0.034982032355694283 0 0.00070763856156176564 -0.033257773220147911 0 0.00069859853511562307 -0.033383059354410938 0 0.0007230797363368454 -0.03325462365791395 0 -8.0466401392112841e-06 -0.034974191976536416 0 -3.0696732919104082e-05 -0.034951998216667071 0 -2.6441666642551291e-05 -0.034982032355694283 0 0.00069859853511562307 -0.033383059354410938 0 0.0007230797363368454 -0.03325462365791395 0 0.00069439496958630196 -0.033357952851325909 0 0.00064478771621480086 -0.033536891624577951 0 0.00069859853511562307 -0.033383059354410938 0 0.00069439496958630196 -0.033357952851325909 0 0.00069414755430750603 -0.033450140053210231 0 0.00064478771621480086 -0.033536891624577951 0 0.00069439496958630196 -0.033357952851325909 0 0.00031913496068710831 -0.034309566681181597 0 0.00032318723181579552 -0.034164262576231286 0 0.00064478771621480086 -0.033536891624577951 0 0.00066342371177169075 -0.033633809552322529 0 0.00069859853511562307 -0.033383059354410938 0 0.00078200733106869777 -0.033173851168690698 0 0.00079237456087551984 -0.033176386326424452 0 0.0009199828974043614 -0.03295725799990603 0 0.00078200733106869777 -0.033173851168690698 0 0.0007230797363368454 -0.03325462365791395 0 0.00079237456087551984 -0.033176386326424452 0 0.0007230797363368454 -0.03325462365791395 0 0.00069439496958630196 -0.033357952851325909 0 0.00079237456087551984 -0.033176386326424452 0 0.00069414755430750603 -0.033450140053210231 0 0.00069439496958630196 -0.033357952851325909 0 0.00079237456087551984 -0.033176386326424452 0 0.00081227371143524575 -0.033265246447272516 0 0.00079237456087551984 -0.033176386326424452 0 0.00096888663874252227 -0.032974597042500879 0 0.00079237456087551984 -0.033176386326424452 0 0.0009199828974043614 -0.03295725799990603 0 0.00096888663874252227 -0.032974597042500879 0 0.0009199828974043614 -0.03295725799990603 0 0.0012341806309134732 -0.032485529166354082 0 0.00107020045192084 -0.033112033670996972 0 0.0009199828974043614 -0.03295725799990603 0 0.0012341806309134732 -0.032485529166354082 0 0.00096888663874252227 -0.032974597042500879 0 0.00090147017209684993 -0.033103387728630584 0 0.00096888663874252227 -0.032974597042500879 0 0.00091322267312569103 -0.032802296359236066 0 0.0012341806309134732 -0.032485529166354082 0 0.00096888663874252227 -0.032974597042500879 0 0.00091322267312569103 -0.032802296359236066 0 0.00091322267312569103 -0.032802296359236066 0 0.00045574176033164401 -0.032273839773514029 0 0.00072394889157683935 -0.032322702211063543 0 0.00061761301505846016 -0.032957293796475849 0 0.00091322267312569103 -0.032802296359236066 0 0.00045574176033164401 -0.032273839773514029 0 0.00061761301505846016 -0.032957293796475849 0 -0.0003084188175706044 -0.032358664057186952 0 0.00045574176033164401 -0.032273839773514029 0 0.00061761301505846016 -0.032957293796475849 0 -0.00069493956004906419 -0.032946790340903018 0 -0.0003084188175706044 -0.032358664057186952 0 0.00045574176033164401 -0.032273839773514029 0 -0.00056095440159938885 -0.031719679799070429 0 -0.0007530571327488512 -0.031057360367724631 0 -0.0003084188175706044 -0.032358664057186952 0 0.00045574176033164401 -0.032273839773514029 0 -0.00056095440159938885 -0.031719679799070429 0 0.00045574176033164401 -0.032273839773514029 0 0.00031170916859426281 -0.031945766935408765 0 -0.00041893935498696843 -0.031745354810222469 0 0.00045574176033164401 -0.032273839773514029 0 -0.0007530571327488512 -0.031057360367724631 0 -0.0010876369651487334 -0.02955092930214934 0 0.00032698081839205588 -0.032073730853528312 0 -0.00077949156087325224 -0.030761599413953778 0 0.00045574176033164401 -0.032273839773514029 0 0.00031170916859426281 -0.031945766935408765 0 0.00072394889157683935 -0.032322702211063543 0 0.00031170916859426281 -0.031945766935408765 0 0.00072394889157683935 -0.032322702211063543 0 0.00061760854093584783 -0.031779706762511468 0 0.00031170916859426281 -0.031945766935408765 0 0.00061760854093584783 -0.031779706762511468 0 0.00013630972071987783 -0.031495153812595524 0 0.00031170916859426281 -0.031945766935408765 0 0.00013630972071987783 -0.031495153812595524 0 -0.00041893935498696843 -0.031745354810222469 0 0.0012341806309134732 -0.032485529166354082 0 0.00091322267312569103 -0.032802296359236066 0 0.00072394889157683935 -0.032322702211063543 0 0.0012341806309134732 -0.032485529166354082 0 0.00061760854093584783 -0.031779706762511468 0 0.0012146849329047707 -0.031282507822865693 0 0.0012341806309134732 -0.032485529166354082 0 0.00072394889157683935 -0.032322702211063543 0 0.00061760854093584783 -0.031779706762511468 0 0.00061760854093584783 -0.031779706762511468 0 0.0012146849329047707 -0.031282507822865693 0 0.00057643807820073471 -0.030906214889429039 0 0.0012146849329047707 -0.031282507822865693 0 0.00057643807820073471 -0.030906214889429039 0 0.00089333087254100279 -0.030399251075668748 0 0.00013630972071987783 -0.031495153812595524 0 4.5349278229482011e-05 -0.030802696280794035 0 -0.00041893935498696843 -0.031745354810222469 0 0.00061760854093584783 -0.031779706762511468 0 0.00057643807820073471 -0.030906214889429039 0 0.00013630972071987783 -0.031495153812595524 0 0.00057643807820073471 -0.030906214889429039 0 0.00013630972071987783 -0.031495153812595524 0 4.5349278229482011e-05 -0.030802696280794035 0 4.5349278229482011e-05 -0.030802696280794035 0 0.0005785092494765778 -0.029953746490484198 0 9.199305677907414e-06 -0.029750634426275398 0 0.00057643807820073471 -0.030906214889429039 0 4.5349278229482011e-05 -0.030802696280794035 0 0.0005785092494765778 -0.029953746490484198 0 0.0005785092494765778 -0.029953746490484198 0 9.199305677907414e-06 -0.029750634426275398 0 0.00037610494182945578 -0.029354028593369795 0 0.00089333087254100279 -0.030399251075668748 0 0.0010853626021610477 -0.029807227410547154 0 0.0014319937994312049 -0.030112390554121796 0 0.00092521517153796163 -0.030370522613256463 0 0.0017874065806946714 -0.030163337427008871 0 0.0012146849329047707 -0.031282507822865693 0 0.00089333087254100279 -0.030399251075668748 0 0.0018651277594935358 -0.03020829207615381 0 0.00057643807820073471 -0.030906214889429039 0 0.0005785092494765778 -0.029953746490484198 0 0.00089333087254100279 -0.030399251075668748 0 0.0005785092494765778 -0.029953746490484198 0 0.00089333087254100279 -0.030399251075668748 0 0.0010853626021610477 -0.029807227410547154 0 0.0018651277594935358 -0.03020829207615381 0 0.0029222833499783635 -0.029975722908288857 0 0.0022438325938028652 -0.031116575690790221 0 0.0014319937994312049 -0.030112390554121796 0 0.0019239846618818682 -0.029974214994117846 0 0.0014972943275454575 -0.029472016166207454 0 0.0017874065806946714 -0.030163337427008871 0 0.001717089665895995 -0.031225794356095755 0 0.001717089665895995 -0.031225794356095755 0 0.0016173897079171131 -0.032156338701707199 0 0.00093503145067276952 -0.03329205206041707 0 0.00088252853469615881 -0.033191387173816388 0 0.00107020045192084 -0.033112033670996972 0 0.0009199828974043614 -0.03295725799990603 0 0.00088252853469615881 -0.033191387173816388 0 0.00107020045192084 -0.033112033670996972 0 0.00078200733106869777 -0.033173851168690698 0 0.0009199828974043614 -0.03295725799990603 0 0.00088252853469615881 -0.033191387173816388 0 0.0013084040849823165 -0.032455233798827803 0 0.0016173897079171131 -0.032156338701707199 0 0.0012341806309134732 -0.032485529166354082 0 0.0012146849329047707 -0.031282507822865693 0 0.0022438325938028652 -0.031116575690790221 0 0.0012146849329047707 -0.031282507822865693 0 0.0018651277594935358 -0.03020829207615381 0 0.0022438325938028652 -0.031116575690790221 0 -0.0006538467015223396 -0.027310155252108254 0 -0.00092553483241019458 -0.027031888590739572 0 -0.0010193171242511743 -0.027988572034083829 0 -0.0006538467015223396 -0.027310155252108254 0 -0.00048906294517105336 -0.027660894556535118 0 -0.0002298115056169383 -0.027125250918655697 0 -0.0006538467015223396 -0.027310155252108254 0 -0.00048906294517105336 -0.027660894556535118 0 -0.0010193171242511743 -0.027988572034083829 0 -0.00066104620350779936 -0.0285137897175455 0 -0.00048906294517105336 -0.027660894556535118 0 -0.0010193171242511743 -0.027988572034083829 0 -0.00092553483241019458 -0.027031888590739572 0 -0.0010193171242511743 -0.027988572034083829 0 -0.0016242079333249138 -0.028174200376453403 0 -0.0013166915336257049 -0.030051032507353984 0 -0.002950958173653396 -0.030131227252952777 0 -0.0010193171242511743 -0.027988572034083829 0 -0.0016242079333249138 -0.028174200376453403 0 -0.0014788441382918621 -0.029224718019922311 0 -0.00066104620350779936 -0.0285137897175455 0 -0.0010193171242511743 -0.027988572034083829 0 -0.0014788441382918621 -0.029224718019922311 0 -0.00046212394798928938 -0.028067368352294335 0 -0.00098323822736002728 -0.028404774192690729 0 -0.0016242079333249138 -0.028174200376453403 0 -0.0017968949727120596 -0.029481562375332029 0 -0.0014788441382918621 -0.029224718019922311 0 -0.002950958173653396 -0.030131227252952777 0 -0.0017204320063169377 -0.029367902520493993 0 -0.0037402309631049046 -0.031839893106754377 0 -0.0018704082390927884 -0.031176166226598214 0 -0.0017968949727120596 -0.029481562375332029 0 -0.0037402309631049046 -0.031839893106754377 0 -0.0022034723710147252 -0.032154581962082256 0 -0.0018704082390927884 -0.031176166226598214 0 -0.0027164210732391128 -0.033047760899162379 0 -0.0038186622978382272 -0.0332248511797332 0 -0.0037402309631049046 -0.031839893106754377 0 -0.0027164210732391128 -0.033047760899162379 0 -0.0037402309631049046 -0.031839893106754377 0 -0.0022034723710147252 -0.032154581962082256 0 -0.0027164210732391128 -0.033047760899162379 0 -0.0022034723710147252 -0.032154581962082256 0 -0.0019707196465794745 -0.032712285804347666 0 -0.0022034723710147252 -0.032154581962082256 0 -0.0018704082390927884 -0.031176166226598214 0 -0.0014692086708289291 -0.031802180336421092 0 -0.0018704082390927884 -0.031176166226598214 0 -0.0014692086708289291 -0.031802180336421092 0 -0.0011680218454287062 -0.031303983245970987 0 -0.0022034723710147252 -0.032154581962082256 0 -0.0014692086708289291 -0.031802180336421092 0 -0.0015965094861016299 -0.032364212039257913 0 -0.0022034723710147252 -0.032154581962082256 0 -0.0015965094861016299 -0.032364212039257913 0 -0.0019707196465794745 -0.032712285804347666 0 -0.0014692086708289291 -0.031802180336421092 0 -0.0015965094861016299 -0.032364212039257913 0 -0.0010950458329443493 -0.032419946910494234 0 -0.0015965094861016299 -0.032364212039257913 0 -0.0012772986579802201 -0.032847332880652544 0 -0.0010950458329443493 -0.032419946910494234 0 -0.0015965094861016299 -0.032364212039257913 0 -0.0012772986579802201 -0.032847332880652544 0 -0.0019707196465794745 -0.032712285804347666 0 -0.00069493956004906419 -0.032946790340903018 0 -0.0012772986579802201 -0.032847332880652544 0 -0.0010950458329443493 -0.032419946910494234 0 -0.0003084188175706044 -0.032358664057186952 0 -0.0010950458329443493 -0.032419946910494234 0 -0.00092267910132203673 -0.031924547676008788 0 -0.00069493956004906419 -0.032946790340903018 0 -0.0003084188175706044 -0.032358664057186952 0 -0.0010950458329443493 -0.032419946910494234 0 -0.0003084188175706044 -0.032358664057186952 0 -0.00092267910132203673 -0.031924547676008788 0 -0.00056095440159938885 -0.031719679799070429 0 -0.0014692086708289291 -0.031802180336421092 0 -0.0010950458329443493 -0.032419946910494234 0 -0.00092267910132203673 -0.031924547676008788 0 -0.00092267910132203673 -0.031924547676008788 0 -0.0011680218454287062 -0.031303983245970987 0 -0.00056095440159938885 -0.031719679799070429 0 -0.0014692086708289291 -0.031802180336421092 0 -0.00092267910132203673 -0.031924547676008788 0 -0.0011680218454287062 -0.031303983245970987 0 -0.0011680218454287062 -0.031303983245970987 0 -0.00056095440159938885 -0.031719679799070429 0 -0.0007530571327488512 -0.031057360367724631 0 -0.0007530571327488512 -0.031057360367724631 0 -0.0013471720861663497 -0.030440515097586097 0 -0.0010876369651487334 -0.02955092930214934 0 -0.0011680218454287062 -0.031303983245970987 0 -0.0007530571327488512 -0.031057360367724631 0 -0.0013471720861663497 -0.030440515097586097 0 -0.0018704082390927884 -0.031176166226598214 0 -0.0013471720861663497 -0.030440515097586097 0 -0.0017968949727120596 -0.029481562375332029 0 -0.0018704082390927884 -0.031176166226598214 0 -0.0011680218454287062 -0.031303983245970987 0 -0.0013471720861663497 -0.030440515097586097 0 -0.0013471720861663497 -0.030440515097586097 0 -0.0017968949727120596 -0.029481562375332029 0 -0.0010876369651487334 -0.02955092930214934 0 -0.00077949156087325224 -0.030761599413953778 0 -0.00094325104577420548 -0.029324450120880745 0 4.5349278229482011e-05 -0.030802696280794035 0 -0.00041893935498696843 -0.031745354810222469 0 -0.0013505175794006521 -0.030583218533253385 0 -0.0017968949727120596 -0.029481562375332029 0 -0.0010876369651487334 -0.02955092930214934 0 -0.0018017842091852855 -0.029203733501536377 0 4.5349278229482011e-05 -0.030802696280794035 0 9.199305677907414e-06 -0.029750634426275398 0 -0.0013505175794006521 -0.030583218533253385 0 9.199305677907414e-06 -0.029750634426275398 0 -0.00011758987046490652 -0.029338102793804423 0 -0.00014501862607721813 -0.029549395684155832 0 -5.191563532666982e-05 -0.029883448171357154 0 -0.00094325104577420548 -0.029324450120880745 0 -0.00044444229819682202 -0.028693758398205774 0 -0.00094325104577420548 -0.029324450120880745 0 -0.00062664904075748805 -0.028145983044718176 0 -0.00077952819365523923 -0.027926973248940772 0 -0.00046378848307960103 -0.027978578938693842 0 -0.00011758987046490652 -0.029338102793804423 0 -0.00027069879793835438 -0.029300633327852883 0 -0.00014501862607721813 -0.029549395684155832 0 -0.00077952819365523923 -0.027926973248940772 0 -0.000464759210738508 -0.027755670449190053 0 -0.00046378848307960103 -0.027978578938693842 0 -0.0017968949727120596 -0.029481562375332029 0 -0.0018017842091852855 -0.029203733501536377 0 -0.0014788441382918621 -0.029224718019922311 0 -0.00094325104577420548 -0.029324450120880745 0 -0.00098323822736002728 -0.028404774192690729 0 -0.000464759210738508 -0.027755670449190053 0 -0.00046378848307960103 -0.027978578938693842 0 -0.00021583226391218922 -0.027838364671288262 0 -0.00046378848307960103 -0.027978578938693842 0 -0.00028016893501035974 -0.028050927132335784 0 -0.00021583226391218922 -0.027838364671288262 0 -0.00062664904075748805 -0.028145983044718176 0 -0.00046378848307960103 -0.027978578938693842 0 -0.00038088470789312439 -0.028175776074291798 0 -0.00038088470789312439 -0.028175776074291798 0 -0.00028016893501035974 -0.028050927132335784 0 -0.00025714393486805757 -0.028240045821462591 0 -0.00046378848307960103 -0.027978578938693842 0 -0.00038088470789312439 -0.028175776074291798 0 -0.00028016893501035974 -0.028050927132335784 0 -0.00028016893501035974 -0.028050927132335784 0 -0.00025714393486805757 -0.028240045821462591 0 -0.00012875402145085292 -0.028002648424135107 0 -0.00028016893501035974 -0.028050927132335784 0 -0.00021583226391218922 -0.027838364671288262 0 -0.00012875402145085292 -0.028002648424135107 0 -0.00020660370600635296 -0.027626871116115979 0 -0.000464759210738508 -0.027755670449190053 0 -0.00021583226391218922 -0.027838364671288262 0 -0.00022862748528696688 -0.028117577533505408 0 -0.00022590236973847076 -0.028160836468554686 0 -0.00023613832569211956 -0.028028565824659929 0 -0.00022862748528696688 -0.028117577533505408 0 -0.00022590236973847076 -0.028160836468554686 0 -0.00027682643467946515 -0.028313967084830711 0 -0.00022590236973847076 -0.028160836468554686 0 -0.00019622540138060983 -0.028166773300659653 0 -0.00027682643467946515 -0.028313967084830711 0 -0.00019622540138060983 -0.028166773300659653 0 -0.00025714393486805757 -0.028240045821462591 0 -0.00012875402145085292 -0.028002648424135107 0 -0.00019622540138060983 -0.028166773300659653 0 -0.00025714393486805757 -0.028240045821462591 0 -0.00027682643467946515 -0.028313967084830711 0 -0.00025714393486805757 -0.028240045821462591 0 -0.00036484778276618993 -0.028516801310218831 0 -0.00027682643467946515 -0.028313967084830711 0 -0.00038088470789312439 -0.028175776074291798 0 -0.00025714393486805757 -0.028240045821462591 0 -0.00036484778276618993 -0.028516801310218831 0 -0.00044444229819682202 -0.028693758398205774 0 -0.00038036329742851719 -0.028605692259048573 0 -0.00027069879793835438 -0.029300633327852883 0 -0.00036484778276618993 -0.028516801310218831 0 -0.00020337936980546899 -0.028843861759716781 0 -0.00062664904075748805 -0.028145983044718176 0 -0.00038088470789312439 -0.028175776074291798 0 -0.00036484778276618993 -0.028516801310218831 0 -0.00036484778276618993 -0.028516801310218831 0 -0.00023296300810224071 -0.028425254468544169 0 -0.00020337936980546899 -0.028843861759716781 0 -0.00036484778276618993 -0.028516801310218831 0 -0.00023296300810224071 -0.028425254468544169 0 -0.00027682643467946515 -0.028313967084830711 0 -0.00023296300810224071 -0.028425254468544169 0 -0.00027682643467946515 -0.028313967084830711 0 -0.00018464025101382926 -0.028227884024476544 0 -0.00022862748528696688 -0.028117577533505408 0 -0.00027682643467946515 -0.028313967084830711 0 -0.00018464025101382926 -0.028227884024476544 0 -0.00023296300810224071 -0.028425254468544169 0 -0.00018464025101382926 -0.028227884024476544 0 0.00017025824237777921 -0.028127722799562448 0 -0.00021647067850681174 -0.028764505292427679 0 -0.00020337936980546899 -0.028843861759716781 0 -3.5813183549098281e-05 -0.029093486022694647 0 -0.00023296300810224071 -0.028425254468544169 0 0.00017025824237777921 -0.028127722799562448 0 -0.00020337936980546899 -0.028843861759716781 0 -2.6981619043211462e-05 -0.028429229917531679 0 -0.00018467703826239914 -0.028816706142109415 0 -0.00011758987046490652 -0.029338102793804423 0 -0.00020337936980546899 -0.028843861759716781 0 -3.5813183549098281e-05 -0.029093486022694647 0 -0.00011758987046490652 -0.029338102793804423 0 -0.00027069879793835438 -0.029300633327852883 0 -0.00020337936980546899 -0.028843861759716781 0 9.199305677907414e-06 -0.029750634426275398 0 -0.00011758987046490652 -0.029338102793804423 0 -3.5813183549098281e-05 -0.029093486022694647 0 -3.5813183549098281e-05 -0.029093486022694647 0 0.00012616254047379249 -0.02866436231624326 0 0.00049794059179085535 -0.028897109428370833 0 -0.00021647067850681174 -0.028764505292427679 0 -3.5813183549098281e-05 -0.029093486022694647 0 0.00012616254047379249 -0.02866436231624326 0 0.00012616254047379249 -0.02866436231624326 0 -8.2443804053868174e-05 -0.028192684697035359 0 0.00047936884150146631 -0.028321909523624747 0 -0.00021647067850681174 -0.028764505292427679 0 0.00012616254047379249 -0.02866436231624326 0 -8.2443804053868174e-05 -0.028192684697035359 0 0.00030503274879590105 -0.027796301312581356 0 0.00016864983462912833 -0.027656273233998181 0 -3.9770894212409482e-05 -0.027872409322148507 0 0.00016864983462912833 -0.027656273233998181 0 -3.9770894212409482e-05 -0.027872409322148507 0 -2.830363539454071e-05 -0.027516860080898719 0 0.00017025824237777921 -0.028127722799562448 0 0.00030503274879590105 -0.027796301312581356 0 -3.9770894212409482e-05 -0.027872409322148507 0 -0.00018464025101382926 -0.028227884024476544 0 0.00017025824237777921 -0.028127722799562448 0 -6.7575580154895833e-05 -0.028049831604008035 0 -2.6981619043211462e-05 -0.028429229917531679 0 0.00011464767567457493 -0.028056395634921866 0 0.00017025824237777921 -0.028127722799562448 0 -6.7575580154895833e-05 -0.028049831604008035 0 -3.9770894212409482e-05 -0.027872409322148507 0 -0.00018464025101382926 -0.028227884024476544 0 -6.7575580154895833e-05 -0.028049831604008035 0 -0.00016745350627800189 -0.027993459430234371 0 -0.00022862748528696688 -0.028117577533505408 0 -0.00018464025101382926 -0.028227884024476544 0 -0.00016745350627800189 -0.027993459430234371 0 -6.7575580154895833e-05 -0.028049831604008035 0 -0.00016745350627800189 -0.027993459430234371 0 -3.9770894212409482e-05 -0.027872409322148507 0 -3.9770894212409482e-05 -0.027872409322148507 0 -9.787865989388918e-05 -0.027553960866614494 0 4.0598042749776619e-05 -0.027433448638466241 0 -7.0052371262825617e-05 -0.028384285199102095 0 0.00014255122991562745 -0.026068057413208553 0 -3.9770894212409482e-05 -0.027872409322148507 0 -0.00012378183194956683 -0.027800612127873391 0 -9.787865989388918e-05 -0.027553960866614494 0 -0.00012378183194956683 -0.027800612127873391 0 -0.00018237940820723094 -0.027854607470182365 0 -0.00011154835405181126 -0.027644518366370916 0 8.2785835480099723e-05 -0.028735864668905244 0 0.00057086288774936978 -0.024098457383802542 0 -0.00012378183194956683 -0.027800612127873391 0 -0.00016672321751635014 -0.027458935543995564 0 -9.787865989388918e-05 -0.027553960866614494 0 -0.00016745350627800189 -0.027993459430234371 0 -3.9770894212409482e-05 -0.027872409322148507 0 -0.00012378183194956683 -0.027800612127873391 0 -0.00016745350627800189 -0.027993459430234371 0 -0.00012378183194956683 -0.027800612127873391 0 -0.00018237940820723094 -0.027854607470182365 0 -0.0002483246891763357 -0.027836779365120912 0 -0.00011154835405181126 -0.027644518366370916 0 -0.00031897420717296316 -0.027674392247729593 0 -0.00018237940820723094 -0.027854607470182365 0 -0.0002483246891763357 -0.027836779365120912 0 -0.00011154835405181126 -0.027644518366370916 0 -0.00018237940820723094 -0.027854607470182365 0 -0.0002483246891763357 -0.027836779365120912 0 -0.00023613832569211956 -0.028028565824659929 0 -0.00016745350627800189 -0.027993459430234371 0 -0.00018237940820723094 -0.027854607470182365 0 -0.00023613832569211956 -0.028028565824659929 0 -0.00022862748528696688 -0.028117577533505408 0 -0.00016745350627800189 -0.027993459430234371 0 -0.00023613832569211956 -0.028028565824659929 0 0.001164690334859028 -0.02898344779054075 0 0.0014972943275454575 -0.029472016166207454 0 0.0016302780242959988 -0.028700450202770497 0 0.0022728982362785282 -0.029362407569727855 0 0.0014972943275454575 -0.029472016166207454 0 0.0016302780242959988 -0.028700450202770497 0 0.00031897687533238134 -0.031721372996920065 0 0.00023635010871025531 -0.031600536892281851 0 0.00012978707272488045 -0.031575110425214069 0 0.00092573854744239757 -0.031316327542733502 0 0.00098844849613967888 -0.030009509446111245 0 0.0022728982362785282 -0.029362407569727855 0 0.0019239846618818682 -0.029974214994117846 0 0.0014972943275454575 -0.029472016166207454 0 0.00092573854744239757 -0.031316327542733502 0 0.001717089665895995 -0.031225794356095755 0 0.0010853626021610477 -0.029807227410547154 0 0.0014972943275454575 -0.029472016166207454 0 0.00090519865343926707 -0.029352873279714579 0 0.0010853626021610477 -0.029807227410547154 0 0.0014319937994312049 -0.030112390554121796 0 0.0014972943275454575 -0.029472016166207454 0 0.001164690334859028 -0.02898344779054075 0 0.0014972943275454575 -0.029472016166207454 0 0.00090519865343926707 -0.029352873279714579 0 0.0005785092494765778 -0.029953746490484198 0 0.00090519865343926707 -0.029352873279714579 0 0.00037610494182945578 -0.029354028593369795 0 0.0005785092494765778 -0.029953746490484198 0 0.0010853626021610477 -0.029807227410547154 0 0.00090519865343926707 -0.029352873279714579 0 9.199305677907414e-06 -0.029750634426275398 0 -3.5813183549098281e-05 -0.029093486022694647 0 0.00037610494182945578 -0.029354028593369795 0 0.00090519865343926707 -0.029352873279714579 0 0.00037610494182945578 -0.029354028593369795 0 0.00049794059179085535 -0.028897109428370833 0 -3.5813183549098281e-05 -0.029093486022694647 0 0.00037610494182945578 -0.029354028593369795 0 0.00049794059179085535 -0.028897109428370833 0 0.001164690334859028 -0.02898344779054075 0 0.00090519865343926707 -0.029352873279714579 0 0.00049794059179085535 -0.028897109428370833 0 0.001164690334859028 -0.02898344779054075 0 0.00049794059179085535 -0.028897109428370833 0 0.00094741988545461297 -0.028603444805590648 0 0.00049794059179085535 -0.028897109428370833 0 0.00094741988545461297 -0.028603444805590648 0 0.00047936884150146631 -0.028321909523624747 0 0.00094741988545461297 -0.028603444805590648 0 0.00047936884150146631 -0.028321909523624747 0 0.0010042630879220887 -0.028153657497757889 0 0.00012616254047379249 -0.02866436231624326 0 0.00049794059179085535 -0.028897109428370833 0 0.00047936884150146631 -0.028321909523624747 0 -8.2443804053868174e-05 -0.028192684697035359 0 0.00047936884150146631 -0.028321909523624747 0 0.00031596401677889404 -0.027918978259296574 0 0.00047936884150146631 -0.028321909523624747 0 0.00068511208070142101 -0.027858813630007372 0 0.00031596401677889404 -0.027918978259296574 0 0.00047936884150146631 -0.028321909523624747 0 0.0010042630879220887 -0.028153657497757889 0 0.00068511208070142101 -0.027858813630007372 0 -0.00010599193784964901 -0.029988169612178803 0 -0.0002120222075455687 -0.028880859382662535 0 -0.00087236822280827703 -0.030135871947070462 0 -0.00084402251703623527 -0.029894499862492419 0 -0.0010575153631907036 -0.029930449639074555 0 -0.00010599193784964901 -0.029988169612178803 0 -0.00034609075542642455 -0.03068724320242084 0 -8.943252847626784e-05 -0.03134220722253106 0 6.2024278280945814e-05 -0.03126501664813388 0 0.00013661802324170365 -0.031433853175958357 0 -0.00087236822280827703 -0.030135871947070462 0 -0.00065355660415558202 -0.030022127081803317 0 -0.00084402251703623527 -0.029894499862492419 0 0.001164690334859028 -0.02898344779054075 0 0.00094741988545461297 -0.028603444805590648 0 0.0016302780242959988 -0.028700450202770497 0 -8.943252847626784e-05 -0.03134220722253106 0 0.00012978707272488045 -0.031575110425214069 0 0.00013661802324170365 -0.031433853175958357 0 -0.00010599193784964901 -0.029988169612178803 0 0.00098844849613967888 -0.030009509446111245 0 0.00094741988545461297 -0.028603444805590648 0 0.0010042630879220887 -0.028153657497757889 0 0.0016302780242959988 -0.028700450202770497 0 0.00030667298025400321 -0.031716997170197457 0 0.00023635010871025531 -0.031600536892281851 0 0.00027659416265033858 -0.031462666219285791 0 0.00023635010871025531 -0.031600536892281851 0 0.00012978707272488045 -0.031575110425214069 0 0.00013661802324170365 -0.031433853175958357 0 0.00023635010871025531 -0.031600536892281851 0 0.00013661802324170365 -0.031433853175958357 0 0.00027659416265033858 -0.031462666219285791 0 0.00028923022711336118 -0.031911996517908728 0 0.00035057693851065131 -0.031850351205579476 0 0.00039450675607252098 -0.032044937445256549 0 0.00027659416265033858 -0.031462666219285791 0 0.00017791398281333855 -0.031342075250097662 0 0.00021381389787981144 -0.031184253270136852 0 0.00034601137065777185 -0.031723854858016286 0 6.4497914732829836e-05 -0.031342472229037591 0 6.2024278280945814e-05 -0.03126501664813388 0 0.00013661802324170365 -0.031433853175958357 0 0.00017791398281333855 -0.031342075250097662 0 0.00013661802324170365 -0.031433853175958357 0 0.00027659416265033858 -0.031462666219285791 0 0.00017791398281333855 -0.031342075250097662 0 6.2024278280945814e-05 -0.03126501664813388 0 0.00017791398281333855 -0.031342075250097662 0 0.00021381389787981144 -0.031184253270136852 0 6.4497914732829836e-05 -0.031342472229037591 0 -0.00077382241266876631 -0.03027978726204231 0 -0.00051902537398224491 -0.032325064425744808 0 -9.3380234992789608e-05 -0.031870819777688408 0 -0.00047192916695910946 -0.031235136012968047 0 0.00028923022711336118 -0.031911996517908728 0 0.00039450675607252098 -0.032044937445256549 0 0.00033554191899753494 -0.032080440749667892 0 -0.00042459006957184945 -0.02990713692049226 0 -0.0004927825719450988 -0.029612823500349869 0 -0.00065498262676441828 -0.029823834210005958 0 6.4497914732829836e-05 -0.031342472229037591 0 -0.0001686643476957101 -0.032885022975690431 0 -0.00034609075542642455 -0.03068724320242084 0 6.4497914732829836e-05 -0.031342472229037591 0 -9.3380234992789608e-05 -0.031870819777688408 0 -0.00047192916695910946 -0.031235136012968047 0 0.00015600767302008958 -0.031952813343394601 0 -0.00051902537398224491 -0.032325064425744808 0 -3.2131588373213175e-05 -0.032054843210632504 0 -9.3380234992789608e-05 -0.031870819777688408 0 -0.0001686643476957101 -0.032885022975690431 0 -0.00021366966245972099 -0.032653672095246007 0 -0.00051902537398224491 -0.032325064425744808 0 -0.00047192916695910946 -0.031235136012968047 0 -0.00080931361189216929 -0.031172579794630367 0 -0.00068927285652694193 -0.030941058796256311 0 -0.00026371120340517706 -0.033359548805208604 0 -0.00068927285652694193 -0.030941058796256311 0 -0.00077382241266876631 -0.03027978726204231 0 -0.00065951434681940527 -0.030600692818286486 0 -0.00090968947190492842 -0.03055505652015145 0 -0.00099304990071531155 -0.030221297371695342 0 -0.00087008483222830041 -0.030173334096993385 0 -0.00045205569824062838 -0.030163187618327189 0 -0.00092646061413316971 -0.029940636046322206 0 -0.00068927285652694193 -0.030941058796256311 0 -0.0009201136947552534 -0.030028613708899733 0 -0.00077382241266876631 -0.03027978726204231 0 -0.0009201136947552534 -0.030028613708899733 0 -0.00064108629523722542 -0.030437488267737213 0 -0.00087008483222830041 -0.030173334096993385 0 -0.00045205569824062838 -0.030163187618327189 0 -0.0004927825719450988 -0.029612823500349869 0 -0.00065498262676441828 -0.029823834210005958 0 -0.00085443750170309161 -0.029672841265105974 0 -0.00074194972770110586 -0.029582168956716563 0 -0.00090900440479507304 -0.02945257537741772 0 -0.0010857255698624813 -0.029509931715916482 0 -0.00077382241266876631 -0.03027978726204231 0 -0.00098625547179041458 -0.029453235740054987 0 -0.0004927825719450988 -0.029612823500349869 0 -0.00085443750170309161 -0.029672841265105974 0 -0.00090955525871529088 -0.029518382271398091 0 -0.00090900440479507304 -0.02945257537741772 0 -0.0010857255698624813 -0.029509931715916482 0 -0.0010635223198951201 -0.029386553569306334 0 -0.00074194972770110586 -0.029582168956716563 0 -0.00076639624671781363 -0.029480892323070419 0 -0.00090900440479507304 -0.02945257537741772 0 -0.00065498262676441828 -0.029823834210005958 0 -0.00084402251703623527 -0.029894499862492419 0 -0.00085443750170309161 -0.029672841265105974 0 -0.00065355660415558202 -0.030022127081803317 0 -0.00042459006957184945 -0.02990713692049226 0 -0.00065498262676441828 -0.029823834210005958 0 -0.00065355660415558202 -0.030022127081803317 0 -0.00065498262676441828 -0.029823834210005958 0 -0.00084402251703623527 -0.029894499862492419 0 -0.00099783301778340111 -0.029806688704249001 0 -0.0012293960878949979 -0.029733368397673852 0 -0.00085443750170309161 -0.029672841265105974 0 -0.00084402251703623527 -0.029894499862492419 0 -0.0010575153631907036 -0.029930449639074555 0 -0.00099783301778340111 -0.029806688704249001 0 -0.00084402251703623527 -0.029894499862492419 0 -0.00099783301778340111 -0.029806688704249001 0 -0.00085443750170309161 -0.029672841265105974 0 0.00068511208070142101 -0.027858813630007372 0 0.00031596401677889404 -0.027918978259296574 0 0.00038633304793156235 -0.027553639676615647 0 -0.0010575153631907036 -0.029930449639074555 0 -0.00099783301778340111 -0.029806688704249001 0 -0.0012293960878949979 -0.029733368397673852 0 -0.0002120222075455687 -0.028880859382662535 0 -0.000575002151478487 -0.028374975059981065 0 -0.000575002151478487 -0.028374975059981065 0 0.00016436706701761607 -0.027164289233850655 0 0.00031596401677889404 -0.027918978259296574 0 0.00038633304793156235 -0.027553639676615647 0 0.00012422953657482424 -0.027597337011449511 0 -0.0013786088238957844 -0.029756377659883954 0 -0.0011798733791371532 -0.029582425504520581 0 -0.001413239883633463 -0.029434815993219971 0 -0.0013786088238957844 -0.029756377659883954 0 -0.001413239883633463 -0.029434815993219971 0 -0.0015973502015862282 -0.029507210077610216 0 0.00020723475372056197 -0.026278831872204873 0 5.8186617211405311e-05 -0.026308075946276703 0 0.00010917762561036778 -0.026175057635871374 0 -0.000575002151478487 -0.028374975059981065 0 -0.00076600924100765242 -0.027807352762132 0 -0.0013871728549684529 -0.029451720546144602 0 -0.00098625547179041458 -0.029453235740054987 0 -0.000575002151478487 -0.028374975059981065 0 -0.0012249152676345873 -0.029994865864373846 0 -0.0011798733791371532 -0.029582425504520581 0 -0.001413239883633463 -0.029434815993219971 0 -0.00090955525871529088 -0.029518382271398091 0 -0.001413239883633463 -0.029434815993219971 0 -0.0010857255698624813 -0.029509931715916482 0 -0.0012189560475258081 -0.029404237677529695 0 -0.0013786088238957844 -0.029756377659883954 0 -0.0011798733791371532 -0.029582425504520581 0 -0.00085443750170309161 -0.029672841265105974 0 -0.0011798733791371532 -0.029582425504520581 0 -0.00085443750170309161 -0.029672841265105974 0 -0.00090955525871529088 -0.029518382271398091 0 -0.0010635223198951201 -0.029386553569306334 0 -0.0013416642280729648 -0.029306553646213825 0 -0.00091347304406014999 -0.029313039209640603 0 -0.0010635223198951201 -0.029386553569306334 0 -0.0012189560475258081 -0.029404237677529695 0 -0.0013416642280729648 -0.029306553646213825 0 -0.0013416642280729648 -0.029306553646213825 0 -0.0010818615041397631 -0.029132630936295773 0 -0.00089661722632098533 -0.029343948891442574 0 -0.0010857255698624813 -0.029509931715916482 0 -0.0010635223198951201 -0.029386553569306334 0 -0.0012189560475258081 -0.029404237677529695 0 -0.0013082057784172135 -0.029255190515184173 0 -0.00093517512816165382 -0.029526709688768561 0 -0.001413239883633463 -0.029434815993219971 0 -0.0013416642280729648 -0.029306553646213825 0 -0.0015057639545953689 -0.029286556670095405 0 -0.001413239883633463 -0.029434815993219971 0 -0.0012189560475258081 -0.029404237677529695 0 -0.0013416642280729648 -0.029306553646213825 0 -0.0013416642280729648 -0.029306553646213825 0 -0.0015057639545953689 -0.029286556670095405 0 -0.0014932870833730834 -0.029111160527913366 0 -0.0014932870833730834 -0.029111160527913366 0 -0.0016493071350783314 -0.02891880594519261 0 -0.001324174088624633 -0.028843071869595727 0 -0.0014932870833730834 -0.029111160527913366 0 -0.0013078329909948854 -0.029111641019567633 0 -0.001324174088624633 -0.028843071869595727 0 -0.0013416642280729648 -0.029306553646213825 0 -0.0014932870833730834 -0.029111160527913366 0 -0.0013078329909948854 -0.029111641019567633 0 -0.0013416642280729648 -0.029306553646213825 0 -0.0013078329909948854 -0.029111641019567633 0 -0.0010818615041397631 -0.029132630936295773 0 -0.0013078329909948854 -0.029111641019567633 0 -0.0010818615041397631 -0.029132630936295773 0 -0.001324174088624633 -0.028843071869595727 0 -0.0010818615041397631 -0.029132630936295773 0 -0.0007316882177345553 -0.029198508522147087 0 -0.0009816448998170742 -0.028887040262260636 0 -0.0010818615041397631 -0.029132630936295773 0 -0.0007316882177345553 -0.029198508522147087 0 -0.00074339062695489503 -0.029613107035359621 0 -0.0010425256808212142 -0.029174624764232427 0 -0.00093517512816165382 -0.029526709688768561 0 -0.0007316882177345553 -0.029198508522147087 0 -0.00043956542196335222 -0.029426704990222673 0 -0.00074339062695489503 -0.029613107035359621 0 -0.0007316882177345553 -0.029198508522147087 0 -0.00043211768039939946 -0.029059624218402032 0 -0.00067561150112141542 -0.028857877057642201 0 -0.00028928491179511993 -0.029253675467106718 0 -0.00014717006449529641 -0.029660618521315279 0 -5.152958993058805e-05 -0.029249359751111325 0 -0.0007316882177345553 -0.029198508522147087 0 -0.00043211768039939946 -0.029059624218402032 0 -0.00043956542196335222 -0.029426704990222673 0 -0.00043211768039939946 -0.029059624218402032 0 -0.00028928491179511993 -0.029253675467106718 0 -0.00043956542196335222 -0.029426704990222673 0 -0.00043211768039939946 -0.029059624218402032 0 -0.00028928491179511993 -0.029253675467106718 0 -0.00032071981963434782 -0.028893097491409801 0 -0.00028928491179511993 -0.029253675467106718 0 -0.00032071981963434782 -0.028893097491409801 0 -5.152958993058805e-05 -0.029249359751111325 0 -0.00028928491179511993 -0.029253675467106718 0 -0.00043956542196335222 -0.029426704990222673 0 -0.00014717006449529641 -0.029660618521315279 0 -0.00093517512816165382 -0.029526709688768561 0 -0.00026185353223467174 -0.02974356388028308 0 -0.00043956542196335222 -0.029426704990222673 0 -0.00074339062695489503 -0.029613107035359621 0 -0.00014717006449529641 -0.029660618521315279 0 -0.00092646061413316971 -0.029940636046322206 0 -0.0012060272521272808 -0.029787682780408203 0 -0.0003894201028387756 -0.029786215907218264 0 -0.00045205569824062838 -0.030163187618327189 0 -0.00092646061413316971 -0.029940636046322206 0 -0.0003894201028387756 -0.029786215907218264 0 -0.0009201136947552534 -0.030028613708899733 0 -0.00091641870391317222 -0.030021353781635635 0 -0.00086891528857564065 -0.030168649060297707 0 -0.00092646061413316971 -0.029940636046322206 0 -0.0012060272521272808 -0.029787682780408203 0 -0.0009201136947552534 -0.030028613708899733 0 -0.00093517512816165382 -0.029526709688768561 0 -0.00076639624671781363 -0.029480892323070419 0 -0.00090900440479507304 -0.02945257537741772 0 -0.00091347304406014999 -0.029313039209640603 0 -0.00090900440479507304 -0.02945257537741772 0 -0.0010635223198951201 -0.029386553569306334 0 -0.00091347304406014999 -0.029313039209640603 0 -0.00055141722255687788 -0.014718675925036286 0 0.0011063932875126951 -0.017451637039421465 0 0.00086325073708417514 -0.015399067606532042 0 -0.00091525814582609649 -0.0084193083555133778 0 -0.00060208744722224704 -0.015584560989850987 0 -0.00055141722255687788 -0.014718675925036286 0 0.00086325073708417514 -0.015399067606532042 0 0.00074656636138735813 -0.014441934760890283 0 -0.00055141722255687788 -0.014718675925036286 0 0.0011063932875126951 -0.017451637039421465 0 -0.001929650957031389 -0.017928095686821004 0 0.00057086288774936978 -0.024098457383802542 0 -0.0014033077638417213 -0.015745330754325302 0 0.00015221544059014356 -0.024890320778132195 0 -0.0002745707373414601 -0.018177798527642588 0 0.00014226613828502064 -0.024516442368812195 0 0.00086816483809072675 -0.024392528335867827 0 -0.00058311170594557617 -0.018416599179811369 0 0.00057086288774936978 -0.024098457383802542 0 -0.0002745707373414601 -0.018177798527642588 0 0.00057086288774936978 -0.024098457383802542 0 0.00015221544059014356 -0.024890320778132195 0 0.00015221544059014356 -0.024890320778132195 0 0.0003135342308644464 -0.02622518825233271 0 -0.00016672321751635014 -0.027458935543995564 0 -0.00011951228140061129 -0.027448861849747357 0 -9.787865989388918e-05 -0.027553960866614494 0 0.00015221544059014356 -0.024890320778132195 0 0.00014255122991562745 -0.026068057413208553 0 -0.00012080606320627284 -0.027455762837961861 0 -9.787865989388918e-05 -0.027553960866614494 0 4.0598042749776619e-05 -0.027433448638466241 0 -0.00047349813808613772 -0.024134801263738192 0 0.00071412247465462309 -0.02392036558561866 0 0.00031618585606917998 -0.022188429980854765 0 0.00031618585606917998 -0.022188429980854765 0 0.00092930965895757071 -0.019727011327514761 0 -3.7778124987684112e-06 -0.019936508280216758 0 0.00071412247465462309 -0.02392036558561866 0 0.00031618585606917998 -0.022188429980854765 0 0.00092930965895757071 -0.019727011327514761 0 -0.00047349813808613772 -0.024134801263738192 0 0.00031618585606917998 -0.022188429980854765 0 -0.0011549487068736859 -0.021429023584956332 0 0.00014255122991562745 -0.026068057413208553 0 -0.00046520833159677271 -0.022575444678914557 0 0.00031618585606917998 -0.022188429980854765 0 -0.0011549487068736859 -0.021429023584956332 0 -0.00053292029108260126 -0.020877078422438758 0 -0.0002745707373414601 -0.018177798527642588 0 -0.00060208744722224704 -0.015584560989850987 0 -0.00053292029108260126 -0.020877078422438758 0 1.8053614774556842e-05 -0.019793854548560908 0 -0.0013226920993472551 -0.020086111973623848 0 -0.0011549487068736859 -0.021429023584956332 0 -0.00053292029108260126 -0.020877078422438758 0 -0.0013226920993472551 -0.020086111973623848 0 0.00031618585606917998 -0.022188429980854765 0 -0.00053292029108260126 -0.020877078422438758 0 1.8053614774556842e-05 -0.019793854548560908 0 0.00027688846484340995 -0.021952139721820047 0 -0.00014899582610827667 -0.019505654584613685 0 -0.00031649096815268807 -0.026319147463730062 0 -0.00013020451147126226 -0.026115667291690504 0 -0.00030148887894741608 -0.02595171755990423 0 0.00016864983462912833 -0.027656273233998181 0 -2.830363539454071e-05 -0.027516860080898719 0 0.00043986962560201422 -0.027438305464039588 0 0.00014255122991562745 -0.026068057413208553 0 0.00016436706701761607 -0.027164289233850655 0 -0.00031649096815268807 -0.026319147463730062 0 -0.00013020451147126226 -0.026115667291690504 0 6.8451621767781832e-05 -0.026275432186055592 0 -8.2443804053868174e-05 -0.028192684697035359 0 0.00031596401677889404 -0.027918978259296574 0 0.00012422953657482424 -0.027597337011449511 0 0.00011464767567457493 -0.028056395634921866 0 0.00016436706701761607 -0.027164289233850655 0 0.00030503274879590105 -0.027796301312581356 0 0.00016864983462912833 -0.027656273233998181 0 0.00043986962560201422 -0.027438305464039588 0 0.00016436706701761607 -0.027164289233850655 0 0.00027995008356219747 -0.026273208584535281 0 6.8451621767781832e-05 -0.026275432186055592 0 0.00010917762561036778 -0.026175057635871374 0 4.9666824123996004e-05 -0.026091232935489993 0 0.00020723475372056197 -0.026278831872204873 0 0.00010917762561036778 -0.026175057635871374 0 4.9666824123996004e-05 -0.026091232935489993 0 -0.00013020451147126226 -0.026115667291690504 0 6.8451621767781832e-05 -0.026275432186055592 0 4.9666824123996004e-05 -0.026091232935489993 0 -0.00013020451147126226 -0.026115667291690504 0 4.9666824123996004e-05 -0.026091232935489993 0 -9.9501480431005913e-05 -0.025920612819242531 0 -0.001413239883633463 -0.029434815993219971 0 -0.0015973502015862282 -0.029507210077610216 0 -0.0015880505982603784 -0.029363149610830537 0 -0.0015057639545953689 -0.029286556670095405 0 -0.0015880505982603784 -0.029363149610830537 0 -0.0016485821886415668 -0.029269515085632122 0 -0.001413239883633463 -0.029434815993219971 0 -0.0015057639545953689 -0.029286556670095405 0 -0.0015880505982603784 -0.029363149610830537 0 -0.00076600924100765242 -0.027807352762132 0 -0.00097959639086384965 -0.027197622804232692 0 -0.0015880505982603784 -0.029363149610830537 0 -0.0016485821886415668 -0.029269515085632122 0 -0.0017798250914890228 -0.029290093901911552 0 -0.0015973502015862282 -0.029507210077610216 0 -0.0015880505982603784 -0.029363149610830537 0 -0.0017798250914890228 -0.029290093901911552 0 -0.0016485821886415668 -0.029269515085632122 0 -0.0017830480441988694 -0.029097746033389077 0 -0.0017736254693890968 -0.029286365850953122 0 -0.0016485821886415668 -0.029269515085632122 0 -0.0016294956921012694 -0.029138442018068235 0 -0.0017830480441988694 -0.029097746033389077 0 -0.0018664145122850844 -0.028281018584587224 0 -0.00097959639086384965 -0.027197622804232692 0 -0.0015057639545953689 -0.029286556670095405 0 -0.0014932870833730834 -0.029111160527913366 0 -0.0016294956921012694 -0.029138442018068235 0 -0.0015057639545953689 -0.029286556670095405 0 -0.0016485821886415668 -0.029269515085632122 0 -0.0016294956921012694 -0.029138442018068235 0 -0.0014932870833730834 -0.029111160527913366 0 -0.0016294956921012694 -0.029138442018068235 0 -0.0016493071350783314 -0.02891880594519261 0 -0.0016294956921012694 -0.029138442018068235 0 -0.0017830480441988694 -0.029097746033389077 0 -0.0016493071350783314 -0.02891880594519261 0 -0.0017830480441988694 -0.029097746033389077 0 -0.0020008476159752999 -0.029025170472054426 0 -0.0017736254693890968 -0.029286365850953122 0 -0.0017830480441988694 -0.029097746033389077 0 -0.0019960211627317115 -0.028950702174079392 0 -0.0016493071350783314 -0.02891880594519261 0 -0.0020323495418017017 -0.025852416987297445 0 -0.0018779936101614378 -0.029177961393221707 0 -0.0020323495418017017 -0.025852416987297445 0 -0.0012275740018481754 -0.025115420022405077 0 -0.001025668972789894 -0.024292236502383321 0 -0.0010301202845288547 -0.024372817671841678 0 -0.00093943838672156201 -0.024477135944335277 0 -0.0017830480441988694 -0.029097746033389077 0 -0.0019960211627317115 -0.028950702174079392 0 -0.0020008476159752999 -0.029025170472054426 0 -0.0012275740018481754 -0.025115420022405077 0 -0.0010009517867591549 -0.023177662482496978 0 -0.0010009517867591549 -0.023177662482496978 0 -0.0006961785602274445 -0.023928297501252072 0 -0.001025668972789894 -0.024292236502383321 0 -0.00093943838672156201 -0.024477135944335277 0 -0.00071671813483434159 -0.024627438416439863 0 -0.0012275740018481754 -0.025115420022405077 0 -0.00097959639086384965 -0.027197622804232692 0 -0.0010281890012740042 -0.024370585326781997 0 -0.00093943838672156201 -0.024477135944335277 0 -0.0010425019384748468 -0.024686043370073008 0 -0.00093943838672156201 -0.024477135944335277 0 -0.00071671813483434159 -0.024627438416439863 0 -0.0010425019384748468 -0.024686043370073008 0 -0.00013020451147126226 -0.026115667291690504 0 -9.9501480431005913e-05 -0.025920612819242531 0 -0.00030148887894741608 -0.02595171755990423 0 -0.00097959639086384965 -0.027197622804232692 0 -0.00046520833159677271 -0.022575444678914557 0 -0.00064877065415069673 -0.020617903449123533 0 -0.00091264256701285992 -0.021248254099701897 0 -0.0010437850333272359 -0.020357047386972141 0 -0.00068263140302911958 -0.017079979887805786 0 -0.00081616314397274406 -0.016175297494433898 0 -0.001099896106961952 -0.016418062147321891 0 -0.00068263140302911958 -0.017079979887805786 0 -0.0010066447373128372 -0.017145158660292179 0 -0.001099896106961952 -0.016418062147321891 0 -0.00064877065415069673 -0.020617903449123533 0 -0.00067677430798391918 -0.021199539167513975 0 -0.00091264256701285992 -0.021248254099701897 0 -0.00014899582610827667 -0.019505654584613685 0 -0.0016028833101553548 -0.018348582955885279 0 -0.00046520833159677271 -0.022575444678914557 0 -0.00014899582610827667 -0.019505654584613685 0 -0.00014899582610827667 -0.019505654584613685 0 -0.00060208744722224704 -0.015584560989850987 0 -0.0010009517867591549 -0.023177662482496978 0 -0.00046520833159677271 -0.022575444678914557 0 -0.00064877065415069673 -0.020617903449123533 0 -0.00089313244676666201 -0.020330551459796696 0 -0.0010437850333272359 -0.020357047386972141 0 -0.0010009517867591549 -0.023177662482496978 0 -0.0015103470441103152 -0.021005215741395154 0 -0.00049597622106688894 -0.022959027431703517 0 -0.00053631630019255279 -0.023709695136781495 0 -0.0017710198676800899 -0.022274247867363785 0 -0.00049597622106688894 -0.022959027431703517 0 -0.0012361972881815252 -0.022172365009489471 0 -0.0017710198676800899 -0.022274247867363785 0 -0.0025846428809246642 -0.023253176500843999 0 -0.0024191950362690284 -0.023217681617697758 0 -0.0021208461716162451 -0.023525567327438886 0 -0.0010373980811190649 -0.021690834008778862 0 -0.0018011561810512696 -0.021836762192862874 0 -0.0033195231034506317 -0.020066150053039824 0 -0.0010913977305048921 -0.024061768400227175 0 -0.0011179469035892155 -0.024573173199635326 0 -0.0015224088003927317 -0.024142622577458386 0 -0.0012275740018481754 -0.025115420022405077 0 -0.0017710321222761741 -0.023023606274339362 0 -0.0020323495418017017 -0.025852416987297445 0 -0.0017710321222761741 -0.023023606274339362 0 -0.0017710321222761741 -0.023023606274339362 0 -0.0015103470441103152 -0.021005215741395154 0 -0.0017710321222761741 -0.023023606274339362 0 -0.0025802176228063049 -0.020148781238167022 0 -0.0010373980811190649 -0.021690834008778862 0 -0.0030806928044983611 -0.01951336018690834 0 -0.0033195231034506317 -0.020066150053039824 0 -0.0023944987326418696 -0.016895159211121502 0 -0.0017622923243328413 -0.016769347743803058 0 -0.002204585460718484 -0.017791679888472137 0 -0.0019333422562170383 -0.015164499429568429 0 -0.0019609508893910668 -0.015167899081181699 0 -0.0019030651708617952 -0.015093317520684185 0 -0.0015574610082738601 -0.015064865239043332 0 -0.0019758274281434611 -0.018273979266943213 0 -0.0015103470441103152 -0.021005215741395154 0 -0.0019758274281434611 -0.018273979266943213 0 -0.0015681781293542772 -0.019754513326034558 0 -0.0021202397834004937 -0.019859317910089515 0 -0.0023354093863946486 -0.018860037006339328 0 -0.0016028833101553548 -0.018348582955885279 0 -0.0019758274281434611 -0.018273979266943213 0 -0.0015103470441103152 -0.021005215741395154 0 -0.0016028833101553548 -0.018348582955885279 0 -0.0016028833101553548 -0.018348582955885279 0 -0.0015574610082738601 -0.015064865239043332 0 -0.00081616314397274406 -0.016175297494433898 0 -0.001009906368893633 -0.016208625668096291 0 -0.001099896106961952 -0.016418062147321891 0 -0.0012740849410896658 -0.0094906271892162501 0 -0.0010128841985083742 -0.0098050871871272257 0 -0.0012809725694898778 -0.013378906256463454 0 -0.0010128841985083742 -0.0098050871871272257 0 -0.00092144834398956356 -0.011108619592341013 0 -0.00080787267285488656 -0.011216713667068194 0 -0.00086171758498963401 -0.010974495548040454 0 -0.0012740849410896658 -0.0094906271892162501 0 -0.0014168777819362226 -0.012737509227472297 0 -0.0015574610082738601 -0.015064865239043332 0 -0.0012809725694898778 -0.013378906256463454 0 -0.0012809725694898778 -0.013378906256463454 0 -0.0014168777819362226 -0.012737509227472297 0 -0.0010170258459183434 -0.013897274809377401 0 -0.0008776174360601251 -0.013578093408064583 0 -0.00084506148078629926 -0.013862708040409755 0 -0.00092144834398956356 -0.011108619592341013 0 -0.00080787267285488656 -0.011216713667068194 0 -0.00090831821555791394 -0.011238716790693968 0 -0.0018230210902508732 -0.011242176356842385 0 -0.0018734426637126537 -0.011254836825279913 0 -0.0018315996150117086 -0.011372331505077616 0 -0.0015574610082738601 -0.015064865239043332 0 -0.0014168777819362226 -0.012737509227472297 0 -0.00072298645486553392 -0.0069466185279661013 0 -0.00075476266368512137 -0.0068975015622125668 0 -0.00075511419336980528 -0.0069455858615460244 0 -0.0016529227899008286 -0.0053893597644291951 0 -0.0011212714483491717 -0.0061378390037215612 0 -0.0012740849410896658 -0.0094906271892162501 0 -0.0011212714483491717 -0.0061378390037215612 0 -0.0015791244794062201 -0.0057981092077083601 0 -0.0016402657190594913 -0.0054973589646083922 0 -0.0012711098205066156 -0.0057312260508304621 0 -0.00058268614665641153 -0.01498108965811153 0 -0.0010214402704948988 -0.011532743644716717 0 -0.0014105478424704656 -0.012446442513082329 0 -0.001227272371640075 -0.011296492859259398 0 -0.00094386145362886022 -0.011245295318521342 0 -0.0010569985797680692 -0.010892254195359611 0 -0.0015840306116782629 -0.0054304615582970563 0 -0.0016402657190594913 -0.0054973589646083922 0 -0.0012711098205066156 -0.0057312260508304621 0 -0.0014998069512723749 -0.0051536709664705242 0 -0.0015840306116782629 -0.0054304615582970563 0 -0.001281118049248483 -0.0053111116288966009 0 -0.00060208744722224704 -0.015584560989850987 0 -0.0012809725694898778 -0.013378906256463454 0 -0.0015840306116782629 -0.0054304615582970563 0 -0.001281118049248483 -0.0053111116288966009 0 -0.0014033760341567809 -0.0055578706017487536 0 -0.00091525814582609649 -0.0084193083555133778 0 -0.0010128841985083742 -0.0098050871871272257 0 -0.0014998069512723749 -0.0051536709664705242 0 -0.0015840306116782629 -0.0054304615582970563 0 -0.0016402657190594913 -0.0054973589646083922 0 -0.00060208744722224704 -0.015584560989850987 0 -0.0010128841985083742 -0.0098050871871272257 0 -0.0026456518299064237 -0.019757867083369979 0 -0.0029627797368435593 -0.019816049258735011 0 -0.0028880448278780163 -0.02028925210638767 0 -0.0011331673505051028 -0.013078998594641903 0 -0.0011348219623341334 -0.012892184401591145 0 -0.0029469886219630568 -0.010934186141280826 0 -0.0021014919332475062 -0.012088293844886716 0 -0.0022230607828452281 -0.014892495189527512 0 -0.00072298645486553392 -0.0069466185279661013 0 -0.00073494839492481683 -0.0068840898351505428 0 -0.00075476266368512137 -0.0068975015622125668 0 -0.0022230607828452281 -0.014892495189527512 0 -0.0025802176228063049 -0.020148781238167022 0 -0.0026456518299064237 -0.019757867083369979 0 -0.0030385797765763614 -0.01932439773713783 0 -0.0029627797368435593 -0.019816049258735011 0 -0.003923225550741774 -0.014562985768210491 0 -0.0039264441222518036 -0.014252848902485659 0 -0.00061877253170722227 -0.017807580404142601 0 -0.0019609508893910668 -0.015167899081181699 0 -0.0019866622381707394 -0.014996705956986522 0 -0.0019030651708617952 -0.015093317520684185 0 -0.0014168777819362226 -0.012737509227472297 0 -0.0022179614450562931 -0.014005755382115428 0 -0.00073493508096774524 -0.0068715712818316283 0 -0.00073494839492481683 -0.0068840898351505428 0 -0.00075476266368512137 -0.0068975015622125668 0 -0.0018734426637126537 -0.011254836825279913 0 -0.0018315996150117086 -0.011372331505077616 0 -0.0018586747391549387 -0.011498381686564288 0 -0.0012740849410896658 -0.0094906271892162501 0 -0.0013094595233695606 -0.0087770384623455031 0 -0.0018230210902508732 -0.011242176356842385 0 -0.0017713928738566024 -0.011496743952843329 0 -0.0018315996150117086 -0.011372331505077616 0 -0.0021014919332475062 -0.012088293844886716 0 -0.0013094595233695606 -0.0087770384623455031 0 -0.001779638772860075 -0.011595525496876938 0 -0.0017713928738566024 -0.011496743952843329 0 -0.0018586747391549387 -0.011498381686564288 0 -0.00072529197614712611 -0.0068659465633109434 0 -0.00073493508096774524 -0.0068715712818316283 0 -0.00070559194449901176 -0.0069478867998815329 0 -0.0013235709835426154 -0.0075173444865234721 0 -0.0013094595233695606 -0.0087770384623455031 0 -0.0022179614450562931 -0.014005755382115428 0 -0.0019758274281434611 -0.018273979266943213 0 -0.0017713928738566024 -0.011496743952843329 0 -0.0018315996150117086 -0.011372331505077616 0 -0.0018586747391549387 -0.011498381686564288 0 -0.003923225550741774 -0.014562985768210491 0 -0.0025576112088511048 -0.016168928910101472 0 -0.00061877253170722227 -0.017807580404142601 0 -0.0021014919332475062 -0.012088293844886716 0 -0.0022179614450562931 -0.014005755382115428 0 -0.0029361540692604223 -0.020207274092098444 0 -0.002958075031007831 -0.020239817928948179 0 -0.0029317383986745705 -0.020244384034977841 0 -0.0025802176228063049 -0.020148781238167022 0 -0.0029652689278304185 -0.019954798584849855 0 -0.0025846428809246642 -0.023253176500843999 0 -0.0021208461716162451 -0.023525567327438886 0 -0.0026359231346480445 -0.024036258266802363 0 -0.0025576112088511048 -0.016168928910101472 0 -0.00061877253170722227 -0.017807580404142601 0 -0.00080295393824776564 -0.018232677918697988 0 -0.0025802176228063049 -0.020148781238167022 0 -0.0019758274281434611 -0.018273979266943213 0 -0.0025802176228063049 -0.020148781238167022 0 -0.0026340988429068481 -0.022113047221020532 0 -0.0021208461716162451 -0.023525567327438886 0 -0.0023997613221484796 -0.024177922079450045 0 -0.0026359231346480445 -0.024036258266802363 0 -0.0029317383986745705 -0.020244384034977841 0 -0.002952243738823706 -0.020276354691711428 0 -0.0028880448278780163 -0.02028925210638767 0 -0.0029652689278304185 -0.019954798584849855 0 -0.0028950748413538747 -0.020291439754885978 0 -0.0023997613221484796 -0.024177922079450045 0 -0.0026359231346480445 -0.024036258266802363 0 -0.0026907385415212942 -0.024838180186378539 0 -0.002958075031007831 -0.020239817928948179 0 -0.0029317383986745705 -0.020244384034977841 0 -0.002952243738823706 -0.020276354691711428 0 -0.002958075031007831 -0.020239817928948179 0 -0.0030199313550446543 -0.020296293079814096 0 -0.002952243738823706 -0.020276354691711428 0 -0.0026340988429068481 -0.022113047221020532 0 -0.0025500858519307925 -0.025129637832562609 0 -0.0025749202448547472 -0.026506993740358694 0 -0.0025500858519307925 -0.025129637832562609 0 -0.0020988428350715346 -0.028168889094530632 0 -0.0021295533600819978 -0.028654568505262507 0 -0.0024627376593131731 -0.028440403123810482 0 -0.0020988428350715346 -0.028168889094530632 0 -0.0024627376593131731 -0.028440403123810482 0 -0.0024336939987899047 -0.027897081550254808 0 -0.0020323495418017017 -0.025852416987297445 0 -0.0025749202448547472 -0.026506993740358694 0 -0.0024721849958326703 -0.02894905533269072 0 -0.0021295533600819978 -0.028654568505262507 0 -0.0024627376593131731 -0.028440403123810482 0 -0.0024721849958326703 -0.02894905533269072 0 -0.0021295533600819978 -0.028654568505262507 0 -0.0018829106507132955 -0.028872180055504678 0 -0.0021295533600819978 -0.028654568505262507 0 -0.0016876527646747575 -0.028677085309217417 0 -0.0015853322516392069 -0.028359972299748407 0 -0.0021295533600819978 -0.028654568505262507 0 -0.0016876527646747575 -0.028677085309217417 0 -0.0018829106507132955 -0.028872180055504678 0 -0.0020988428350715346 -0.028168889094530632 0 -0.0021295533600819978 -0.028654568505262507 0 -0.0015376881365989194 -0.02816943339368946 0 -0.0021022141269825497 -0.02863913851350235 0 -0.0015755495701627667 -0.028270435534442882 0 -0.0020988428350715346 -0.028168889094530632 0 -0.0019471662899388012 -0.027700109280100176 0 -0.0015376881365989194 -0.02816943339368946 0 -0.0019471662899388012 -0.027700109280100176 0 -0.0021193688043602051 -0.02722015860466237 0 -0.0016292615174442716 -0.027296868117319344 0 -0.0021193688043602051 -0.02722015860466237 0 -0.0022296477354314171 -0.027222981865866008 0 -0.0022584236890109896 -0.027307276455351744 0 -0.0026524566103343574 -0.023356210444920474 0 -0.0025500858519307925 -0.025129637832562609 0 -0.0030936824546794529 -0.02050588494906257 0 -0.0030199313550446543 -0.020296293079814096 0 -0.0029697406756262284 -0.020367091127930087 0 -0.0020988428350715346 -0.028168889094530632 0 -0.0019471662899388012 -0.027700109280100176 0 -0.0024336939987899047 -0.027897081550254808 0 -0.0019471662899388012 -0.027700109280100176 0 -0.0021193688043602051 -0.02722015860466237 0 -0.0024336939987899047 -0.027897081550254808 0 -0.0022465563863745389 -0.028198208368319617 0 -0.0025500858519307925 -0.025129637832562609 0 -0.0030199313550446543 -0.020296293079814096 0 -0.002952243738823706 -0.020276354691711428 0 -0.0029697406756262284 -0.020367091127930087 0 -0.002952243738823706 -0.020276354691711428 0 -0.0029697406756262284 -0.020367091127930087 0 -0.0028880448278780163 -0.02028925210638767 0 -0.0029697406756262284 -0.020367091127930087 0 -0.0028159077309562056 -0.020516920768141721 0 -0.0028880448278780163 -0.02028925210638767 0 -0.0030936824546794529 -0.02050588494906257 0 -0.0029697406756262284 -0.020367091127930087 0 -0.0028159077309562056 -0.020516920768141721 0 -0.0030936824546794529 -0.02050588494906257 0 -0.0028159077309562056 -0.020516920768141721 0 -0.0030021192268621304 -0.02069003400266994 0 -0.0028159077309562056 -0.020516920768141721 0 -0.0027190393056933399 -0.020417969967358941 0 -0.0028343128726510147 -0.020496430503320017 0 -0.0026242098453568459 -0.017548346952238114 0 -0.0026499016791709366 -0.017073443021169626 0 -0.002449734947013405 -0.013844217332342776 0 -0.0024317322476559463 -0.013853189271868661 0 -0.0024710397560773869 -0.013886727990117592 0 -0.0028159077309562056 -0.020516920768141721 0 -0.0027190393056933399 -0.020417969967358941 0 -0.0028880448278780163 -0.02028925210638767 0 -0.0022230607828452281 -0.014892495189527512 0 -0.0026242098453568459 -0.017548346952238114 0 -0.0026456518299064237 -0.019757867083369979 0 -0.0027190393056933399 -0.020417969967358941 0 -0.0028880448278780163 -0.02028925210638767 0 -0.002439045813596807 -0.013807545853200605 0 -0.002449734947013405 -0.013844217332342776 0 -0.0024277599031207403 -0.013807888966381916 0 -0.00045137731533376343 -0.028257516941094497 0 -0.00059401223257810986 -0.028619279740671306 0 -0.00096147006978220884 -0.028532298763065175 0 -0.00045137731533376343 -0.028257516941094497 0 -0.00096147006978220884 -0.028532298763065175 0 -0.0010695892981070448 -0.027966413217180082 0 -0.00045137731533376343 -0.028257516941094497 0 -0.00027644051167633106 -0.028833804850179494 0 -0.00059401223257810986 -0.028619279740671306 0 -0.00045137731533376343 -0.028257516941094497 0 -0.00027644051167633106 -0.028833804850179494 0 0.00015065108987802765 -0.028170062294928133 0 -0.00027644051167633106 -0.028833804850179494 0 -0.00067561150112141542 -0.028857877057642201 0 -0.00059401223257810986 -0.028619279740671306 0 -0.00043211768039939946 -0.029059624218402032 0 -0.00030095022897677263 -0.02884495602317444 0 -0.00067561150112141542 -0.028857877057642201 0 4.2487155182623081e-05 -0.029154140209267838 0 -0.0006929303858417209 -0.02891281274328086 0 -0.00021697745607709754 -0.029106655727855976 0 4.2487155182623081e-05 -0.029154140209267838 0 -0.00067561150112141542 -0.028857877057642201 0 -0.00059401223257810986 -0.028619279740671306 0 -0.00096147006978220884 -0.028532298763065175 0 -0.00067561150112141542 -0.028857877057642201 0 -0.0009816448998170742 -0.028887040262260636 0 -0.00096147006978220884 -0.028532298763065175 0 -0.0007316882177345553 -0.029198508522147087 0 -0.00067561150112141542 -0.028857877057642201 0 -0.0009816448998170742 -0.028887040262260636 0 -0.0009816448998170742 -0.028887040262260636 0 -0.001324174088624633 -0.028843071869595727 0 -0.00096147006978220884 -0.028532298763065175 0 -0.001324174088624633 -0.028843071869595727 0 -0.0015853322516392069 -0.028359972299748407 0 -0.00096147006978220884 -0.028532298763065175 0 -0.0010818615041397631 -0.029132630936295773 0 -0.0009816448998170742 -0.028887040262260636 0 -0.001324174088624633 -0.028843071869595727 0 -0.0016876527646747575 -0.028677085309217417 0 -0.0018829106507132955 -0.028872180055504678 0 -0.001324174088624633 -0.028843071869595727 0 -0.0018779936101614378 -0.029177961393221707 0 -0.0012915830150583227 -0.028785607178290772 0 -0.0016876527646747575 -0.028677085309217417 0 -0.001324174088624633 -0.028843071869595727 0 -0.0015853322516392069 -0.028359972299748407 0 -0.0015853322516392069 -0.028359972299748407 0 -0.00096147006978220884 -0.028532298763065175 0 -0.0010695892981070448 -0.027966413217180082 0 -0.0015376881365989194 -0.02816943339368946 0 -0.0010085898564389684 -0.027768295946512811 0 -0.0013591584097193314 -0.027565861468345762 0 -0.0019471662899388012 -0.027700109280100176 0 -0.0015376881365989194 -0.02816943339368946 0 -0.0013591584097193314 -0.027565861468345762 0 -0.0015755495701627667 -0.028270435534442882 0 -0.0010253134947738266 -0.027861057630408546 0 -0.0013591584097193314 -0.027565861468345762 0 -0.0016292615174442716 -0.027296868117319344 0 -0.001040300797491714 -0.027098295233482197 0 -0.0019471662899388012 -0.027700109280100176 0 -0.0013591584097193314 -0.027565861468345762 0 -0.0016292615174442716 -0.027296868117319344 0 -0.0010085898564389684 -0.027768295946512811 0 -0.0013591584097193314 -0.027565861468345762 0 -0.00086005261763268158 -0.027440455504246945 0 -0.0013591584097193314 -0.027565861468345762 0 -0.00086005261763268158 -0.027440455504246945 0 -0.001040300797491714 -0.027098295233482197 0 -0.00086005261763268158 -0.027440455504246945 0 -0.00047351659883066891 -0.027471427597307262 0 -0.00041137317352891306 -0.027284879258597027 0 -0.00086005261763268158 -0.027440455504246945 0 -0.00041137317352891306 -0.027284879258597027 0 -0.001040300797491714 -0.027098295233482197 0 -0.0010085898564389684 -0.027768295946512811 0 -0.00086005261763268158 -0.027440455504246945 0 -0.00047351659883066891 -0.027471427597307262 0 -0.0010253134947738266 -0.027861057630408546 0 -0.00050032924484105497 -0.02748798611649534 0 -0.0010695892981070448 -0.027966413217180082 0 -0.00046122794359579897 -0.027895641980684671 0 -0.00047351659883066891 -0.027471427597307262 0 -0.00045137731533376343 -0.028257516941094497 0 -0.0010695892981070448 -0.027966413217180082 0 -0.00046122794359579897 -0.027895641980684671 0 -0.00045137731533376343 -0.028257516941094497 0 -0.00022040813882188252 -0.028014299402634928 0 0.00015065108987802765 -0.028170062294928133 0 -0.00045137731533376343 -0.028257516941094497 0 -0.00022040813882188252 -0.028014299402634928 0 -0.00046122794359579897 -0.027895641980684671 0 -0.00022040813882188252 -0.028014299402634928 0 -0.00046122794359579897 -0.027895641980684671 0 -0.00011771281537849603 -0.027729904569646684 0 -0.00046122794359579897 -0.027895641980684671 0 -0.00011771281537849603 -0.027729904569646684 0 -0.00047351659883066891 -0.027471427597307262 0 -0.00011771281537849603 -0.027729904569646684 0 -0.00047351659883066891 -0.027471427597307262 0 -0.00041137317352891306 -0.027284879258597027 0 -0.001109167158686333 -0.030824543869347173 0 -0.00079977755429454277 -0.029626734044132998 0 -0.0020295055638276092 -0.033992269304154207 0 -0.0019840691231474256 -0.033829411535579237 0 -0.0022238931934979254 -0.033784444699490261 0 -0.0020295055638276092 -0.033992269304154207 0 -0.0019840691231474256 -0.033829411535579237 0 -0.0017131355011316385 -0.033947910889155379 0 -0.0019840691231474256 -0.033829411535579237 0 -0.0017131355011316385 -0.033947910889155379 0 -0.001851430200751669 -0.033713279904405827 0 -0.0018904251190563766 -0.03463712474655848 0 -0.0013846581820696423 -0.033732967455350996 0 -0.0015932712444072883 -0.034398919392097702 0 -0.00126157409967584 -0.034407081742871409 0 -0.0014022747296369672 -0.033989795718134833 0 -0.0015932712444072883 -0.034398919392097702 0 -0.0013438225345799469 -0.034803245845956933 0 -0.00126157409967584 -0.034407081742871409 0 -0.0015932712444072883 -0.034398919392097702 0 -0.001810729815385154 -0.034771956472625716 0 -0.0013438225345799469 -0.034803245845956933 0 -0.0020295055638276092 -0.033992269304154207 0 -0.0017131355011316385 -0.033947910889155379 0 -0.0018779583591532316 -0.03417880411008338 0 -0.0018904251190563766 -0.03463712474655848 0 -0.00093756939852141343 -0.032085315002493862 0 -0.00022040813882188252 -0.028014299402634928 0 -0.00011771281537849603 -0.027729904569646684 0 0.00015065108987802765 -0.028170062294928133 0 -0.001109167158686333 -0.030824543869347173 0 -0.00093756939852141343 -0.032085315002493862 0 4.2487155182623081e-05 -0.029154140209267838 0 -0.00093756939852141343 -0.032085315002493862 0 0.00024987997999708982 -0.030822529062930353 0 -0.00039394976674416354 -0.031901970043063034 0 -0.00039229761966307162 -0.030898743256673977 0 -0.00039394976674416354 -0.031901970043063034 0 -0.0010317137767129473 -0.030975451290975717 0 -0.00039229761966307162 -0.030898743256673977 0 -0.001810729815385154 -0.034771956472625716 0 -0.001493486798792541 -0.035235137362412849 0 -0.0013438225345799469 -0.034803245845956933 0 -0.00093756939852141343 -0.032085315002493862 0 -0.00079080781341436747 -0.032899254221763367 0 -0.00079080781341436747 -0.032899254221763367 0 -6.2695478782055284e-05 -0.029968282442952583 0 -0.00079080781341436747 -0.032899254221763367 0 -8.3385563625184219e-05 -0.032063596126986046 0 0.00045699249916013784 -0.028853181808964571 0 5.6013925733208332e-05 -0.028880674638247266 0 0.00032538985351890538 -0.029282892980703048 0 -0.00032071981963434782 -0.028893097491409801 0 5.6013925733208332e-05 -0.028880674638247266 0 -5.152958993058805e-05 -0.029249359751111325 0 4.2487155182623081e-05 -0.029154140209267838 0 -6.2695478782055284e-05 -0.029968282442952583 0 -0.00071343301115796818 -0.035163680754831152 0 -0.0011134590152846807 -0.035210808504857603 0 -0.0007224418734669382 -0.035164106935058517 0 -0.00076820581401160627 -0.035289307047304201 0 -0.00086315734463831444 -0.035170002199761768 0 -0.0007224418734669382 -0.035164106935058517 0 -0.00076820581401160627 -0.035289307047304201 0 -0.00064691437455513762 -0.035306166826437883 0 -0.0010308720660045685 -0.035165801028130231 0 -0.00086315734463831444 -0.035170002199761768 0 -0.00090634279389936756 -0.035353646547593286 0 -0.00076820581401160627 -0.035289307047304201 0 -0.00086315734463831444 -0.035170002199761768 0 -0.00090634279389936756 -0.035353646547593286 0 -0.00079080781341436747 -0.032899254221763367 0 -0.0011134590152846807 -0.035210808504857603 0 -0.0011245647235408054 -0.035217146179176512 0 -0.00094601414854993278 -0.034931529902257875 0 -0.0013438225345799469 -0.034803245845956933 0 -0.001493486798792541 -0.035235137362412849 0 -0.0011245647235408054 -0.035217146179176512 0 -0.0013438225345799469 -0.034803245845956933 0 -0.0007224418734669382 -0.035164106935058517 0 -0.0011245647235408054 -0.035217146179176512 0 -0.00094601414854993278 -0.034931529902257875 0 -0.0007224418734669382 -0.035164106935058517 0 -0.00094601414854993278 -0.034931529902257875 0 -0.00054229204124031421 -0.034839501850319976 0 -0.00099563389451017914 -0.034628419865934006 0 -0.00072470041072121019 -0.03449961442900977 0 -0.00054229204124031421 -0.034839501850319976 0 -0.00094601414854993278 -0.034931529902257875 0 -0.00099563389451017914 -0.034628419865934006 0 -0.00054229204124031421 -0.034839501850319976 0 -0.00094601414854993278 -0.034931529902257875 0 -0.00099563389451017914 -0.034628419865934006 0 -0.0013438225345799469 -0.034803245845956933 0 -0.00099563389451017914 -0.034628419865934006 0 -0.0013438225345799469 -0.034803245845956933 0 -0.00126157409967584 -0.034407081742871409 0 -0.00126157409967584 -0.034407081742871409 0 -0.00096091625253571426 -0.034194982457517391 0 -0.0014022747296369672 -0.033989795718134833 0 -0.00099563389451017914 -0.034628419865934006 0 -0.00126157409967584 -0.034407081742871409 0 -0.00096091625253571426 -0.034194982457517391 0 -0.00099563389451017914 -0.034628419865934006 0 -0.00072470041072121019 -0.03449961442900977 0 -0.00096091625253571426 -0.034194982457517391 0 -0.00072470041072121019 -0.03449961442900977 0 -0.00096091625253571426 -0.034194982457517391 0 -0.00032667803039902266 -0.03428811928852437 0 -0.00072470041072121019 -0.03449961442900977 0 -0.00032667803039902266 -0.03428811928852437 0 -0.00054229204124031421 -0.034839501850319976 0 -0.00016624435268184888 -0.034603197202071452 0 -2.1927543272571114e-05 -0.034829375288560185 0 2.7029628523494513e-05 -0.034920864524401678 0 6.1286956996635213e-05 -0.034885915119391236 0 -2.0350603689929823e-05 -0.034850094708860052 0 -0.00032667803039902266 -0.03428811928852437 0 -0.00054229204124031421 -0.034839501850319976 0 -2.0350603689929823e-05 -0.034850094708860052 0 -0.00054229204124031421 -0.034839501850319976 0 -2.0350603689929823e-05 -0.034850094708860052 0 -0.00023895765419031819 -0.035013127028988879 0 6.1286956996635213e-05 -0.034885915119391236 0 9.0081387104491651e-08 -0.034999733782131878 0 6.7812578978687388e-08 -0.034999849590871414 0 -2.0350603689929823e-05 -0.034850094708860052 0 9.0081387104491651e-08 -0.034999733782131878 0 1.0985818168857485e-05 -0.03499522047606142 0 6.1286956996635213e-05 -0.034885915119391236 0 -2.0350603689929823e-05 -0.034850094708860052 0 9.0081387104491651e-08 -0.034999733782131878 0 7.444497643052717e-09 -0.034999989918035268 0 -7.2757233861572936e-06 -0.035003177209106985 0 -1.0366430136353607e-08 -0.034999991555070616 0 -1.2272611239473716e-05 -0.034994085864531836 0 -6.6564932245755679e-06 -0.035000967035009323 0 4.6903199779080072e-09 -0.03499999459113292 0 -1.0366430136353607e-08 -0.034999991555070616 0 -1.2272611239473716e-05 -0.034994085864531836 0 -2.0350603689929823e-05 -0.034850094708860052 0 1.0985818168857485e-05 -0.03499522047606142 0 -0.00023895765419031819 -0.035013127028988879 0 -1.2272611239473716e-05 -0.034994085864531836 0 -1.579905596935946e-05 -0.035008060173330489 0 -6.6564932245755679e-06 -0.035000967035009323 0 -1.579905596935946e-05 -0.035008060173330489 0 1.1023367903657209e-08 -0.035000027463842821 0 -2.7589197677127972e-05 -0.035029204828105773 0 -1.579905596935946e-05 -0.035008060173330489 0 -5.0198851040711802e-05 -0.035010074478715347 0 -2.7589197677127972e-05 -0.035029204828105773 0 -7.2757233861572936e-06 -0.035003177209106985 0 -0.00014751864289807188 -0.035114396890284297 0 -1.2272611239473716e-05 -0.034994085864531836 0 -1.579905596935946e-05 -0.035008060173330489 0 -5.0198851040711802e-05 -0.035010074478715347 0 -1.0366430136353607e-08 -0.034999991555070616 0 1.1023367903657209e-08 -0.035000027463842821 0 -6.6564932245755679e-06 -0.035000967035009323 0 -1.579905596935946e-05 -0.035008060173330489 0 1.1023367903657209e-08 -0.035000027463842821 0 -6.6564932245755679e-06 -0.035000967035009323 0 -1.3867477970848449e-07 -0.035000055177383013 0 4.5984674668382859e-05 -0.034954573128336032 0 -0.0007224418734669382 -0.035164106935058517 0 -0.00054229204124031421 -0.034839501850319976 0 -0.00048259776648680054 -0.035207962622080473 0 -0.00054229204124031421 -0.034839501850319976 0 -0.00023895765419031819 -0.035013127028988879 0 -0.00048259776648680054 -0.035207962622080473 0 1.0985818168857485e-05 -0.03499522047606142 0 -0.00023895765419031819 -0.035013127028988879 0 -0.00025043158200639806 -0.03525197370343406 0 -0.00023895765419031819 -0.035013127028988879 0 -0.00025043158200639806 -0.03525197370343406 0 -0.00048259776648680054 -0.035207962622080473 0 -0.00048259776648680054 -0.035207962622080473 0 -0.00064691437455513762 -0.035306166826437883 0 -0.00056741470242147301 -0.035427601974706277 0 -0.00025043158200639806 -0.03525197370343406 0 -0.00048259776648680054 -0.035207962622080473 0 -0.00056741470242147301 -0.035427601974706277 0 -0.0007224418734669382 -0.035164106935058517 0 -0.00048259776648680054 -0.035207962622080473 0 -0.00064691437455513762 -0.035306166826437883 0 -0.00064691437455513762 -0.035306166826437883 0 -0.00056741470242147301 -0.035427601974706277 0 -0.00066131658947966268 -0.035417414632323035 0 2.6475001930513441e-05 -0.034951194424955714 0 1.4734161388621254e-05 -0.034951934440239564 0 6.7123314927053864e-05 -0.034872690470916151 0 -0.00033156829752028718 -0.035322040707874841 0 -0.00061125705635842545 -0.03540029815133492 0 -0.00033156829752028718 -0.035322040707874841 0 4.5984674668382859e-05 -0.034954573128336032 0 -0.00014751864289807188 -0.035114396890284297 0 -0.00033156829752028718 -0.035322040707874841 0 2.6475001930513441e-05 -0.034951194424955714 0 1.4734161388621254e-05 -0.034951934440239564 0 -1.2741547418238193e-05 -0.03498012233593472 0 1.4734161388621254e-05 -0.034951934440239564 0 -1.2741547418238193e-05 -0.03498012233593472 0 -1.1934967056945384e-05 -0.034970024498059762 0 1.4734161388621254e-05 -0.034951934440239564 0 6.2718832660542187e-06 -0.034944058621206864 0 -1.1934967056945384e-05 -0.034970024498059762 0 -5.0198851040711802e-05 -0.035010074478715347 0 -0.00010548693211170026 -0.035058029580527651 0 -2.7589197677127972e-05 -0.035029204828105773 0 6.2718832660542187e-06 -0.034944058621206864 0 6.276267374444677e-06 -0.034924036619369742 0 1.3234317774584001e-05 -0.034928442773301531 0 1.4734161388621254e-05 -0.034951934440239564 0 6.2718832660542187e-06 -0.034944058621206864 0 1.3234317774584001e-05 -0.034928442773301531 0 6.276267374444677e-06 -0.034924036619369742 0 -1.1934967056945384e-05 -0.034970024498059762 0 -5.1770997007644618e-06 -0.034898513846966753 0 6.2718832660542187e-06 -0.034944058621206864 0 6.276267374444677e-06 -0.034924036619369742 0 -1.1934967056945384e-05 -0.034970024498059762 0 6.276267374444677e-06 -0.034924036619369742 0 1.3234317774584001e-05 -0.034928442773301531 0 1.4323600335206082e-05 -0.034908525615960868 0 2.4359106908687444e-05 -0.034915234862153824 0 1.3234317774584001e-05 -0.034928442773301531 0 1.4323600335206082e-05 -0.034908525615960868 0 1.4734161388621254e-05 -0.034951934440239564 0 2.4359106908687444e-05 -0.034915234862153824 0 5.534062245876372e-05 -0.034907136481110566 0 1.4734161388621254e-05 -0.034951934440239564 0 2.4359106908687444e-05 -0.034915234862153824 0 1.3234317774584001e-05 -0.034928442773301531 0 -4.3908997985980593e-09 -0.034999972965198349 0 -4.487489281879112e-06 -0.034988655338564226 0 -1.2741547418238193e-05 -0.03498012233593472 0 -4.3908997985980593e-09 -0.034999972965198349 0 -4.487489281879112e-06 -0.034988655338564226 0 9.7640695388692304e-11 -0.034999984754850264 0 -4.487489281879112e-06 -0.034988655338564226 0 -1.2741547418238193e-05 -0.03498012233593472 0 -1.1934967056945384e-05 -0.034970024498059762 0 -4.487489281879112e-06 -0.034988655338564226 0 -1.1934967056945384e-05 -0.034970024498059762 0 -3.4736475867395598e-06 -0.034998989134119557 0 -1.0552432521284488e-05 -0.034969213693540849 0 -3.7491850916052807e-06 -0.034950264926215523 0 -4.487489281879112e-06 -0.034988655338564226 0 9.7640695388692304e-11 -0.034999984754850264 0 -3.4736475867395598e-06 -0.034998989134119557 0 9.7640695388692304e-11 -0.034999984754850264 0 -3.4736475867395598e-06 -0.034998989134119557 0 2.0745438754601198e-09 -0.035000004980806493 0 1.0317578039053424e-05 -0.034955127485440808 0 -3.7491850916052807e-06 -0.034950264926215523 0 1.9611945451659063e-05 -0.034908882185402647 0 -5.1770997007644618e-06 -0.034898513846966753 0 7.2385231464201878e-06 -0.034899165294414662 0 4.347703592388447e-06 -0.035000603877463572 0 -3.4736475867395598e-06 -0.034998989134119557 0 2.0745438754601198e-09 -0.035000004980806493 0 1.2438022549143566e-05 -0.034894237458538667 0 1.4323600335206082e-05 -0.034908525615960868 0 2.7053999849615448e-05 -0.03487638649207013 0 2.4359106908687444e-05 -0.034915234862153824 0 1.4323600335206082e-05 -0.034908525615960868 0 2.7053999849615448e-05 -0.03487638649207013 0 1.2438022549143566e-05 -0.034894237458538667 0 1.4591975304747986e-05 -0.034887108524429888 0 2.7053999849615448e-05 -0.03487638649207013 0 6.276267374444677e-06 -0.034924036619369742 0 1.2438022549143566e-05 -0.034894237458538667 0 1.4323600335206082e-05 -0.034908525615960868 0 6.276267374444677e-06 -0.034924036619369742 0 -5.1770997007644618e-06 -0.034898513846966753 0 1.2438022549143566e-05 -0.034894237458538667 0 8.6059358563720589e-06 -0.034898398077923914 0 1.2438022549143566e-05 -0.034894237458538667 0 7.2385231464201878e-06 -0.034899165294414662 0 -5.1770997007644618e-06 -0.034898513846966753 0 1.2438022549143566e-05 -0.034894237458538667 0 7.2385231464201878e-06 -0.034899165294414662 0 8.6059358563720589e-06 -0.034898398077923914 0 1.2438022549143566e-05 -0.034894237458538667 0 1.4591975304747986e-05 -0.034887108524429888 0 8.6059358563720589e-06 -0.034898398077923914 0 7.3465380348823216e-06 -0.03489916846219468 0 1.4591975304747986e-05 -0.034887108524429888 0 5.9731969617723589e-07 -0.034890064151103059 0 1.4591975304747986e-05 -0.034887108524429888 0 2.4345547591513485e-06 -0.034862895278270765 0 1.4591975304747986e-05 -0.034887108524429888 0 2.7053999849615448e-05 -0.03487638649207013 0 2.4345547591513485e-06 -0.034862895278270765 0 2.7053999849615448e-05 -0.03487638649207013 0 1.051961114414401e-05 -0.034848185428011554 0 2.4345547591513485e-06 -0.034862895278270765 0 0.00017704634657073997 -0.035080067137104709 0 6.9270197375756417e-06 -0.033943819699869461 0 2.7053999849615448e-05 -0.03487638649207013 0 1.051961114414401e-05 -0.034848185428011554 0 1.4874014895947542e-05 -0.034817278064044055 0 -1.519058741503975e-05 -0.034831776563481347 0 2.4345547591513485e-06 -0.034862895278270765 0 -2.34296751765842e-05 -0.03484337425410601 0 -1.519058741503975e-05 -0.034831776563481347 0 5.1883227656836386e-07 -0.034830354265618597 0 2.4345547591513485e-06 -0.034862895278270765 0 1.051961114414401e-05 -0.034848185428011554 0 5.1883227656836386e-07 -0.034830354265618597 0 1.4874014895947542e-05 -0.034817278064044055 0 1.051961114414401e-05 -0.034848185428011554 0 5.1883227656836386e-07 -0.034830354265618597 0 2.4345547591513485e-06 -0.034862895278270765 0 2.4345547591513485e-06 -0.034862895278270765 0 -1.485173174239304e-05 -0.034875104353556993 0 -2.34296751765842e-05 -0.03484337425410601 0 5.9731969617723589e-07 -0.034890064151103059 0 2.4345547591513485e-06 -0.034862895278270765 0 -1.485173174239304e-05 -0.034875104353556993 0 -3.5673168322092933e-05 -0.034894092496781229 0 -3.5591193394772349e-05 -0.034858227869542895 0 -5.0677280102740294e-05 -0.034855361726705808 0 -3.5673168322092933e-05 -0.034894092496781229 0 -1.485173174239304e-05 -0.034875104353556993 0 -3.5591193394772349e-05 -0.034858227869542895 0 -3.5591193394772349e-05 -0.034858227869542895 0 -2.34296751765842e-05 -0.03484337425410601 0 -5.0136953291411456e-05 -0.034827017298029728 0 -3.5591193394772349e-05 -0.034858227869542895 0 -5.0677280102740294e-05 -0.034855361726705808 0 -5.0136953291411456e-05 -0.034827017298029728 0 -1.485173174239304e-05 -0.034875104353556993 0 -3.5591193394772349e-05 -0.034858227869542895 0 -2.34296751765842e-05 -0.03484337425410601 0 -0.00049290396985161855 -0.034355537056812449 0 -0.00060603103719533528 -0.033993988606088918 0 -0.00055828078332466823 -0.033968504023925677 0 -0.00011488521505762157 -0.034796660613920331 0 -0.00026371120340517706 -0.033359548805208604 0 -3.5673168322092933e-05 -0.034894092496781229 0 -5.0677280102740294e-05 -0.034855361726705808 0 -8.0805217534968334e-05 -0.034838910002214105 0 -5.0677280102740294e-05 -0.034855361726705808 0 -8.0805217534968334e-05 -0.034838910002214105 0 -5.0136953291411456e-05 -0.034827017298029728 0 -0.00026371120340517706 -0.033359548805208604 0 -1.0868190916292874e-05 -0.033125082623652248 0 -0.0001686643476957101 -0.032885022975690431 0 -0.00026371120340517706 -0.033359548805208604 0 -3.2584359220228519e-05 -0.032059168550059643 0 -9.3380234992789608e-05 -0.031870819777688408 0 0.00015600767302008958 -0.031952813343394601 0 -0.00064108629523722542 -0.030437488267737213 0 -0.00045205569824062838 -0.030163187618327189 0 9.5156673744114246e-05 -0.030573104836991827 0 -0.00068927285652694193 -0.030941058796256311 0 -1.0868190916292874e-05 -0.033125082623652248 0 -0.00077098470752360899 -0.032171535780788088 0 -0.00038244815437372493 -0.032619234848897484 0 0.00011946759040325805 -0.032342577834983462 0 -0.00045205569824062838 -0.030163187618327189 0 9.5156673744114246e-05 -0.030573104836991827 0 2.589157997479644e-05 -0.030070403032071449 0 0.00054921979689417672 -0.032336230781000619 0 -1.0868190916292874e-05 -0.033125082623652248 0 0.00068815238763027785 -0.030223996535025961 0 9.5156673744114246e-05 -0.030573104836991827 0 2.589157997479644e-05 -0.030070403032071449 0 -1.519058741503975e-05 -0.034831776563481347 0 -2.34296751765842e-05 -0.03484337425410601 0 -3.2881135680334229e-05 -0.034829778543464342 0 0.00010552124689446835 -0.034360700322944325 0 -1.0868190916292874e-05 -0.033125082623652248 0 0.00068815238763027785 -0.030223996535025961 0 0.00044519114888412812 -0.02977494246939312 0 0.00081317203673615722 -0.029827455680796578 0 0.00068815238763027785 -0.030223996535025961 0 0.00044519114888412812 -0.02977494246939312 0 2.589157997479644e-05 -0.030070403032071449 0 0.00044519114888412812 -0.02977494246939312 0 2.589157997479644e-05 -0.030070403032071449 0 -0.0003894201028387756 -0.029786215907218264 0 0.00044519114888412812 -0.02977494246939312 0 -0.00014717006449529641 -0.029660618521315279 0 0.00013943663573662561 -0.029492529020808664 0 0.00040693064091364362 -0.029760290196834283 0 -0.00026185353223467174 -0.02974356388028308 0 -0.00045205569824062838 -0.030163187618327189 0 2.589157997479644e-05 -0.030070403032071449 0 -0.0003894201028387756 -0.029786215907218264 0 -0.00014717006449529641 -0.029660618521315279 0 0.00013943663573662561 -0.029492529020808664 0 -5.152958993058805e-05 -0.029249359751111325 0 0.00013943663573662561 -0.029492529020808664 0 -5.152958993058805e-05 -0.029249359751111325 0 0.00032538985351890538 -0.029282892980703048 0 5.6013925733208332e-05 -0.028880674638247266 0 -5.152958993058805e-05 -0.029249359751111325 0 0.00032538985351890538 -0.029282892980703048 0 0.00044519114888412812 -0.02977494246939312 0 0.00032538985351890538 -0.029282892980703048 0 0.00081948984570594957 -0.029346706582874939 0 0.00045699249916013784 -0.028853181808964571 0 0.00032538985351890538 -0.029282892980703048 0 0.00081948984570594957 -0.029346706582874939 0 0.00044519114888412812 -0.02977494246939312 0 0.00013943663573662561 -0.029492529020808664 0 0.00032538985351890538 -0.029282892980703048 0 -0.00076820581401160627 -0.035289307047304201 0 -0.00090634279389936756 -0.035353646547593286 0 -0.00077704000556900554 -0.035424052692139323 0 -0.00059202504029559318 -0.035405118396730946 0 -0.00066131658947966268 -0.035417414632323035 0 -0.00077590245494729281 -0.035527693387005677 0 -0.00076820581401160627 -0.035289307047304201 0 -0.00064691437455513762 -0.035306166826437883 0 -0.00066131658947966268 -0.035417414632323035 0 -0.00076820581401160627 -0.035289307047304201 0 -0.00066131658947966268 -0.035417414632323035 0 -0.00077704000556900554 -0.035424052692139323 0 -0.00066131658947966268 -0.035417414632323035 0 -0.00077704000556900554 -0.035424052692139323 0 -0.00077590245494729281 -0.035527693387005677 0 2.4359106908687444e-05 -0.034915234862153824 0 2.7053999849615448e-05 -0.03487638649207013 0 5.534062245876372e-05 -0.034907136481110566 0 -0.00033156829752028718 -0.035322040707874841 0 6.9270197375756417e-06 -0.033943819699869461 0 -2.3262616071851423e-05 -0.035251332604787355 0 6.9270197375756417e-06 -0.033943819699869461 0 -0.00020758936337198582 -0.034667832226993912 0 6.9270197375756417e-06 -0.033943819699869461 0 0.00044519114888412812 -0.02977494246939312 0 0.00081948984570594957 -0.029346706582874939 0 0.00081317203673615722 -0.029827455680796578 0 0.00054921979689417672 -0.032336230781000619 0 6.9270197375756417e-06 -0.033943819699869461 0 -1.519058741503975e-05 -0.034831776563481347 0 5.1883227656836386e-07 -0.034830354265618597 0 1.3434331215077836e-05 -0.034815143976100582 0 -8.3385563625184219e-05 -0.032063596126986046 0 6.9270197375756417e-06 -0.033943819699869461 0 -0.00090634279389936756 -0.035353646547593286 0 -0.00077704000556900554 -0.035424052692139323 0 -0.00077590245494729281 -0.035527693387005677 0 0.00081948984570594957 -0.029346706582874939 0 0.0012197581521553452 -0.029925613452715327 0 0.00081317203673615722 -0.029827455680796578 0 0.00068815238763027785 -0.030223996535025961 0 0.0012197581521553452 -0.029925613452715327 0 0.00081317203673615722 -0.029827455680796578 0 0.0024374416571301244 -0.0042894628734726145 0 0.0020659016142953973 -0.0048872641213409743 0 0.0016846332214103571 -0.0043568411144562164 0 0.0024374416571301244 -0.0042894628734726145 0 0.0024549013497432294 -0.0047621622249279802 0 0.0020659016142953973 -0.0048872641213409743 0 0.0024374416571301244 -0.0042894628734726145 0 0.002923404746599685 -0.0048583732531423916 0 0.0032283460891855409 -0.0044099840054467642 0 0.0024374416571301244 -0.0042894628734726145 0 0.002923404746599685 -0.0048583732531423916 0 0.0024549013497432294 -0.0047621622249279802 0 0.0038701274429359437 -0.002056926933703082 0 0.0037271913032791083 -0.0017054567186787742 0 0.0039602291519320824 -0.00158703711178792 0 0.0035432878363815873 -0.0031860573341972965 0 0.0033372134276450122 -0.0035362425719760037 0 0.002923404746599685 -0.0048583732531423916 0 0.0032283460891855409 -0.0044099840054467642 0 0.0028451960231368569 -0.0052008609055460607 0 0.0028972696736465926 -0.0049034925507303335 0 0.0024547145833024825 -0.005521915614828136 0 0.002923404746599685 -0.0048583732531423916 0 0.0023561015226377245 -0.0051236429218844979 0 0.0022976775404341706 -0.0057377703335792247 0 0.002923404746599685 -0.0048583732531423916 0 0.0023561015226377245 -0.0051236429218844979 0 0.0024549013497432294 -0.0047621622249279802 0 0.0023561015226377245 -0.0051236429218844979 0 0.0024549013497432294 -0.0047621622249279802 0 0.0020659016142953973 -0.0048872641213409743 0 0.0023561015226377245 -0.0051236429218844979 0 0.0020659016142953973 -0.0048872641213409743 0 0.0019928812685980797 -0.0052875312306536158 0 0.0019928812685980797 -0.0052875312306536158 0 0.001607684451056944 -0.0051254076416313351 0 0.0016839465033850344 -0.0055811867563711247 0 0.0020659016142953973 -0.0048872641213409743 0 0.0019928812685980797 -0.0052875312306536158 0 0.001607684451056944 -0.0051254076416313351 0 0.001607684451056944 -0.0051254076416313351 0 0.0013053232231737136 -0.0054384827867241864 0 0.0012087957331932014 -0.004963034137464249 0 0.0013053232231737136 -0.0054384827867241864 0 0.0012087957331932014 -0.004963034137464249 0 0.00089665540861931026 -0.0054544897050294444 0 0.001607684451056944 -0.0051254076416313351 0 0.0013053232231737136 -0.0054384827867241864 0 0.0016839465033850344 -0.0055811867563711247 0 0.001607684451056944 -0.0051254076416313351 0 0.0012087957331932014 -0.004963034137464249 0 0.0016846332214103571 -0.0043568411144562164 0 0.0012087957331932014 -0.004963034137464249 0 0.0016846332214103571 -0.0043568411144562164 0 0.0010586232369583196 -0.0044294414128532413 0 0.0020659016142953973 -0.0048872641213409743 0 0.001607684451056944 -0.0051254076416313351 0 0.0016846332214103571 -0.0043568411144562164 0 0.0016846332214103571 -0.0043568411144562164 0 0.0015069633614131982 -0.0035399292370984462 0 0.0010586232369583196 -0.0044294414128532413 0 0.0015069633614131982 -0.0035399292370984462 0 0.0010586232369583196 -0.0044294414128532413 0 0.00089048755932384638 -0.0039731547009745731 0 0.0016846332214103571 -0.0043568411144562164 0 0.0015069633614131982 -0.0035399292370984462 0 0.0019661178819959419 -0.0035430193273912492 0 0.0024374416571301244 -0.0042894628734726145 0 0.0019661178819959419 -0.0035430193273912492 0 0.0028789292566562485 -0.0034431637597709939 0 0.0024374416571301244 -0.0042894628734726145 0 0.0016846332214103571 -0.0043568411144562164 0 0.0019661178819959419 -0.0035430193273912492 0 0.0024374416571301244 -0.0042894628734726145 0 0.0028789292566562485 -0.0034431637597709939 0 0.0032283460891855409 -0.0044099840054467642 0 0.0028789292566562485 -0.0034431637597709939 0 0.0035926588536005009 -0.0026550131227444768 0 0.0028734797282293882 -0.0026905897100713279 0 0.0019661178819959419 -0.0035430193273912492 0 0.0028789292566562485 -0.0034431637597709939 0 0.0028734797282293882 -0.0026905897100713279 0 0.0035926588536005009 -0.0026550131227444768 0 0.0034891199324364711 -0.0023127654735109167 0 0.0032919920063781082 -0.0023405971725238279 0 0.0035926588536005009 -0.0026550131227444768 0 0.0028734797282293882 -0.0026905897100713279 0 0.0032919920063781082 -0.0023405971725238279 0 0.0035926588536005009 -0.0026550131227444768 0 0.0035244399085825767 -0.0023127787030789498 0 0.0034891199324364711 -0.0023127654735109167 0 0.0035244399085825767 -0.0023127787030789498 0 0.0035097649668189546 -0.0020806554372291637 0 0.0034891199324364711 -0.0023127654735109167 0 0.0035926588536005009 -0.0026550131227444768 0 0.0035244399085825767 -0.0023127787030789498 0 0.0036548555530495643 -0.0022507932696820437 0 0.0035244399085825767 -0.0023127787030789498 0 0.0036548555530495643 -0.0022507932696820437 0 0.0035842396368142297 -0.0021272848478387837 0 0.0028789292566562485 -0.0034431637597709939 0 0.0035926588536005009 -0.0026550131227444768 0 0.0032283460891855409 -0.0044099840054467642 0 0.0035994402513746275 -0.0027293258412930052 0 0.0035432878363815873 -0.0031860573341972965 0 0.0035926588536005009 -0.0026550131227444768 0 0.0036548555530495643 -0.0022507932696820437 0 0.0038701274429359437 -0.002056926933703082 0 0.0036808550522932589 -0.0018114412972102226 0 0.003555699187825237 -0.0020443001565474822 0 0.0035097649668189546 -0.0020806554372291637 0 0.0035244399085825767 -0.0023127787030789498 0 0.003555699187825237 -0.0020443001565474822 0 0.0035097649668189546 -0.0020806554372291637 0 0.0035244399085825767 -0.0023127787030789498 0 0.003555699187825237 -0.0020443001565474822 0 0.0035842396368142297 -0.0021272848478387837 0 0.003555699187825237 -0.0020443001565474822 0 0.0036583670121287564 -0.0018545963569476895 0 0.0036096588875723637 -0.001925635206239507 0 0.0036808550522932589 -0.0018114412972102226 0 0.003555699187825237 -0.0020443001565474822 0 0.0036583670121287564 -0.0018545963569476895 0 0.003555699187825237 -0.0020443001565474822 0 0.0036096588875723637 -0.001925635206239507 0 0.0035401294733353517 -0.0020032873788169152 0 0.0036096588875723637 -0.001925635206239507 0 0.0035401294733353517 -0.0020032873788169152 0 0.0035218285443959735 -0.0019890512479518647 0 0.003555699187825237 -0.0020443001565474822 0 0.0035401294733353517 -0.0020032873788169152 0 0.0035842396368142297 -0.0021272848478387837 0 0.0035401294733353517 -0.0020032873788169152 0 0.0035842396368142297 -0.0021272848478387837 0 0.0036106572293823557 -0.0019705595100567293 0 0.0035401294733353517 -0.0020032873788169152 0 0.0035610307981356524 -0.0018941541967225698 0 0.0035218285443959735 -0.0019890512479518647 0 0.0035610307981356524 -0.0018941541967225698 0 0.0035218285443959735 -0.0019890512479518647 0 0.0035442480504167696 -0.0016566292842888346 0 0.0035401294733353517 -0.0020032873788169152 0 0.0035610307981356524 -0.0018941541967225698 0 0.0036106572293823557 -0.0019705595100567293 0 0.0036808559626700568 -0.0022208939651708853 0 0.0038799767784754445 -0.0017624387371496448 0 0.0036548555530495643 -0.0022507932696820437 0 0.0037125676520645989 -0.0020148430979671033 0 0.0040445394320693323 -0.0018497683494979207 0 0.0036548555530495643 -0.0022507932696820437 0 0.0038701274429359437 -0.002056926933703082 0 0.0037271913032791083 -0.0017054567186787742 0 0.0036548555530495643 -0.0022507932696820437 0 0.0035842396368142297 -0.0021272848478387837 0 0.0037125676520645989 -0.0020148430979671033 0 0.0035842396368142297 -0.0021272848478387837 0 0.0037125676520645989 -0.0020148430979671033 0 0.0036106572293823557 -0.0019705595100567293 0 0.0037125676520645989 -0.0020148430979671033 0 0.0037282469445912626 -0.0017961302095225145 0 0.0040445394320693323 -0.0018497683494979207 0 0.0035610307981356524 -0.0018941541967225698 0 0.0036106572293823557 -0.0019705595100567293 0 0.0037282469445912626 -0.0017961302095225145 0 0.0037125676520645989 -0.0020148430979671033 0 0.0036106572293823557 -0.0019705595100567293 0 0.0037282469445912626 -0.0017961302095225145 0 0.0037282469445912626 -0.0017961302095225145 0 0.0040445394320693323 -0.0018497683494979207 0 0.0040262070797043694 -0.0014514235707600675 0 0.0040445394320693323 -0.0018497683494979207 0 0.0040262070797043694 -0.0014514235707600675 0 0.0043679757283600212 -0.00084312880810702689 0 0.0038799767784754445 -0.0017624387371496448 0 0.0040681494029553168 -0.0010418109104213893 0 0.0038389522254753954 -0.0015565792858245162 0 0.0038178051020772265 -0.001078468159130127 0 0.0040262070797043694 -0.0014514235707600675 0 0.0036569155251592769 -0.00094737416589468825 0 0.0032238269163459778 -0.0013088278827937344 0 0.0037282469445912626 -0.0017961302095225145 0 0.0040262070797043694 -0.0014514235707600675 0 0.0035442480504167696 -0.0016566292842888346 0 0.0042392757968188841 -0.00050073709848384132 0 0.0042531186463628332 -0.00046347220415848865 0 0.0042616888624191765 -0.0004926401965303337 0 0.0042392757968188841 -0.00050073709848384132 0 0.0042616888624191765 -0.0004926401965303337 0 0.00424998947444422 -0.00054680332907817107 0 0.0039658106707045181 -0.00071937954493467586 0 0.0038178051020772265 -0.001078468159130127 0 0.0040262070797043694 -0.0014514235707600675 0 0.0040371362970433007 -0.0010167412240360085 0 0.0043679757283600212 -0.00084312880810702689 0 0.0039658106707045181 -0.00071937954493467586 0 0.0041564917066288657 -0.00061413174320664593 0 0.0036569155251592769 -0.00094737416589468825 0 0.0040371362970433007 -0.0010167412240360085 0 0.0041986475808850031 -0.00060862995877595627 0 0.0040371362970433007 -0.0010167412240360085 0 0.0041986475808850031 -0.00060862995877595627 0 0.0043679757283600212 -0.00084312880810702689 0 0.0040262070797043694 -0.0014514235707600675 0 0.0036569155251592769 -0.00094737416589468825 0 0.0040371362970433007 -0.0010167412240360085 0 0.0040199225623444744 -0.00093991963272929203 0 0.0040286571454941486 -0.00083471669466426556 0 0.0041217163025950793 -0.00085068060755742151 0 0.0040199225623444744 -0.00093991963272929203 0 0.0040286571454941486 -0.00083471669466426556 0 0.0039477342466127828 -0.0008988260648790774 0 0.0035610307981356524 -0.0018941541967225698 0 0.0037282469445912626 -0.0017961302095225145 0 0.0035442480504167696 -0.0016566292842888346 0 0.0042302622716324945 -0.00060844975781971838 0 0.0038178051020772265 -0.001078468159130127 0 0.003770946659299054 -0.0014960448037675061 0 0.0038178051020772265 -0.001078468159130127 0 0.0042774826400177601 -0.00043746070145640747 0 0.0042531186463628332 -0.00046347220415848865 0 0.0042616888624191765 -0.0004926401965303337 0 0.0042774826400177601 -0.00043746070145640747 0 0.0042699482758431278 -0.00045813032332646321 0 0.0042616888624191765 -0.0004926401965303337 0 0.0042774826400177601 -0.00043746070145640747 0 0.0042699482758431278 -0.00045813032332646321 0 0.0042967929014938403 -0.00042209862999519586 0 0.0042699482758431278 -0.00045813032332646321 0 0.0042616888624191765 -0.0004926401965303337 0 0.004250814796591465 -0.00049132703945332966 0 0.0042616888624191765 -0.0004926401965303337 0 0.004250814796591465 -0.00049132703945332966 0 0.0042648526903654952 -0.00051875442632265162 0 0.004250814796591465 -0.00049132703945332966 0 0.0042173516891682375 -0.00047191773357734435 0 0.0042853412543687021 -0.00049860875477519394 0 0.004250814796591465 -0.00049132703945332966 0 0.0042648526903654952 -0.00051875442632265162 0 0.0042853412543687021 -0.00049860875477519394 0 0.0042699482758431278 -0.00045813032332646321 0 0.004250814796591465 -0.00049132703945332966 0 0.0042637691177623577 -0.00046001668799567854 0 0.004250814796591465 -0.00049132703945332966 0 0.0042637691177623577 -0.00046001668799567854 0 0.0042173516891682375 -0.00047191773357734435 0 0.0042552259741371933 -0.00057732365933029514 0 0.0041986475808850031 -0.00060862995877595627 0 0.0043679757283600212 -0.00084312880810702689 0 0.0041986475808850031 -0.00060862995877595627 0 0.00424998947444422 -0.00054680332907817107 0 0.004290465185930222 -0.00052598695081778907 0 0.0042552259741371933 -0.00057732365933029514 0 0.0041986475808850031 -0.00060862995877595627 0 0.004290465185930222 -0.00052598695081778907 0 0.0042616888624191765 -0.0004926401965303337 0 0.00424998947444422 -0.00054680332907817107 0 0.0042648526903654952 -0.00051875442632265162 0 0.0042392757968188841 -0.00050073709848384132 0 0.0041986475808850031 -0.00060862995877595627 0 0.00424998947444422 -0.00054680332907817107 0 0.00424998947444422 -0.00054680332907817107 0 0.00429045563937701 -0.00052297964672094505 0 0.004290465185930222 -0.00052598695081778907 0 0.00424998947444422 -0.00054680332907817107 0 0.00429045563937701 -0.00052297964672094505 0 0.0042648526903654952 -0.00051875442632265162 0 0.00429045563937701 -0.00052297964672094505 0 0.0042648526903654952 -0.00051875442632265162 0 0.0042853412543687021 -0.00049860875477519394 0 0.00429045563937701 -0.00052297964672094505 0 0.0042853412543687021 -0.00049860875477519394 0 0.0043231691073268835 -0.00053187049180835146 0 0.00429045563937701 -0.00052297964672094505 0 0.004290465185930222 -0.00052598695081778907 0 0.0043231691073268835 -0.00053187049180835146 0 0.004290465185930222 -0.00052598695081778907 0 0.0042754944229574151 -0.00046095742698203833 0 0.0043626215213208273 -0.00062936442354658852 0 0.004290465185930222 -0.00052598695081778907 0 0.0043231691073268835 -0.00053187049180835146 0 0.0043626215213208273 -0.00062936442354658852 0 0.0042552259741371933 -0.00057732365933029514 0 0.004290465185930222 -0.00052598695081778907 0 0.0042754944229574151 -0.00046095742698203833 0 0.0039021121497969818 -0.00089189517689654816 0 0.0039849524783168392 -0.0008888761600364609 0 0.003963641233330659 -0.00086697445633956516 0 0.0039021121497969818 -0.00089189517689654816 0 0.0039397676949149947 -0.0010380947945447042 0 0.0039849524783168392 -0.0008888761600364609 0 0.0036558576932439872 -0.0027742815415706819 0 0.0040151647421643958 -0.0020800741875584656 0 0.0039397676949149947 -0.0010380947945447042 0 0.0040201302876435394 -0.0011475943912427624 0 0.0039849524783168392 -0.0008888761600364609 0 0.0036558576932439872 -0.0027742815415706819 0 0.0028974701065003919 -0.0047646891073635841 0 0.0039397676949149947 -0.0010380947945447042 0 0.0039178902835181276 -0.0011848077880485695 0 0.0040201302876435394 -0.0011475943912427624 0 0.0040911092915140012 -0.00070235269635384823 0 0.0040681494029553168 -0.0010418109104213893 0 0.0039021121497969818 -0.00089189517689654816 0 0.0039397676949149947 -0.0010380947945447042 0 0.0037825749674815366 -0.0012264729642249752 0 0.0042552259741371933 -0.00057732365933029514 0 0.0042754944229574151 -0.00046095742698203833 0 0.0043679757283600212 -0.00084312880810702689 0 0.0037825749674815366 -0.0012264729642249752 0 0.0039178902835181276 -0.0011848077880485695 0 0.0039268480965551425 -0.0013707938443252186 0 0.0039178902835181276 -0.0011848077880485695 0 0.0040201302876435394 -0.0011475943912427624 0 0.0039268480965551425 -0.0013707938443252186 0 0.0039397676949149947 -0.0010380947945447042 0 0.0037825749674815366 -0.0012264729642249752 0 0.0039178902835181276 -0.0011848077880485695 0 0.0026021613611338116 -0.0055799163851559712 0 0.0025948253685055766 -0.005346458586493223 0 0.002391112728586324 -0.0056074958884234152 0 0.0036558576932439872 -0.0027742815415706819 0 0.0042538895719391448 -0.00097639090398151263 0 0.0026021613611338116 -0.0055799163851559712 0 0.0025948253685055766 -0.005346458586493223 0 0.0028451960231368569 -0.0052008609055460607 0 0.0023561015226377245 -0.0051236429218844979 0 0.0019928812685980797 -0.0052875312306536158 0 0.0022976775404341706 -0.0057377703335792247 0 0.0036558576932439872 -0.0027742815415706819 0 0.0033372134276450122 -0.0035362425719760037 0 0.0037271913032791083 -0.0017054567186787742 0 0.0037825749674815366 -0.0012264729642249752 0 0.0039268480965551425 -0.0013707938443252186 0 0.0040809918293080042 -0.0011859593734863392 0 0.0039602291519320824 -0.00158703711178792 0 0.0039268480965551425 -0.0013707938443252186 0 0.0037271913032791083 -0.0017054567186787742 0 0.0039602291519320824 -0.00158703711178792 0 0.0039268480965551425 -0.0013707938443252186 0 0.002923404746599685 -0.0048583732531423916 0 0.0025948253685055766 -0.005346458586493223 0 0.0028451960231368569 -0.0052008609055460607 0 0.0013053232231737136 -0.0054384827867241864 0 0.0012346824096083335 -0.0058902562216643986 0 0.0016839465033850344 -0.0055811867563711247 0 0.0013053232231737136 -0.0054384827867241864 0 0.0012346824096083335 -0.0058902562216643986 0 0.00089665540861931026 -0.0054544897050294444 0 0.0012346824096083335 -0.0058902562216643986 0 0.0016839465033850344 -0.0055811867563711247 0 0.0016596094346742864 -0.0059668534748308711 0 0.0019928812685980797 -0.0052875312306536158 0 0.0022976775404341706 -0.0057377703335792247 0 0.0016839465033850344 -0.0055811867563711247 0 0.0022976775404341706 -0.0057377703335792247 0 0.0016839465033850344 -0.0055811867563711247 0 0.0016596094346742864 -0.0059668534748308711 0 0.0022976775404341706 -0.0057377703335792247 0 0.0016596094346742864 -0.0059668534748308711 0 0.0017879544812964888 -0.0063558726760860797 0 0.0024547145833024825 -0.005521915614828136 0 0.0020844309965364167 -0.0059908547075232617 0 0.0016596094346742864 -0.0059668534748308711 0 0.0015058048937652041 -0.006246812580646053 0 0.0017879544812964888 -0.0063558726760860797 0 0.0015058048937652041 -0.006246812580646053 0 0.0012145928831706434 -0.0062526869228104577 0 0.0014176788729922032 -0.006521404086071215 0 0.0012346824096083335 -0.0058902562216643986 0 0.0016596094346742864 -0.0059668534748308711 0 0.0015058048937652041 -0.006246812580646053 0 0.0012346824096083335 -0.0058902562216643986 0 0.0015058048937652041 -0.006246812580646053 0 0.0012145928831706434 -0.0062526869228104577 0 0.0014176788729922032 -0.006521404086071215 0 0.0017879544812964888 -0.0063558726760860797 0 0.0013586930696732422 -0.0069096340774684826 0 0.0012145928831706434 -0.0062526869228104577 0 0.0014176788729922032 -0.006521404086071215 0 0.0010556907316715241 -0.0065150984540465308 0 0.0020844309965364167 -0.0059908547075232617 0 0.0017781721429931229 -0.0063587205582195418 0 0.0015058048937652041 -0.006246812580646053 0 0.0014176788729922032 -0.006521404086071215 0 0.0017879544812964888 -0.0063558726760860797 0 0.0014176788729922032 -0.006521404086071215 0 0.001233576997029857 -0.0066855020308478272 0 0.0010556907316715241 -0.0065150984540465308 0 0.0014176788729922032 -0.006521404086071215 0 0.001233576997029857 -0.0066855020308478272 0 0.0013586930696732422 -0.0069096340774684826 0 0.0023961291641191309 -0.0057729419398591473 0 0.002391112728586324 -0.0056074958884234152 0 0.0021616597871220145 -0.0058703839707483991 0 0.0043008372713951998 -0.0026289978628943065 0 0.0036220227156697703 -0.0033391921862966261 0 0.0038683017017500467 -0.0036291501338859321 0 0.0026021613611338116 -0.0055799163851559712 0 0.0023961291641191309 -0.0057729419398591473 0 0.002391112728586324 -0.0056074958884234152 0 0.0036220227156697703 -0.0033391921862966261 0 0.0038683017017500467 -0.0036291501338859321 0 0.0028745328170417498 -0.0040932076629222758 0 0.0028974701065003919 -0.0047646891073635841 0 0.0025360930645054757 -0.0050241177625820659 0 0.0021639054710867129 -0.0060074489381524406 0 0.0021616597871220145 -0.0058703839707483991 0 0.0018758584818574476 -0.006198605215529558 0 0.0023961291641191309 -0.0057729419398591473 0 0.0021639054710867129 -0.0060074489381524406 0 0.0021616597871220145 -0.0058703839707483991 0 0.001233576997029857 -0.0066855020308478272 0 0.0013586930696732422 -0.0069096340774684826 0 0.0010999676053089717 -0.0067914055672531996 0 0.0013586930696732422 -0.0069096340774684826 0 0.0010827160734209434 -0.007056605909456155 0 0.0010999676053089717 -0.0067914055672531996 0 0.0013586930696732422 -0.0069096340774684826 0 0.0010827160734209434 -0.007056605909456155 0 0.00097315920391048921 -0.0074736586187641079 0 0.00089919671464082861 -0.0070525484278447176 0 0.00083706969731449452 -0.0067723732901484477 0 0.00066949579217435583 -0.0069914908416625326 0 0.00089919671464082861 -0.0070525484278447176 0 0.00083706969731449452 -0.0067723732901484477 0 0.0010999676053089717 -0.0067914055672531996 0 0.0010827160734209434 -0.007056605909456155 0 0.00089919671464082861 -0.0070525484278447176 0 0.0010999676053089717 -0.0067914055672531996 0 0.00083706969731449452 -0.0067723732901484477 0 0.0010999676053089717 -0.0067914055672531996 0 0.0010556907316715241 -0.0065150984540465308 0 0.00083706969731449452 -0.0067723732901484477 0 0.0010556907316715241 -0.0065150984540465308 0 0.00061643298437201682 -0.0064364164010224829 0 0.001233576997029857 -0.0066855020308478272 0 0.0010999676053089717 -0.0067914055672531996 0 0.0010556907316715241 -0.0065150984540465308 0 0.0010556907316715241 -0.0065150984540465308 0 0.00061643298437201682 -0.0064364164010224829 0 0.00090405637125592236 -0.0062169774427974778 0 0.00083706969731449452 -0.0067723732901484477 0 0.00061643298437201682 -0.0064364164010224829 0 0.00054085338037796209 -0.0067742999972644161 0 0.00061643298437201682 -0.0064364164010224829 0 0.00054085338037796209 -0.0067742999972644161 0 0.00025106321750850594 -0.0066269999741310308 0 0.00054085338037796209 -0.0067742999972644161 0 0.00045328529261480125 -0.0070759916558853914 0 0.00018454631394878256 -0.0069526692652504734 0 0.00054085338037796209 -0.0067742999972644161 0 0.00066949579217435583 -0.0069914908416625326 0 0.00045328529261480125 -0.0070759916558853914 0 0.00083706969731449452 -0.0067723732901484477 0 0.00054085338037796209 -0.0067742999972644161 0 0.00066949579217435583 -0.0069914908416625326 0 0.00066949579217435583 -0.0069914908416625326 0 0.00045328529261480125 -0.0070759916558853914 0 0.00064965326703534309 -0.0072747106411305438 0 0.00089919671464082861 -0.0070525484278447176 0 0.00066949579217435583 -0.0069914908416625326 0 0.00064965326703534309 -0.0072747106411305438 0 0.00018454631394878256 -0.0069526692652504734 0 -0.0002035448944253632 -0.0067214813545955166 0 0.00025106321750850594 -0.0066269999741310308 0 0.00045328529261480125 -0.0070759916558853914 0 0.00018454631394878256 -0.0069526692652504734 0 0.00028562400029701025 -0.0073748568010896373 0 0.00054085338037796209 -0.0067742999972644161 0 0.00018454631394878256 -0.0069526692652504734 0 0.00025106321750850594 -0.0066269999741310308 0 -0.0003374853833778478 -0.006808400607106027 0 -0.00036365875657979073 -0.0067278247938777451 0 -0.0002035448944253632 -0.0067214813545955166 0 -0.00067634908837645212 -0.0070264465885279221 0 -0.00021518830303508799 -0.0074134585972119122 0 0.00018454631394878256 -0.0069526692652504734 0 -0.0002035448944253632 -0.0067214813545955166 0 -0.00021518830303508799 -0.0074134585972119122 0 -0.0002035448944253632 -0.0067214813545955166 0 0.00011759252159114425 -0.0062576806614073142 0 -0.00033358732588039108 -0.0063733992414552456 0 -0.0002035448944253632 -0.0067214813545955166 0 0.00025106321750850594 -0.0066269999741310308 0 0.00011759252159114425 -0.0062576806614073142 0 0.00061643298437201682 -0.0064364164010224829 0 0.00025106321750850594 -0.0066269999741310308 0 0.00011759252159114425 -0.0062576806614073142 0 0.00011759252159114425 -0.0062576806614073142 0 -0.00025234544184670897 -0.0059972465781110342 0 0.00016303168492419484 -0.0058146811939672489 0 0.00011759252159114425 -0.0062576806614073142 0 0.00016303168492419484 -0.0058146811939672489 0 0.00061555778456605457 -0.0059101725500734338 0 0.00011759252159114425 -0.0062576806614073142 0 -0.00033358732588039108 -0.0063733992414552456 0 -0.00025234544184670897 -0.0059972465781110342 0 -0.00025234544184670897 -0.0059972465781110342 0 -0.00014223785497872893 -0.0056416836993236326 0 -0.00058314020532093842 -0.0056522164517531044 0 -0.00025234544184670897 -0.0059972465781110342 0 -0.00014223785497872893 -0.0056416836993236326 0 0.00016303168492419484 -0.0058146811939672489 0 -0.00014223785497872893 -0.0056416836993236326 0 0.00016303168492419484 -0.0058146811939672489 0 0.0003781351702180187 -0.0053731506854616225 0 0.00016303168492419484 -0.0058146811939672489 0 0.00061555778456605457 -0.0059101725500734338 0 0.0003781351702180187 -0.0053731506854616225 0 0.00061555778456605457 -0.0059101725500734338 0 0.00089665540861931026 -0.0054544897050294444 0 0.0003781351702180187 -0.0053731506854616225 0 0.0012346824096083335 -0.0058902562216643986 0 0.00061555778456605457 -0.0059101725500734338 0 0.00089665540861931026 -0.0054544897050294444 0 0.0012346824096083335 -0.0058902562216643986 0 0.00061555778456605457 -0.0059101725500734338 0 0.00090405637125592236 -0.0062169774427974778 0 0.0012346824096083335 -0.0058902562216643986 0 0.0012145928831706434 -0.0062526869228104577 0 0.00090405637125592236 -0.0062169774427974778 0 0.0012145928831706434 -0.0062526869228104577 0 0.0010556907316715241 -0.0065150984540465308 0 0.00090405637125592236 -0.0062169774427974778 0 0.00061643298437201682 -0.0064364164010224829 0 0.00061555778456605457 -0.0059101725500734338 0 0.00090405637125592236 -0.0062169774427974778 0 0.00061643298437201682 -0.0064364164010224829 0 0.00011759252159114425 -0.0062576806614073142 0 0.00061555778456605457 -0.0059101725500734338 0 -0.002449734947013405 -0.013844217332342776 0 -0.0024277599031207403 -0.013807888966381916 0 -0.0024317322476559463 -0.013853189271868661 0 -0.0024277599031207403 -0.013807888966381916 0 -0.0024317322476559463 -0.013853189271868661 0 -0.0023923841235814727 -0.013814834176524064 0 -0.0023923841235814727 -0.013814834176524064 0 -0.0023888900217578328 -0.013857871510216675 0 -0.0023453046366858424 -0.013851658393111865 0 -0.0015189474752671499 -0.010334920644227223 0 -0.0020198920424364507 -0.011954050861969405 0 -0.0024317322476559463 -0.013853189271868661 0 -0.0023923841235814727 -0.013814834176524064 0 -0.0023888900217578328 -0.013857871510216675 0 -0.00078184783889501922 -0.0067907636669672878 0 -0.00081428737264640887 -0.0068046906976523582 0 -0.00078000945301472298 -0.0067392543794581213 0 -0.00078184783889501922 -0.0067907636669672878 0 -0.00078000945301472298 -0.0067392543794581213 0 -0.00079926706315286455 -0.00676664251760582 0 -0.002051639298781896 -0.010285572206100295 0 -0.0015189474752671499 -0.010334920644227223 0 -0.00081428737264640887 -0.0068046906976523582 0 -0.00078000945301472298 -0.0067392543794581213 0 -0.00072984014235992153 -0.006804618836390326 0 -0.00078000945301472298 -0.0067392543794581213 0 -0.00072984014235992153 -0.006804618836390326 0 -0.00066137914160011285 -0.0066255086761769482 0 -0.00078000945301472298 -0.0067392543794581213 0 -0.00066137914160011285 -0.0066255086761769482 0 -0.00079926706315286455 -0.00676664251760582 0 -0.0014548579369425409 -0.010489947689613819 0 -0.0016271644849607202 -0.01031540305298141 0 -0.0016086027459181647 -0.010304011230966409 0 -0.00072984014235992153 -0.006804618836390326 0 -0.00053346302004157189 -0.0068980671302607925 0 -0.0007382135979047635 -0.0069870948264881931 0 -0.00081428737264640887 -0.0068046906976523582 0 -0.00072984014235992153 -0.006804618836390326 0 -0.0007382135979047635 -0.0069870948264881931 0 -0.0015189474752671499 -0.010334920644227223 0 -0.0012867433538317134 -0.0096064103706706913 0 -0.00072984014235992153 -0.006804618836390326 0 -0.00053346302004157189 -0.0068980671302607925 0 -0.00066137914160011285 -0.0066255086761769482 0 -0.00036365875657979073 -0.0067278247938777451 0 -0.0012867433538317134 -0.0096064103706706913 0 -0.0002035448944253632 -0.0067214813545955166 0 -0.00033358732588039108 -0.0063733992414552456 0 -0.00066137914160011285 -0.0066255086761769482 0 -0.0002035448944253632 -0.0067214813545955166 0 -0.00053346302004157189 -0.0068980671302607925 0 -0.00066137914160011285 -0.0066255086761769482 0 -0.00033358732588039108 -0.0063733992414552456 0 -0.00066137914160011285 -0.0066255086761769482 0 -0.0005639111024360701 -0.0061478761441923569 0 -0.00033358732588039108 -0.0063733992414552456 0 -0.00025234544184670897 -0.0059972465781110342 0 -0.0005639111024360701 -0.0061478761441923569 0 -0.00025234544184670897 -0.0059972465781110342 0 -0.0005639111024360701 -0.0061478761441923569 0 -0.00058314020532093842 -0.0056522164517531044 0 -0.0005639111024360701 -0.0061478761441923569 0 -0.00058314020532093842 -0.0056522164517531044 0 -0.0009688513811279627 -0.0061402284301898657 0 -0.00058314020532093842 -0.0056522164517531044 0 -0.0009688513811279627 -0.0061402284301898657 0 -0.00092583173367861342 -0.0056515406011573184 0 -0.00066137914160011285 -0.0066255086761769482 0 -0.0005639111024360701 -0.0061478761441923569 0 -0.0009688513811279627 -0.0061402284301898657 0 -0.00066888371158001616 -0.0066311037645620293 0 -0.00086657854665005173 -0.0064616566510800862 0 -0.00078184783889501922 -0.0067907636669672878 0 -0.00079926706315286455 -0.00676664251760582 0 -0.00079063237813584879 -0.0068657111773658998 0 -0.00086657854665005173 -0.0064616566510800862 0 -0.00098124040984291869 -0.0063508261797129515 0 -0.0009688513811279627 -0.0061402284301898657 0 -0.0011884120424035332 -0.0057986355925698794 0 -0.00092583173367861342 -0.0056515406011573184 0 -0.00079063237813584879 -0.0068657111773658998 0 -0.00075476266368512137 -0.0068975015622125668 0 -0.00076490816371548444 -0.0068580249574973252 0 -0.00073493508096774524 -0.0068715712818316283 0 -0.00075476266368512137 -0.0068975015622125668 0 -0.00076490816371548444 -0.0068580249574973252 0 -0.0021014919332475062 -0.012088293844886716 0 -0.002051639298781896 -0.010285572206100295 0 -0.00078184783889501922 -0.0067907636669672878 0 -0.00079063237813584879 -0.0068657111773658998 0 -0.00076490816371548444 -0.0068580249574973252 0 -0.00073493508096774524 -0.0068715712818316283 0 -0.00078184783889501922 -0.0067907636669672878 0 -0.00076490816371548444 -0.0068580249574973252 0 -0.00072529197614712611 -0.0068659465633109434 0 -0.00073493508096774524 -0.0068715712818316283 0 -0.00078184783889501922 -0.0067907636669672878 0 -0.0022230607828452281 -0.014892495189527512 0 -0.002051639298781896 -0.010285572206100295 0 -0.001281118049248483 -0.0053111116288966009 0 -0.0014033760341567809 -0.0055578706017487536 0 -0.0010644101279732613 -0.0054336610932943447 0 -0.001281118049248483 -0.0053111116288966009 0 -0.00099944984338777988 -0.005208627816126743 0 -0.0011820656806792878 -0.00505763457093598 0 -0.0011884120424035332 -0.0057986355925698794 0 -0.0014552149812093582 -0.0055125512892169907 0 -0.0010644101279732613 -0.0054336610932943447 0 -0.00079063237813584879 -0.0068657111773658998 0 -0.00075476266368512137 -0.0068975015622125668 0 -0.00075511419336980528 -0.0069455858615460244 0 -0.00098124040984291869 -0.0063508261797129515 0 -0.0011212714483491717 -0.0061378390037215612 0 -0.0011212714483491717 -0.0061378390037215612 0 -0.0011833450015550616 -0.005373587215466576 0 -0.0010644101279732613 -0.0054336610932943447 0 -0.00076954283691150354 -0.0052643823215043767 0 -0.00092583173367861342 -0.0056515406011573184 0 -0.0011884120424035332 -0.0057986355925698794 0 -0.0010644101279732613 -0.0054336610932943447 0 -0.00092583173367861342 -0.0056515406011573184 0 -0.001281118049248483 -0.0053111116288966009 0 -0.0010644101279732613 -0.0054336610932943447 0 -0.00099944984338777988 -0.005208627816126743 0 -0.00099944984338777988 -0.005208627816126743 0 -0.00076954283691150354 -0.0052643823215043767 0 -0.00081506569805694538 -0.0049878052038937384 0 -0.0010644101279732613 -0.0054336610932943447 0 -0.00099944984338777988 -0.005208627816126743 0 -0.00076954283691150354 -0.0052643823215043767 0 -0.00076954283691150354 -0.0052643823215043767 0 -0.00049435090880073438 -0.0051593111531393751 0 -0.00065547593235243905 -0.0049841030198301524 0 -0.00058314020532093842 -0.0056522164517531044 0 -0.00076954283691150354 -0.0052643823215043767 0 -0.00092583173367861342 -0.0056515406011573184 0 -0.00058314020532093842 -0.0056522164517531044 0 -0.00076954283691150354 -0.0052643823215043767 0 -0.00049435090880073438 -0.0051593111531393751 0 -0.00058314020532093842 -0.0056522164517531044 0 -0.00049435090880073438 -0.0051593111531393751 0 -0.00025169166289379727 -0.0053262726677789562 0 -0.00047867929584838635 -0.0048989226565894885 0 -0.00067019697143255003 -0.0048659875446809431 0 -0.00065547593235243905 -0.0049841030198301524 0 -0.00049435090880073438 -0.0051593111531393751 0 -0.00047867929584838635 -0.0048989226565894885 0 -0.00065547593235243905 -0.0049841030198301524 0 -0.00047867929584838635 -0.0048989226565894885 0 -0.00048895535585431543 -0.0047215014983913242 0 -0.00067019697143255003 -0.0048659875446809431 0 -0.00047867929584838635 -0.0048989226565894885 0 -0.00048895535585431543 -0.0047215014983913242 0 -0.00031986494828618986 -0.0047102226769575092 0 -0.00048895535585431543 -0.0047215014983913242 0 -0.00067019697143255003 -0.0048659875446809431 0 -0.00059536179727762595 -0.0047880029927737273 0 -0.00067019697143255003 -0.0048659875446809431 0 -0.00076179197326679111 -0.0049371298360443615 0 -0.00075175668561020101 -0.0049231231747607204 0 -0.00067019697143255003 -0.0048659875446809431 0 -0.00075175668561020101 -0.0049231231747607204 0 -0.00069431938203677428 -0.004869307545544938 0 -0.00067019697143255003 -0.0048659875446809431 0 -0.00081506569805694538 -0.0049878052038937384 0 -0.00076179197326679111 -0.0049371298360443615 0 -0.00067019697143255003 -0.0048659875446809431 0 -0.00065547593235243905 -0.0049841030198301524 0 -0.00081506569805694538 -0.0049878052038937384 0 -0.00076954283691150354 -0.0052643823215043767 0 -0.00065547593235243905 -0.0049841030198301524 0 -0.00081506569805694538 -0.0049878052038937384 0 -0.00081506569805694538 -0.0049878052038937384 0 -0.00081496874762466487 -0.0050096558697168394 0 -0.00084110748383779579 -0.0050837104705827446 0 -0.00099944984338777988 -0.005208627816126743 0 -0.00081506569805694538 -0.0049878052038937384 0 -0.0011820656806792878 -0.00505763457093598 0 -0.00086764504171173444 -0.0050131759713445898 0 -0.00094864823602115852 -0.0050080711954632257 0 -0.00081506569805694538 -0.0049878052038937384 0 -0.00076179197326679111 -0.0049371298360443615 0 -0.00081496874762466487 -0.0050096558697168394 0 -0.00076179197326679111 -0.0049371298360443615 0 -0.00077854134557380091 -0.0049579025896290532 0 -0.00081496874762466487 -0.0050096558697168394 0 -0.00075175668561020101 -0.0049231231747607204 0 -0.00077854134557380091 -0.0049579025896290532 0 -0.00079146395852078418 -0.0049631722122024206 0 -0.00076179197326679111 -0.0049371298360443615 0 -0.00075175668561020101 -0.0049231231747607204 0 -0.00077854134557380091 -0.0049579025896290532 0 -0.00077854134557380091 -0.0049579025896290532 0 -0.00079146395852078418 -0.0049631722122024206 0 -0.00081496874762466487 -0.0050096558697168394 0 -0.00081496874762466487 -0.0050096558697168394 0 -0.00085377712559669115 -0.0049992030312314556 0 -0.00084110748383779579 -0.0050837104705827446 0 -0.00091525814582609649 -0.0084193083555133778 0 -0.0014033077638417213 -0.015745330754325302 0 -0.00079146395852078418 -0.0049631722122024206 0 -0.00081496874762466487 -0.0050096558697168394 0 -0.00085377712559669115 -0.0049992030312314556 0 -0.00091525814582609649 -0.0084193083555133778 0 -0.00094864823602115852 -0.0050080711954632257 0 -0.00094609045357243191 -0.0051552470174093101 0 -0.00085377712559669115 -0.0049992030312314556 0 -0.00084110748383779579 -0.0050837104705827446 0 -0.0014998069512723749 -0.0051536709664705242 0 -0.001281118049248483 -0.0053111116288966009 0 -0.0011820656806792878 -0.00505763457093598 0 0.00077490713925113127 -0.0049746357377169386 0 0.0003781351702180187 -0.0053731506854616225 0 0.0004406665860254938 -0.0046982397391339345 0 0.0003781351702180187 -0.0053731506854616225 0 5.0580298931547139e-05 -0.005174308380980739 0 0.0004406665860254938 -0.0046982397391339345 0 0.00077490713925113127 -0.0049746357377169386 0 0.0004406665860254938 -0.0046982397391339345 0 0.0010586232369583196 -0.0044294414128532413 0 0.0012087957331932014 -0.004963034137464249 0 0.00077490713925113127 -0.0049746357377169386 0 0.0010586232369583196 -0.0044294414128532413 0 0.00077490713925113127 -0.0049746357377169386 0 0.00089665540861931026 -0.0054544897050294444 0 0.0003781351702180187 -0.0053731506854616225 0 0.0012087957331932014 -0.004963034137464249 0 0.00077490713925113127 -0.0049746357377169386 0 0.00089665540861931026 -0.0054544897050294444 0 -0.00014223785497872893 -0.0056416836993236326 0 0.0003781351702180187 -0.0053731506854616225 0 5.0580298931547139e-05 -0.005174308380980739 0 -0.00014223785497872893 -0.0056416836993236326 0 -0.00058314020532093842 -0.0056522164517531044 0 -0.00025169166289379727 -0.0053262726677789562 0 -0.00014223785497872893 -0.0056416836993236326 0 -0.00025169166289379727 -0.0053262726677789562 0 5.0580298931547139e-05 -0.005174308380980739 0 -0.00025169166289379727 -0.0053262726677789562 0 5.0580298931547139e-05 -0.005174308380980739 0 -0.00016918727523085065 -0.0049328927221241456 0 -0.00049435090880073438 -0.0051593111531393751 0 -0.00025169166289379727 -0.0053262726677789562 0 -0.00016918727523085065 -0.0049328927221241456 0 5.0580298931547139e-05 -0.005174308380980739 0 -0.00016918727523085065 -0.0049328927221241456 0 0.0004406665860254938 -0.0046982397391339345 0 -0.00016918727523085065 -0.0049328927221241456 0 6.0738250130122818e-05 -0.0045521447658414382 0 0.0004406665860254938 -0.0046982397391339345 0 -0.00049435090880073438 -0.0051593111531393751 0 -0.00047867929584838635 -0.0048989226565894885 0 -0.00016918727523085065 -0.0049328927221241456 0 -0.00016918727523085065 -0.0049328927221241456 0 -0.00031986494828618986 -0.0047102226769575092 0 6.0738250130122818e-05 -0.0045521447658414382 0 -0.00047867929584838635 -0.0048989226565894885 0 -0.00016918727523085065 -0.0049328927221241456 0 -0.00031986494828618986 -0.0047102226769575092 0 -0.00031986494828618986 -0.0047102226769575092 0 -0.00031622634429409081 -0.0044946965216677189 0 6.0738250130122818e-05 -0.0045521447658414382 0 -0.00048895535585431543 -0.0047215014983913242 0 -0.00031986494828618986 -0.0047102226769575092 0 -0.00031622634429409081 -0.0044946965216677189 0 -0.00031622634429409081 -0.0044946965216677189 0 6.0738250130122818e-05 -0.0045521447658414382 0 0.00029501583879995612 -0.0040794366206589067 0 6.0738250130122818e-05 -0.0045521447658414382 0 0.00049717798704433192 -0.0042440017406598961 0 0.00029501583879995612 -0.0040794366206589067 0 0.00049717798704433192 -0.0042440017406598961 0 0.0004406665860254938 -0.0046982397391339345 0 0.00089048755932384638 -0.0039731547009745731 0 6.0738250130122818e-05 -0.0045521447658414382 0 0.00049717798704433192 -0.0042440017406598961 0 0.0004406665860254938 -0.0046982397391339345 0 0.00049717798704433192 -0.0042440017406598961 0 0.00089048755932384638 -0.0039731547009745731 0 0.00067806685647809944 -0.0039872486764960715 0 0.0004406665860254938 -0.0046982397391339345 0 0.0010586232369583196 -0.0044294414128532413 0 0.00089048755932384638 -0.0039731547009745731 0 0.00089048755932384638 -0.0039731547009745731 0 0.00086153684774243938 -0.0038942008833212603 0 0.00067806685647809944 -0.0039872486764960715 0 0.00089048755932384638 -0.0039731547009745731 0 0.00086153684774243938 -0.0038942008833212603 0 0.00086775212874784524 -0.0039230004402192771 0 0.00086153684774243938 -0.0038942008833212603 0 0.00089685917143639195 -0.0040406108477988286 0 0.00086775212874784524 -0.0039230004402192771 0 0.00086153684774243938 -0.0038942008833212603 0 0.00060305694068315966 -0.0037476919146039777 0 0.00067806685647809944 -0.0039872486764960715 0 0.00059852420869246328 -0.0034044051228625228 0 0.00029501583879995612 -0.0040794366206589067 0 0.00036005695048343136 -0.0033523752298022075 0 0.00086153684774243938 -0.0038942008833212603 0 0.0010107804793098539 -0.0039217295794917156 0 0.00097647338879094654 -0.0041208410143131671 0 0.00056188552327949258 -0.003986353990418183 0 3.4140546421330961e-05 -0.004474579320063953 0 0.00089106441807059757 -0.0039117521164892064 0 0.00056188552327949258 -0.003986353990418183 0 0.00060305694068315966 -0.0037476919146039777 0 0.00067806685647809944 -0.0039872486764960715 0 0.00029501583879995612 -0.0040794366206589067 0 0.00056188552327949258 -0.003986353990418183 0 0.00036961628811755848 -0.0039133877721381919 0 0.00049717798704433192 -0.0042440017406598961 0 0.00067806685647809944 -0.0039872486764960715 0 0.00029501583879995612 -0.0040794366206589067 0 0.00029501583879995612 -0.0040794366206589067 0 3.746518337783792e-05 -0.0038254339428009411 0 0.00036005695048343136 -0.0033523752298022075 0 -0.00031622634429409081 -0.0044946965216677189 0 0.00029501583879995612 -0.0040794366206589067 0 3.746518337783792e-05 -0.0038254339428009411 0 -0.00032089618516296979 -0.0044682834624586998 0 -0.00017416711299176398 -0.0042116192930114387 0 -0.00031622634429409081 -0.0044946965216677189 0 -0.00046959079817408882 -0.0046676520588909681 0 -0.00045906052118055841 -0.004694703365892389 0 -0.00048895535585431543 -0.0047215014983913242 0 -0.00031622634429409081 -0.0044946965216677189 0 -0.00045906052118055841 -0.004694703365892389 0 -0.00046959079817408882 -0.0046676520588909681 0 -0.00045906052118055841 -0.004694703365892389 0 -0.00050639477828254124 -0.0047272488959958486 0 3.4140546421330961e-05 -0.004474579320063953 0 -0.00056850399215992403 -0.0050004259483826521 0 -0.00046959079817408882 -0.0046676520588909681 0 -0.00047691281310819234 -0.0046803072012656065 0 -0.00050639477828254124 -0.0047272488959958486 0 -0.00017416711299176398 -0.0042116192930114387 0 3.4140546421330961e-05 -0.004474579320063953 0 -0.00012893894701555936 -0.0052691366679504838 0 -0.00025900217252966789 -0.0049996082514584721 0 -0.00051145955505856023 -0.0051323718522614812 0 -0.00025900217252966789 -0.0049996082514584721 0 -0.00051145955505856023 -0.0051323718522614812 0 -0.00047468951793429922 -0.0049563166181286773 0 -0.00025900217252966789 -0.0049996082514584721 0 -0.00047468951793429922 -0.0049563166181286773 0 -0.0004312691504059381 -0.0047688397104699949 0 -0.00047468951793429922 -0.0049563166181286773 0 -0.00067083291730397042 -0.0049134412174382924 0 -0.0004312691504059381 -0.0047688397104699949 0 -0.00025900217252966789 -0.0049996082514584721 0 -1.8273544699151077e-06 -0.0047474762742850335 0 -0.0004312691504059381 -0.0047688397104699949 0 8.4806982994509048e-05 -0.005019408098179968 0 0.00035408072934307644 -0.0047252575927865734 0 -1.8273544699151077e-06 -0.0047474762742850335 0 -0.00025900217252966789 -0.0049996082514584721 0 8.4806982994509048e-05 -0.005019408098179968 0 -1.8273544699151077e-06 -0.0047474762742850335 0 0.00024173617556658825 -0.0048080022051856649 0 0.00053505337709754326 -0.0045209256008693589 0 0.00043243408450339608 -0.0044461346712490538 0 0.00044033869613781072 -0.0044480511064519104 0 0.0004184986327281154 -0.004500777381125331 0 0.00073550416460699838 -0.004271617169198441 0 0.00053505337709754326 -0.0045209256008693589 0 0.00097647338879094654 -0.0041208410143131671 0 0.0009525813652014628 -0.0042303281269992698 0 0.0009279425824837243 -0.0041591595758182125 0 0.00086153684774243938 -0.0038942008833212603 0 0.00097647338879094654 -0.0041208410143131671 0 0.00089685917143639195 -0.0040406108477988286 0 0.00097647338879094654 -0.0041208410143131671 0 0.00089685917143639195 -0.0040406108477988286 0 0.0009279425824837243 -0.0041591595758182125 0 0.00045221227800617679 -0.0043888215549318325 0 0.00043243408450339608 -0.0044461346712490538 0 0.00044033869613781072 -0.0044480511064519104 0 0.00045221227800617679 -0.0043888215549318325 0 0.00046870534634913127 -0.0043929437524415594 0 0.00044033869613781072 -0.0044480511064519104 0 0.00056188552327949258 -0.003986353990418183 0 0.00073550416460699838 -0.004271617169198441 0 -0.00012893894701555936 -0.0052691366679504838 0 -0.00025900217252966789 -0.0049996082514584721 0 8.4806982994509048e-05 -0.005019408098179968 0 3.4140546421330961e-05 -0.004474579320063953 0 0.00024173617556658825 -0.0048080022051856649 0 -0.00023613832569211956 -0.028028565824659929 0 -0.00026342104896392066 -0.027958383494294241 0 -0.00018299964904737719 -0.028088675898770721 0 -0.0002483246891763357 -0.027836779365120912 0 -0.00023613832569211956 -0.028028565824659929 0 -0.00026342104896392066 -0.027958383494294241 0 -0.0002483246891763357 -0.027836779365120912 0 -0.00031897420717296316 -0.027674392247729593 0 -0.00026342104896392066 -0.027958383494294241 0 -0.0014033077638417213 -0.015745330754325302 0 -0.00039549600626174504 -0.016544979415189159 0 -0.00079146395852078418 -0.0049631722122024206 0 -0.00085377712559669115 -0.0049992030312314556 0 -0.00074740567233797959 -0.0049272836409931641 0 -0.00085377712559669115 -0.0049992030312314556 0 -0.00074740567233797959 -0.0049272836409931641 0 -0.00072797065453473803 -0.0049541928233636096 0 -0.00075175668561020101 -0.0049231231747607204 0 -0.00079146395852078418 -0.0049631722122024206 0 -0.00074740567233797959 -0.0049272836409931641 0 -0.00075175668561020101 -0.0049231231747607204 0 -0.00074740567233797959 -0.0049272836409931641 0 -0.00069431938203677428 -0.004869307545544938 0 -0.00074740567233797959 -0.0049272836409931641 0 -0.00072797065453473803 -0.0049541928233636096 0 -0.00068481040107186344 -0.0048688085786338731 0 -0.00072797065453473803 -0.0049541928233636096 0 -0.00068481040107186344 -0.0048688085786338731 0 -0.00070542066061694256 -0.0049466435695023373 0 -0.00068481040107186344 -0.0048688085786338731 0 -0.00059695634349865405 -0.0047980558305569651 0 -0.00070542066061694256 -0.0049466435695023373 0 -0.00068481040107186344 -0.0048688085786338731 0 -0.00059536179727762595 -0.0047880029927737273 0 -0.00059695634349865405 -0.0047980558305569651 0 -0.00067019697143255003 -0.0048659875446809431 0 -0.00069431938203677428 -0.004869307545544938 0 -0.00059536179727762595 -0.0047880029927737273 0 -0.00074740567233797959 -0.0049272836409931641 0 -0.00068481040107186344 -0.0048688085786338731 0 -0.00069431938203677428 -0.004869307545544938 0 -0.00068481040107186344 -0.0048688085786338731 0 -0.00069431938203677428 -0.004869307545544938 0 -0.00059536179727762595 -0.0047880029927737273 0 -0.00048895535585431543 -0.0047215014983913242 0 -0.00045906052118055841 -0.004694703365892389 0 -0.00059536179727762595 -0.0047880029927737273 0 -0.00045906052118055841 -0.004694703365892389 0 -0.00059536179727762595 -0.0047880029927737273 0 -0.00059695634349865405 -0.0047980558305569651 0 -0.00050639477828254124 -0.0047272488959958486 0 -0.00059695634349865405 -0.0047980558305569651 0 -0.00070542066061694256 -0.0049466435695023373 0 -0.00045906052118055841 -0.004694703365892389 0 -0.00050639477828254124 -0.0047272488959958486 0 -0.00059695634349865405 -0.0047980558305569651 0 -0.00051145955505856023 -0.0051323718522614812 0 -0.00067083291730397042 -0.0049134412174382924 0 -0.00070542066061694256 -0.0049466435695023373 0 -0.00051145955505856023 -0.0051323718522614812 0 -0.00047468951793429922 -0.0049563166181286773 0 -0.00067083291730397042 -0.0049134412174382924 0 -0.00056850399215992403 -0.0050004259483826521 0 -0.00064755307003579589 -0.0049278933713984658 0 -0.00067083291730397042 -0.0049134412174382924 0 -0.00070542066061694256 -0.0049466435695023373 0 -0.00074664431806141041 -0.0049992545896375903 0 -0.00037592125505765233 -0.016469502265204505 0 -0.00023505503111304797 -0.01630375752526534 0 -0.00067083291730397042 -0.0049134412174382924 0 -0.00074664431806141041 -0.0049992545896375903 0 -0.00080967899266514321 -0.0047945602292034442 0 -0.00072797065453473803 -0.0049541928233636096 0 -0.00070542066061694256 -0.0049466435695023373 0 -0.00074664431806141041 -0.0049992545896375903 0 -0.00039549600626174504 -0.016544979415189159 0 -0.00037592125505765233 -0.016469502265204505 0 -0.00026342104896392066 -0.027958383494294241 0 1.1003584955165877e-05 -0.028024970685804545 0 -0.00018299964904737719 -0.028088675898770721 0 1.1003584955165877e-05 -0.028024970685804545 0 -8.3749667001399751e-05 -0.02804773965273126 0 4.9850413005281042e-05 -0.027911675635770766 0 1.1003584955165877e-05 -0.028024970685804545 0 -8.3749667001399751e-05 -0.02804773965273126 0 -0.00018299964904737719 -0.028088675898770721 0 -0.00019622540138060983 -0.028166773300659653 0 -8.3749667001399751e-05 -0.02804773965273126 0 -0.00012875402145085292 -0.028002648424135107 0 -0.00019622540138060983 -0.028166773300659653 0 -8.3749667001399751e-05 -0.02804773965273126 0 -0.00018299964904737719 -0.028088675898770721 0 -0.00022590236973847076 -0.028160836468554686 0 -0.00019622540138060983 -0.028166773300659653 0 -0.00018299964904737719 -0.028088675898770721 0 -0.00022590236973847076 -0.028160836468554686 0 -0.00023613832569211956 -0.028028565824659929 0 -0.00018299964904737719 -0.028088675898770721 0 -0.00021583226391218922 -0.027838364671288262 0 -0.00012875402145085292 -0.028002648424135107 0 5.6814674701569369e-05 -0.027704513678199438 0 -0.00020660370600635296 -0.027626871116115979 0 -0.00021583226391218922 -0.027838364671288262 0 5.6814674701569369e-05 -0.027704513678199438 0 -8.3749667001399751e-05 -0.02804773965273126 0 -0.00012875402145085292 -0.028002648424135107 0 4.9850413005281042e-05 -0.027911675635770766 0 -0.00012875402145085292 -0.028002648424135107 0 4.9850413005281042e-05 -0.027911675635770766 0 5.6814674701569369e-05 -0.027704513678199438 0 1.1003584955165877e-05 -0.028024970685804545 0 4.9850413005281042e-05 -0.027911675635770766 0 0.00034077274265456782 -0.027808500558127041 0 4.9850413005281042e-05 -0.027911675635770766 0 5.6814674701569369e-05 -0.027704513678199438 0 0.00034077274265456782 -0.027808500558127041 0 5.6814674701569369e-05 -0.027704513678199438 0 0.00034077274265456782 -0.027808500558127041 0 0.00065309598534205211 -0.027462148832019025 0 -0.00023505503111304797 -0.01630375752526534 0 -2.9939672445231377e-05 -0.015831391684671396 0 -0.00067083291730397042 -0.0049134412174382924 0 -0.00058043995806817674 -0.0045785306150732327 0 -0.0004312691504059381 -0.0047688397104699949 0 -0.00067083291730397042 -0.0049134412174382924 0 -0.00080967899266514321 -0.0047945602292034442 0 -0.00058043995806817674 -0.0045785306150732327 0 -0.00080967899266514321 -0.0047945602292034442 0 -0.00058043995806817674 -0.0045785306150732327 0 -0.00078269611307812221 -0.0043719123260647164 0 5.6814674701569369e-05 -0.027704513678199438 0 0.00065309598534205211 -0.027462148832019025 0 0.00038825914164240615 -0.027278973644580786 0 -0.00058043995806817674 -0.0045785306150732327 0 -0.00078269611307812221 -0.0043719123260647164 0 -0.00044832529260747733 -0.0042205370509885015 0 -0.00078269611307812221 -0.0043719123260647164 0 -0.00065038819013977167 -0.003853888367810249 0 -0.00044832529260747733 -0.0042205370509885015 0 0.00065309598534205211 -0.027462148832019025 0 0.0010278655356662418 -0.026922883085322091 0 0.00038825914164240615 -0.027278973644580786 0 -2.9939672445231377e-05 -0.015831391684671396 0 8.2659843771713289e-05 -0.015706051620437471 0 0.0010278655356662418 -0.026922883085322091 0 0.00038825914164240615 -0.027278973644580786 0 0.00059063787769938125 -0.026797977096311078 0 5.6814674701569369e-05 -0.027704513678199438 0 0.00038825914164240615 -0.027278973644580786 0 -2.2473945009674002e-05 -0.02754633445661096 0 0.00038825914164240615 -0.027278973644580786 0 -2.2473945009674002e-05 -0.02754633445661096 0 0.00018808226222508841 -0.026991072011252684 0 -0.00066104620350779936 -0.0285137897175455 0 -0.00048906294517105336 -0.027660894556535118 0 -2.2473945009674002e-05 -0.02754633445661096 0 -2.2473945009674002e-05 -0.02754633445661096 0 -0.0002298115056169383 -0.027125250918655697 0 0.00018808226222508841 -0.026991072011252684 0 -0.00048906294517105336 -0.027660894556535118 0 -2.2473945009674002e-05 -0.02754633445661096 0 -0.0002298115056169383 -0.027125250918655697 0 -0.00020660370600635296 -0.027626871116115979 0 5.6814674701569369e-05 -0.027704513678199438 0 -2.2473945009674002e-05 -0.02754633445661096 0 -0.00046212394798928938 -0.028067368352294335 0 -5.925263275737021e-05 -0.027637599115936787 0 4.2568650942524868e-05 -0.0043950181854479058 0 0.00031026244695112781 -0.0042678546132547991 0 0.00014168766537734173 -0.0041089225635324855 0 0.00031026244695112781 -0.0042678546132547991 0 0.0004846032963983391 -0.0041294904775992583 0 0.00038707584757215424 -0.0040009653928431673 0 0.00031026244695112781 -0.0042678546132547991 0 0.0004846032963983391 -0.0041294904775992583 0 0.00051354698103535444 -0.0042893749235583672 0 0.00031026244695112781 -0.0042678546132547991 0 0.00040838949907972616 -0.0043771934299444626 0 0.00051354698103535444 -0.0042893749235583672 0 0.00031026244695112781 -0.0042678546132547991 0 0.00040838949907972616 -0.0043771934299444626 0 0.00027542855498074754 -0.0045102840913947796 0 0.00040838949907972616 -0.0043771934299444626 0 0.00027542855498074754 -0.0045102840913947796 0 0.00054523415790264096 -0.0044409169981881923 0 0.00040838949907972616 -0.0043771934299444626 0 0.00054523415790264096 -0.0044409169981881923 0 0.00051354698103535444 -0.0042893749235583672 0 4.2568650942524868e-05 -0.0043950181854479058 0 0.00031026244695112781 -0.0042678546132547991 0 0.00027542855498074754 -0.0045102840913947796 0 0.00027542855498074754 -0.0045102840913947796 0 0.00035408072934307644 -0.0047252575927865734 0 -1.8273544699151077e-06 -0.0047474762742850335 0 0.00053505337709754326 -0.0045209256008693589 0 0.00078354400057645669 -0.0042991056992526212 0 0.00027542855498074754 -0.0045102840913947796 0 0.00035408072934307644 -0.0047252575927865734 0 0.00054523415790264096 -0.0044409169981881923 0 0.00053505337709754326 -0.0045209256008693589 0 0.0004825066616405948 -0.0045540601617449303 0 4.2568650942524868e-05 -0.0043950181854479058 0 0.00027542855498074754 -0.0045102840913947796 0 -1.8273544699151077e-06 -0.0047474762742850335 0 4.2568650942524868e-05 -0.0043950181854479058 0 -1.8273544699151077e-06 -0.0047474762742850335 0 -0.00026721619351968045 -0.0044805227508248379 0 -1.8273544699151077e-06 -0.0047474762742850335 0 -0.0004312691504059381 -0.0047688397104699949 0 -0.00026721619351968045 -0.0044805227508248379 0 -0.00058043995806817674 -0.0045785306150732327 0 -0.0004312691504059381 -0.0047688397104699949 0 -0.00026721619351968045 -0.0044805227508248379 0 -0.00058043995806817674 -0.0045785306150732327 0 -0.00026721619351968045 -0.0044805227508248379 0 -0.00044832529260747733 -0.0042205370509885015 0 4.2568650942524868e-05 -0.0043950181854479058 0 -0.00026721619351968045 -0.0044805227508248379 0 -0.00011788566937004775 -0.0041052021235361297 0 -0.00011788566937004775 -0.0041052021235361297 0 -0.00044832529260747733 -0.0042205370509885015 0 -0.0003057204461748726 -0.0038940680798639823 0 -0.00026721619351968045 -0.0044805227508248379 0 -0.00011788566937004775 -0.0041052021235361297 0 -0.00044832529260747733 -0.0042205370509885015 0 -0.00065038819013977167 -0.003853888367810249 0 -0.0003057204461748726 -0.0038940680798639823 0 -0.00024664092128354892 -0.0035769136546454721 0 -0.00065038819013977167 -0.003853888367810249 0 -0.00044832529260747733 -0.0042205370509885015 0 -0.0003057204461748726 -0.0038940680798639823 0 -0.00011788566937004775 -0.0041052021235361297 0 -0.0003057204461748726 -0.0038940680798639823 0 -4.4775911187631394e-05 -0.0037711316495696863 0 -0.0003057204461748726 -0.0038940680798639823 0 -4.4775911187631394e-05 -0.0037711316495696863 0 -0.00024664092128354892 -0.0035769136546454721 0 -0.00011788566937004775 -0.0041052021235361297 0 -4.4775911187631394e-05 -0.0037711316495696863 0 8.906301906061486e-05 -0.0038949435830061109 0 -4.4775911187631394e-05 -0.0037711316495696863 0 0.00018385909731377117 -0.0037006214484610182 0 0.00013379126352705808 -0.0034688744250990873 0 -4.4775911187631394e-05 -0.0037711316495696863 0 0.00018385909731377117 -0.0037006214484610182 0 8.906301906061486e-05 -0.0038949435830061109 0 0.00018385909731377117 -0.0037006214484610182 0 8.906301906061486e-05 -0.0038949435830061109 0 0.00029905929525826154 -0.0038234878176812426 0 4.2568650942524868e-05 -0.0043950181854479058 0 -0.00011788566937004775 -0.0041052021235361297 0 0.00014168766537734173 -0.0041089225635324855 0 -0.00011788566937004775 -0.0041052021235361297 0 8.906301906061486e-05 -0.0038949435830061109 0 0.00014168766537734173 -0.0041089225635324855 0 8.906301906061486e-05 -0.0038949435830061109 0 0.00014168766537734173 -0.0041089225635324855 0 0.00029905929525826154 -0.0038234878176812426 0 0.0004846032963983391 -0.0041294904775992583 0 0.00038707584757215424 -0.0040009653928431673 0 0.00061006190586533984 -0.003923214802643708 0 0.00031026244695112781 -0.0042678546132547991 0 0.00014168766537734173 -0.0041089225635324855 0 0.00038707584757215424 -0.0040009653928431673 0 0.00014168766537734173 -0.0041089225635324855 0 0.00038707584757215424 -0.0040009653928431673 0 0.00029905929525826154 -0.0038234878176812426 0 0.00038707584757215424 -0.0040009653928431673 0 0.00029905929525826154 -0.0038234878176812426 0 0.00054874136646904624 -0.0037098305356679478 0 0.00029905929525826154 -0.0038234878176812426 0 0.00044244804063997144 -0.0035800844062137136 0 0.00054874136646904624 -0.0037098305356679478 0 0.00018385909731377117 -0.0037006214484610182 0 0.00029905929525826154 -0.0038234878176812426 0 0.00044244804063997144 -0.0035800844062137136 0 0.00018385909731377117 -0.0037006214484610182 0 0.00044244804063997144 -0.0035800844062137136 0 0.00013379126352705808 -0.0034688744250990873 0 0.00044244804063997144 -0.0035800844062137136 0 0.00078559108545800719 -0.0034916909439680066 0 0.00054874136646904624 -0.0037098305356679478 0 0.00044244804063997144 -0.0035800844062137136 0 0.00078559108545800719 -0.0034916909439680066 0 0.00077424531749267409 -0.0033634869957236656 0 0.00080592872341560479 -0.0034076699062214914 0 0.0013764965608303191 -0.0025640048465183788 0 0.0014996090325075909 -0.0030534726070715846 0 0.00078559108545800719 -0.0034916909439680066 0 0.0016766924735667594 -0.0018597032492635938 0 0.00078559108545800719 -0.0034916909439680066 0 0.00099223724648387973 -0.0033463111673404178 0 0.00077424531749267409 -0.0033634869957236656 0 0.0014996090325075909 -0.0030534726070715846 0 0.00078559108545800719 -0.0034916909439680066 0 0.0014041674825875578 -0.0035512628079592871 0 0.00078559108545800719 -0.0034916909439680066 0 0.0014041674825875578 -0.0035512628079592871 0 0.0012070716626840284 -0.0039409645869844696 0 0.00078559108545800719 -0.0034916909439680066 0 0.0012070716626840284 -0.0039409645869844696 0 0.0009010206443487833 -0.004028441232362779 0 0.0012070716626840284 -0.0039409645869844696 0 0.0014964958612104398 -0.0039049699535368613 0 0.0012504385564345009 -0.004097554849924123 0 0.0014041674825875578 -0.0035512628079592871 0 0.0012070716626840284 -0.0039409645869844696 0 0.0014964958612104398 -0.0039049699535368613 0 0.00078559108545800719 -0.0034916909439680066 0 0.0009010206443487833 -0.004028441232362779 0 0.00061006190586533984 -0.003923214802643708 0 0.0009010206443487833 -0.004028441232362779 0 0.00061006190586533984 -0.003923214802643708 0 0.00062325263015836497 -0.0041647572082121305 0 0.0004846032963983391 -0.0041294904775992583 0 0.00061006190586533984 -0.003923214802643708 0 0.00062325263015836497 -0.0041647572082121305 0 0.00038707584757215424 -0.0040009653928431673 0 0.00061006190586533984 -0.003923214802643708 0 0.00054874136646904624 -0.0037098305356679478 0 0.00078559108545800719 -0.0034916909439680066 0 0.00061006190586533984 -0.003923214802643708 0 0.00054874136646904624 -0.0037098305356679478 0 0.002805229089502188 -0.0015255430590472479 0 0.0028390691992871038 -0.0015151131798552364 0 0.0029028929632557753 -0.0014886834158827677 0 0.002805229089502188 -0.0015255430590472479 0 0.002904645835530279 -0.0014451140284132509 0 0.0029028929632557753 -0.0014886834158827677 0 0.002805229089502188 -0.0015255430590472479 0 0.002904645835530279 -0.0014451140284132509 0 0.0028156304036472454 -0.0014517987794374623 0 0.002805229089502188 -0.0015255430590472479 0 0.0027027511126036042 -0.001572518322290796 0 0.0027983028359775861 -0.0015334436185309303 0 0.002805229089502188 -0.0015255430590472479 0 0.0027027511126036042 -0.001572518322290796 0 0.0028156304036472454 -0.0014517987794374623 0 0.002805229089502188 -0.0015255430590472479 0 0.0027983028359775861 -0.0015334436185309303 0 0.0028390691992871038 -0.0015151131798552364 0 0.0014996090325075909 -0.0030534726070715846 0 0.0022086164198110571 -0.0032585957649863555 0 0.0016766924735667594 -0.0018597032492635938 0 0.0024678375832815624 -0.0024147887841601094 0 0.0025218207954077355 -0.0016730164765245482 0 0.0022086164198110571 -0.0032585957649863555 0 0.0025011194367927959 -0.0016522424513499142 0 0.0016766924735667594 -0.0018597032492635938 0 0.0027027511126036042 -0.001572518322290796 0 0.0027983028359775861 -0.0015334436185309303 0 0.0025011194367927959 -0.0016522424513499142 0 0.0014996090325075909 -0.0030534726070715846 0 0.0014041674825875578 -0.0035512628079592871 0 0.0022086164198110571 -0.0032585957649863555 0 0.0027983028359775861 -0.0015334436185309303 0 0.002827558419258548 -0.0015319659783333847 0 0.0028379540203245729 -0.0015335641573612554 0 0.0024678375832815624 -0.0024147887841601094 0 0.0022245832934981035 -0.0023898510543683099 0 0.0022086164198110571 -0.0032585957649863555 0 0.0014964958612104398 -0.0039049699535368613 0 0.0016987555798825835 -0.0040881914732414145 0 0.0014041674825875578 -0.0035512628079592871 0 0.0022086164198110571 -0.0032585957649863555 0 0.0014964958612104398 -0.0039049699535368613 0 0.0026539494442146959 -0.0016308050690599836 0 0.0022245832934981035 -0.0023898510543683099 0 0.002827558419258548 -0.0015319659783333847 0 0.0028437413118094471 -0.0015356024752049126 0 0.0028244207012358088 -0.0015347372591205191 0 0.0027983028359775861 -0.0015334436185309303 0 0.002827558419258548 -0.0015319659783333847 0 0.0028293032025357764 -0.0015259075183254411 0 0.0028293032025357764 -0.0015259075183254411 0 0.0028390691992871038 -0.0015151131798552364 0 0.0028551153708645948 -0.0015245733968836544 0 0.0027983028359775861 -0.0015334436185309303 0 0.0028293032025357764 -0.0015259075183254411 0 0.0028390691992871038 -0.0015151131798552364 0 0.002827558419258548 -0.0015319659783333847 0 0.0028293032025357764 -0.0015259075183254411 0 0.0028551153708645948 -0.0015245733968836544 0 0.002827558419258548 -0.0015319659783333847 0 0.0028551153708645948 -0.0015245733968836544 0 0.0028437413118094471 -0.0015356024752049126 0 0.0028551153708645948 -0.0015245733968836544 0 0.0028761332416284229 -0.0015396486049453892 0 0.0028437413118094471 -0.0015356024752049126 0 0.0028551153708645948 -0.0015245733968836544 0 0.0028995708968733522 -0.0015072149908370777 0 0.0029366094971419701 -0.0015227178283926442 0 0.0028551153708645948 -0.0015245733968836544 0 0.0028761332416284229 -0.0015396486049453892 0 0.0029366094971419701 -0.0015227178283926442 0 0.0028390691992871038 -0.0015151131798552364 0 0.0028551153708645948 -0.0015245733968836544 0 0.0028995708968733522 -0.0015072149908370777 0 0.0028390691992871038 -0.0015151131798552364 0 0.0028995708968733522 -0.0015072149908370777 0 0.0029028929632557753 -0.0014886834158827677 0 0.0028904274302247422 -0.0015638933626697328 0 0.0028761332416284229 -0.0015396486049453892 0 0.0029482995696450396 -0.0015514997549945864 0 0.0028904274302247422 -0.0015638933626697328 0 0.0029288914691689718 -0.0015954982298708495 0 0.0029482995696450396 -0.0015514997549945864 0 0.0028761332416284229 -0.0015396486049453892 0 0.0029482995696450396 -0.0015514997549945864 0 0.0029366094971419701 -0.0015227178283926442 0 0.0028761332416284229 -0.0015396486049453892 0 0.0028437413118094471 -0.0015356024752049126 0 0.0028393988116153434 -0.001560994554585313 0 0.0028904274302247422 -0.0015638933626697328 0 0.0028393988116153434 -0.001560994554585313 0 0.0028637052840498447 -0.0015864256832991133 0 0.0028904274302247422 -0.0015638933626697328 0 0.0028761332416284229 -0.0015396486049453892 0 0.0028393988116153434 -0.001560994554585313 0 0.0022245832934981035 -0.0023898510543683099 0 0.0013863055719850184 -0.0034014924253183915 0 0.0016987555798825835 -0.0040881914732414145 0 0.0012345958331224376 -0.0042180400714477142 0 0.0010900138772211103 -0.0043057683502340958 0 0.0028393988116153434 -0.001560994554585313 0 0.0028244207012358088 -0.0015347372591205191 0 0.0027576275894037874 -0.0016168708601947749 0 0.0022245832934981035 -0.0023898510543683099 0 0.002366809375502352 -0.0018039777204293139 0 0.0028437413118094471 -0.0015356024752049126 0 0.0028393988116153434 -0.001560994554585313 0 0.0028244207012358088 -0.0015347372591205191 0 0.0016987555798825835 -0.0040881914732414145 0 0.0014220135081276768 -0.0040959442312690523 0 0.0012345958331224376 -0.0042180400714477142 0 0.0014964958612104398 -0.0039049699535368613 0 0.0016987555798825835 -0.0040881914732414145 0 0.0014220135081276768 -0.0040959442312690523 0 0.0028393988116153434 -0.001560994554585313 0 0.0027576275894037874 -0.0016168708601947749 0 0.002827808194730403 -0.0015985598521678589 0 0.0019684512059201572 -0.0019577898273731732 0 0.0019325174209610834 -0.0022621780365299259 0 0.0018081071883436857 -0.0022466266116355485 0 0.0027576275894037874 -0.0016168708601947749 0 0.002827808194730403 -0.0015985598521678589 0 0.0028536567850508091 -0.0016354619521263707 0 0.002827808194730403 -0.0015985598521678589 0 0.0028637052840498447 -0.0015864256832991133 0 0.0028536567850508091 -0.0016354619521263707 0 0.0028393988116153434 -0.001560994554585313 0 0.002827808194730403 -0.0015985598521678589 0 0.0028637052840498447 -0.0015864256832991133 0 0.0028637052840498447 -0.0015864256832991133 0 0.0028536567850508091 -0.0016354619521263707 0 0.0029288914691689718 -0.0015954982298708495 0 0.0028536567850508091 -0.0016354619521263707 0 0.0029288914691689718 -0.0015954982298708495 0 0.0029776691828505425 -0.0016838259254137356 0 0.0028904274302247422 -0.0015638933626697328 0 0.0028637052840498447 -0.0015864256832991133 0 0.0029288914691689718 -0.0015954982298708495 0 0.0009010206443487833 -0.004028441232362779 0 0.00098144723546629673 -0.0041816096465071223 0 0.00093614932693237326 -0.0042074134700353788 0 0.00060692284587216048 -0.0044585920416760627 0 0.00051354698103535444 -0.0042893749235583672 0 0.00062325263015836497 -0.0041647572082121305 0 0.00060692284587216048 -0.0044585920416760627 0 0.00054523415790264096 -0.0044409169981881923 0 0.00051354698103535444 -0.0042893749235583672 0 0.0004846032963983391 -0.0041294904775992583 0 0.00051354698103535444 -0.0042893749235583672 0 0.00062325263015836497 -0.0041647572082121305 0 0.00089856989332337349 -0.004068340020264744 0 0.00078354400057645669 -0.0042991056992526212 0 0.0009010206443487833 -0.004028441232362779 0 0.00060692284587216048 -0.0044585920416760627 0 0.00062325263015836497 -0.0041647572082121305 0 0.0009010206443487833 -0.004028441232362779 0 0.00098144723546629673 -0.0041816096465071223 0 0.0010716990135312113 -0.0041441116816553882 0 0.0012070716626840284 -0.0039409645869844696 0 0.0009010206443487833 -0.004028441232362779 0 0.0010716990135312113 -0.0041441116816553882 0 0.0012070716626840284 -0.0039409645869844696 0 0.0010716990135312113 -0.0041441116816553882 0 0.0012504385564345009 -0.004097554849924123 0 0.0014964958612104398 -0.0039049699535368613 0 0.0014220135081276768 -0.0040959442312690523 0 0.0012504385564345009 -0.004097554849924123 0 0.0014220135081276768 -0.0040959442312690523 0 0.0012504385564345009 -0.004097554849924123 0 0.0012345958331224376 -0.0042180400714477142 0 0.0010716990135312113 -0.0041441116816553882 0 0.0012504385564345009 -0.004097554849924123 0 0.0012345958331224376 -0.0042180400714477142 0 0.00098144723546629673 -0.0041816096465071223 0 0.0010716990135312113 -0.0041441116816553882 0 0.0010469713644483236 -0.004214200752844329 0 0.0010716990135312113 -0.0041441116816553882 0 0.0012345958331224376 -0.0042180400714477142 0 0.0010469713644483236 -0.004214200752844329 0 0.0010469713644483236 -0.004214200752844329 0 0.0010077289978176467 -0.004272861979921893 0 0.0009614099672045636 -0.0042350342280641174 0 0.0012345958331224376 -0.0042180400714477142 0 0.0010469713644483236 -0.004214200752844329 0 0.0010077289978176467 -0.004272861979921893 0 0.0012345958331224376 -0.0042180400714477142 0 0.0010900138772211103 -0.0043057683502340958 0 0.0010077289978176467 -0.004272861979921893 0 0.0010077289978176467 -0.004272861979921893 0 0.0009614099672045636 -0.0042350342280641174 0 0.00094926313818069355 -0.0042269263725517297 0 0.00098144723546629673 -0.0041816096465071223 0 0.0010469713644483236 -0.004214200752844329 0 0.0009614099672045636 -0.0042350342280641174 0 0.00098144723546629673 -0.0041816096465071223 0 0.00093614932693237326 -0.0042074134700353788 0 0.0009614099672045636 -0.0042350342280641174 0 0.00037876758958902692 -0.0047831178965370034 0 0.00060692284587216048 -0.0044585920416760627 0 0.00054523415790264096 -0.0044409169981881923 0 0.0009525813652014628 -0.0042303281269992698 0 0.00093614932693237326 -0.0042074134700353788 0 0.0009614099672045636 -0.0042350342280641174 0 0.0009525813652014628 -0.0042303281269992698 0 0.0009614099672045636 -0.0042350342280641174 0 0.00094926313818069355 -0.0042269263725517297 0 0.0009525813652014628 -0.0042303281269992698 0 0.0009279425824837243 -0.0041591595758182125 0 0.00094926313818069355 -0.0042269263725517297 0 0.0009279425824837243 -0.0041591595758182125 0 0.00094926313818069355 -0.0042269263725517297 0 0.00087135589675625333 -0.0041378219921592583 0 0.0010077289978176467 -0.004272861979921893 0 0.00094926313818069355 -0.0042269263725517297 0 0.00087135589675625333 -0.0041378219921592583 0 0.00089685917143639195 -0.0040406108477988286 0 0.0009279425824837243 -0.0041591595758182125 0 0.00087135589675625333 -0.0041378219921592583 0 0.00089685917143639195 -0.0040406108477988286 0 0.00087135589675625333 -0.0041378219921592583 0 0.00086775212874784524 -0.0039230004402192771 0 0.0016039592622134221 -0.0025995022086762413 0 0.0019187959523906449 -0.002631865429423143 0 0.0016485452930725334 -0.0029074536197675684 0 0.0018081071883436857 -0.0022466266116355485 0 0.0016039592622134221 -0.0025995022086762413 0 0.0019187959523906449 -0.002631865429423143 0 0.0010900138772211103 -0.0043057683502340958 0 0.0010077289978176467 -0.004272861979921893 0 0.00087135589675625333 -0.0041378219921592583 0 0.0013863055719850184 -0.0034014924253183915 0 0.0012604387972097329 -0.003331386479870929 0 0.0027576275894037874 -0.0016168708601947749 0 0.0028028297925883662 -0.001718479040533189 0 0.0025664507544259601 -0.0018148479585727894 0 0.002366809375502352 -0.0018039777204293139 0 0.0022344529822962917 -0.0022698134860077409 0 0.0019325174209610834 -0.0022621780365299259 0 0.0018081071883436857 -0.0022466266116355485 0 0.0019187959523906449 -0.002631865429423143 0 0.0027576275894037874 -0.0016168708601947749 0 0.0028536567850508091 -0.0016354619521263707 0 0.0028028297925883662 -0.001718479040533189 0 0.0028536567850508091 -0.0016354619521263707 0 0.0028028297925883662 -0.001718479040533189 0 0.0029776691828505425 -0.0016838259254137356 0 0.0028028297925883662 -0.001718479040533189 0 0.0029397611592350934 -0.0017863324754891913 0 0.0029776691828505425 -0.0016838259254137356 0 0.0028028297925883662 -0.001718479040533189 0 0.0028749674574732658 -0.0019045785339825644 0 0.0029397611592350934 -0.0017863324754891913 0 0.0028749674574732658 -0.0019045785339825644 0 0.0029397611592350934 -0.0017863324754891913 0 0.0031053219034740589 -0.0018466283996859995 0 0.0028749674574732658 -0.0019045785339825644 0 0.0025664507544259601 -0.0018148479585727894 0 0.0027959840476463362 -0.0022051151723728193 0 0.0028028297925883662 -0.001718479040533189 0 0.0028749674574732658 -0.0019045785339825644 0 0.0025664507544259601 -0.0018148479585727894 0 0.0025664507544259601 -0.0018148479585727894 0 0.0027959840476463362 -0.0022051151723728193 0 0.0022595410557540779 -0.0023068649867628932 0 0.0022344529822962917 -0.0022698134860077409 0 0.0020951679028250654 -0.0027572972578789852 0 0.0028749674574732658 -0.0019045785339825644 0 0.0027959840476463362 -0.0022051151723728193 0 0.0031316224486762963 -0.0020790583740815079 0 0.0027959840476463362 -0.0022051151723728193 0 0.0028734797282293882 -0.0026905897100713279 0 0.0032919920063781082 -0.0023405971725238279 0 0.0027959840476463362 -0.0022051151723728193 0 0.0028734797282293882 -0.0026905897100713279 0 0.0022595410557540779 -0.0023068649867628932 0 0.0019661178819959419 -0.0035430193273912492 0 0.0028734797282293882 -0.0026905897100713279 0 0.0022595410557540779 -0.0023068649867628932 0 0.0019780525701972133 -0.0035070136895488722 0 0.0020951679028250654 -0.0027572972578789852 0 0.0015069633614131982 -0.0035399292370984462 0 0.0019274794468367518 -0.0031564008047593722 0 0.0016485452930725334 -0.0029074536197675684 0 0.0015069633614131982 -0.0035399292370984462 0 0.0019661178819959419 -0.0035430193273912492 0 0.0019274794468367518 -0.0031564008047593722 0 0.00089835831682875662 -0.0039395545986241299 0 0.0010826451854534219 -0.0035204058966117179 0 0.0015069633614131982 -0.0035399292370984462 0 0.0013009050536514734 -0.0030640965996535071 0 0.0016485452930725334 -0.0029074536197675684 0 0.0015069633614131982 -0.0035399292370984462 0 0.00089048755932384638 -0.0039731547009745731 0 0.0013009050536514734 -0.0030640965996535071 0 0.0012604387972097329 -0.003331386479870929 0 0.0010826451854534219 -0.0035204058966117179 0 0.0016039592622134221 -0.0025995022086762413 0 0.0013009050536514734 -0.0030640965996535071 0 0.0016485452930725334 -0.0029074536197675684 0 0.0019187959523906449 -0.002631865429423143 0 0.0019274794468367518 -0.0031564008047593722 0 0.0016485452930725334 -0.0029074536197675684 0 0.0034434518139901575 -0.001936400270387532 0 0.003368425231818468 -0.0020551202524855487 0 0.0033281066363479296 -0.0018208218081685705 0 0.0034434518139901575 -0.001936400270387532 0 0.0035097649668189546 -0.0020806554372291637 0 0.003368425231818468 -0.0020551202524855487 0 0.0034434518139901575 -0.001936400270387532 0 0.0034642802555586998 -0.0017464480822678545 0 0.003506994145210936 -0.0019241734129464038 0 0.0034434518139901575 -0.001936400270387532 0 0.0035097649668189546 -0.0020806554372291637 0 0.003506994145210936 -0.0019241734129464038 0 0.0035134802610369115 -0.002035545439146576 0 0.0036240823213548852 -0.0017955087073214188 0 0.0036808550522932589 -0.0018114412972102226 0 0.0035097649668189546 -0.0020806554372291637 0 0.0037293586605141233 -0.0016323012366626216 0 0.0035097649668189546 -0.0020806554372291637 0 0.0034891199324364711 -0.0023127654735109167 0 0.003368425231818468 -0.0020551202524855487 0 0.0034891199324364711 -0.0023127654735109167 0 0.0032919920063781082 -0.0023405971725238279 0 0.003368425231818468 -0.0020551202524855487 0 0.0031316224486762963 -0.0020790583740815079 0 0.003368425231818468 -0.0020551202524855487 0 0.0031053219034740589 -0.0018466283996859995 0 0.0032919920063781082 -0.0023405971725238279 0 0.0031316224486762963 -0.0020790583740815079 0 0.003368425231818468 -0.0020551202524855487 0 0.0027959840476463362 -0.0022051151723728193 0 0.0032919920063781082 -0.0023405971725238279 0 0.0031316224486762963 -0.0020790583740815079 0 0.003368425231818468 -0.0020551202524855487 0 0.0031053219034740589 -0.0018466283996859995 0 0.0033281066363479296 -0.0018208218081685705 0 0.0028749674574732658 -0.0019045785339825644 0 0.0031316224486762963 -0.0020790583740815079 0 0.0031053219034740589 -0.0018466283996859995 0 0.0031053219034740589 -0.0018466283996859995 0 0.0029776691828505425 -0.0016838259254137356 0 0.003160845776506058 -0.0016918020013548336 0 0.0029397611592350934 -0.0017863324754891913 0 0.0031053219034740589 -0.0018466283996859995 0 0.0029776691828505425 -0.0016838259254137356 0 0.0031053219034740589 -0.0018466283996859995 0 0.003160845776506058 -0.0016918020013548336 0 0.0033281066363479296 -0.0018208218081685705 0 0.003160845776506058 -0.0016918020013548336 0 0.003314487260646579 -0.0016698981079501334 0 0.0033281066363479296 -0.0018208218081685705 0 0.003314487260646579 -0.0016698981079501334 0 0.0033281066363479296 -0.0018208218081685705 0 0.0034642802555586998 -0.0017464480822678545 0 0.0034434518139901575 -0.001936400270387532 0 0.0033281066363479296 -0.0018208218081685705 0 0.0034642802555586998 -0.0017464480822678545 0 0.003314487260646579 -0.0016698981079501334 0 0.0034642802555586998 -0.0017464480822678545 0 0.003387366061570442 -0.001619352523458923 0 0.0034642802555586998 -0.0017464480822678545 0 0.003387366061570442 -0.001619352523458923 0 0.0034747647834201482 -0.0015742594393066583 0 0.003387366061570442 -0.001619352523458923 0 0.0033148368284657533 -0.0015380577867873178 0 0.0034747647834201482 -0.0015742594393066583 0 0.003314487260646579 -0.0016698981079501334 0 0.003387366061570442 -0.001619352523458923 0 0.0033148368284657533 -0.0015380577867873178 0 0.003314487260646579 -0.0016698981079501334 0 0.0033148368284657533 -0.0015380577867873178 0 0.0031711624738943707 -0.0015911749506089482 0 0.0033148368284657533 -0.0015380577867873178 0 0.0031514936504779649 -0.0015248206542014245 0 0.003182232889556433 -0.0014519753238327931 0 0.0033148368284657533 -0.0015380577867873178 0 0.0033065930044922534 -0.0014355925840232131 0 0.003182232889556433 -0.0014519753238327931 0 0.0033148368284657533 -0.0015380577867873178 0 0.0031711624738943707 -0.0015911749506089482 0 0.0031514936504779649 -0.0015248206542014245 0 0.0033148368284657533 -0.0015380577867873178 0 0.0034747647834201482 -0.0015742594393066583 0 0.0034338298581858199 -0.001435024658982846 0 0.0033148368284657533 -0.0015380577867873178 0 0.0033065930044922534 -0.0014355925840232131 0 0.0034338298581858199 -0.001435024658982846 0 0.0029776691828505425 -0.0016838259254137356 0 0.003160845776506058 -0.0016918020013548336 0 0.003034887155607392 -0.0016030788037755695 0 0.0029288914691689718 -0.0015954982298708495 0 0.003034887155607392 -0.0016030788037755695 0 0.0029482995696450396 -0.0015514997549945864 0 0.0029288914691689718 -0.0015954982298708495 0 0.0029776691828505425 -0.0016838259254137356 0 0.003034887155607392 -0.0016030788037755695 0 0.003034887155607392 -0.0016030788037755695 0 0.0031711624738943707 -0.0015911749506089482 0 0.0030363052857129381 -0.0015443606088313591 0 0.003160845776506058 -0.0016918020013548336 0 0.003034887155607392 -0.0016030788037755695 0 0.0031711624738943707 -0.0015911749506089482 0 0.003160845776506058 -0.0016918020013548336 0 0.003314487260646579 -0.0016698981079501334 0 0.0031711624738943707 -0.0015911749506089482 0 0.0031514936504779649 -0.0015248206542014245 0 0.0030363052857129381 -0.0015443606088313591 0 0.0030496098143737538 -0.0015014877284699507 0 0.0031711624738943707 -0.0015911749506089482 0 0.0031514936504779649 -0.0015248206542014245 0 0.0030363052857129381 -0.0015443606088313591 0 0.0030363052857129381 -0.0015443606088313591 0 0.0029366094971419701 -0.0015227178283926442 0 0.0030496098143737538 -0.0015014877284699507 0 0.0030363052857129381 -0.0015443606088313591 0 0.0029482995696450396 -0.0015514997549945864 0 0.0029366094971419701 -0.0015227178283926442 0 0.003034887155607392 -0.0016030788037755695 0 0.0030363052857129381 -0.0015443606088313591 0 0.0029482995696450396 -0.0015514997549945864 0 0.0028995708968733522 -0.0015072149908370777 0 0.0029853194703056752 -0.0014821703307749605 0 0.0029028929632557753 -0.0014886834158827677 0 0.0028995708968733522 -0.0015072149908370777 0 0.0029366094971419701 -0.0015227178283926442 0 0.0029853194703056752 -0.0014821703307749605 0 0.0029366094971419701 -0.0015227178283926442 0 0.0030496098143737538 -0.0015014877284699507 0 0.0029853194703056752 -0.0014821703307749605 0 0.0030496098143737538 -0.0015014877284699507 0 0.0029853194703056752 -0.0014821703307749605 0 0.003088235690337171 -0.0014384695543058911 0 0.0031514936504779649 -0.0015248206542014245 0 0.0030496098143737538 -0.0015014877284699507 0 0.003182232889556433 -0.0014519753238327931 0 0.0030496098143737538 -0.0015014877284699507 0 0.003088235690337171 -0.0014384695543058911 0 0.003182232889556433 -0.0014519753238327931 0 0.003088235690337171 -0.0014384695543058911 0 0.003182232889556433 -0.0014519753238327931 0 0.0032174827090911675 -0.0013667177625846919 0 0.003088235690337171 -0.0014384695543058911 0 0.0031210981297993988 -0.0013628113396333382 0 0.0032174827090911675 -0.0013667177625846919 0 0.0031210981297993988 -0.0013628113396333382 0 0.0030099740388471021 -0.0014126007606745504 0 0.0030965028024229381 -0.0012774257662250365 0 0.003088235690337171 -0.0014384695543058911 0 0.0031210981297993988 -0.0013628113396333382 0 0.0030099740388471021 -0.0014126007606745504 0 0.0029853194703056752 -0.0014821703307749605 0 0.003088235690337171 -0.0014384695543058911 0 0.0030099740388471021 -0.0014126007606745504 0 0.0030099740388471021 -0.0014126007606745504 0 0.002904645835530279 -0.0014451140284132509 0 0.0029028929632557753 -0.0014886834158827677 0 0.0029853194703056752 -0.0014821703307749605 0 0.0030099740388471021 -0.0014126007606745504 0 0.0029028929632557753 -0.0014886834158827677 0 0.0033065930044922534 -0.0014355925840232131 0 0.0032174827090911675 -0.0013667177625846919 0 0.0033415832138831343 -0.0013357534760009002 0 0.0033065930044922534 -0.0014355925840232131 0 0.0033415832138831343 -0.0013357534760009002 0 0.0034338298581858199 -0.001435024658982846 0 0.0033065930044922534 -0.0014355925840232131 0 0.003182232889556433 -0.0014519753238327931 0 0.0032174827090911675 -0.0013667177625846919 0 0.0032174827090911675 -0.0013667177625846919 0 0.0033415832138831343 -0.0013357534760009002 0 0.0032647591930392008 -0.0012547090002566917 0 0.0031210981297993988 -0.0013628113396333382 0 0.0032174827090911675 -0.0013667177625846919 0 0.0031825498494734987 -0.0012884596438866387 0 0.0032174827090911675 -0.0013667177625846919 0 0.0031825498494734987 -0.0012884596438866387 0 0.0032647591930392008 -0.0012547090002566917 0 0.0033415832138831343 -0.0013357534760009002 0 0.0032647591930392008 -0.0012547090002566917 0 0.0033635882596193879 -0.0012060623508810542 0 0.0032647591930392008 -0.0012547090002566917 0 0.0032807066297315941 -0.001141559523622898 0 0.0033635882596193879 -0.0012060623508810542 0 0.0032647591930392008 -0.0012547090002566917 0 0.003205561572608903 -0.001202527458608886 0 0.0032807066297315941 -0.001141559523622898 0 0.0031825498494734987 -0.0012884596438866387 0 0.0032647591930392008 -0.0012547090002566917 0 0.003205561572608903 -0.001202527458608886 0 0.003205561572608903 -0.001202527458608886 0 0.0032267018266024 -0.0011293491924790652 0 0.0031462291865651669 -0.0011443198390543548 0 0.0032267018266024 -0.0011293491924790652 0 0.0032807066297315941 -0.001141559523622898 0 0.0032519556012283878 -0.0010810316920938767 0 0.003205561572608903 -0.001202527458608886 0 0.0032267018266024 -0.0011293491924790652 0 0.0032807066297315941 -0.001141559523622898 0 0.0032807066297315941 -0.001141559523622898 0 0.0033635882596193879 -0.0012060623508810542 0 0.0033459358218691339 -0.0010778067282765373 0 0.0032807066297315941 -0.001141559523622898 0 0.0032984777373802421 -0.0010583103721157287 0 0.0033459358218691339 -0.0010778067282765373 0 0.0032807066297315941 -0.001141559523622898 0 0.0032984777373802421 -0.0010583103721157287 0 0.0032519556012283878 -0.0010810316920938767 0 0.0032984777373802421 -0.0010583103721157287 0 0.0032708038576596218 -0.0010609918944766226 0 0.0033348295075723666 -0.0010023653298147114 0 0.0032984777373802421 -0.0010583103721157287 0 0.0032519556012283878 -0.0010810316920938767 0 0.0032708038576596218 -0.0010609918944766226 0 0.0032267018266024 -0.0011293491924790652 0 0.0032519556012283878 -0.0010810316920938767 0 0.0032144360848216976 -0.0010912511438397584 0 0.0032519556012283878 -0.0010810316920938767 0 0.0032144360848216976 -0.0010912511438397584 0 0.0032383799610166009 -0.0010907655107050634 0 0.0030265661662070183 -0.0014513421107188477 0 0.0031892554919540133 -0.0012516883334271057 0 0.0032383799610166009 -0.0010907655107050634 0 0.0032324193226598553 -0.0010728369119490345 0 0.0032133786150612448 -0.0012048348216336412 0 0.0032144360848216976 -0.0010912511438397584 0 0.0032383799610166009 -0.0010907655107050634 0 0.0032324193226598553 -0.0010728369119490345 0 0.0032383799610166009 -0.0010907655107050634 0 0.0032708038576596218 -0.0010609918944766226 0 0.0032133786150612448 -0.0012048348216336412 0 0.0032708038576596218 -0.0010609918944766226 0 0.0032133786150612448 -0.0012048348216336412 0 0.0032873460244981405 -0.0010657943254919389 0 0.0032519556012283878 -0.0010810316920938767 0 0.0032383799610166009 -0.0010907655107050634 0 0.0032708038576596218 -0.0010609918944766226 0 0.002439602159098146 -0.0019775699450121417 0 0.0021020775264224468 -0.0021097001614099036 0 0.0021738245543965703 -0.0017528481085357997 0 0.002439602159098146 -0.0019775699450121417 0 0.0021738245543965703 -0.0017528481085357997 0 0.0024906745959491312 -0.0015678170943540085 0 0.002439602159098146 -0.0019775699450121417 0 0.0028297065632996408 -0.0018557938489880939 0 0.0024478154171432348 -0.0022297301621879186 0 0.002439602159098146 -0.0019775699450121417 0 0.0028297065632996408 -0.0018557938489880939 0 0.0024906745959491312 -0.0015678170943540085 0 0.0032144360848216976 -0.0010912511438397584 0 0.0031181587149558122 -0.0010983459864387058 0 0.0031462291865651669 -0.0011443198390543548 0 0.0030265661662070183 -0.0014513421107188477 0 0.0027464383052930325 -0.0017142440406374554 0 0.0032144360848216976 -0.0010912511438397584 0 0.0032324193226598553 -0.0010728369119490345 0 0.0031181587149558122 -0.0010983459864387058 0 0.0024478154171432348 -0.0022297301621879186 0 0.0021695966191139001 -0.0024496883917320576 0 0.002224447100832755 -0.0022459067007800063 0 0.002439602159098146 -0.0019775699450121417 0 0.0024478154171432348 -0.0022297301621879186 0 0.002224447100832755 -0.0022459067007800063 0 0.0024332743271109044 -0.0020164687396343867 0 0.0021241016541216286 -0.0024223817200410593 0 0.002439602159098146 -0.0019775699450121417 0 0.0021020775264224468 -0.0021097001614099036 0 0.0021045591467091329 -0.0025209214065808352 0 0.0032350799109240004 -0.0010610961428874613 0 0.0027289874027995259 -0.0014825612032000151 0 0.0027464383052930325 -0.0017142440406374554 0 0.0027289874027995259 -0.0014825612032000151 0 0.0030001417869902009 -0.0012308696261359663 0 0.0031462291865651669 -0.0011443198390543548 0 0.0028678563054180518 -0.0011373408335145355 0 0.0031181587149558122 -0.0010983459864387058 0 0.0031462291865651669 -0.0011443198390543548 0 0.0030455314567359201 -0.0011591638813396429 0 0.0030001417869902009 -0.0012308696261359663 0 0.0028967568924195843 -0.0012462734589261636 0 0.0028678563054180518 -0.0011373408335145355 0 0.0030001417869902009 -0.0012308696261359663 0 0.0031462291865651669 -0.0011443198390543548 0 0.0030965028024229381 -0.0012774257662250365 0 0.003205561572608903 -0.001202527458608886 0 0.0031462291865651669 -0.0011443198390543548 0 0.0030965028024229381 -0.0012774257662250365 0 0.0032267018266024 -0.0011293491924790652 0 0.0032144360848216976 -0.0010912511438397584 0 0.0031462291865651669 -0.0011443198390543548 0 0.0031825498494734987 -0.0012884596438866387 0 0.003205561572608903 -0.001202527458608886 0 0.0030965028024229381 -0.0012774257662250365 0 0.0031210981297993988 -0.0013628113396333382 0 0.0031825498494734987 -0.0012884596438866387 0 0.0030965028024229381 -0.0012774257662250365 0 0.0030001417869902009 -0.0012308696261359663 0 0.0029634584876292659 -0.0013389686632312473 0 0.0028967568924195843 -0.0012462734589261636 0 0.0030001417869902009 -0.0012308696261359663 0 0.0030965028024229381 -0.0012774257662250365 0 0.0029634584876292659 -0.0013389686632312473 0 0.0030099740388471021 -0.0014126007606745504 0 0.0030965028024229381 -0.0012774257662250365 0 0.0029634584876292659 -0.0013389686632312473 0 0.002904645835530279 -0.0014451140284132509 0 0.0029634584876292659 -0.0013389686632312473 0 0.0028156304036472454 -0.0014517987794374623 0 0.0030099740388471021 -0.0014126007606745504 0 0.002904645835530279 -0.0014451140284132509 0 0.0029634584876292659 -0.0013389686632312473 0 0.0025011194367927959 -0.0016522424513499142 0 0.0027738512802385077 -0.0011624621801222318 0 0.0026916300268777695 -0.00084559450123207177 0 0.0028156304036472454 -0.0014517987794374623 0 0.0028967568924195843 -0.0012462734589261636 0 0.0027738512802385077 -0.0011624621801222318 0 0.0029634584876292659 -0.0013389686632312473 0 0.0028156304036472454 -0.0014517987794374623 0 0.0028967568924195843 -0.0012462734589261636 0 0.0028156304036472454 -0.0014517987794374623 0 0.0025011194367927959 -0.0016522424513499142 0 0.0027738512802385077 -0.0011624621801222318 0 0.0027027511126036042 -0.001572518322290796 0 0.0028156304036472454 -0.0014517987794374623 0 0.0025011194367927959 -0.0016522424513499142 0 0.0025011194367927959 -0.0016522424513499142 0 0.0016766924735667594 -0.0018597032492635938 0 0.0026916300268777695 -0.00084559450123207177 0 0.0013764965608303191 -0.0025640048465183788 0 0.0019628855843881591 -0.0023399016720149967 0 0.0017385216650310691 -0.0029552799911012257 0 0.0011972787558088734 -0.0030279704809254705 0 0.0014323459627379551 -0.0027264165046699588 0 0.00099223724648387973 -0.0033463111673404178 0 0.0012631738636203343 -0.0030772588366648735 0 0.00095121449228470218 -0.0031109745911332438 0 0.0019628855843881591 -0.0023399016720149967 0 0.00096596920487047953 -0.0031106541863756632 0 0.0017385216650310691 -0.0029552799911012257 0 0.0017296242839320139 -0.0025791620665435774 0 0.0014323459627379551 -0.0027264165046699588 0 0.0021695966191139001 -0.0024496883917320576 0 0.0020246325516338473 -0.0024591459640599567 0 0.002224447100832755 -0.0022459067007800063 0 0.0019628855843881591 -0.0023399016720149967 0 0.0021241016541216286 -0.0024223817200410593 0 0.0028967568924195843 -0.0012462734589261636 0 0.0028678563054180518 -0.0011373408335145355 0 0.0027738512802385077 -0.0011624621801222318 0 0.0027289874027995259 -0.0014825612032000151 0 0.0029288589637238029 -0.0011505958057240917 0 0.0031753592453080581 -0.00082278732147127859 0 0.0027738512802385077 -0.0011624621801222318 0 0.0026916300268777695 -0.00084559450123207177 0 0.0027289874027995259 -0.0014825612032000151 0 0.0019628855843881591 -0.0023399016720149967 0 0.00044244804063997144 -0.0035800844062137136 0 0.00077424531749267409 -0.0033634869957236656 0 0.00047581356096326277 -0.0033475423615585446 0 0.00077424531749267409 -0.0033634869957236656 0 0.00067687305662114076 -0.0031283186859039488 0 0.00047581356096326277 -0.0033475423615585446 0 0.00077424531749267409 -0.0033634869957236656 0 0.0008505496297725036 -0.0032386410060336601 0 0.00067687305662114076 -0.0031283186859039488 0 0.00099223724648387973 -0.0033463111673404178 0 0.00077424531749267409 -0.0033634869957236656 0 0.0008505496297725036 -0.0032386410060336601 0 0.00099223724648387973 -0.0033463111673404178 0 0.0008505496297725036 -0.0032386410060336601 0 0.00095121449228470218 -0.0031109745911332438 0 0.00096596920487047953 -0.0031106541863756632 0 0.0007454380312837221 -0.0031120211365514789 0 0.0011972787558088734 -0.0030279704809254705 0 0.00067687305662114076 -0.0031283186859039488 0 0.0010007872076731885 -0.0026258603531323387 0 0.0011972787558088734 -0.0030279704809254705 0 0.0010007872076731885 -0.0026258603531323387 0 0.0014323459627379551 -0.0027264165046699588 0 0.0008505496297725036 -0.0032386410060336601 0 0.00095121449228470218 -0.0031109745911332438 0 0.00067687305662114076 -0.0031283186859039488 0 0.00067687305662114076 -0.0031283186859039488 0 0.00050976337257030782 -0.0027068841119660919 0 0.0010007872076731885 -0.0026258603531323387 0 0.00050976337257030782 -0.0027068841119660919 0 0.0010007872076731885 -0.0026258603531323387 0 0.00067647784069878542 -0.0021745302704785697 0 0.0010007872076731885 -0.0026258603531323387 0 0.0011149916658842289 -0.0021559969138422066 0 0.0014809462616440852 -0.0023117473361614388 0 0.0010007872076731885 -0.0026258603531323387 0 0.0011149916658842289 -0.0021559969138422066 0 0.00067647784069878542 -0.0021745302704785697 0 0.0011149916658842289 -0.0021559969138422066 0 0.001479503706454047 -0.0018492777302123085 0 0.0010554749462984212 -0.0017402589771983248 0 0.0011149916658842289 -0.0021559969138422066 0 0.00067647784069878542 -0.0021745302704785697 0 0.0010554749462984212 -0.0017402589771983248 0 0.0018784937435776224 -0.0023079612108697638 0 0.0017296242839320139 -0.0025791620665435774 0 0.0014809462616440852 -0.0023117473361614388 0 0.0021020775264224468 -0.0021097001614099036 0 0.0018784937435776224 -0.0023079612108697638 0 0.0021045591467091329 -0.0025209214065808352 0 0.0018784937435776224 -0.0023079612108697638 0 0.0021045591467091329 -0.0025209214065808352 0 0.0017296242839320139 -0.0025791620665435774 0 0.0017385216650310691 -0.0029552799911012257 0 0.0021045591467091329 -0.0025209214065808352 0 0.0017296242839320139 -0.0025791620665435774 0 0.0010007872076731885 -0.0026258603531323387 0 0.0014323459627379551 -0.0027264165046699588 0 0.0014809462616440852 -0.0023117473361614388 0 0.0017296242839320139 -0.0025791620665435774 0 0.0014323459627379551 -0.0027264165046699588 0 0.0014809462616440852 -0.0023117473361614388 0 0.0014809462616440852 -0.0023117473361614388 0 0.0018517338832751947 -0.0019783130224551326 0 0.001479503706454047 -0.0018492777302123085 0 0.0011149916658842289 -0.0021559969138422066 0 0.0014809462616440852 -0.0023117473361614388 0 0.001479503706454047 -0.0018492777302123085 0 0.0018784937435776224 -0.0023079612108697638 0 0.0014809462616440852 -0.0023117473361614388 0 0.0018517338832751947 -0.0019783130224551326 0 0.0021020775264224468 -0.0021097001614099036 0 0.0018784937435776224 -0.0023079612108697638 0 0.0018517338832751947 -0.0019783130224551326 0 0.0021020775264224468 -0.0021097001614099036 0 0.0021738245543965703 -0.0017528481085357997 0 0.0018517338832751947 -0.0019783130224551326 0 0.0021738245543965703 -0.0017528481085357997 0 0.0018517338832751947 -0.0019783130224551326 0 0.0018900095386435636 -0.0015779702865401099 0 0.0018900095386435636 -0.0015779702865401099 0 0.0018979058184226286 -0.001190471534931217 0 0.002246924667672488 -0.001339710430188751 0 0.0018900095386435636 -0.0015779702865401099 0 0.0015501804666330065 -0.001338244521065591 0 0.0018979058184226286 -0.001190471534931217 0 0.0018517338832751947 -0.0019783130224551326 0 0.0018900095386435636 -0.0015779702865401099 0 0.001479503706454047 -0.0018492777302123085 0 0.0018900095386435636 -0.0015779702865401099 0 0.001479503706454047 -0.0018492777302123085 0 0.0015501804666330065 -0.001338244521065591 0 0.001479503706454047 -0.0018492777302123085 0 0.0015501804666330065 -0.001338244521065591 0 0.0010554749462984212 -0.0017402589771983248 0 0.0015501804666330065 -0.001338244521065591 0 0.0010764119337622609 -0.0011017588421744465 0 0.0016226384940624104 -0.00079881239462611768 0 0.0018979058184226286 -0.001190471534931217 0 0.0016226384940624104 -0.00079881239462611768 0 0.0021609728591596307 -0.00088784110935852798 0 0.0015501804666330065 -0.001338244521065591 0 0.0018979058184226286 -0.001190471534931217 0 0.0016226384940624104 -0.00079881239462611768 0 0.00067647784069878542 -0.0021745302704785697 0 0.00044530367585193955 -0.0016996603350973051 0 0.0010554749462984212 -0.0017402589771983248 0 0.0015501804666330065 -0.001338244521065591 0 0.0010554749462984212 -0.0017402589771983248 0 0.0010764119337622609 -0.0011017588421744465 0 0.00045016781329917992 -0.001663403840629735 0 0.00058692544273967985 -0.0010707562515042456 0 0.00044530367585193955 -0.0016996603350973051 0 0.0010554749462984212 -0.0017402589771983248 0 0.0010764119337622609 -0.0011017588421744465 0 0.00044530367585193955 -0.0016996603350973051 0 0.0010764119337622609 -0.0011017588421744465 0 0.00058861809330140052 -0.00067445517222966545 0 0.0010764119337622609 -0.0011017588421744465 0 0.00058861809330140052 -0.00067445517222966545 0 0.0011537252402908016 -0.00037985276878175963 0 0.00058692544273967985 -0.0010707562515042456 0 0.00088344674202481938 -0.00041686045354184223 0 0.00056080436703118044 -0.0014559381181185537 0 0.00034766172062258773 -0.0010846789362062288 0 0.00085984291353910784 -0.00089463432084557336 0 0.00058861809330140052 -0.00067445517222966545 0 0.0011537252402908016 -0.00037985276878175963 0 0.00090180853859632285 5.8258829730195213e-05 0 0.0016226384940624104 -0.00079881239462611768 0 0.0018958120994374695 -0.00051249858735600716 0 0.0021609728591596307 -0.00088784110935852798 0 0.0010764119337622609 -0.0011017588421744465 0 0.0011537252402908016 -0.00037985276878175963 0 0.0016226384940624104 -0.00079881239462611768 0 0.0011537252402908016 -0.00037985276878175963 0 0.0016226384940624104 -0.00079881239462611768 0 0.0015427697083905932 -0.00022538441376232773 0 0.0011537252402908016 -0.00037985276878175963 0 0.0015427697083905932 -0.00022538441376232773 0 0.0012675566808065546 0.00014405997171212329 0 0.0016226384940624104 -0.00079881239462611768 0 0.0015427697083905932 -0.00022538441376232773 0 0.0018958120994374695 -0.00051249858735600716 0 0.0015427697083905932 -0.00022538441376232773 0 0.0018958120994374695 -0.00051249858735600716 0 0.0019526167158839111 -0.0001769248316593375 0 0.0018958120994374695 -0.00051249858735600716 0 0.0019526167158839111 -0.0001769248316593375 0 0.0023653041053650885 -0.00045499821519978174 0 0.0019526167158839111 -0.0001769248316593375 0 0.0023653041053650885 -0.00045499821519978174 0 0.002412346379120309 5.3687276727087178e-05 0 0.0018958120994374695 -0.00051249858735600716 0 0.0023653041053650885 -0.00045499821519978174 0 0.0021609728591596307 -0.00088784110935852798 0 0.0023653041053650885 -0.00045499821519978174 0 0.0021609728591596307 -0.00088784110935852798 0 0.0025764838767064718 -0.00079165064144593789 0 0.0025764838767064718 -0.00079165064144593789 0 0.0026881360872150683 -0.00056782671822084381 0 0.0028514018432952344 -0.00079232475942290494 0 0.0023653041053650885 -0.00045499821519978174 0 0.0025764838767064718 -0.00079165064144593789 0 0.0026881360872150683 -0.00056782671822084381 0 0.0023653041053650885 -0.00045499821519978174 0 0.0027244827896222767 -0.00031346963773537582 0 0.002412346379120309 5.3687276727087178e-05 0 0.0027244827896222767 -0.00031346963773537582 0 0.0030342487728857574 -0.00016252978467084017 0 0.002412346379120309 5.3687276727087178e-05 0 0.0026881360872150683 -0.00056782671822084381 0 0.0027244827896222767 -0.00031346963773537582 0 0.0029092780904816464 -0.00054719633418370058 0 0.0023653041053650885 -0.00045499821519978174 0 0.0026881360872150683 -0.00056782671822084381 0 0.0027244827896222767 -0.00031346963773537582 0 0.0030342487728857574 -0.00016252978467084017 0 0.0029468852424482093 -0.00038617825355035632 0 0.0031079000254358308 -0.00051663232993434725 0 0.0027244827896222767 -0.00031346963773537582 0 0.0030342487728857574 -0.00016252978467084017 0 0.0029468852424482093 -0.00038617825355035632 0 0.0029468852424482093 -0.00038617825355035632 0 0.0029092780904816464 -0.00054719633418370058 0 0.0031079000254358308 -0.00051663232993434725 0 0.0027244827896222767 -0.00031346963773537582 0 0.0029468852424482093 -0.00038617825355035632 0 0.0029092780904816464 -0.00054719633418370058 0 0.0013066641926539788 0.0017236375675833821 0 0.00091775993468989567 0.0047020854814137768 0 0.0018183232435479164 0.0028871873715358531 0 0.0018674360321528677 0.0028539294115823982 0 0.0018870747409537409 0.0028911693262310897 0 0.0013066641926539788 0.0017236375675833821 0 0.0028299350344337558 0.0013110737197581737 0 0.0030342487728857574 -0.00016252978467084017 0 0.0033722452273081773 -0.00058641410128433059 0 0.0031079000254358308 -0.00051663232993434725 0 -0.00085769145326749488 0.0040577404588008088 0 -0.00055731195251145903 0.0043889530808011992 0 -0.00051018426213259656 0.0042754638715441842 0 -0.00088238295816111666 0.0039388894745305764 0 -0.00085769145326749488 0.0040577404588008088 0 -0.00051018426213259656 0.0042754638715441842 0 0.0028299350344337558 0.0013110737197581737 0 0.0026981634894199602 0.00044389478692136365 0 0.0033722452273081773 -0.00058641410128433059 0 0.0032561412336748028 -0.00067302021565387256 0 0.0031079000254358308 -0.00051663232993434725 0 0.0032561412336748028 -0.00067302021565387256 0 0.0031079000254358308 -0.00051663232993434725 0 0.003067093292530374 -0.0007450562449729238 0 0.0032561412336748028 -0.00067302021565387256 0 0.003067093292530374 -0.0007450562449729238 0 0.0032092349741613406 -0.00086775642650565503 0 0.0033326454572398852 -0.00060482961181244975 0 0.0032561412336748028 -0.00067302021565387256 0 0.0033057071909941122 -0.00078663266607068851 0 0.0032561412336748028 -0.00067302021565387256 0 0.0033057071909941122 -0.00078663266607068851 0 0.0032092349741613406 -0.00086775642650565503 0 0.0033057071909941122 -0.00078663266607068851 0 0.0033126680738062219 -0.00091712116744175134 0 0.0034160346765384842 -0.00069734990888328937 0 0.0033326454572398852 -0.00060482961181244975 0 0.0033057071909941122 -0.00078663266607068851 0 0.0034160346765384842 -0.00069734990888328937 0 0.0026881360872150683 -0.00056782671822084381 0 0.0029092780904816464 -0.00054719633418370058 0 0.0028514018432952344 -0.00079232475942290494 0 0.0029092780904816464 -0.00054719633418370058 0 0.0031079000254358308 -0.00051663232993434725 0 0.003067093292530374 -0.0007450562449729238 0 0.0029092780904816464 -0.00054719633418370058 0 0.003067093292530374 -0.0007450562449729238 0 0.0028514018432952344 -0.00079232475942290494 0 0.0028514018432952344 -0.00079232475942290494 0 0.0030412329506345754 -0.0010057386475580555 0 0.0027946726792302014 -0.0010299035337218375 0 0.003067093292530374 -0.0007450562449729238 0 0.0028514018432952344 -0.00079232475942290494 0 0.0030412329506345754 -0.0010057386475580555 0 0.003067093292530374 -0.0007450562449729238 0 0.0030412329506345754 -0.0010057386475580555 0 0.0032092349741613406 -0.00086775642650565503 0 0.0030412329506345754 -0.0010057386475580555 0 0.0028289230269576125 -0.0012721689045309384 0 0.0027946726792302014 -0.0010299035337218375 0 0.0033057071909941122 -0.00078663266607068851 0 0.0033126680738062219 -0.00091712116744175134 0 0.0032092349741613406 -0.00086775642650565503 0 0.0033126680738062219 -0.00091712116744175134 0 0.0032092349741613406 -0.00086775642650565503 0 0.0032504627944024557 -0.0010334332532283364 0 0.0030412329506345754 -0.0010057386475580555 0 0.0032092349741613406 -0.00086775642650565503 0 0.0032504627944024557 -0.0010334332532283364 0 0.0032504627944024557 -0.0010334332532283364 0 0.0032133786150612448 -0.0012048348216336412 0 0.0032873460244981405 -0.0010657943254919389 0 0.0030412329506345754 -0.0010057386475580555 0 0.0032504627944024557 -0.0010334332532283364 0 0.0032133786150612448 -0.0012048348216336412 0 0.0030412329506345754 -0.0010057386475580555 0 0.0032133786150612448 -0.0012048348216336412 0 0.0028289230269576125 -0.0012721689045309384 0 0.0028297065632996408 -0.0018557938489880939 0 0.0032133786150612448 -0.0012048348216336412 0 0.0028289230269576125 -0.0012721689045309384 0 0.0028297065632996408 -0.0018557938489880939 0 0.0028289230269576125 -0.0012721689045309384 0 0.0024906745959491312 -0.0015678170943540085 0 0.0028289230269576125 -0.0012721689045309384 0 0.0024906745959491312 -0.0015678170943540085 0 0.002530483777022449 -0.0010935149197094044 0 0.0024906745959491312 -0.0015678170943540085 0 0.002246924667672488 -0.001339710430188751 0 0.002530483777022449 -0.0010935149197094044 0 0.0021738245543965703 -0.0017528481085357997 0 0.0024906745959491312 -0.0015678170943540085 0 0.002246924667672488 -0.001339710430188751 0 0.0021738245543965703 -0.0017528481085357997 0 0.0018900095386435636 -0.0015779702865401099 0 0.002246924667672488 -0.001339710430188751 0 0.0021609728591596307 -0.00088784110935852798 0 0.002246924667672488 -0.001339710430188751 0 0.002530483777022449 -0.0010935149197094044 0 0.0018979058184226286 -0.001190471534931217 0 0.0021609728591596307 -0.00088784110935852798 0 0.002246924667672488 -0.001339710430188751 0 0.0021609728591596307 -0.00088784110935852798 0 0.0025764838767064718 -0.00079165064144593789 0 0.002530483777022449 -0.0010935149197094044 0 0.0025764838767064718 -0.00079165064144593789 0 0.0027946726792302014 -0.0010299035337218375 0 0.002530483777022449 -0.0010935149197094044 0 0.0025764838767064718 -0.00079165064144593789 0 0.0028514018432952344 -0.00079232475942290494 0 0.0027946726792302014 -0.0010299035337218375 0 0.0028289230269576125 -0.0012721689045309384 0 0.0027946726792302014 -0.0010299035337218375 0 0.002530483777022449 -0.0010935149197094044 0 0.0010872842874798678 -0.028681876733383963 0 0.001297598427389696 -0.028310942091563374 0 0.0013121592062592491 -0.028697055227291355 0 0.001297598427389696 -0.028310942091563374 0 0.0015894011104264103 -0.02825395242903778 0 0.0013121592062592491 -0.028697055227291355 0 0.0010872842874798678 -0.028681876733383963 0 0.0010198506440634485 -0.028265607240876674 0 0.001297598427389696 -0.028310942091563374 0 0.0010442357748704175 -0.028210127410733466 0 0.0010821692909744661 -0.028367744862764083 0 0.0010198506440634485 -0.028265607240876674 0 0.0012713310160092984 -0.027907135507605031 0 0.00091978083654412231 -0.027851286108112966 0 0.0010198506440634485 -0.028265607240876674 0 0.001297598427389696 -0.028310942091563374 0 0.0012713310160092984 -0.027907135507605031 0 0.001297598427389696 -0.028310942091563374 0 0.0015326395261077601 -0.02788538974499832 0 0.0015894011104264103 -0.02825395242903778 0 0.001297598427389696 -0.028310942091563374 0 0.0015326395261077601 -0.02788538974499832 0 0.0012713310160092984 -0.027907135507605031 0 0.0015894011104264103 -0.02825395242903778 0 0.0018510032019682988 -0.028623648092435429 0 0.0019793161260115238 -0.027599659697912265 0 0.0018510032019682988 -0.028623648092435429 0 0.0026722184420395144 -0.02769304405825098 0 0.0019793161260115238 -0.027599659697912265 0 0.0015326395261077601 -0.02788538974499832 0 0.0015894011104264103 -0.02825395242903778 0 0.0019793161260115238 -0.027599659697912265 0 0.0015894011104264103 -0.02825395242903778 0 0.0018510032019682988 -0.028623648092435429 0 0.0013121592062592491 -0.028697055227291355 0 -6.7896268792924787e-06 -0.018456598747200764 0 -0.00075892635939717754 -0.019290804992511727 0 0.00022285928496982061 -0.01929878719674041 0 0.00097691748341715038 -0.02311107126916145 0 0.00020572862761499141 -0.025497318426497891 0 0.0018510032019682988 -0.028623648092435429 0 0.0013121592062592491 -0.028697055227291355 0 0.0012021169810972265 -0.029242677309142883 0 0.0013121592062592491 -0.028697055227291355 0 0.0010244730800986379 -0.028918247863448644 0 0.0012021169810972265 -0.029242677309142883 0 0.0010872842874798678 -0.028681876733383963 0 0.0013121592062592491 -0.028697055227291355 0 0.0010244730800986379 -0.028918247863448644 0 0.00076069072582902574 -0.029201655982261647 0 0.0010244730800986379 -0.028918247863448644 0 0.0012021169810972265 -0.029242677309142883 0 0.0011719884255699223 -0.02819371539789654 0 0.00020572862761499141 -0.025497318426497891 0 -0.00020032326361866116 -0.02633339431602312 0 -1.9524580456900815e-05 -0.026676990408243773 0 -0.0003819272980685842 -0.026799702704335574 0 -0.00052632572309844626 -0.02706372174081164 0 -0.0003819272980685842 -0.026799702704335574 0 -0.0002298115056169383 -0.027125250918655697 0 -1.9524580456900815e-05 -0.026676990408243773 0 -0.0002298115056169383 -0.027125250918655697 0 0.00018808226222508841 -0.026991072011252684 0 -1.9524580456900815e-05 -0.026676990408243773 0 -0.0003819272980685842 -0.026799702704335574 0 -0.0002298115056169383 -0.027125250918655697 0 -0.00020032326361866116 -0.02633339431602312 0 -1.9524580456900815e-05 -0.026676990408243773 0 0.00032633424158819174 -0.026357679367693215 0 -1.9524580456900815e-05 -0.026676990408243773 0 0.00018808226222508841 -0.026991072011252684 0 0.00032633424158819174 -0.026357679367693215 0 0.00020572862761499141 -0.025497318426497891 0 4.3510588632249065e-05 -0.022588957877822398 0 0.00032633424158819174 -0.026357679367693215 0 0.00059063787769938125 -0.026797977096311078 0 0.00080131315871609322 -0.026291051280504574 0 4.3510588632249065e-05 -0.022588957877822398 0 0.0013090959514713645 -0.023446412989852835 0 0.00018808226222508841 -0.026991072011252684 0 0.00032633424158819174 -0.026357679367693215 0 0.00059063787769938125 -0.026797977096311078 0 0.00038825914164240615 -0.027278973644580786 0 0.00018808226222508841 -0.026991072011252684 0 0.00059063787769938125 -0.026797977096311078 0 0.0010278655356662418 -0.026922883085322091 0 0.00059063787769938125 -0.026797977096311078 0 0.00080131315871609322 -0.026291051280504574 0 0.0011715780590582489 -0.019290114436388239 0 0.0016202352261401284 -0.018571879799117143 0 0.0021039076141875774 -0.019286105777740342 0 0.0010278655356662418 -0.026922883085322091 0 0.00080131315871609322 -0.026291051280504574 0 0.0013471691781736619 -0.026203987231299259 0 0.0013090959514713645 -0.023446412989852835 0 0.00081792888044014472 -0.013300099967969508 0 0.0011715780590582489 -0.019290114436388239 0 0.0016202352261401284 -0.018571879799117143 0 0.00084630933817751578 -0.018673692284300096 0 0.0016202352261401284 -0.018571879799117143 0 0.00084630933817751578 -0.018673692284300096 0 0.0011789098009497775 -0.018294899056500898 0 -6.7896268792924787e-06 -0.018456598747200764 0 0.00022285928496982061 -0.01929878719674041 0 0.00084630933817751578 -0.018673692284300096 0 0.00022285928496982061 -0.01929878719674041 0 0.0011715780590582489 -0.019290114436388239 0 0.00084630933817751578 -0.018673692284300096 0 -6.7896268792924787e-06 -0.018456598747200764 0 0.00084630933817751578 -0.018673692284300096 0 0.00078720446249156805 -0.018216550382477388 0 0.00097691748341715038 -0.02311107126916145 0 0.0025957091880581666 -0.024654199283165697 0 0.00084630933817751578 -0.018673692284300096 0 0.00078720446249156805 -0.018216550382477388 0 0.0011789098009497775 -0.018294899056500898 0 -6.7896268792924787e-06 -0.018456598747200764 0 0.00078720446249156805 -0.018216550382477388 0 0.00073531075440163175 -0.017688201458240828 0 0.00078720446249156805 -0.018216550382477388 0 0.0011402956948596704 -0.01793850772768945 0 0.00073531075440163175 -0.017688201458240828 0 0.0017032783833733833 -0.018189810051901456 0 0.0022598627468748645 -0.015933190341851488 0 0.0011402956948596704 -0.01793850772768945 0 0.0012892621967967473 -0.017763539478357945 0 0.00073531075440163175 -0.017688201458240828 0 0.0011402956948596704 -0.01793850772768945 0 0.0012943370427653893 -0.017735106441543726 0 0.0015002875056599179 -0.01807855931991709 0 0.0012943370427653893 -0.017735106441543726 0 0.0015002875056599179 -0.01807855931991709 0 0.001994979761390145 -0.017794207890520514 0 0.0015534152584471162 -0.01813532425220268 0 0.0017032783833733833 -0.018189810051901456 0 0.0016202352261401284 -0.018571879799117143 0 0.0015002875056599179 -0.01807855931991709 0 0.0011789098009497775 -0.018294899056500898 0 0.0011402956948596704 -0.01793850772768945 0 0.0015002875056599179 -0.01807855931991709 0 0.0011789098009497775 -0.018294899056500898 0 0.00078720446249156805 -0.018216550382477388 0 0.0011402956948596704 -0.01793850772768945 0 0.0011789098009497775 -0.018294899056500898 0 0.0022598627468748645 -0.015933190341851488 0 0.0010262432375916855 -0.0089127462362416383 0 0.0016202352261401284 -0.018571879799117143 0 0.0015002875056599179 -0.01807855931991709 0 0.001994979761390145 -0.017794207890520514 0 0.0016202352261401284 -0.018571879799117143 0 0.001994979761390145 -0.017794207890520514 0 0.0024049907536267557 -0.018576372766114853 0 0.001994979761390145 -0.017794207890520514 0 0.0027016477545197086 -0.017848919101578323 0 0.0024049907536267557 -0.018576372766114853 0 0.0018875122320677108 -0.014160119636989909 0 0.0024302648196961071 -0.014211886612871304 0 0.0022368084149412245 -0.013744012655045497 0 0.0010262432375916855 -0.0089127462362416383 0 0.00091869696427938755 -0.010569027135358174 0 -0.00066708567047734355 -0.00277936923042025 0 -0.00028353720810464142 -0.0031869698701560974 0 -0.00017665379013437062 -0.0026787475761211308 0 -0.00048662092101711186 -0.0023638123885303028 0 -0.00066708567047734355 -0.00277936923042025 0 -0.00017665379013437062 -0.0026787475761211308 0 0.00091869696427938755 -0.010569027135358174 0 0.00081792888044014472 -0.013300099967969508 0 0.0016202352261401284 -0.018571879799117143 0 0.0024049907536267557 -0.018576372766114853 0 0.0021039076141875774 -0.019286105777740342 0 -0.00065038819013977167 -0.003853888367810249 0 -0.00045718929384900686 -0.0033605791674837806 0 -0.00024664092128354892 -0.0035769136546454721 0 8.2659843771713289e-05 -0.015706051620437471 0 0.00081792888044014472 -0.013300099967969508 0 -0.00045718929384900686 -0.0033605791674837806 0 -0.00024664092128354892 -0.0035769136546454721 0 -7.9361099213817244e-05 -0.0032755079775160178 0 -0.00066708567047734355 -0.00277936923042025 0 -0.00084651469380013402 -0.0032385248055675116 0 -0.00028353720810464142 -0.0031869698701560974 0 0.00081792888044014472 -0.013300099967969508 0 -0.0005926157425712984 -0.0025191004000382723 0 -0.00028353720810464142 -0.0031869698701560974 0 0.00028877506884869667 -0.0031567825629209866 0 0.00013493694319240474 -0.0028114545411020882 0 -7.9361099213817244e-05 -0.0032755079775160178 0 0.00013379126352705808 -0.0034688744250990873 0 0.00028877506884869667 -0.0031567825629209866 0 -0.0005926157425712984 -0.0025191004000382723 0 0.00043164410243385129 -0.0032877046417073533 0 -0.00024664092128354892 -0.0035769136546454721 0 -7.9361099213817244e-05 -0.0032755079775160178 0 0.00013379126352705808 -0.0034688744250990873 0 -4.4775911187631394e-05 -0.0037711316495696863 0 -0.00024664092128354892 -0.0035769136546454721 0 0.00013379126352705808 -0.0034688744250990873 0 0.00044244804063997144 -0.0035800844062137136 0 0.00013379126352705808 -0.0034688744250990873 0 0.00047581356096326277 -0.0033475423615585446 0 0.00013379126352705808 -0.0034688744250990873 0 0.00047581356096326277 -0.0033475423615585446 0 0.00028877506884869667 -0.0031567825629209866 0 0.00067687305662114076 -0.0031283186859039488 0 0.00047581356096326277 -0.0033475423615585446 0 0.00028877506884869667 -0.0031567825629209866 0 0.00067687305662114076 -0.0031283186859039488 0 0.00050976337257030782 -0.0027068841119660919 0 0.00028877506884869667 -0.0031567825629209866 0 0.00050976337257030782 -0.0027068841119660919 0 0.00028877506884869667 -0.0031567825629209866 0 0.00013493694319240474 -0.0028114545411020882 0 0.00050976337257030782 -0.0027068841119660919 0 0.00013493694319240474 -0.0028114545411020882 0 0.00026181356945707813 -0.0023398491525449326 0 0.00013493694319240474 -0.0028114545411020882 0 -0.00017665379013437062 -0.0026787475761211308 0 0.00026181356945707813 -0.0023398491525449326 0 -0.00028353720810464142 -0.0031869698701560974 0 0.00013493694319240474 -0.0028114545411020882 0 -0.00017665379013437062 -0.0026787475761211308 0 -0.00027165742675896467 -0.0022670608414033758 0 0.00026181356945707813 -0.0023398491525449326 0 7.8290839230164282e-05 -0.0020436924754287651 0 0.0010262432375916855 -0.0089127462362416383 0 -0.00053851896411046115 -0.00044063445784944209 0 -0.00048662092101711186 -0.0023638123885303028 0 -0.00017665379013437062 -0.0026787475761211308 0 0.00026181356945707813 -0.0023398491525449326 0 0.00067647784069878542 -0.0021745302704785697 0 0.00044530367585193955 -0.0016996603350973051 0 0.00026181356945707813 -0.0023398491525449326 0 0.00050976337257030782 -0.0027068841119660919 0 0.00067647784069878542 -0.0021745302704785697 0 0.00026181356945707813 -0.0023398491525449326 0 0.00044530367585193955 -0.0016996603350973051 0 0.00026181356945707813 -0.0023398491525449326 0 7.8290839230164282e-05 -0.0020436924754287651 0 0.00044530367585193955 -0.0016996603350973051 0 7.8290839230164282e-05 -0.0020436924754287651 0 -3.4754018837743255e-05 -0.0017928812545963953 0 -0.00027165742675896467 -0.0022670608414033758 0 7.8290839230164282e-05 -0.0020436924754287651 0 -3.4754018837743255e-05 -0.0017928812545963953 0 0.0014257549575865634 -0.0074221595382675523 0 0.0016574512995703539 -0.0072619141161733569 0 0.00044530367585193955 -0.0016996603350973051 0 -3.4754018837743255e-05 -0.0017928812545963953 0 0.00018950369160416594 -0.0014800647225658658 0 0.00044530367585193955 -0.0016996603350973051 0 0.00056080436703118044 -0.0014559381181185537 0 0.00018950369160416594 -0.0014800647225658658 0 0.0031866642677573138 -0.012564375749852079 0 0.0032961734368020103 -0.011648094329662687 0 0.0036076661978768896 -0.011686151772817656 0 0.0016574512995703539 -0.0072619141161733569 0 0.0017890670163932564 -0.0052858940191490575 0 0.00056080436703118044 -0.0014559381181185537 0 0.00018950369160416594 -0.0014800647225658658 0 0.00034766172062258773 -0.0010846789362062288 0 0.0031866642677573138 -0.012564375749852079 0 0.0025977890198951347 -0.012500653490156312 0 0.0032961734368020103 -0.011648094329662687 0 0.0046725339238267221 -0.024627091298615591 0 0.0049098550292614208 -0.023172499287541472 0 0.0068086918547621113 -0.02208323330651888 0 0.0036653670247629713 -0.018377876997698862 0 0.0050442417888804294 -0.017465708084723586 0 0.0027973660205706762 -0.013402056933490706 0 0.0031866642677573138 -0.012564375749852079 0 0.0025977890198951347 -0.012500653490156312 0 0.0036653670247629713 -0.018377876997698862 0 0.0031865741268451877 -0.019148635745018273 0 0.0044305272217264064 -0.024488073732967745 0 0.0046725339238267221 -0.024627091298615591 0 0.0041579370839627495 -0.024587696541405524 0 0.0044305272217264064 -0.024488073732967745 0 0.0038425803363175332 -0.024527343640969191 0 0.0036317181686036314 -0.025113617522366845 0 0.0044305272217264064 -0.024488073732967745 0 0.0046725339238267221 -0.024627091298615591 0 0.0045052197771734024 -0.024126857629665301 0 0.0039792871652332643 -0.023937195086515189 0 0.0048572825578168484 -0.022273223864226976 0 0.0039349381769998156 -0.02413051129660276 0 0.0049098550292614208 -0.023172499287541472 0 0.0049469483652311705 -0.021511421082342583 0 0.0039349381769998156 -0.02413051129660276 0 0.0040832747411844563 -0.023395303118425373 0 0.0047406215901725831 -0.022969001221042718 0 0.0045052197771734024 -0.024126857629665301 0 0.0039349381769998156 -0.02413051129660276 0 0.0049098550292614208 -0.023172499287541472 0 0.0046725339238267221 -0.024627091298615591 0 0.0045052197771734024 -0.024126857629665301 0 0.0049098550292614208 -0.023172499287541472 0 0.0044305272217264064 -0.024488073732967745 0 0.0045052197771734024 -0.024126857629665301 0 0.0039349381769998156 -0.02413051129660276 0 0.0044305272217264064 -0.024488073732967745 0 0.0039349381769998156 -0.02413051129660276 0 0.0038425803363175332 -0.024527343640969191 0 0.0037695080946015046 -0.023707837890790447 0 0.0037138572560583929 -0.023209297303250231 0 0.0040832747411844563 -0.023395303118425373 0 0.0039349381769998156 -0.02413051129660276 0 0.0037695080946015046 -0.023707837890790447 0 0.0040832747411844563 -0.023395303118425373 0 0.00257074842511002 -0.024214495154078339 0 0.0027134020647244408 -0.022973932412714063 0 0.0031514588877837551 -0.023397906023814495 0 0.0034213842501180963 -0.023774598078728608 0 0.00257074842511002 -0.024214495154078339 0 0.0031514588877837551 -0.023397906023814495 0 0.0034213842501180963 -0.023774598078728608 0 0.0037138572560583929 -0.023209297303250231 0 0.0031514588877837551 -0.023397906023814495 0 0.0037695080946015046 -0.023707837890790447 0 0.0034213842501180963 -0.023774598078728608 0 0.0037138572560583929 -0.023209297303250231 0 0.0037695080946015046 -0.023707837890790447 0 0.0034213842501180963 -0.023774598078728608 0 0.0036520810365771959 -0.024005749835626939 0 0.0034213842501180963 -0.023774598078728608 0 0.0036520810365771959 -0.024005749835626939 0 0.0034397411290790708 -0.024423619286172326 0 0.0039349381769998156 -0.02413051129660276 0 0.0036520810365771959 -0.024005749835626939 0 0.0034397411290790708 -0.024423619286172326 0 0.0039349381769998156 -0.02413051129660276 0 0.0034397411290790708 -0.024423619286172326 0 0.0038425803363175332 -0.024527343640969191 0 0.0039349381769998156 -0.02413051129660276 0 0.0037695080946015046 -0.023707837890790447 0 0.0036520810365771959 -0.024005749835626939 0 0.0034397411290790708 -0.024423619286172326 0 0.0030802342051481852 -0.025096983099315451 0 0.00257074842511002 -0.024214495154078339 0 0.0034213842501180963 -0.023774598078728608 0 0.0034397411290790708 -0.024423619286172326 0 0.00257074842511002 -0.024214495154078339 0 0.0030802342051481852 -0.025096983099315451 0 0.0027454626739607754 -0.026052450046841012 0 0.00257074842511002 -0.024214495154078339 0 0.0046725339238267221 -0.024627091298615591 0 0.0041444428831324343 -0.024611896218838757 0 0.0041579370839627495 -0.024587696541405524 0 0.0030802342051481852 -0.025096983099315451 0 0.0036317181686036314 -0.025113617522366845 0 0.0032311942510405141 -0.02557585086812799 0 0.0044305272217264064 -0.024488073732967745 0 0.0036317181686036314 -0.025113617522366845 0 0.0032873005694379503 -0.02615745228345194 0 0.0034397411290790708 -0.024423619286172326 0 0.0038425803363175332 -0.024527343640969191 0 0.0036317181686036314 -0.025113617522366845 0 0.0034397411290790708 -0.024423619286172326 0 0.0030802342051481852 -0.025096983099315451 0 0.0036317181686036314 -0.025113617522366845 0 0.0036317181686036314 -0.025113617522366845 0 0.0032311942510405141 -0.02557585086812799 0 0.0032873005694379503 -0.02615745228345194 0 0.0043484240398750937 -0.024614822775738128 0 0.0037473921088930105 -0.025324896771540688 0 0.0032311942510405141 -0.02557585086812799 0 0.0032873005694379503 -0.02615745228345194 0 0.0027454626739607754 -0.026052450046841012 0 0.0030802342051481852 -0.025096983099315451 0 0.0032311942510405141 -0.02557585086812799 0 0.0027454626739607754 -0.026052450046841012 0 0.0041444428831324343 -0.024611896218838757 0 0.0041579370839627495 -0.024587696541405524 0 0.0041215693849029978 -0.024570818687491208 0 0.0037473921088930105 -0.025324896771540688 0 0.0034014291832371499 -0.025881271654463852 0 0.0027973660205706762 -0.013402056933490706 0 0.0025977890198951347 -0.012500653490156312 0 0.001956382041933327 -0.013309059697042705 0 0.0027973660205706762 -0.013402056933490706 0 0.001956382041933327 -0.013309059697042705 0 0.0022368084149412245 -0.013744012655045497 0 0.0010262432375916855 -0.0089127462362416383 0 0.0014257549575865634 -0.0074221595382675523 0 0.0024302648196961071 -0.014211886612871304 0 0.0027973660205706762 -0.013402056933490706 0 0.0022368084149412245 -0.013744012655045497 0 0.0017032783833733833 -0.018189810051901456 0 0.0031865741268451877 -0.019148635745018273 0 0.0013365778678090514 -0.014102000480275372 0 0.0018875122320677108 -0.014160119636989909 0 0.001956382041933327 -0.013309059697042705 0 0.0018875122320677108 -0.014160119636989909 0 0.001956382041933327 -0.013309059697042705 0 0.0022368084149412245 -0.013744012655045497 0 0.0040973979491723709 -0.02448927371944799 0 0.0041444428831324343 -0.024611896218838757 0 0.0041215693849029978 -0.024570818687491208 0 0.0040973979491723709 -0.02448927371944799 0 0.004128888768967452 -0.024499283124072287 0 0.0041215693849029978 -0.024570818687491208 0 0.0025957091880581666 -0.024654199283165697 0 0.0034014291832371499 -0.025881271654463852 0 0.0017032783833733833 -0.018189810051901456 0 0.0025957091880581666 -0.024654199283165697 0 0.0023653857850174142 -0.027529889237342099 0 0.0022523309063730906 -0.026966645103442145 0 0.0027246149316527695 -0.02690189673017403 0 0.0023653857850174142 -0.027529889237342099 0 0.0022523309063730906 -0.026966645103442145 0 0.0019793161260115238 -0.027599659697912265 0 0.0025957091880581666 -0.024654199283165697 0 0.0022572732192571395 -0.027021528438631901 0 0.0022523309063730906 -0.026966645103442145 0 0.0023212018760220073 -0.026434314605856133 0 0.0019845384082326735 -0.026617755958316627 0 0.0022523309063730906 -0.026966645103442145 0 0.0023212018760220073 -0.026434314605856133 0 0.0025596459451460189 -0.026443472306921182 0 0.0032873005694379503 -0.02615745228345194 0 0.0027246149316527695 -0.02690189673017403 0 0.0027454626739607754 -0.026052450046841012 0 0.0025596459451460189 -0.026443472306921182 0 0.0027246149316527695 -0.02690189673017403 0 0.0027454626739607754 -0.026052450046841012 0 0.0022523309063730906 -0.026966645103442145 0 0.0025596459451460189 -0.026443472306921182 0 0.0027246149316527695 -0.02690189673017403 0 0.0027454626739607754 -0.026052450046841012 0 0.00249110183765583 -0.026028844812126452 0 0.0027068733594229773 -0.025865212099504289 0 0.0023212018760220073 -0.026434314605856133 0 0.0025596459451460189 -0.026443472306921182 0 0.00249110183765583 -0.026028844812126452 0 0.0025596459451460189 -0.026443472306921182 0 0.0027454626739607754 -0.026052450046841012 0 0.00249110183765583 -0.026028844812126452 0 0.0027036383086920385 -0.02596697227564132 0 0.0026758634615718338 -0.024920151158383041 0 0.0026758634615718338 -0.024920151158383041 0 0.0023297666020548938 -0.025085301427613574 0 0.0027068733594229773 -0.025865212099504289 0 0.0026563127551038493 -0.025664881253523869 0 0.0027191529621628831 -0.025531408072549742 0 0.00249110183765583 -0.026028844812126452 0 0.0027068733594229773 -0.025865212099504289 0 0.0025028867133709749 -0.025801507902681601 0 0.0025028867133709749 -0.025801507902681601 0 0.0026563127551038493 -0.025664881253523869 0 0.0023883368926887246 -0.025617895927622581 0 0.0027068733594229773 -0.025865212099504289 0 0.0025028867133709749 -0.025801507902681601 0 0.0026563127551038493 -0.025664881253523869 0 0.002308217383929743 -0.025834545594963825 0 0.0020217623365970929 -0.025736542864114541 0 0.0023883368926887246 -0.025617895927622581 0 0.0019862806684741363 -0.025801733266176317 0 0.0021641111896440689 -0.026467353484077749 0 0.0025028867133709749 -0.025801507902681601 0 0.002308217383929743 -0.025834545594963825 0 0.0023883368926887246 -0.025617895927622581 0 0.00249110183765583 -0.026028844812126452 0 0.0025028867133709749 -0.025801507902681601 0 0.002308217383929743 -0.025834545594963825 0 0.00249110183765583 -0.026028844812126452 0 0.002308217383929743 -0.025834545594963825 0 0.0021325384241818444 -0.025983788950559857 0 0.002308217383929743 -0.025834545594963825 0 0.0021325384241818444 -0.025983788950559857 0 0.0020217623365970929 -0.025736542864114541 0 0.0023212018760220073 -0.026434314605856133 0 0.0021325384241818444 -0.025983788950559857 0 0.0019845384082326735 -0.026617755958316627 0 0.0023212018760220073 -0.026434314605856133 0 0.00249110183765583 -0.026028844812126452 0 0.0021325384241818444 -0.025983788950559857 0 0.0020732821209987506 -0.026093370564980501 0 0.0017566428242734595 -0.02647617921049222 0 0.0021325384241818444 -0.025983788950559857 0 0.001565121561154738 -0.02667322305150811 0 0.0019845384082326735 -0.026617755958316627 0 0.0021325384241818444 -0.025983788950559857 0 0.0018091240748609777 -0.026163064435518957 0 0.0018272326412447286 -0.026616417353111037 0 0.0021325384241818444 -0.025983788950559857 0 0.0018091240748609777 -0.026163064435518957 0 0.0019066279403123845 -0.025961475062924587 0 0.0018609993704253383 -0.025877563472564771 0 0.0016440542067258468 -0.025923851015161096 0 0.0017539588348247472 -0.025765852299598296 0 0.0021325384241818444 -0.025983788950559857 0 0.0019066279403123845 -0.025961475062924587 0 0.0020217623365970929 -0.025736542864114541 0 0.0019066279403123845 -0.025961475062924587 0 0.0020217623365970929 -0.025736542864114541 0 0.0016440542067258468 -0.025923851015161096 0 0.0019862806684741363 -0.025801733266176317 0 0.0016701675630577235 -0.025905713562144449 0 0.0018091240748609777 -0.026163064435518957 0 0.0019066279403123845 -0.025961475062924587 0 0.0016440542067258468 -0.025923851015161096 0 0.0014127747063206288 -0.025723975768247715 0 0.001393622136701267 -0.026057949367418606 0 0.0016440542067258468 -0.025923851015161096 0 0.001393622136701267 -0.026057949367418606 0 0.0016440542067258468 -0.025923851015161096 0 0.0015835933768722523 -0.026265613720487611 0 0.0018091240748609777 -0.026163064435518957 0 0.0015835933768722523 -0.026265613720487611 0 0.0018272326412447286 -0.026616417353111037 0 0.001393622136701267 -0.026057949367418606 0 0.0015835933768722523 -0.026265613720487611 0 0.0013722555701704661 -0.02661047012001623 0 0.0018091240748609777 -0.026163064435518957 0 0.0016440542067258468 -0.025923851015161096 0 0.0015835933768722523 -0.026265613720487611 0 0.0015835933768722523 -0.026265613720487611 0 0.0013722555701704661 -0.02661047012001623 0 0.0018272326412447286 -0.026616417353111037 0 0.0013722555701704661 -0.02661047012001623 0 0.0018272326412447286 -0.026616417353111037 0 0.00142924845425351 -0.027257768605569579 0 0.0022523309063730906 -0.026966645103442145 0 0.0019845384082326735 -0.026617755958316627 0 0.0016139796824421136 -0.027260721440512586 0 0.001565121561154738 -0.02667322305150811 0 0.0019845384082326735 -0.026617755958316627 0 0.0016139796824421136 -0.027260721440512586 0 0.0022523309063730906 -0.026966645103442145 0 0.0016139796824421136 -0.027260721440512586 0 0.0019793161260115238 -0.027599659697912265 0 0.0015326395261077601 -0.02788538974499832 0 0.0016139796824421136 -0.027260721440512586 0 0.0019793161260115238 -0.027599659697912265 0 0.0016139796824421136 -0.027260721440512586 0 0.0012713310160092984 -0.027907135507605031 0 0.00091978083654412231 -0.027851286108112966 0 0.0012931323001109376 -0.028745640442860831 0 0.0010821692909744661 -0.028367744862764083 0 0.0017566428242734595 -0.02647617921049222 0 0.0010821692909744661 -0.028367744862764083 0 0.001565121561154738 -0.02667322305150811 0 0.0016139796824421136 -0.027260721440512586 0 0.00091978083654412231 -0.027851286108112966 0 0.0015326395261077601 -0.02788538974499832 0 0.0016139796824421136 -0.027260721440512586 0 0.0012713310160092984 -0.027907135507605031 0 0.0029586288550512273 -0.029748315999379226 0 0.0029086260762401293 -0.029803803563729914 0 0.0026548701223588944 -0.029859724722800025 0 0.0029086260762401293 -0.029803803563729914 0 0.0026548701223588944 -0.029859724722800025 0 0.0027873927238026967 -0.029652410330541269 0 0.0013248333467486904 -0.025381916945732025 0 0.0013995847035089025 -0.025297497774906495 0 0.00019585899275496873 -0.020848268687276968 0 0.0013946556529794529 -0.021292312902211279 0 0.0012467166015812481 -0.020124231859894117 0 0.0013995847035089025 -0.025297497774906495 0 0.0017158305864639254 -0.025696418748336308 0 0.0026548701223588944 -0.029859724722800025 0 0.0024316192240189435 -0.029500987732283861 0 0.0021422383549499378 -0.029673274161744527 0 0.0026548701223588944 -0.029859724722800025 0 0.0024316192240189435 -0.029500987732283861 0 0.0027873927238026967 -0.029652410330541269 0 0.0024316192240189435 -0.029500987732283861 0 0.0027873927238026967 -0.029652410330541269 0 0.0026855065305934024 -0.029326441135346153 0 0.0030687554002730598 -0.029344005097753895 0 0.0027873927238026967 -0.029652410330541269 0 0.0026855065305934024 -0.029326441135346153 0 0.0030687554002730598 -0.029344005097753895 0 0.0026855065305934024 -0.029326441135346153 0 0.0027521223484373364 -0.029080940233010878 0 0.0026855065305934024 -0.029326441135346153 0 0.0027521223484373364 -0.029080940233010878 0 0.0024615334348905499 -0.029101327105400518 0 0.0014127747063206288 -0.025723975768247715 0 0.0016440542067258468 -0.025923851015161096 0 0.0017539588348247472 -0.025765852299598296 0 0.0030356369924171619 -0.02894236508412909 0 0.0027521223484373364 -0.029080940233010878 0 0.0025200457555551443 -0.028837084685377361 0 0.0024977610171406112 -0.029202656508360299 0 0.0020408059133797756 -0.027182401070647625 0 0.0018609993704253383 -0.025877563472564771 0 0.0017539588348247472 -0.025765852299598296 0 0.0020780113627406477 -0.025826071426578456 0 0.0027521223484373364 -0.029080940233010878 0 0.0025200457555551443 -0.028837084685377361 0 0.0024615334348905499 -0.029101327105400518 0 0.0025200457555551443 -0.028837084685377361 0 0.0024615334348905499 -0.029101327105400518 0 0.0022335277465975311 -0.028969908618155425 0 0.0024316192240189435 -0.029500987732283861 0 0.0026855065305934024 -0.029326441135346153 0 0.0024615334348905499 -0.029101327105400518 0 0.0024316192240189435 -0.029500987732283861 0 0.0024615334348905499 -0.029101327105400518 0 0.0022092661803512969 -0.029205484246480139 0 0.0022092661803512969 -0.029205484246480139 0 0.0019445445594024472 -0.028999611610732941 0 0.0019507661854556188 -0.029330093710633304 0 0.0022092661803512969 -0.029205484246480139 0 0.0019507661854556188 -0.029330093710633304 0 0.0021819553407679071 -0.029428128702732648 0 0.0022092661803512969 -0.029205484246480139 0 0.0022335277465975311 -0.028969908618155425 0 0.0019445445594024472 -0.028999611610732941 0 0.0024615334348905499 -0.029101327105400518 0 0.0022092661803512969 -0.029205484246480139 0 0.0022335277465975311 -0.028969908618155425 0 0.0020408059133797756 -0.027182401070647625 0 0.0021641111896440689 -0.026467353484077749 0 0.0025200457555551443 -0.028837084685377361 0 0.0022335277465975311 -0.028969908618155425 0 0.0020383930117295721 -0.028724289392752504 0 0.0022335277465975311 -0.028969908618155425 0 0.0020383930117295721 -0.028724289392752504 0 0.0019445445594024472 -0.028999611610732941 0 0.0017055903474237242 -0.028799525498474834 0 0.0019445445594024472 -0.028999611610732941 0 0.0016949837847084633 -0.029134955035022947 0 0.0021641111896440689 -0.026467353484077749 0 0.0023297666020548938 -0.025085301427613574 0 0.0020383930117295721 -0.028724289392752504 0 0.0017055903474237242 -0.028799525498474834 0 0.0019445445594024472 -0.028999611610732941 0 0.0026563127551038493 -0.025664881253523869 0 0.0023869302621582944 -0.02563060155994382 0 0.0027191529621628831 -0.025531408072549742 0 0.0023297666020548938 -0.025085301427613574 0 0.0021450369755027401 -0.025927195267797559 0 0.0026152652022734726 -0.025794030623853673 0 0.0021641111896440689 -0.026467353484077749 0 0.0019445445594024472 -0.028999611610732941 0 0.0016949837847084633 -0.029134955035022947 0 0.0019507661854556188 -0.029330093710633304 0 0.0021450369755027401 -0.025927195267797559 0 0.0029416087682616484 -0.023620897016588292 0 0.0013946556529794529 -0.021292312902211279 0 0.0022264258871467781 -0.021130282922059197 0 0.0028055502732731667 -0.021839559672465727 0 0.0017158305864639254 -0.025696418748336308 0 0.0029416087682616484 -0.023620897016588292 0 0.0019507661854556188 -0.029330093710633304 0 0.0021422383549499378 -0.029673274161744527 0 0.0016856570432480661 -0.029455030492814241 0 0.0016949837847084633 -0.029134955035022947 0 0.0019507661854556188 -0.029330093710633304 0 0.0016856570432480661 -0.029455030492814241 0 0.0019507661854556188 -0.029330093710633304 0 0.0021819553407679071 -0.029428128702732648 0 0.0021422383549499378 -0.029673274161744527 0 0.0024316192240189435 -0.029500987732283861 0 0.0022092661803512969 -0.029205484246480139 0 0.0021819553407679071 -0.029428128702732648 0 0.0024316192240189435 -0.029500987732283861 0 0.0021819553407679071 -0.029428128702732648 0 0.0021422383549499378 -0.029673274161744527 0 0.0013946556529794529 -0.021292312902211279 0 0.0019901382113313272 -0.020432492187543141 0 0.0012467166015812481 -0.020124231859894117 0 0.0025750562910961455 -0.021024911899243111 0 0.002843900945987837 -0.020497326964648246 0 0.0028055502732731667 -0.021839559672465727 0 0.0024396516611055446 -0.020650861754357836 0 0.0022264258871467781 -0.021130282922059197 0 0.0019901382113313272 -0.020432492187543141 0 0.0024396516611055446 -0.020650861754357836 0 0.002843900945987837 -0.020497326964648246 0 0.0024746175802264573 -0.020223358950734117 0 0.0024396516611055446 -0.020650861754357836 0 0.0025750562910961455 -0.021024911899243111 0 0.002843900945987837 -0.020497326964648246 0 0.0024396516611055446 -0.020650861754357836 0 0.0025750562910961455 -0.021024911899243111 0 0.0022264258871467781 -0.021130282922059197 0 0.0025750562910961455 -0.021024911899243111 0 0.0022264258871467781 -0.021130282922059197 0 0.0028055502732731667 -0.021839559672465727 0 0.0013946556529794529 -0.021292312902211279 0 0.0022264258871467781 -0.021130282922059197 0 0.0019901382113313272 -0.020432492187543141 0 0.0029000914148021991 -0.020525298556587388 0 0.0029597675243245446 -0.020479633468457388 0 0.003047311761665721 -0.020457517013825741 0 0.0028504114624886227 -0.019682763126613746 0 0.0029416087682616484 -0.023620897016588292 0 0.0028902216950753125 -0.020555869711778006 0 0.0029000914148021991 -0.020525298556587388 0 0.003047311761665721 -0.020457517013825741 0 0.0029000914148021991 -0.020525298556587388 0 0.002843900945987837 -0.020497326964648246 0 0.0028434017207411605 -0.020665394914602932 0 0.0033717025473894834 -0.020362502571666954 0 0.0028902216950753125 -0.020555869711778006 0 0.0037421582261313105 -0.019656742974328546 0 0.0033717025473894834 -0.020362502571666954 0 0.0037421582261313105 -0.019656742974328546 0 0.0036778373876987175 -0.020062605080289644 0 0.0029887969890495538 -0.020862696036401389 0 0.002152440993955567 -0.017594559185574753 0 0.0033717025473894834 -0.020362502571666954 0 0.0036778373876987175 -0.020062605080289644 0 0.0035909630796781568 -0.020421363287130619 0 0.0028902216950753125 -0.020555869711778006 0 0.0029000914148021991 -0.020525298556587388 0 0.0028434017207411605 -0.020665394914602932 0 0.0029000914148021991 -0.020525298556587388 0 0.002843900945987837 -0.020497326964648246 0 0.0029597675243245446 -0.020479633468457388 0 0.0032169448036170282 -0.020008617000824975 0 0.002152440993955567 -0.017594559185574753 0 0.0028902216950753125 -0.020555869711778006 0 0.0038155987606587165 -0.019195191915217028 0 0.0037421582261313105 -0.019656742974328546 0 0.0038155987606587165 -0.019195191915217028 0 0.0038985900442647086 -0.019519157612625921 0 0.0037421582261313105 -0.019656742974328546 0 0.0040540878020026722 -0.019164770635342762 0 0.0040179887207270806 -0.019465838816469894 0 0.0043132727672975015 -0.019667365616700985 0 0.0038155987606587165 -0.019195191915217028 0 0.0038985900442647086 -0.019519157612625921 0 0.0040179887207270806 -0.019465838816469894 0 0.0038164083502605175 -0.019185772469086444 0 0.0040540878020026722 -0.019164770635342762 0 0.0040179887207270806 -0.019465838816469894 0 0.002152440993955567 -0.017594559185574753 0 0.0018598659876512531 -0.01523179256406834 0 0.002152440993955567 -0.017594559185574753 0 0.0029003528232923841 -0.018547326135586965 0 0.0038985900442647086 -0.019519157612625921 0 0.0040179887207270806 -0.019465838816469894 0 0.0039475439304205691 -0.01963854559613494 0 0.0040710014180629396 -0.019650407793206013 0 0.0043132727672975015 -0.019667365616700985 0 0.0040052823126712402 -0.019828045495365165 0 0.0040179887207270806 -0.019465838816469894 0 0.0040710014180629396 -0.019650407793206013 0 0.0043132727672975015 -0.019667365616700985 0 0.0040179887207270806 -0.019465838816469894 0 0.0040710014180629396 -0.019650407793206013 0 0.0039475439304205691 -0.01963854559613494 0 0.0040710014180629396 -0.019650407793206013 0 0.0039475439304205691 -0.01963854559613494 0 0.0040052823126712402 -0.019828045495365165 0 0.0039475439304205691 -0.01963854559613494 0 0.0037421582261313105 -0.019656742974328546 0 0.0040052823126712402 -0.019828045495365165 0 0.0038985900442647086 -0.019519157612625921 0 0.0039475439304205691 -0.01963854559613494 0 0.0037421582261313105 -0.019656742974328546 0 0.0040540878020026722 -0.019164770635342762 0 0.0043132727672975015 -0.019667365616700985 0 0.004662309237720692 -0.01950147633203626 0 0.0040540878020026722 -0.019164770635342762 0 0.004662309237720692 -0.01950147633203626 0 0.0051441730730217329 -0.019067290719301636 0 0.0043132727672975015 -0.019667365616700985 0 0.004662309237720692 -0.01950147633203626 0 0.0045671272401075023 -0.019906700815784915 0 0.004662309237720692 -0.01950147633203626 0 0.0045671272401075023 -0.019906700815784915 0 0.0049452688530520258 -0.019840624716604763 0 0.0043132727672975015 -0.019667365616700985 0 0.0045671272401075023 -0.019906700815784915 0 0.0042546937205965949 -0.02001754839546447 0 0.0043132727672975015 -0.019667365616700985 0 0.0042546937205965949 -0.02001754839546447 0 0.0040052823126712402 -0.019828045495365165 0 0.0045671272401075023 -0.019906700815784915 0 0.0042546937205965949 -0.02001754839546447 0 0.0044374910395154543 -0.020222166504462673 0 0.0042546937205965949 -0.02001754839546447 0 0.0044374910395154543 -0.020222166504462673 0 0.0042031874423759247 -0.02031600210936645 0 0.0045671272401075023 -0.019906700815784915 0 0.0044374910395154543 -0.020222166504462673 0 0.0047661824507839951 -0.020244507879959996 0 0.0037421582261313105 -0.019656742974328546 0 0.0036778373876987175 -0.020062605080289644 0 0.0040052823126712402 -0.019828045495365165 0 0.0036778373876987175 -0.020062605080289644 0 0.0040052823126712402 -0.019828045495365165 0 0.0039268230699508414 -0.020193534569977779 0 0.0042546937205965949 -0.02001754839546447 0 0.0040052823126712402 -0.019828045495365165 0 0.0039268230699508414 -0.020193534569977779 0 0.0042546937205965949 -0.02001754839546447 0 0.0042031874423759247 -0.02031600210936645 0 0.0039268230699508414 -0.020193534569977779 0 0.0036778373876987175 -0.020062605080289644 0 0.0039268230699508414 -0.020193534569977779 0 0.0035909630796781568 -0.020421363287130619 0 0.0039313624583157195 -0.020538410920975678 0 0.0035894147531187765 -0.020745798573410145 0 0.0035909630796781568 -0.020421363287130619 0 0.0039268230699508414 -0.020193534569977779 0 0.0039313624583157195 -0.020538410920975678 0 0.0035909630796781568 -0.020421363287130619 0 0.0042031874423759247 -0.02031600210936645 0 0.0039313624583157195 -0.020538410920975678 0 0.0043991346010778297 -0.02061687811499122 0 0.0042031874423759247 -0.02031600210936645 0 0.0039268230699508414 -0.020193534569977779 0 0.0039313624583157195 -0.020538410920975678 0 0.0039313624583157195 -0.020538410920975678 0 0.0043991346010778297 -0.02061687811499122 0 0.0039717599317569434 -0.020986747585559306 0 0.0039313624583157195 -0.020538410920975678 0 0.0039717599317569434 -0.020986747585559306 0 0.0035894147531187765 -0.020745798573410145 0 0.0043991346010778297 -0.02061687811499122 0 0.0050187900254971708 -0.02083789824560842 0 0.0047661824507839951 -0.020244507879959996 0 0.0044374910395154543 -0.020222166504462673 0 0.0043991346010778297 -0.02061687811499122 0 0.0047661824507839951 -0.020244507879959996 0 0.0044374910395154543 -0.020222166504462673 0 0.0042031874423759247 -0.02031600210936645 0 0.0043991346010778297 -0.02061687811499122 0 0.0043991346010778297 -0.02061687811499122 0 0.004500615377612891 -0.021197141300884896 0 0.0039717599317569434 -0.020986747585559306 0 0.0043991346010778297 -0.02061687811499122 0 0.004500615377612891 -0.021197141300884896 0 0.0050187900254971708 -0.02083789824560842 0 0.0039717599317569434 -0.020986747585559306 0 0.0037534253771345197 -0.021314723856500448 0 0.0035234222665266953 -0.021069956014916152 0 0.0039717599317569434 -0.020986747585559306 0 0.0035234222665266953 -0.021069956014916152 0 0.0035894147531187765 -0.020745798573410145 0 0.004500615377612891 -0.021197141300884896 0 0.0039717599317569434 -0.020986747585559306 0 0.0040903767231496389 -0.021466341326650477 0 0.0039717599317569434 -0.020986747585559306 0 0.0037534253771345197 -0.021314723856500448 0 0.0040903767231496389 -0.021466341326650477 0 0.0025907302485098892 -0.021944121071876935 0 0.0026662533713833528 -0.020744395116983186 0 0.0030470819348260101 -0.021358677579985195 0 0.0037534253771345197 -0.021314723856500448 0 0.0035234222665266953 -0.021069956014916152 0 0.0034330314195373944 -0.021409288039307844 0 0.0032364592587557904 -0.021102696152145693 0 0.0030470819348260101 -0.021358677579985195 0 0.0034330314195373944 -0.021409288039307844 0 0.0032364592587557904 -0.021102696152145693 0 0.0035234222665266953 -0.021069956014916152 0 0.0034330314195373944 -0.021409288039307844 0 0.0032364592587557904 -0.021102696152145693 0 0.0035234222665266953 -0.021069956014916152 0 0.0032474273174455583 -0.020859264710237718 0 0.0035234222665266953 -0.021069956014916152 0 0.0035894147531187765 -0.020745798573410145 0 0.0032474273174455583 -0.020859264710237718 0 0.0035894147531187765 -0.020745798573410145 0 0.0032474273174455583 -0.020859264710237718 0 0.0033050810550019666 -0.020604645036266973 0 0.0032474273174455583 -0.020859264710237718 0 0.0033050810550019666 -0.020604645036266973 0 0.0030529279049058473 -0.020667958738217342 0 0.0033717025473894834 -0.020362502571666954 0 0.0033050810550019666 -0.020604645036266973 0 0.0030529279049058473 -0.020667958738217342 0 0.0033717025473894834 -0.020362502571666954 0 0.0033050810550019666 -0.020604645036266973 0 0.0035909630796781568 -0.020421363287130619 0 0.0035894147531187765 -0.020745798573410145 0 0.0033050810550019666 -0.020604645036266973 0 0.0035909630796781568 -0.020421363287130619 0 0.0033717025473894834 -0.020362502571666954 0 0.0028902216950753125 -0.020555869711778006 0 0.0030529279049058473 -0.020667958738217342 0 0.0028902216950753125 -0.020555869711778006 0 0.0030529279049058473 -0.020667958738217342 0 0.0028434017207411605 -0.020665394914602932 0 0.0032474273174455583 -0.020859264710237718 0 0.0030529279049058473 -0.020667958738217342 0 0.0029441452911070374 -0.020829287653339513 0 0.0029416087682616484 -0.023620897016588292 0 0.0026601860522870728 -0.02311106217711368 0 0.0030529279049058473 -0.020667958738217342 0 0.0028434017207411605 -0.020665394914602932 0 0.0029441452911070374 -0.020829287653339513 0 0.0026662533713833528 -0.020744395116983186 0 0.0029441452911070374 -0.020829287653339513 0 0.0030470819348260101 -0.021358677579985195 0 0.0032364592587557904 -0.021102696152145693 0 0.0029441452911070374 -0.020829287653339513 0 0.0030470819348260101 -0.021358677579985195 0 0.0032364592587557904 -0.021102696152145693 0 0.0032474273174455583 -0.020859264710237718 0 0.0029441452911070374 -0.020829287653339513 0 0.002550940052044183 -0.023132372114713785 0 0.0025907302485098892 -0.021944121071876935 0 0.002960691620308457 -0.022346593268451703 0 0.0025907302485098892 -0.021944121071876935 0 0.0030470819348260101 -0.021358677579985195 0 0.0033056909088444984 -0.021901223417652556 0 0.0033056909088444984 -0.021901223417652556 0 0.0039067628320609959 -0.022176368757964086 0 0.0037405419656103998 -0.021654728312001895 0 0.0034330314195373944 -0.021409288039307844 0 0.0033056909088444984 -0.021901223417652556 0 0.0037405419656103998 -0.021654728312001895 0 0.0037534253771345197 -0.021314723856500448 0 0.0034330314195373944 -0.021409288039307844 0 0.0037405419656103998 -0.021654728312001895 0 0.0030470819348260101 -0.021358677579985195 0 0.0034330314195373944 -0.021409288039307844 0 0.0033056909088444984 -0.021901223417652556 0 0.0033056909088444984 -0.021901223417652556 0 0.0034457979960990279 -0.022455078964567915 0 0.002960691620308457 -0.022346593268451703 0 0.0033056909088444984 -0.021901223417652556 0 0.0034457979960990279 -0.022455078964567915 0 0.0039067628320609959 -0.022176368757964086 0 0.0025907302485098892 -0.021944121071876935 0 0.0033056909088444984 -0.021901223417652556 0 0.002960691620308457 -0.022346593268451703 0 0.0023297666020548938 -0.025085301427613574 0 0.0045458615092049681 -0.02201559643397398 0 0.002550940052044183 -0.023132372114713785 0 0.0034457979960990279 -0.022455078964567915 0 0.002960691620308457 -0.022346593268451703 0 0.002550940052044183 -0.023132372114713785 0 0.0034457979960990279 -0.022455078964567915 0 0.0044156705262353218 -0.0225453811869138 0 0.0027134020647244408 -0.022973932412714063 0 0.0037138572560583929 -0.023209297303250231 0 0.0044156705262353218 -0.0225453811869138 0 0.0027134020647244408 -0.022973932412714063 0 0.0037138572560583929 -0.023209297303250231 0 0.0031514588877837551 -0.023397906023814495 0 0.0044156705262353218 -0.0225453811869138 0 0.0047406215901725831 -0.022969001221042718 0 0.0047977543317829713 -0.02185602432441474 0 0.0040832747411844563 -0.023395303118425373 0 0.0042408239940091913 -0.023030514835081863 0 0.0047406215901725831 -0.022969001221042718 0 0.0037138572560583929 -0.023209297303250231 0 0.0040832747411844563 -0.023395303118425373 0 0.0042408239940091913 -0.023030514835081863 0 0.0037138572560583929 -0.023209297303250231 0 0.0042408239940091913 -0.023030514835081863 0 0.0044156705262353218 -0.0225453811869138 0 0.0042408239940091913 -0.023030514835081863 0 0.0044156705262353218 -0.0225453811869138 0 0.0047406215901725831 -0.022969001221042718 0 0.0044156705262353218 -0.0225453811869138 0 0.0044075088168514876 -0.021846829607062586 0 0.0047977543317829713 -0.02185602432441474 0 0.0044156705262353218 -0.0225453811869138 0 0.0039067628320609959 -0.022176368757964086 0 0.0044075088168514876 -0.021846829607062586 0 0.0034457979960990279 -0.022455078964567915 0 0.0044156705262353218 -0.0225453811869138 0 0.0039067628320609959 -0.022176368757964086 0 0.0039067628320609959 -0.022176368757964086 0 0.0040342502737609745 -0.021807294276711318 0 0.0044075088168514876 -0.021846829607062586 0 0.0039067628320609959 -0.022176368757964086 0 0.0040342502737609745 -0.021807294276711318 0 0.0037405419656103998 -0.021654728312001895 0 0.0040342502737609745 -0.021807294276711318 0 0.0040903767231496389 -0.021466341326650477 0 0.0044075088168514876 -0.021846829607062586 0 0.0040342502737609745 -0.021807294276711318 0 0.0040903767231496389 -0.021466341326650477 0 0.0037405419656103998 -0.021654728312001895 0 0.0037534253771345197 -0.021314723856500448 0 0.0040903767231496389 -0.021466341326650477 0 0.0037405419656103998 -0.021654728312001895 0 0.004500615377612891 -0.021197141300884896 0 0.0040903767231496389 -0.021466341326650477 0 0.0044075088168514876 -0.021846829607062586 0 0.004500615377612891 -0.021197141300884896 0 0.0044075088168514876 -0.021846829607062586 0 0.0047977543317829713 -0.02185602432441474 0 0.0047977543317829713 -0.02185602432441474 0 0.0056981205441819409 -0.021661346886518027 0 0.0050187900254971708 -0.02083789824560842 0 0.0048572825578168484 -0.022273223864226976 0 0.0061582614830084752 -0.020038998619054536 0 0.0047406215901725831 -0.022969001221042718 0 0.0047977543317829713 -0.02185602432441474 0 0.0056981205441819409 -0.021661346886518027 0 0.0049469483652311705 -0.021511421082342583 0 0.0065063460259459317 -0.018696298283229853 0 0.0068086918547621113 -0.02208323330651888 0 0.0049098550292614208 -0.023172499287541472 0 0.0049469483652311705 -0.021511421082342583 0 0.0068086918547621113 -0.02208323330651888 0 0.0017890670163932564 -0.0052858940191490575 0 0.0056732373093234872 -0.011553264212872682 0 0.0032961734368020103 -0.011648094329662687 0 0.0036076661978768896 -0.011686151772817656 0 0.0040610874126676593 -0.010797432041197038 0 0.0050442417888804294 -0.017465708084723586 0 0.0056732373093234872 -0.011553264212872682 0 0.0065063460259459317 -0.018696298283229853 0 0.0068086918547621113 -0.02208323330651888 0 0.0090499942184076605 -0.018881736733677813 0 0.0065063460259459317 -0.018696298283229853 0 0.0081845061581687171 -0.016017070208794417 0 0.0090499942184076605 -0.018881736733677813 0 0.0056981205441819409 -0.021661346886518027 0 0.0057162419978092011 -0.020549063554533471 0 0.0067430388209568683 -0.02021484424691598 0 0.0061582614830084752 -0.020038998619054536 0 0.0074700823978776079 -0.018843430915022875 0 0.0056981205441819409 -0.021661346886518027 0 0.0050187900254971708 -0.02083789824560842 0 0.0057162419978092011 -0.020549063554533471 0 0.004500615377612891 -0.021197141300884896 0 0.0047977543317829713 -0.02185602432441474 0 0.0050187900254971708 -0.02083789824560842 0 0.0050187900254971708 -0.02083789824560842 0 0.0053147066007463743 -0.020206365889748744 0 0.0047661824507839951 -0.020244507879959996 0 0.0050187900254971708 -0.02083789824560842 0 0.0057162419978092011 -0.020549063554533471 0 0.0053147066007463743 -0.020206365889748744 0 0.0057162419978092011 -0.020549063554533471 0 0.0053147066007463743 -0.020206365889748744 0 0.0058990701810348609 -0.019892487040783398 0 0.0053147066007463743 -0.020206365889748744 0 0.0053265685895835368 -0.019731929997218234 0 0.0058990701810348609 -0.019892487040783398 0 0.0053147066007463743 -0.020206365889748744 0 0.0047661824507839951 -0.020244507879959996 0 0.0049452688530520258 -0.019840624716604763 0 0.0053265685895835368 -0.019731929997218234 0 0.0049452688530520258 -0.019840624716604763 0 0.0051146030727871657 -0.019489789760900888 0 0.0053147066007463743 -0.020206365889748744 0 0.0053265685895835368 -0.019731929997218234 0 0.0049452688530520258 -0.019840624716604763 0 0.0045671272401075023 -0.019906700815784915 0 0.0047661824507839951 -0.020244507879959996 0 0.0049452688530520258 -0.019840624716604763 0 0.004662309237720692 -0.01950147633203626 0 0.0049452688530520258 -0.019840624716604763 0 0.0051146030727871657 -0.019489789760900888 0 0.005501982502818724 -0.019304799548038733 0 0.0051441730730217329 -0.019067290719301636 0 0.0052510811577655518 -0.018952365715185937 0 0.0051146030727871657 -0.019489789760900888 0 0.005501982502818724 -0.019304799548038733 0 0.0051441730730217329 -0.019067290719301636 0 0.004662309237720692 -0.01950147633203626 0 0.0051146030727871657 -0.019489789760900888 0 0.0051441730730217329 -0.019067290719301636 0 0.0053265685895835368 -0.019731929997218234 0 0.005501982502818724 -0.019304799548038733 0 0.0058990701810348609 -0.019892487040783398 0 0.0053265685895835368 -0.019731929997218234 0 0.0051146030727871657 -0.019489789760900888 0 0.005501982502818724 -0.019304799548038733 0 0.0067430388209568683 -0.02021484424691598 0 0.0058990701810348609 -0.019892487040783398 0 0.0064080423159277641 -0.018755251582437623 0 0.0067430388209568683 -0.02021484424691598 0 0.0064080423159277641 -0.018755251582437623 0 0.0076131737385974159 -0.018572399705031013 0 0.005501982502818724 -0.019304799548038733 0 0.0058990701810348609 -0.019892487040783398 0 0.0064080423159277641 -0.018755251582437623 0 0.0057162419978092011 -0.020549063554533471 0 0.0067430388209568683 -0.02021484424691598 0 0.0058990701810348609 -0.019892487040783398 0 0.0030925749434521687 -0.013229767747122045 0 0.0023967532939335456 -0.0091210428197915812 0 0.0027341730720196974 -0.0085011420339219396 0 0.0022542531807825056 -0.0088384834033833053 0 0.0029771833745915856 -0.0081074373819684277 0 0.0020880182063815738 -0.0081903367062418232 0 0.005172387458189715 -0.010949098047149112 0 0.0027341730720196974 -0.0085011420339219396 0 0.0029328199742550349 -0.0088096882646041055 0 0.0037941205875140285 -0.0087561721334874047 0 0.0027341730720196974 -0.0085011420339219396 0 0.0031014195875023994 -0.0083017178827370988 0 0.0033314484597817568 -0.0084677127584646822 0 0.0027341730720196974 -0.0085011420339219396 0 0.0031014195875023994 -0.0083017178827370988 0 0.0029771833745915856 -0.0081074373819684277 0 0.0047979009604138334 -0.01363483978374278 0 0.005172387458189715 -0.010949098047149112 0 0.0027341730720196974 -0.0085011420339219396 0 0.0029328199742550349 -0.0088096882646041055 0 0.0022542531807825056 -0.0088384834033833053 0 0.00065499450142738138 -0.011705690826567952 0 0.0012979282070965411 -0.011604057481804608 0 0.0014331754185441935 -0.010987738157445599 0 0.0047979009604138334 -0.01363483978374278 0 0.0030925749434521687 -0.013229767747122045 0 0.005501982502818724 -0.019304799548038733 0 0.0064080423159277641 -0.018755251582437623 0 0.0052510811577655518 -0.018952365715185937 0 0.0012979282070965411 -0.011604057481804608 0 0.0014331754185441935 -0.010987738157445599 0 0.0019683813103181808 -0.010898349317705083 0 0.0040540878020026722 -0.019164770635342762 0 0.0051441730730217329 -0.019067290719301636 0 0.0052501404884560355 -0.018958589954388812 0 0.0018598659876512531 -0.01523179256406834 0 0.00064137052709967027 -0.010857867584184427 0 0.0029879271350573156 -0.013628911365920246 0 0.0030925749434521687 -0.013229767747122045 0 8.2604863341344904e-05 -0.011722548564730885 0 0.00030783980786402981 -0.011118445690710431 0 0.00067821111108873539 -0.011251597021257149 0 0.0014331754185441935 -0.010987738157445599 0 0.0019683813103181808 -0.010898349317705083 0 0.002176346852471422 -0.010303840471511897 0 0.00064137052709967027 -0.010857867584184427 0 0.0015570911182551887 -0.011004762772358302 0 0.0001388690515973185 -0.010173247056980783 0 -9.6577356296729581e-05 -0.010796320436341622 0 0.00030783980786402981 -0.011118445690710431 0 0.00060898665942147353 -0.010842949640519147 0 -4.9450441122919912e-05 -0.010990211721634361 0 0.00030783980786402981 -0.011118445690710431 0 0.00060898665942147353 -0.010842949640519147 0 0.00067821111108873539 -0.011251597021257149 0 3.3811545203436155e-06 -0.0093203151119537666 0 1.2002905306585139e-07 -0.0098966393226670429 0 -6.042505820679543e-08 -0.007844070270249812 0 3.3811545203436155e-06 -0.0093203151119537666 0 1.2002905306585139e-07 -0.0098966393226670429 0 -4.9450441122919912e-05 -0.010990211721634361 0 1.2002905306585139e-07 -0.0098966393226670429 0 -4.9450441122919912e-05 -0.010990211721634361 0 -6.8759778232447036e-07 -0.011947664419371453 0 8.2604863341344904e-05 -0.011722548564730885 0 -4.9450441122919912e-05 -0.010990211721634361 0 -0.00020497534978953272 -0.011654573684499719 0 8.2604863341344904e-05 -0.011722548564730885 0 0.00030783980786402981 -0.011118445690710431 0 -4.9450441122919912e-05 -0.010990211721634361 0 -4.9450441122919912e-05 -0.010990211721634361 0 -0.00020497534978953272 -0.011654573684499719 0 -6.8759778232447036e-07 -0.011947664419371453 0 -6.8759778232447036e-07 -0.011947664419371453 0 -0.00013031052867370523 -0.012249577989276186 0 -1.2898506252609608e-07 -0.01400038150793049 0 -0.00020497534978953272 -0.011654573684499719 0 -6.8759778232447036e-07 -0.011947664419371453 0 -0.00013031052867370523 -0.012249577989276186 0 -0.00013031052867370523 -0.012249577989276186 0 -9.2035769970458644e-05 -0.011689148861973765 0 0.00024397895000040582 -0.012357376214516764 0 -0.00020497534978953272 -0.011654573684499719 0 -0.00013031052867370523 -0.012249577989276186 0 -9.2035769970458644e-05 -0.011689148861973765 0 -0.00020497534978953272 -0.011654573684499719 0 -9.2035769970458644e-05 -0.011689148861973765 0 -9.3545322294115386e-05 -0.011746752329910889 0 8.2604863341344904e-05 -0.011722548564730885 0 -0.00020497534978953272 -0.011654573684499719 0 -9.3545322294115386e-05 -0.011746752329910889 0 0.0018598659876512531 -0.01523179256406834 0 0.0030925749434521687 -0.013229767747122045 0 -7.7587009541399803e-05 -0.011863733310701086 0 8.2604863341344904e-05 -0.011722548564730885 0 -9.3545322294115386e-05 -0.011746752329910889 0 -9.7351077437853124e-05 -0.011863257319173218 0 -7.7587009541399803e-05 -0.011863733310701086 0 -9.3545322294115386e-05 -0.011746752329910889 0 0.0036915339538693172 -0.020405203269563139 0 0.003058541140418666 -0.019263900245044197 0 0.0028903763965574219 -0.02007332685576764 0 -9.7351077437853124e-05 -0.011863257319173218 0 -9.2035769970458644e-05 -0.011689148861973765 0 -9.3545322294115386e-05 -0.011746752329910889 0 0.002152440993955567 -0.017594559185574753 0 0.0013694941470923747 -0.015192323183414338 0 0.0029597675243245446 -0.020479633468457388 0 0.0036915339538693172 -0.020405203269563139 0 0.0028903763965574219 -0.02007332685576764 0 0.002843900945987837 -0.020497326964648246 0 0.0029597675243245446 -0.020479633468457388 0 0.0028903763965574219 -0.02007332685576764 0 0.003058541140418666 -0.019263900245044197 0 0.0028903763965574219 -0.02007332685576764 0 0.0022118157168799671 -0.01955960381891465 0 0.0028903763965574219 -0.02007332685576764 0 0.0024746175802264573 -0.020223358950734117 0 0.0022118157168799671 -0.01955960381891465 0 0.002843900945987837 -0.020497326964648246 0 0.0028903763965574219 -0.02007332685576764 0 0.0024746175802264573 -0.020223358950734117 0 0.0024746175802264573 -0.020223358950734117 0 0.0019901382113313272 -0.020432492187543141 0 0.0022118157168799671 -0.01955960381891465 0 0.0024396516611055446 -0.020650861754357836 0 0.0024746175802264573 -0.020223358950734117 0 0.0019901382113313272 -0.020432492187543141 0 0.0019901382113313272 -0.020432492187543141 0 0.0012467166015812481 -0.020124231859894117 0 0.0022118157168799671 -0.01955960381891465 0 0.0012467166015812481 -0.020124231859894117 0 0.001075211960685113 -0.019030964422191099 0 0.0022118157168799671 -0.01955960381891465 0 0.0012467166015812481 -0.020124231859894117 0 0.001075211960685113 -0.019030964422191099 0 0.00046217671353280198 -0.019886111941187844 0 0.001075211960685113 -0.019030964422191099 0 0.0022118157168799671 -0.01955960381891465 0 0.0023197310283317443 -0.017747520790379896 0 0.0013694941470923747 -0.015192323183414338 0 0.0011786758446956098 -0.015120549608880294 0 0.003058541140418666 -0.019263900245044197 0 0.0022118157168799671 -0.01955960381891465 0 0.0023197310283317443 -0.017747520790379896 0 -0.00013031052867370523 -0.012249577989276186 0 0.00024397895000040582 -0.012357376214516764 0 -1.2898506252609608e-07 -0.01400038150793049 0 0.00024397895000040582 -0.012357376214516764 0 -1.2898506252609608e-07 -0.01400038150793049 0 1.1190219221022546e-06 -0.014819472764496277 0 0.0011786758446956098 -0.015120549608880294 0 0.00014545418352731438 -0.014675902276713761 0 0.0023197310283317443 -0.017747520790379896 0 4.1271282472133696e-06 -0.014824849910945705 0 0.00041300300695515922 -0.017476958047971395 0 4.1271282472133696e-06 -0.014824849910945705 0 0.00041300300695515922 -0.017476958047971395 0 0.00011207489600018332 -0.016354122228841764 0 0.001075211960685113 -0.019030964422191099 0 0.0023197310283317443 -0.017747520790379896 0 0.00041300300695515922 -0.017476958047971395 0 0.00041300300695515922 -0.017476958047971395 0 -0.00011088192513492869 -0.017953742297513942 0 0.00010516393415747934 -0.019082997718381522 0 0.001075211960685113 -0.019030964422191099 0 0.00041300300695515922 -0.017476958047971395 0 0.00010516393415747934 -0.019082997718381522 0 4.1271282472133696e-06 -0.014824849910945705 0 -9.7548961395845455e-07 -0.016052986066565376 0 0.00011207489600018332 -0.016354122228841764 0 -9.7548961395845455e-07 -0.016052986066565376 0 0.00011207489600018332 -0.016354122228841764 0 -0.00011088192513492869 -0.017953742297513942 0 0.00041300300695515922 -0.017476958047971395 0 0.00011207489600018332 -0.016354122228841764 0 -0.00011088192513492869 -0.017953742297513942 0 -3.6984684454911482e-07 -0.018105990438171612 0 -9.7548961395845455e-07 -0.016052986066565376 0 -0.00011088192513492869 -0.017953742297513942 0 -0.00037830611336677584 -0.019910495740990394 0 -0.00011088192513492869 -0.017953742297513942 0 0.00010516393415747934 -0.019082997718381522 0 0.00010516393415747934 -0.019082997718381522 0 0.00046217671353280198 -0.019886111941187844 0 -0.00017854152075146633 -0.020161396506975657 0 -0.00037830611336677584 -0.019910495740990394 0 0.00010516393415747934 -0.019082997718381522 0 -0.00017854152075146633 -0.020161396506975657 0 0.001075211960685113 -0.019030964422191099 0 0.00010516393415747934 -0.019082997718381522 0 0.00046217671353280198 -0.019886111941187844 0 0.00019585899275496873 -0.020848268687276968 0 0.0012467166015812481 -0.020124231859894117 0 0.00046217671353280198 -0.019886111941187844 0 -0.00052213610935121643 -0.020630652124905623 0 0.00019585899275496873 -0.020848268687276968 0 -0.00017854152075146633 -0.020161396506975657 0 0.00019585899275496873 -0.020848268687276968 0 0.00046217671353280198 -0.019886111941187844 0 -0.00017854152075146633 -0.020161396506975657 0 0.00082152768854541736 0.00017355398220292838 0 0.00022065431289201157 0.00035794505191538185 0 0.0011977133857989065 0.00077433270828462764 0 0.0012356015066409345 0.00027046527407419179 0 0.0013848851897518995 0.00051683756271973282 0 0.0014207466501512795 0.00033975190676514627 0 0.0012356015066409345 0.00027046527407419179 0 0.0011977133857989065 0.00077433270828462764 0 0.0013848851897518995 0.00051683756271973282 0 0.00082152768854541736 0.00017355398220292838 0 0.0012356015066409345 0.00027046527407419179 0 0.0011977133857989065 0.00077433270828462764 0 0.0012356015066409345 0.00027046527407419179 0 0.0014207466501512795 0.00033975190676514627 0 0.0013906658176393231 0.00020988329397699732 0 0.00082152768854541736 0.00017355398220292838 0 0.0012356015066409345 0.00027046527407419179 0 0.0011095480782064976 -2.4842706197613486e-05 0 0.0012356015066409345 0.00027046527407419179 0 0.0011095480782064976 -2.4842706197613486e-05 0 0.0012852232072821973 2.5108966998447507e-05 0 0.0011095480782064976 -2.4842706197613486e-05 0 0.0013707338067607919 -0.00012761927931679036 0 0.00086166348282222679 -0.00023758900644388494 0 0.0013862240148606356 -0.0022245677945503888 0 0.00032027841867723813 0.00045188699302342448 0 0.0012356015066409345 0.00027046527407419179 0 0.0012852232072821973 2.5108966998447507e-05 0 0.0013906658176393231 0.00020988329397699732 0 0.0012852232072821973 2.5108966998447507e-05 0 0.0013707338067607919 -0.00012761927931679036 0 0.0014790911147186121 -2.9732643430902538e-05 0 0.001268326253202629 -0.00026039536797289159 0 0.0014114558323417938 -0.00056857826450240135 0 0.0011095480782064976 -2.4842706197613486e-05 0 0.0012852232072821973 2.5108966998447507e-05 0 0.0013707338067607919 -0.00012761927931679036 0 -0.00016652805062891625 0.0027654838328960425 0 -0.00096124099509655066 0.0035927970092473416 0 0.00089241963917887572 0.00042466769209550015 0 -0.00016652805062891625 0.0027654838328960425 0 0.00082152768854541736 0.00017355398220292838 0 0.00070070123328525068 -0.00023904635812966273 0 0.00022065431289201157 0.00035794505191538185 0 0.0011095480782064976 -2.4842706197613486e-05 0 0.00080552344238397303 -0.0001038663902955748 0 0.00086166348282222679 -0.00023758900644388494 0 0.00082152768854541736 0.00017355398220292838 0 0.0011095480782064976 -2.4842706197613486e-05 0 0.00070070123328525068 -0.00023904635812966273 0 -0.00016652805062891625 0.0027654838328960425 0 0.00032027841867723813 0.00045188699302342448 0 -0.0021857721343235222 0.007279048456011703 0 -0.0015197736384376659 0.0070403263889839938 0 -0.0019132820024243104 0.0064524079675410198 0 -0.0021857721343235222 0.007279048456011703 0 -0.0015197736384376659 0.0070403263889839938 0 -0.0011191697326275076 0.0075885878755604106 0 -0.0015197736384376659 0.0070403263889839938 0 -0.0010138115105022491 0.0071854790140329691 0 -0.0013412777193515886 0.0066050100055619456 0 -0.0010138115105022491 0.0071854790140329691 0 -0.0011191697326275076 0.0075885878755604106 0 -0.00073327672328418292 0.0074453504802164169 0 -0.0015197736384376659 0.0070403263889839938 0 -0.0010138115105022491 0.0071854790140329691 0 -0.0011191697326275076 0.0075885878755604106 0 -0.0010138115105022491 0.0071854790140329691 0 -0.00085085565244032656 0.0067431411152227049 0 -0.00036472208449123529 0.0069715492785279018 0 -0.00085085565244032656 0.0067431411152227049 0 -0.00036472208449123529 0.0069715492785279018 0 -0.00049799438354545904 0.0065868515296576948 0 -0.00085085565244032656 0.0067431411152227049 0 -0.00094870117592731464 0.0063162810407027311 0 -0.00049799438354545904 0.0065868515296576948 0 -0.00085085565244032656 0.0067431411152227049 0 -0.00094870117592731464 0.0063162810407027311 0 -0.0013412777193515886 0.0066050100055619456 0 -0.0010138115105022491 0.0071854790140329691 0 -0.00085085565244032656 0.0067431411152227049 0 -0.0013412777193515886 0.0066050100055619456 0 -0.00094870117592731464 0.0063162810407027311 0 -0.0013412777193515886 0.0066050100055619456 0 -0.0012421589961562581 0.0060269951468231633 0 -0.00094870117592731464 0.0063162810407027311 0 -0.00064734910215035965 0.005941774534012326 0 -0.00049799438354545904 0.0065868515296576948 0 -0.0015197736384376659 0.0070403263889839938 0 -0.0013412777193515886 0.0066050100055619456 0 -0.0019132820024243104 0.0064524079675410198 0 -0.0013412777193515886 0.0066050100055619456 0 -0.0019132820024243104 0.0064524079675410198 0 -0.0012421589961562581 0.0060269951468231633 0 -0.0019132820024243104 0.0064524079675410198 0 -0.0016292597126936633 0.0053844866025195993 0 -0.0012421589961562581 0.0060269951468231633 0 -0.00096124099509655066 0.0035927970092473416 0 -0.0010915546441281863 0.0036494271098445078 0 0.00022065431289201157 0.00035794505191538185 0 -0.00077307403175412776 0.001943762338011054 0 0.00028160323079728055 0.0013289237136274393 0 -0.00077307403175412776 0.001943762338011054 0 0.00038765951267283268 0.0024299490972547353 0 0.00028160323079728055 0.0013289237136274393 0 -0.00064734910215035965 0.005941774534012326 0 -0.0012421589961562581 0.0060269951468231633 0 -0.0008813794752866481 0.0053255243137508897 0 -0.00094870117592731464 0.0063162810407027311 0 -0.00064734910215035965 0.005941774534012326 0 -0.0012421589961562581 0.0060269951468231633 0 -0.0016292597126936633 0.0053844866025195993 0 -0.0012421589961562581 0.0060269951468231633 0 -0.0008813794752866481 0.0053255243137508897 0 -0.00064734910215035965 0.005941774534012326 0 -0.0008813794752866481 0.0053255243137508897 0 -0.00034519241428817291 0.0054658283424539322 0 -0.00085769145326749488 0.0040577404588008088 0 -0.0016292597126936633 0.0053844866025195993 0 -0.00092106740937715297 0.0047640669628506256 0 -0.0008813794752866481 0.0053255243137508897 0 -0.00060296639726447221 0.0047338142396110483 0 -0.00092106740937715297 0.0047640669628506256 0 -0.0008813794752866481 0.0053255243137508897 0 -0.00060296639726447221 0.0047338142396110483 0 -0.00034519241428817291 0.0054658283424539322 0 -0.0016292597126936633 0.0053844866025195993 0 -0.0008813794752866481 0.0053255243137508897 0 -0.00092106740937715297 0.0047640669628506256 0 -0.00085769145326749488 0.0040577404588008088 0 -0.00092106740937715297 0.0047640669628506256 0 -0.00070776016270073536 0.0044657006629726902 0 -0.00085769145326749488 0.0040577404588008088 0 -0.00070776016270073536 0.0044657006629726902 0 -0.00055731195251145903 0.0043889530808011992 0 -0.00060296639726447221 0.0047338142396110483 0 -0.00092106740937715297 0.0047640669628506256 0 -0.00070776016270073536 0.0044657006629726902 0 -0.00060296639726447221 0.0047338142396110483 0 -0.00070776016270073536 0.0044657006629726902 0 -0.00055731195251145903 0.0043889530808011992 0 -0.00095949270637601686 0.0039725893993152262 0 -0.0010915546441281863 0.0036494271098445078 0 -0.00088238295816111666 0.0039388894745305764 0 -0.00077307403175412776 0.001943762338011054 0 0.00038765951267283268 0.0024299490972547353 0 -0.00088238295816111666 0.0039388894745305764 0 -0.00085769145326749488 0.0040577404588008088 0 -0.00077307403175412776 0.001943762338011054 0 0.0013066641926539788 0.0017236375675833821 0 0.00062546810959081939 0.0017234448576879957 0 0.001272205856149984 0.0007259517873251381 0 0.0011977133857989065 0.00077433270828462764 0 0.0012594659714728997 0.00069981031760901063 0 0.0012830469155123334 0.00072801798653502172 0 0.001272205856149984 0.0007259517873251381 0 0.0012594659714728997 0.00069981031760901063 0 0.0013066641926539788 0.0017236375675833821 0 0.0020532346896787782 0.00013334425644059871 0 0.00022065431289201157 0.00035794505191538185 0 0.0011977133857989065 0.00077433270828462764 0 0.00028160323079728055 0.0013289237136274393 0 0.00038765951267283268 0.0024299490972547353 0 0.0011977133857989065 0.00077433270828462764 0 0.00028160323079728055 0.0013289237136274393 0 0.00062546810959081939 0.0017234448576879957 0 0.0012352520432930638 0.00086175962645227398 0 0.0011977133857989065 0.00077433270828462764 0 0.0013848851897518995 0.00051683756271973282 0 0.0012594659714728997 0.00069981031760901063 0 0.0013848851897518995 0.00051683756271973282 0 0.0012594659714728997 0.00069981031760901063 0 0.001523787793899735 0.00029428070950326967 0 0.0020532346896787782 0.00013334425644059871 0 0.0014177080949062959 0.00039565012834669123 0 0.0015427697083905932 -0.00022538441376232773 0 0.0019526167158839111 -0.0001769248316593375 0 0.001523787793899735 0.00029428070950326967 0 0.0019526167158839111 -0.0001769248316593375 0 0.002412346379120309 5.3687276727087178e-05 0 0.001523787793899735 0.00029428070950326967 0 0.0015427697083905932 -0.00022538441376232773 0 0.001523787793899735 0.00029428070950326967 0 0.0012675566808065546 0.00014405997171212329 0 0.001523787793899735 0.00029428070950326967 0 0.0012675566808065546 0.00014405997171212329 0 0.0014488500192272786 0.00033762155248157131 0 0.0012675566808065546 0.00014405997171212329 0 0.0014488500192272786 0.00033762155248157131 0 0.0012613859980579241 0.00024957848184618521 0 0.0013848851897518995 0.00051683756271973282 0 0.001523787793899735 0.00029428070950326967 0 0.0014488500192272786 0.00033762155248157131 0 0.0013848851897518995 0.00051683756271973282 0 0.0014488500192272786 0.00033762155248157131 0 0.0014207466501512795 0.00033975190676514627 0 0.00034766172062258773 -0.0010846789362062288 0 0.00085984291353910784 -0.00089463432084557336 0 0.00063015425522990509 -0.00033328903189844153 0 0.0011537252402908016 -0.00037985276878175963 0 0.0012675566808065546 0.00014405997171212329 0 0.00090180853859632285 5.8258829730195213e-05 0 0.0012675566808065546 0.00014405997171212329 0 0.00090180853859632285 5.8258829730195213e-05 0 0.0011399985144952838 0.00015103728371250631 0 0.0012675566808065546 0.00014405997171212329 0 0.0012613859980579241 0.00024957848184618521 0 0.0011399985144952838 0.00015103728371250631 0 0.00090180853859632285 5.8258829730195213e-05 0 0.0011399985144952838 0.00015103728371250631 0 0.0011669616587832521 0.00010817233300266012 0 0.0012613859980579241 0.00024957848184618521 0 0.0011399985144952838 0.00015103728371250631 0 0.0011669616587832521 0.00010817233300266012 0 0.00085984291353910784 -0.00089463432084557336 0 0.00063015425522990509 -0.00033328903189844153 0 0.0011669616587832521 0.00010817233300266012 0 0.00088344674202481938 -0.00041686045354184223 0 0.0011324270642750248 8.0380467163668968e-05 0 0.0056732373093234872 -0.011553264212872682 0 0.0075763807111800799 -0.017933453349651962 0 0.009026367391753054 -0.018648359023371468 0 0.0095621649097433273 -0.017380825563733698 0 0.010718464163637205 -0.016437503536479867 0 0.0081845061581687171 -0.016017070208794417 0 0.0095621649097433273 -0.017380825563733698 0 0.0097469611272113076 -0.015327487730275521 0 0.00063015425522990509 -0.00033328903189844153 0 0.001224571737411529 0.00025183073596487073 0 0.0011669616587832521 0.00010817233300266012 0 0.0095621649097433273 -0.017380825563733698 0 0.010718464163637205 -0.016437503536479867 0 0.0097469611272113076 -0.015327487730275521 0 0.0056732373093234872 -0.011553264212872682 0 0.0061183801052090963 -0.0076051767381792711 0 0.0081845061581687171 -0.016017070208794417 0 0.0090499942184076605 -0.018881736733677813 0 0.0095621649097433273 -0.017380825563733698 0 0.001224571737411529 0.00025183073596487073 0 0.0011669616587832521 0.00010817233300266012 0 0.0012634139046801267 0.00020869202986488299 0 0.0012613859980579241 0.00024957848184618521 0 0.0011669616587832521 0.00010817233300266012 0 0.0012634139046801267 0.00020869202986488299 0 0.001224571737411529 0.00025183073596487073 0 0.0012634139046801267 0.00020869202986488299 0 0.0012771414497625387 0.00014601485391100424 0 0.0097469611272113076 -0.015327487730275521 0 0.012417204165157002 -0.014184645379928047 0 0.0097693050968020237 -0.013646451028909368 0 0.0061183801052090963 -0.0076051767381792711 0 0.006131660639018174 -0.0082840930753415448 0 0.010718464163637205 -0.016437503536479867 0 0.0097469611272113076 -0.015327487730275521 0 0.012417204165157002 -0.014184645379928047 0 0.001224571737411529 0.00025183073596487073 0 0.0012771414497625387 0.00014601485391100424 0 0.0013125841625787268 6.8211123220170573e-05 0 0.0012634139046801267 0.00020869202986488299 0 0.0012771414497625387 0.00014601485391100424 0 0.0012222417972879993 0.00016660140588242028 0 0.0074700823978776079 -0.018843430915022875 0 0.0067403690494084109 -0.011319457931422253 0 0.0067430388209568683 -0.02021484424691598 0 0.0076131737385974159 -0.018572399705031013 0 0.0078069837143352402 -0.018608530260728687 0 0.0081845061581687171 -0.016017070208794417 0 0.0097469611272113076 -0.015327487730275521 0 0.0097693050968020237 -0.013646451028909368 0 0.0014488500192272786 0.00033762155248157131 0 0.0014207466501512795 0.00033975190676514627 0 0.0014707028161366545 0.00032303938946437417 0 0.0014207466501512795 0.00033975190676514627 0 0.0014707028161366545 0.00032303938946437417 0 0.0013906658176393231 0.00020988329397699732 0 0.0012613859980579241 0.00024957848184618521 0 0.0012634139046801267 0.00020869202986488299 0 0.001189501535258376 0.00019366353153166312 0 0.0012634139046801267 0.00020869202986488299 0 0.001189501535258376 0.00019366353153166312 0 0.0012222417972879993 0.00016660140588242028 0 0.0014488500192272786 0.00033762155248157131 0 0.0012613859980579241 0.00024957848184618521 0 0.0014707028161366545 0.00032303938946437417 0 0.0012565760076701041 0.00022847706539412844 0 0.0013546495972935676 0.00029343136731273207 0 0.0013198912023406671 0.00042846296191939148 0 0.0012859347056968357 -0.0013333856932895281 0 0.001189501535258376 0.00019366353153166312 0 0.0012222417972879993 0.00016660140588242028 0 0.0011568944797758149 0.00011528443878966333 0 0.0012771414497625387 0.00014601485391100424 0 0.0013125841625787268 6.8211123220170573e-05 0 0.0013169753931424075 2.1499469584856668e-05 0 0.006131660639018174 -0.0082840930753415448 0 0.0012859347056968357 -0.0013333856932895281 0 0.0012771414497625387 0.00014601485391100424 0 0.0012222417972879993 0.00016660140588242028 0 0.0011568944797758149 0.00011528443878966333 0 0.001189501535258376 0.00019366353153166312 0 0.0011568944797758149 0.00011528443878966333 0 0.0011180244324840859 0.00012167198094285343 0 0.0014707028161366545 0.00032303938946437417 0 0.0013906658176393231 0.00020988329397699732 0 0.0014086427825638762 6.9162020352342979e-05 0 0.0013546495972935676 0.00029343136731273207 0 0.0014114558323417938 -0.00056857826450240135 0 0.0012852232072821973 2.5108966998447507e-05 0 0.0013906658176393231 0.00020988329397699732 0 0.0014086427825638762 6.9162020352342979e-05 0 0.0013862240148606356 -0.0022245677945503888 0 0.0014114558323417938 -0.00056857826450240135 0 0.0014484374156302339 -0.0015719469798891527 0 0.0013693565775048356 -0.0015820931842060644 0 0.0014196884198270469 -0.0015952044182879278 0 0.0013862240148606356 -0.0022245677945503888 0 0.0012859347056968357 -0.0013333856932895281 0 0.0024487193676837973 -0.0061085225182469028 0 0.0028973128481327316 -0.006007048123670854 0 0.0028669129116983944 -0.0063421398148580293 0 0.0012859347056968357 -0.0013333856932895281 0 0.0014114558323417938 -0.00056857826450240135 0 0.0024487193676837973 -0.0061085225182469028 0 0.0026671382767463549 -0.0064675404390713374 0 0.0024371920217728668 -0.0067588322129075538 0 0.0024487193676837973 -0.0061085225182469028 0 0.0026671382767463549 -0.0064675404390713374 0 0.0028669129116983944 -0.0063421398148580293 0 0.0026671382767463549 -0.0064675404390713374 0 0.0027525297843792691 -0.0067551330720688448 0 0.0024371920217728668 -0.0067588322129075538 0 0.0026671382767463549 -0.0064675404390713374 0 0.0027525297843792691 -0.0067551330720688448 0 0.0029873228377366814 -0.0065892592745280462 0 0.0027525297843792691 -0.0067551330720688448 0 0.0030286807990729065 -0.0067808173362753346 0 0.0029873228377366814 -0.0065892592745280462 0 0.0028973128481327316 -0.006007048123670854 0 0.0028669129116983944 -0.0063421398148580293 0 0.0033948994123184015 -0.0065532487481897309 0 0.0026671382767463549 -0.0064675404390713374 0 0.0029873228377366814 -0.0065892592745280462 0 0.0028669129116983944 -0.0063421398148580293 0 0.0029873228377366814 -0.0065892592745280462 0 0.0028669129116983944 -0.0063421398148580293 0 0.0033948994123184015 -0.0065532487481897309 0 0.0037070948182261077 -0.0061871834769741708 0 0.0028973128481327316 -0.006007048123670854 0 0.0033948994123184015 -0.0065532487481897309 0 0.006131660639018174 -0.0082840930753415448 0 0.0037872633459209277 -0.0073250801904869191 0 0.0033031529412226117 -0.0065963170811399489 0 0.0031962591852961538 -0.00671153960970307 0 0.0035392234706700023 -0.0069073944303869542 0 0.0029873228377366814 -0.0065892592745280462 0 0.0033026729264077461 -0.0065877870686618803 0 0.0031962591852961538 -0.00671153960970307 0 0.0031034067679128496 -0.006935333820281173 0 0.0037872633459209277 -0.0073250801904869191 0 0.0037872633459209277 -0.0073250801904869191 0 0.0037076306858146394 -0.0071445032562023822 0 0.0030286807990729065 -0.0067808173362753346 0 0.0031962591852961538 -0.00671153960970307 0 0.0031911148619529085 -0.00694763071387503 0 0.0030286807990729065 -0.0067808173362753346 0 0.0029873228377366814 -0.0065892592745280462 0 0.0031962591852961538 -0.00671153960970307 0 0.0031911148619529085 -0.00694763071387503 0 0.0032652043621224547 -0.0072029988065017026 0 0.0029518302706784648 -0.0069455928878565127 0 0.0030286807990729065 -0.0067808173362753346 0 0.0031911148619529085 -0.00694763071387503 0 0.0029518302706784648 -0.0069455928878565127 0 0.0031911148619529085 -0.00694763071387503 0 0.0035392234706700023 -0.0069073944303869542 0 0.0032652043621224547 -0.0072029988065017026 0 0.0031962591852961538 -0.00671153960970307 0 0.0031911148619529085 -0.00694763071387503 0 0.0035392234706700023 -0.0069073944303869542 0 0.0032652043621224547 -0.0072029988065017026 0 0.0028070467612792273 -0.0072307398442491818 0 0.00316292740438778 -0.0074777003337252162 0 0.0032652043621224547 -0.0072029988065017026 0 0.0028070467612792273 -0.0072307398442491818 0 0.0029518302706784648 -0.0069455928878565127 0 0.0027525297843792691 -0.0067551330720688448 0 0.0028070467612792273 -0.0072307398442491818 0 0.0024371920217728668 -0.0067588322129075538 0 0.0027525297843792691 -0.0067551330720688448 0 0.0028070467612792273 -0.0072307398442491818 0 0.0029518302706784648 -0.0069455928878565127 0 0.0027525297843792691 -0.0067551330720688448 0 0.0030286807990729065 -0.0067808173362753346 0 0.0029518302706784648 -0.0069455928878565127 0 0.0067403690494084109 -0.011319457931422253 0 0.0037057473590739161 -0.0071313025250750979 0 0.0033938146342216272 -0.0084748950866642952 0 0.0035630769029580695 -0.0079646417902197227 0 0.0033163718407945848 -0.0081559400042638223 0 0.0031014195875023994 -0.0083017178827370988 0 0.0029771833745915856 -0.0081074373819684277 0 0.0033163718407945848 -0.0081559400042638223 0 0.0031014195875023994 -0.0083017178827370988 0 0.0033314484597817568 -0.0084677127584646822 0 0.0033163718407945848 -0.0081559400042638223 0 0.0033314484597817568 -0.0084677127584646822 0 0.0033938146342216272 -0.0084748950866642952 0 0.0033163718407945848 -0.0081559400042638223 0 0.005172387458189715 -0.010949098047149112 0 0.0067403690494084109 -0.011319457931422253 0 0.0053005129337114877 -0.0088270712623015422 0 0.0048645491294242536 -0.0093427711050478868 0 0.006653443111999972 -0.0091483828557668932 0 0.0035392234706700023 -0.0069073944303869542 0 0.0043601118489061822 -0.0065233533643870856 0 0.0039399612968138943 -0.0070646474211354835 0 0.0033031529412226117 -0.0065963170811399489 0 0.0035392234706700023 -0.0069073944303869542 0 0.0043601118489061822 -0.0065233533643870856 0 0.0037872633459209277 -0.0073250801904869191 0 0.0067403690494084109 -0.011319457931422253 0 0.006131660639018174 -0.0082840930753415448 0 0.0067403690494084109 -0.011319457931422253 0 0.0032652043621224547 -0.0072029988065017026 0 0.0039399612968138943 -0.0070646474211354835 0 0.0034915190082440437 -0.0076683897436769944 0 0.0035630769029580695 -0.0079646417902197227 0 0.0034497148457402417 -0.007731590207187544 0 0.0034915190082440437 -0.0076683897436769944 0 0.0035392234706700023 -0.0069073944303869542 0 0.0032652043621224547 -0.0072029988065017026 0 0.0039399612968138943 -0.0070646474211354835 0 0.0037057473590739161 -0.0071313025250750979 0 0.0034810284726425646 -0.0077815760526862721 0 0.0023967532939335456 -0.0091210428197915812 0 0.0031992833353756247 -0.0091279963715555912 0 0.0029771833745915856 -0.0081074373819684277 0 0.0033163718407945848 -0.0081559400042638223 0 0.0034497148457402417 -0.007731590207187544 0 0.0035630769029580695 -0.0079646417902197227 0 0.0033163718407945848 -0.0081559400042638223 0 0.0034497148457402417 -0.007731590207187544 0 0.0019683813103181808 -0.010898349317705083 0 0.0025995314397315051 -0.010227571392128763 0 0.002176346852471422 -0.010303840471511897 0 0.0025995314397315051 -0.010227571392128763 0 0.002176346852471422 -0.010303840471511897 0 0.0028788274753787156 -0.0096595787961442463 0 0.0015570911182551887 -0.011004762772358302 0 0.00098511085785101026 -0.0088312124349586227 0 0.00060898665942147353 -0.010842949640519147 0 0.00067821111108873539 -0.011251597021257149 0 0.0013128718976505444 -0.010709391085846284 0 0.0031992833353756247 -0.0091279963715555912 0 0.0017673592463006806 -0.0076598398696001877 0 0.0025995314397315051 -0.010227571392128763 0 0.0032122221644152152 -0.009593453823351283 0 0.0028788274753787156 -0.0096595787961442463 0 0.0034497148457402417 -0.007731590207187544 0 0.0034922321099054832 -0.0078752947057228271 0 0.0034915190082440437 -0.0076683897436769944 0 -6.042505820679543e-08 -0.007844070270249812 0 2.1555696215700637e-05 -0.0065823899570682893 0 5.5620101366972887e-07 -0.0057931230843582251 0 9.2046065830434344e-05 -0.0078837163377382374 0 -6.042505820679543e-08 -0.007844070270249812 0 2.1555696215700637e-05 -0.0065823899570682893 0 0.0017673592463006806 -0.0076598398696001877 0 0.00098511085785101026 -0.0088312124349586227 0 9.6619059981051716e-06 -0.0069983976468005749 0 -0.0003937710811645993 -0.0070872902718240385 0 2.1555696215700637e-05 -0.0065823899570682893 0 0.00098511085785101026 -0.0088312124349586227 0 0.00010967227637237449 -0.007011040330880537 0 0.0001388690515973185 -0.010173247056980783 0 0.00098511085785101026 -0.0088312124349586227 0 3.3811545203436155e-06 -0.0093203151119537666 0 9.2046065830434344e-05 -0.0078837163377382374 0 -6.042505820679543e-08 -0.007844070270249812 0 0.0030330039076967362 -0.0077253068423434011 0 0.0026419491225569748 -0.0075904992817981782 0 0.0027173726204444454 -0.0080899818509935009 0 0.0028070467612792273 -0.0072307398442491818 0 0.0026419491225569748 -0.0075904992817981782 0 0.0021488528287932078 -0.0073202599925899694 0 0.0028070467612792273 -0.0072307398442491818 0 0.0030330039076967362 -0.0077253068423434011 0 0.00316292740438778 -0.0074777003337252162 0 0.0028070467612792273 -0.0072307398442491818 0 0.0030330039076967362 -0.0077253068423434011 0 0.0026419491225569748 -0.0075904992817981782 0 0.0030330039076967362 -0.0077253068423434011 0 0.00316292740438778 -0.0074777003337252162 0 0.0034915190082440437 -0.0076683897436769944 0 0.0034922321099054832 -0.0078752947057228271 0 0.0030330039076967362 -0.0077253068423434011 0 0.0034915190082440437 -0.0076683897436769944 0 0.0032652043621224547 -0.0072029988065017026 0 0.00316292740438778 -0.0074777003337252162 0 0.0034915190082440437 -0.0076683897436769944 0 0.0017673592463006806 -0.0076598398696001877 0 0.0012285373365106757 -0.0051354689797537415 0 0.00018066101551176682 -0.0056995389285775973 0 -2.5624195826536829e-08 -0.0057882273374802182 0 -0.00013528488883951992 -0.0054200921380049222 0 0.0034922321099054832 -0.0078752947057228271 0 0.0030330039076967362 -0.0077253068423434011 0 0.0027173726204444454 -0.0080899818509935009 0 9.6619059981051716e-06 -0.0069983976468005749 0 2.1555696215700637e-05 -0.0065823899570682893 0 5.5620101366972887e-07 -0.0057931230843582251 0 0.0017673592463006806 -0.0076598398696001877 0 -1.1675355935871573e-07 -0.0057923261825871099 0 -1.4258233933274357e-09 -0.0054347639796209534 0 -1.1083326915150687e-05 -0.0047625800681002474 0 1.3920248930826718e-08 -0.0045957153972722023 0 0.0026419491225569748 -0.0075904992817981782 0 0.0027173726204444454 -0.0080899818509935009 0 0.0024419567369730433 -0.0079083733215431253 0 -2.0508725306513327e-07 -0.0054354141695559001 0 0.0012285373365106757 -0.0051354689797537415 0 -2.5624195826536829e-08 -0.0057882273374802182 0 6.4363313790772929e-08 -0.0054396271273024314 0 -0.00013528488883951992 -0.0054200921380049222 0 0.0012530484156601561 -0.0042118219276147699 0 0.0013978423899422023 -0.0041918071299757711 0 0.0011758345029427855 -0.0040236306948788882 0 0.0012285373365106757 -0.0051354689797537415 0 0.0017968430448406516 -0.0034500850757948048 0 0.00099030885842453205 -0.0036528153891372353 0 0.0012285373365106757 -0.0051354689797537415 0 8.8840899044284925e-05 -0.0047393417927998416 0 -1.1083326915150687e-05 -0.0047625800681002474 0 1.3920248930826718e-08 -0.0045957153972722023 0 0.00099030885842453205 -0.0036528153891372353 0 1.4230400050564911e-06 -0.0045934517475930215 0 0.00099030885842453205 -0.0036528153891372353 0 0.00047903507192261088 -0.0021062062526063514 0 -4.6767592167442617e-06 -0.0042986523374955723 0 -9.4940170679597069e-08 -0.0030589839604695046 0 4.41167944607323e-06 -0.0030294275744526355 0 0.0020841925705504258 -0.0011327135945802651 0 0.0019559176423415729 -0.00081611707406571232 0 0.0011393373069749162 -0.0012870836513979751 0 -4.6767592167442617e-06 -0.0042986523374955723 0 1.0895015035919988e-07 -0.0045930624338750177 0 -9.4940170679597069e-08 -0.0030589839604695046 0 0.0019559176423415729 -0.00081611707406571232 0 0.0011393373069749162 -0.0012870836513979751 0 0.0011458682373673144 -0.00068128941866173111 0 0.00099030885842453205 -0.0036528153891372353 0 0.0017968430448406516 -0.0034500850757948048 0 0.0011393373069749162 -0.0012870836513979751 0 0.00054103876104096276 -0.00054260382113093431 0 1.2197850869401526e-06 -0.0015200832329011372 0 0.00047903507192261088 -0.0021062062526063514 0 -1.2200886057601998e-07 -0.0015229772999009327 0 -9.4940170679597069e-08 -0.0030589839604695046 0 4.41167944607323e-06 -0.0030294275744526355 0 9.9045418473832089e-08 -0.0015226666286276634 0 0.0011393373069749162 -0.0012870836513979751 0 0.0011458682373673144 -0.00068128941866173111 0 0.00054103876104096276 -0.00054260382113093431 0 0.0009423950040003278 -0.0001075038553982307 0 0.00046275728097689475 0.0001120713110868413 0 0.00054103876104096276 -0.00054260382113093431 0 0.0011458682373673144 -0.00068128941866173111 0 0.0009423950040003278 -0.0001075038553982307 0 0.00054103876104096276 -0.00054260382113093431 0 0.0026419491225569748 -0.0075904992817981782 0 0.0024419567369730433 -0.0079083733215431253 0 0.0021488528287932078 -0.0073202599925899694 0 0.0017968430448406516 -0.0034500850757948048 0 0.0019971572174045261 -0.0039659129090587634 0 0.0017968430448406516 -0.0034500850757948048 0 0.00081953195953235903 0.00060417255076747984 0 0.0019365069337314341 -0.00095025145676497886 0 0.0009423950040003278 -0.0001075038553982307 0 0.0015649841064562255 -2.8655539790173506e-05 0 0.0019559176423415729 -0.00081611707406571232 0 0.0011458682373673144 -0.00068128941866173111 0 0.0009423950040003278 -0.0001075038553982307 0 0.0019971572174045261 -0.0039659129090587634 0 0.00083433183085690813 -0.0024994681497596898 0 0.0021488528287932078 -0.0073202599925899694 0 0.0018476383787975491 -0.0066662091068355562 0 0.0024371920217728668 -0.0067588322129075538 0 0.0028070467612792273 -0.0072307398442491818 0 0.0021488528287932078 -0.0073202599925899694 0 0.0024371920217728668 -0.0067588322129075538 0 -0.0003343587252843908 -0.00040330330063347865 0 -0.00027240828864297592 -0.00039146387838979828 0 -0.00026175081798352834 -0.00031701348151149766 0 0.00083433183085690813 -0.0024994681497596898 0 0.00019820846931955008 0.00026889659470932006 0 0.0009423950040003278 -0.0001075038553982307 0 0.0015649841064562255 -2.8655539790173506e-05 0 0.0012006467649123139 0.00073844458582328343 0 0.0009423950040003278 -0.0001075038553982307 0 0.0012006467649123139 0.00073844458582328343 0 0.00046275728097689475 0.0001120713110868413 0 -0.0003343587252843908 -0.00040330330063347865 0 -0.00031512658623321789 -0.00044024351081161788 0 -0.00027240828864297592 -0.00039146387838979828 0 0.00083433183085690813 -0.0024994681497596898 0 0.00032027841867723813 0.00045188699302342448 0 0.0024487193676837973 -0.0061085225182469028 0 0.0018476383787975491 -0.0066662091068355562 0 0.0024371920217728668 -0.0067588322129075538 0 0.0013862240148606356 -0.0022245677945503888 0 0.00083433183085690813 -0.0024994681497596898 0 0.0011613986515054326 -0.0013266251226551303 0 0.00080771173474973969 -0.0016415280978007583 0 0.00070869723816710615 -0.0014032160038006578 0 -0.0003235911042629973 0.0027867282454439213 0 -0.00032032539158575167 0.0027810592466670243 0 -0.00023239943756822554 0.0028634844372231088 0 -0.00021056493629823371 -0.00043476156578188611 0 -0.00015685164158111639 -0.0003028080606097008 0 5.6002082091710088e-05 -0.00044214782082953156 0 -0.00036822980779504979 0.0027292040952775127 0 -0.00037219625615566508 0.0027361057787593738 0 -0.0003235911042629973 0.0027867282454439213 0 -0.00021056493629823371 -0.00043476156578188611 0 -0.00027240828864297592 -0.00039146387838979828 0 -0.00022770508223847593 -0.00035053428216442486 0 -0.00016652805062891625 0.0027654838328960425 0 -0.0008771987633036637 0.0056730040618432195 0 0.00032027841867723813 0.00045188699302342448 0 -0.00040982898586091454 0.00096248953814477654 0 -0.00036822980779504979 0.0027292040952775127 0 -0.0003235911042629973 0.0027867282454439213 0 -0.00032032539158575167 0.0027810592466670243 0 -0.00031512658623321789 -0.00044024351081161788 0 -0.00021056493629823371 -0.00043476156578188611 0 -0.00027240828864297592 -0.00039146387838979828 0 -0.00027240828864297592 -0.00039146387838979828 0 -0.00022770508223847593 -0.00035053428216442486 0 -0.00026175081798352834 -0.00031701348151149766 0 -0.00022770508223847593 -0.00035053428216442486 0 -0.00026175081798352834 -0.00031701348151149766 0 -0.00021332482175427357 -0.0003028148200977119 0 -0.00022770508223847593 -0.00035053428216442486 0 -0.00015685164158111639 -0.0003028080606097008 0 -0.00021332482175427357 -0.0003028148200977119 0 -0.00021056493629823371 -0.00043476156578188611 0 -0.00022770508223847593 -0.00035053428216442486 0 -0.00015685164158111639 -0.0003028080606097008 0 -0.00015685164158111639 -0.0003028080606097008 0 -0.0002064701698762265 -0.00027100066175921511 0 -0.00021332482175427357 -0.0003028148200977119 0 -0.00015685164158111639 -0.0003028080606097008 0 -0.0002064701698762265 -0.00027100066175921511 0 -0.0001410514076179793 6.5518261875168826e-05 0 -0.00026175081798352834 -0.00031701348151149766 0 -0.0002064701698762265 -0.00027100066175921511 0 -0.00021332482175427357 -0.0003028148200977119 0 0.00019820846931955008 0.00026889659470932006 0 -0.00025921108032378774 -0.00039254864651074196 0 0.00046275728097689475 0.0001120713110868413 0 -0.0002064701698762265 -0.00027100066175921511 0 0.00054103876104096276 -0.00054260382113093431 0 -0.0002064701698762265 -0.00027100066175921511 0 0.00054103876104096276 -0.00054260382113093431 0 1.2197850869401526e-06 -0.0015200832329011372 0 -0.0002064701698762265 -0.00027100066175921511 0 -1.2099011035592433e-06 -8.3719396093942018e-05 0 -0.0001410514076179793 6.5518261875168826e-05 0 -0.0002064701698762265 -0.00027100066175921511 0 1.2197850869401526e-06 -0.0015200832329011372 0 -1.2099011035592433e-06 -8.3719396093942018e-05 0 -1.2099011035592433e-06 -8.3719396093942018e-05 0 1.2116581936535827e-06 0.0013529115378122043 0 -0.0001410514076179793 6.5518261875168826e-05 0 1.2116581936535827e-06 0.0013529115378122043 0 0.00024502642321276314 -0.00012639000055676987 0 -0.0001410514076179793 6.5518261875168826e-05 0 1.1513856348551059e-06 0.0013575946410732615 0 -8.5255981905353584e-05 0.002358734508389609 0 0.00010502541281041227 0.0026313213585460516 0 1.1513856348551059e-06 0.0013575946410732615 0 0.00010502541281041227 0.0026313213585460516 0 0.00030607422924080324 0.0031769532855445391 0 -8.5255981905353584e-05 0.002358734508389609 0 0.00010502541281041227 0.0026313213585460516 0 -0.00010706874183432068 0.0027205418691990464 0 9.9189790097665568e-08 0.0013559467567916571 0 0.00031957984824271588 0.0011203455562243984 0 0.00010502541281041227 0.0026313213585460516 0 0.00030607422924080324 0.0031769532855445391 0 -0.00056024214975170438 0.003482608484927192 0 -0.00015685164158111639 -0.0003028080606097008 0 -0.0001410514076179793 6.5518261875168826e-05 0 5.2400577137111207e-05 -0.00029739590136810607 0 0.00024502642321276314 -0.00012639000055676987 0 -0.0001410514076179793 6.5518261875168826e-05 0 5.2400577137111207e-05 -0.00029739590136810607 0 1.9557692701230736e-05 0.0033591086686386449 0 -1.1430632434893242e-06 0.0030911046525702937 0 1.1549475974925146e-06 0.0048254925886153967 0 1.9557692701230736e-05 0.0033591086686386449 0 -5.3153559477955633e-05 0.0030185368076589471 0 -1.1430632434893242e-06 0.0030911046525702937 0 1.1513856348551059e-06 0.0013575946410732615 0 -8.5255981905353584e-05 0.002358734508389609 0 -1.1430632434893242e-06 0.0030911046525702937 0 -5.3153559477955633e-05 0.0030185368076589471 0 -1.1430632434893242e-06 0.0030911046525702937 0 -0.00010706874183432068 0.0027205418691990464 0 -8.5255981905353584e-05 0.002358734508389609 0 -1.1430632434893242e-06 0.0030911046525702937 0 -0.00010706874183432068 0.0027205418691990464 0 -0.00014433746761784028 0.002297507146464455 0 -0.00024053352883932861 0.0045686490845561843 0 0.00010502541281041227 0.0026313213585460516 0 -0.00010706874183432068 0.0027205418691990464 0 -0.00012419259454331423 0.0029366331560590226 0 0.00010502541281041227 0.0026313213585460516 0 -0.00056024214975170438 0.003482608484927192 0 -0.00164382061187702 0.0032180523036379597 0 -5.3153559477955633e-05 0.0030185368076589471 0 -0.00010706874183432068 0.0027205418691990464 0 -0.00012419259454331423 0.0029366331560590226 0 0.0012885947643765806 0.00651187791767514 0 0.00012618248522406207 0.0068007716722057257 0 0.00041363093110979171 0.0063648581929092061 0 -0.00024053352883932861 0.0045686490845561843 0 -3.4429279710693238e-05 0.0067891384434169456 0 0.00084150486308216636 0.0058932921490733236 0 0.0012885947643765806 0.00651187791767514 0 0.00041363093110979171 0.0063648581929092061 0 1.9557692701230736e-05 0.0033591086686386449 0 -5.3153559477955633e-05 0.0030185368076589471 0 -0.00012419259454331423 0.0029366331560590226 0 0.00039297685112111024 0.0047139326883233676 0 -0.00024053352883932861 0.0045686490845561843 0 -0.00019355600366598795 0.0069921946832216305 0 -3.4429279710693238e-05 0.0067891384434169456 0 -0.00024523565119188449 0.0059963342861236403 0 -0.00022525150147219001 0.0059288816082715022 0 -0.0001129196039101528 0.0059706748984471323 0 -0.00023355705952826642 0.007852776321511188 0 -0.00020725727609959886 0.0078379535864660423 0 -0.00017941025892870938 0.0078674102448112338 0 -0.00056024214975170438 0.003482608484927192 0 -0.00164382061187702 0.0032180523036379597 0 -0.00048911309070371158 0.0045826706356844812 0 -0.00019355600366598795 0.0069921946832216305 0 -0.00039759280153018738 0.0057675974498404619 0 -0.00024053352883932861 0.0045686490845561843 0 -0.00039759280153018738 0.0057675974498404619 0 -0.00024523565119188449 0.0059963342861236403 0 -0.00022525150147219001 0.0059288816082715022 0 -0.00033731369845133453 0.0058914890088969246 0 -0.00023355705952826642 0.007852776321511188 0 -0.00027622753732769344 0.0078211366771322004 0 -0.00030377439838185456 0.0078143138812887137 0 -0.00023355705952826642 0.007852776321511188 0 -0.00027622753732769344 0.0078211366771322004 0 -0.00026824443131987066 0.0078073904786760163 0 -0.00027622753732769344 0.0078211366771322004 0 -0.00030377439838185456 0.0078143138812887137 0 -0.00031112170955709313 0.0078022923923605865 0 -0.00015192259714422499 0.0072897379473349198 0 -0.0003209299934122713 0.006355248508918214 0 -0.00027622753732769344 0.0078211366771322004 0 -0.0002870373901473816 0.0078063387260564644 0 -0.00030198730613255987 0.0078130588160488616 0 -0.00027622753732769344 0.0078211366771322004 0 -0.0002870373901473816 0.0078063387260564644 0 -0.00026824443131987066 0.0078073904786760163 0 -0.0002870373901473816 0.0078063387260564644 0 -0.00028361081826996644 0.0077917581366925229 0 -0.00026824443131987066 0.0078073904786760163 0 -0.0002870373901473816 0.0078063387260564644 0 -0.00028361081826996644 0.0077917581366925229 0 -0.00030582529606086421 0.0077922372994628977 0 -0.00028361081826996644 0.0077917581366925229 0 -0.0003057443760386767 0.0077775595594779864 0 -0.00028538426218966355 0.0077613326323836551 0 -0.00028361081826996644 0.0077917581366925229 0 -0.00026824443131987066 0.0078073904786760163 0 -0.00024569102435151156 0.007806818895897856 0 -0.00028361081826996644 0.0077917581366925229 0 -0.00024569102435151156 0.007806818895897856 0 -0.00028538426218966355 0.0077613326323836551 0 -0.00023355705952826642 0.007852776321511188 0 -0.00026824443131987066 0.0078073904786760163 0 -0.00024569102435151156 0.007806818895897856 0 -0.00020725727609959886 0.0078379535864660423 0 -0.00024569102435151156 0.007806818895897856 0 -0.00021954575012677916 0.0077800203825144276 0 -0.00023355705952826642 0.007852776321511188 0 -0.00020725727609959886 0.0078379535864660423 0 -0.00024569102435151156 0.007806818895897856 0 -0.00015685164158111639 -0.0003028080606097008 0 5.2400577137111207e-05 -0.00029739590136810607 0 5.6002082091710088e-05 -0.00044214782082953156 0 5.2400577137111207e-05 -0.00029739590136810607 0 0.00011774690598578674 -0.0004364168289412368 0 5.6002082091710088e-05 -0.00044214782082953156 0 0.00030607422924080324 0.0031769532855445391 0 -0.00048911309070371158 0.0045826706356844812 0 0.00028403459081265169 0.0048613918239354247 0 0.00030607422924080324 0.0031769532855445391 0 -0.00056024214975170438 0.003482608484927192 0 -0.00048911309070371158 0.0045826706356844812 0 0.00024502642321276314 -0.00012639000055676987 0 5.2400577137111207e-05 -0.00029739590136810607 0 0.00011774690598578674 -0.0004364168289412368 0 0.00031957984824271588 0.0011203455562243984 0 -0.00055789145967506584 0.0042388645934414628 0 -0.00039759280153018738 0.0057675974498404619 0 -0.0003209299934122713 0.006355248508918214 0 -0.00055789145967506584 0.0042388645934414628 0 -0.00030500122907569526 0.007407114600042182 0 -0.00055789145967506584 0.0042388645934414628 0 -0.00016283126380697008 0.0034949337259331604 0 -0.00020702603488152724 0.0077562577389067968 0 -0.00020785112686843608 0.007520746396439194 0 -0.00034425490463343386 0.0077378240154855017 0 -0.00041645176112887122 0.006012956116332676 0 -0.00074672266874919828 0.005949341910061942 0 -0.00041602702344043695 0.0063467229411391509 0 -0.00055789145967506584 0.0042388645934414628 0 -0.0003209299934122713 0.006355248508918214 0 -5.6469756280736008e-06 0.0053634990245837637 0 -0.00076773392342512059 0.0050757484582375188 0 -0.00014021994421817518 0.0052035552913968384 0 -0.00030198730613255987 0.0078130588160488616 0 -0.00030582529606086421 0.0077922372994628977 0 -0.00032790319071917976 0.00778335192079332 0 -0.00039759280153018738 0.0057675974498404619 0 -0.00055789145967506584 0.0042388645934414628 0 -0.0003209299934122713 0.006355248508918214 0 -0.00030500122907569526 0.007407114600042182 0 -0.0002870373901473816 0.0078063387260564644 0 -0.00030198730613255987 0.0078130588160488616 0 -0.00030582529606086421 0.0077922372994628977 0 -0.00028361081826996644 0.0077917581366925229 0 -0.00030582529606086421 0.0077922372994628977 0 -0.0003057443760386767 0.0077775595594779864 0 -0.00030582529606086421 0.0077922372994628977 0 -0.0003057443760386767 0.0077775595594779864 0 -0.00032790319071917976 0.00778335192079332 0 -0.0003057443760386767 0.0077775595594779864 0 -0.00032790319071917976 0.00778335192079332 0 -0.00032693580276594658 0.0077593796291317678 0 -0.00040982898586091454 0.00096248953814477654 0 -0.00016283126380697008 0.0034949337259331604 0 -0.0008771987633036637 0.0056730040618432195 0 -0.00016283126380697008 0.0034949337259331604 0 -0.00043470838700849623 0.0074846265924343068 0 -0.00034425490463343386 0.0077378240154855017 0 -0.00073327672328418292 0.0074453504802164169 0 -0.0011191697326275076 0.0075885878755604106 0 -0.00034425490463343386 0.0077378240154855017 0 -0.00073327672328418292 0.0074453504802164169 0 -0.00020785112686843608 0.007520746396439194 0 -0.00043470838700849623 0.0074846265924343068 0 -0.00034425490463343386 0.0077378240154855017 0 -0.0009295081356147344 0.0071984083724672913 0 -0.00028469497017223036 0.0073901013263819515 0 -0.00043470838700849623 0.0074846265924343068 0 -0.00073327672328418292 0.0074453504802164169 0 -0.00045860612033696231 0.0072283010391445777 0 -0.0010138115105022491 0.0071854790140329691 0 -0.00073327672328418292 0.0074453504802164169 0 -0.00045860612033696231 0.0072283010391445777 0 -0.0010138115105022491 0.0071854790140329691 0 -5.772358237868313e-05 0.0073389739335881932 0 -0.00036472208449123529 0.0069715492785279018 0 -0.00030500122907569526 0.007407114600042182 0 -0.00028469497017223036 0.0073901013263819515 0 -0.00020785112686843608 0.007520746396439194 0 -0.00043470838700849623 0.0074846265924343068 0 -0.00045860612033696231 0.0072283010391445777 0 -4.7143165562532684e-05 0.0071948084471166029 0 -0.00036472208449123529 0.0069715492785279018 0 -3.1625746164558549e-05 0.0069079073287348636 0 -4.7143165562532684e-05 0.0071948084471166029 0 -3.1625746164558549e-05 0.0069079073287348636 0 0.00020497238441081057 0.0070685182939541633 0 -0.00028469497017223036 0.0073901013263819515 0 -0.00035259262470352371 0.0071062936911192231 0 -0.00036472208449123529 0.0069715492785279018 0 -0.00049799438354545904 0.0065868515296576948 0 -3.1625746164558549e-05 0.0069079073287348636 0 -3.1625746164558549e-05 0.0069079073287348636 0 -0.00014231032598585082 0.0063065198362915447 0 0.00028859246243824975 0.0069236120991762922 0 -0.00064734910215035965 0.005941774534012326 0 -0.00049799438354545904 0.0065868515296576948 0 -0.00014231032598585082 0.0063065198362915447 0 -0.00049799438354545904 0.0065868515296576948 0 -3.1625746164558549e-05 0.0069079073287348636 0 -0.00014231032598585082 0.0063065198362915447 0 0.00028859246243824975 0.0069236120991762922 0 0.00020497238441081057 0.0070685182939541633 0 0.00013127065224665394 0.0072451665935943958 0 -3.1625746164558549e-05 0.0069079073287348636 0 0.00028859246243824975 0.0069236120991762922 0 0.00020497238441081057 0.0070685182939541633 0 -4.7143165562532684e-05 0.0071948084471166029 0 0.00020497238441081057 0.0070685182939541633 0 0.00022073292383573964 0.007167865031824568 0 -0.00035122926122296377 0.007748999078756323 0 -0.00032693580276594658 0.0077593796291317678 0 -0.00028538426218966355 0.0077613326323836551 0 -0.00028469497017223036 0.0073901013263819515 0 -1.9282502412149484e-05 0.0074859709108605725 0 -0.00032650406825311001 0.0077783557674379888 0 -0.00035122926122296377 0.007748999078756323 0 -0.00032693580276594658 0.0077593796291317678 0 -0.00030500122907569526 0.007407114600042182 0 -0.00031393041723793607 0.0077451974122928115 0 -0.0003057443760386767 0.0077775595594779864 0 -0.00032693580276594658 0.0077593796291317678 0 -0.00028538426218966355 0.0077613326323836551 0 0.00022073292383573964 0.007167865031824568 0 6.3740770752816652e-06 0.0073860530232848559 0 0.00013127065224665394 0.0072451665935943958 0 -1.9282502412149484e-05 0.0074859709108605725 0 -9.1386988300902618e-05 0.0075957446771363051 0 0.00020497238441081057 0.0070685182939541633 0 0.00022073292383573964 0.007167865031824568 0 0.00013127065224665394 0.0072451665935943958 0 -0.00024569102435151156 0.007806818895897856 0 -0.00028538426218966355 0.0077613326323836551 0 -0.00021954575012677916 0.0077800203825144276 0 6.3740770752816652e-06 0.0073860530232848559 0 2.6479086260734611e-07 0.0074352648745143112 0 0.00013127065224665394 0.0072451665935943958 0 2.6479086260734611e-07 0.0074352648745143112 0 0.00013127065224665394 0.0072451665935943958 0 -1.55105999889884e-06 0.0074205726302054393 0 0.00028859246243824975 0.0069236120991762922 0 0.00013127065224665394 0.0072451665935943958 0 0.00018184584660596193 0.0072471882687032297 0 0.00018184584660596193 0.0072471882687032297 0 -1.55105999889884e-06 0.0074205726302054393 0 0.00013870560237145318 0.007420359300581509 0 0.00013127065224665394 0.0072451665935943958 0 0.00018184584660596193 0.0072471882687032297 0 -1.55105999889884e-06 0.0074205726302054393 0 0.0001862427593288072 0.0076089570942677485 0 0.00053360304843146219 0.0079182537984089484 0 0.00043061798256278889 0.0082075573634360251 0 0.00096741335848141521 0.0081296698752130522 0 0.00065073068795272828 0.0084744948391659754 0 0.00039897118990658078 0.0078148014725821224 0 0.00043061798256278889 0.0082075573634360251 0 0.00096741335848141521 0.0081296698752130522 0 0.00018184584660596193 0.0072471882687032297 0 0.00013870560237145318 0.007420359300581509 0 0.00030648696286608577 0.0074030352943781829 0 0.00030648696286608577 0.0074030352943781829 0 0.0004326741124315617 0.0074681835242179735 0 0.00038080154823908179 0.0075782895351892256 0 0.00053360304843146219 0.0079182537984089484 0 0.0013019497362264734 0.0070538326378996406 0 0.00030648696286608577 0.0074030352943781829 0 0.0004326741124315617 0.0074681835242179735 0 0.00039075789990541618 0.0072873452481763646 0 0.00013870560237145318 0.007420359300581509 0 0.00030648696286608577 0.0074030352943781829 0 0.00038080154823908179 0.0075782895351892256 0 -0.00060296639726447221 0.0047338142396110483 0 -0.00015802803397949383 0.0045207575600905749 0 -0.00034519241428817291 0.0054658283424539322 0 4.3088330143170219e-05 0.0047241850898628339 0 -0.00034519241428817291 0.0054658283424539322 0 0.0002970944831903576 0.0056343490200317032 0 0.00045856508514968491 0.0057786056209966664 0 -0.00023211701821712751 0.0051389592063277771 0 0.00045856508514968491 0.0057786056209966664 0 0.00032300363909015979 0.0065112611582777589 0 -0.00060296639726447221 0.0047338142396110483 0 -0.00015802803397949383 0.0045207575600905749 0 -0.00055731195251145903 0.0043889530808011992 0 -0.00064734910215035965 0.005941774534012326 0 -0.00014231032598585082 0.0063065198362915447 0 -0.00034519241428817291 0.0054658283424539322 0 -0.00014231032598585082 0.0063065198362915447 0 -0.00034519241428817291 0.0054658283424539322 0 0.0002970944831903576 0.0056343490200317032 0 -0.00014231032598585082 0.0063065198362915447 0 0.00028859246243824975 0.0069236120991762922 0 0.0002970944831903576 0.0056343490200317032 0 0.00031832338051211441 0.006818050193368474 0 0.00032300363909015979 0.0065112611582777589 0 0.00028859246243824975 0.0069236120991762922 0 0.00018184584660596193 0.0072471882687032297 0 0.00039075789990541618 0.0072873452481763646 0 0.00018184584660596193 0.0072471882687032297 0 0.00030648696286608577 0.0074030352943781829 0 0.00039075789990541618 0.0072873452481763646 0 -7.8159331699381729e-05 0.0087107664386632689 0 0.00016459522508836948 0.0084264162753326308 0 -0.00014728078368267091 0.0083634674208394079 0 -7.8159331699381729e-05 0.0087107664386632689 0 0.00015045064843187248 0.0086569026718133855 0 0.00016459522508836948 0.0084264162753326308 0 -0.00032932155538455767 0.0085674959607409725 0 -7.8159331699381729e-05 0.0087107664386632689 0 -0.00014728078368267091 0.0083634674208394079 0 -0.00030134870361355566 0.008592493805431459 0 2.9485813804338926e-05 0.0088318056349228971 0 -0.00032932155538455767 0.0085674959607409725 0 -0.00020853998986995379 0.0091153279285712697 0 0.00018470940745713674 0.0089811621470472624 0 -0.00020853998986995379 0.0091153279285712697 0 0.00015469977877845208 0.0092915612073910265 0 0.00018470940745713674 0.0089811621470472624 0 0.00015469977877845208 0.0092915612073910265 0 0.00018470940745713674 0.0089811621470472624 0 0.00049852084709740569 0.0093115908638291018 0 -7.8159331699381729e-05 0.0087107664386632689 0 0.00023522858613545756 0.0089034685973978095 0 0.00015045064843187248 0.0086569026718133855 0 2.9485813804338926e-05 0.0088318056349228971 0 0.00040211593747453228 0.0091482520754101199 0 0.00023522858613545756 0.0089034685973978095 0 0.00034704630098160736 0.0087663872444069223 0 0.00015045064843187248 0.0086569026718133855 0 0.00039897118990658078 0.0078148014725821224 0 0.00043061798256278889 0.0082075573634360251 0 3.7200786284058218e-05 0.0081265199776965544 0 0.00023522858613545756 0.0089034685973978095 0 0.00034704630098160736 0.0087663872444069223 0 0.00052898654850322261 0.009091745358633798 0 0.00043061798256278889 0.0082075573634360251 0 3.7200786284058218e-05 0.0081265199776965544 0 0.00029394433453667644 0.0086063433579891147 0 0.00039897118990658078 0.0078148014725821224 0 7.6187993283315428e-05 0.0078365419443317836 0 -8.1735684641270166e-05 0.0076802737097504334 0 0.00039897118990658078 0.0078148014725821224 0 3.7200786284058218e-05 0.0081265199776965544 0 7.6187993283315428e-05 0.0078365419443317836 0 3.7200786284058218e-05 0.0081265199776965544 0 7.6187993283315428e-05 0.0078365419443317836 0 -0.00011448694856642457 0.0077344297867897732 0 0.0001817465360531053 0.0084199958639796912 0 1.8756422933358973e-05 0.0080975874429918947 0 0.00034704630098160736 0.0087663872444069223 0 0.00015045064843187248 0.0086569026718133855 0 0.00016459522508836948 0.0084264162753326308 0 -8.1735684641270166e-05 0.0076802737097504334 0 -6.6703503552836352e-05 0.0075784779538832286 0 -0.00012087877176146603 0.0078033938906284152 0 -0.00011448694856642457 0.0077344297867897732 0 -8.1735684641270166e-05 0.0076802737097504334 0 -0.00012087877176146603 0.0078033938906284152 0 7.6187993283315428e-05 0.0078365419443317836 0 -0.00011448694856642457 0.0077344297867897732 0 -8.1735684641270166e-05 0.0076802737097504334 0 2.6479086260734611e-07 0.0074352648745143112 0 -1.55105999889884e-06 0.0074205726302054393 0 -8.1735684641270166e-05 0.0076802737097504334 0 0.0001862427593288072 0.0076089570942677485 0 -5.3242355408929015e-05 0.0076567066287575496 0 2.6479086260734611e-07 0.0074352648745143112 0 -8.1735684641270166e-05 0.0076802737097504334 0 -6.6703503552836352e-05 0.0075784779538832286 0 6.3740770752816652e-06 0.0073860530232848559 0 -6.6703503552836352e-05 0.0075784779538832286 0 -0.00014227819383332707 0.0077959788016278911 0 -9.1386988300902618e-05 0.0075957446771363051 0 -0.00011527349266990362 0.0077519238234964039 0 6.3740770752816652e-06 0.0073860530232848559 0 2.6479086260734611e-07 0.0074352648745143112 0 -6.6703503552836352e-05 0.0075784779538832286 0 -6.6703503552836352e-05 0.0075784779538832286 0 -0.00012087877176146603 0.0078033938906284152 0 -0.00014227819383332707 0.0077959788016278911 0 -0.00012087877176146603 0.0078033938906284152 0 -0.00014227819383332707 0.0077959788016278911 0 -0.00015331929016226825 0.007914492088744788 0 -0.00015331929016226825 0.007914492088744788 0 -0.00012302072565952119 0.0079778394143191732 0 -0.00023417055896815943 0.0080039907921859044 0 -0.00012302072565952119 0.0079778394143191732 0 -0.00030407529949703227 0.0080360677648614737 0 -0.00023417055896815943 0.0080039907921859044 0 -0.00012087877176146603 0.0078033938906284152 0 -0.00015331929016226825 0.007914492088744788 0 -0.00012302072565952119 0.0079778394143191732 0 1.8756422933358973e-05 0.0080975874429918947 0 -0.000107511136986624 0.0079667707615786541 0 0.00016459522508836948 0.0084264162753326308 0 -0.00012302072565952119 0.0079778394143191732 0 -0.00014728078368267091 0.0083634674208394079 0 -0.00011448694856642457 0.0077344297867897732 0 -0.00012087877176146603 0.0078033938906284152 0 -0.00012302072565952119 0.0079778394143191732 0 -0.00032932155538455767 0.0085674959607409725 0 -0.00014728078368267091 0.0083634674208394079 0 -0.00034217335464414449 0.0082401065944009665 0 -0.00012302072565952119 0.0079778394143191732 0 -0.00014728078368267091 0.0083634674208394079 0 -0.00034217335464414449 0.0082401065944009665 0 -0.00012302072565952119 0.0079778394143191732 0 -0.00034217335464414449 0.0082401065944009665 0 -0.00030407529949703227 0.0080360677648614737 0 -0.00039014002564753393 0.0081890449946174157 0 -0.00021930383755086884 0.0080495745431196503 0 -0.00034147574654572573 0.0081730074849408023 0 -0.00035297357049561469 0.0083941314092440163 0 -0.00014756809401244301 0.0082398588265893032 0 -0.00030407529949703227 0.0080360677648614737 0 -0.00034147574654572573 0.0081730074849408023 0 -0.00040927538626958746 0.007997479776359168 0 -0.00030407529949703227 0.0080360677648614737 0 -0.00034147574654572573 0.0081730074849408023 0 -0.00023417055896815943 0.0080039907921859044 0 -0.00043276941253692308 0.007935750329862587 0 -0.0001592909972120648 0.0079810701005768193 0 -0.00026414988529014239 0.0080475454706011706 0 -0.00030443451816191156 0.0080873569638831265 0 -0.00017728134904148538 0.0079155654047270759 0 -0.00021220117913634212 0.0078599713872124569 0 -0.00017728134904148538 0.0079155654047270759 0 -0.0001750758585193909 0.0078738076461958139 0 -0.00023417055896815943 0.0080039907921859044 0 -0.00026414988529014239 0.0080475454706011706 0 -0.00017728134904148538 0.0079155654047270759 0 -0.00015331929016226825 0.007914492088744788 0 -0.00023417055896815943 0.0080039907921859044 0 -0.00017728134904148538 0.0079155654047270759 0 -0.00034147574654572573 0.0081730074849408023 0 -0.00023417055896815943 0.0080039907921859044 0 -0.00026414988529014239 0.0080475454706011706 0 -0.00034147574654572573 0.0081730074849408023 0 -0.00026414988529014239 0.0080475454706011706 0 -0.00030443451816191156 0.0080873569638831265 0 -6.4568640842780584e-05 0.0065159088728843958 0 -0.00019879006689490261 0.0065788430310693008 0 1.0033297202568816e-05 0.0068052951913532235 0 -0.00043276941253692308 0.007935750329862587 0 -0.00018386854525335688 0.0072210879485215479 0 -6.4568640842780584e-05 0.0065159088728843958 0 -0.00019879006689490261 0.0065788430310693008 0 -0.00025016141679080482 0.0065759557269125394 0 -0.0011823220122806647 0.0086782901050942839 0 -0.00070314048611504903 0.0088138523511663066 0 -0.00071870343175606493 0.0092590780665856003 0 -0.00043276941253692308 0.007935750329862587 0 -0.00033381346029496428 0.0079644549432425441 0 -0.0011823220122806647 0.0086782901050942839 0 -0.00070314048611504903 0.0088138523511663066 0 -0.00035297357049561469 0.0083941314092440163 0 -0.00043276941253692308 0.007935750329862587 0 -0.00050895361492151066 0.0084150356243462964 0 -0.00034147574654572573 0.0081730074849408023 0 -0.00030443451816191156 0.0080873569638831265 0 -0.00035297357049561469 0.0083941314092440163 0 -0.00070314048611504903 0.0088138523511663066 0 -0.00038915337790934552 0.0088794847787429659 0 -0.00071870343175606493 0.0092590780665856003 0 -0.00070314048611504903 0.0088138523511663066 0 -0.00038915337790934552 0.0088794847787429659 0 -0.00035297357049561469 0.0083941314092440163 0 -0.00021954575012677916 0.0077800203825144276 0 -0.00014227819383332707 0.0077959788016278911 0 -0.00016959052862738032 0.0078553889818886048 0 -0.00020725727609959886 0.0078379535864660423 0 -0.00021954575012677916 0.0077800203825144276 0 -0.00016959052862738032 0.0078553889818886048 0 -0.00016959052862738032 0.0078553889818886048 0 -0.00017728134904148538 0.0079155654047270759 0 -0.0001750758585193909 0.0078738076461958139 0 -0.00014227819383332707 0.0077959788016278911 0 -0.00016959052862738032 0.0078553889818886048 0 -0.00017728134904148538 0.0079155654047270759 0 -0.00014227819383332707 0.0077959788016278911 0 -0.00015331929016226825 0.007914492088744788 0 -0.00017728134904148538 0.0079155654047270759 0 -0.00016959052862738032 0.0078553889818886048 0 -0.00017200902777561331 0.0078604118183556171 0 -0.00017941025892870938 0.0078674102448112338 0 -0.00021220117913634212 0.0078599713872124569 0 -0.0001750758585193909 0.0078738076461958139 0 -0.00017200902777561331 0.0078604118183556171 0 -0.00019879006689490261 0.0065788430310693008 0 -0.00025016141679080482 0.0065759557269125394 0 -0.00020628775635100175 0.006628206166651076 0 -0.00018386854525335688 0.0072210879485215479 0 -3.4429279710693238e-05 0.0067891384434169456 0 -0.00025016141679080482 0.0065759557269125394 0 -0.00032468748460576702 0.0066037130398238454 0 -0.00022768701378588811 0.006629312849710323 0 -0.00016959052862738032 0.0078553889818886048 0 -0.0001750758585193909 0.0078738076461958139 0 -0.00017200902777561331 0.0078604118183556171 0 -0.00020725727609959886 0.0078379535864660423 0 -0.00016959052862738032 0.0078553889818886048 0 -0.00017941025892870938 0.0078674102448112338 0 0.00012618248522406207 0.0068007716722057257 0 0.00041363093110979171 0.0063648581929092061 0 -4.371495333963504e-05 0.0064448710563602797 0 0.00041363093110979171 0.0063648581929092061 0 -4.371495333963504e-05 0.0064448710563602797 0 -4.0492360541176942e-05 0.0059770311075546499 0 -4.371495333963504e-05 0.0064448710563602797 0 -0.00015317819116322215 0.0064648603694223818 0 -4.0492360541176942e-05 0.0059770311075546499 0 -4.371495333963504e-05 0.0064448710563602797 0 -0.00022768701378588811 0.006629312849710323 0 -0.00015317819116322215 0.0064648603694223818 0 0.00012618248522406207 0.0068007716722057257 0 -4.371495333963504e-05 0.0064448710563602797 0 -0.00022768701378588811 0.006629312849710323 0 -3.4429279710693238e-05 0.0067891384434169456 0 -0.00023504953136767589 0.0066428865231563947 0 -0.00022768701378588811 0.006629312849710323 0 -0.00020628775635100175 0.006628206166651076 0 -0.0002034169029394431 0.0066367680650646884 0 -0.00025016141679080482 0.0065759557269125394 0 -0.00022768701378588811 0.006629312849710323 0 -0.00020628775635100175 0.006628206166651076 0 -0.00022768701378588811 0.006629312849710323 0 -0.00015317819116322215 0.0064648603694223818 0 -0.0002034169029394431 0.0066367680650646884 0 -0.00015317819116322215 0.0064648603694223818 0 -0.0002034169029394431 0.0066367680650646884 0 -0.00017157432302176146 0.0067851965871052553 0 -0.00015317819116322215 0.0064648603694223818 0 -8.6228761076477317e-07 0.0062345972091109774 0 -0.00017157432302176146 0.0067851965871052553 0 -0.00015317819116322215 0.0064648603694223818 0 -8.6228761076477317e-07 0.0062345972091109774 0 -4.0492360541176942e-05 0.0059770311075546499 0 0.00084150486308216636 0.0058932921490733236 0 0.00041363093110979171 0.0063648581929092061 0 -4.0492360541176942e-05 0.0059770311075546499 0 0.00084150486308216636 0.0058932921490733236 0 -4.0492360541176942e-05 0.0059770311075546499 0 1.4410264284081653e-06 0.0048299364563967511 0 -8.6228761076477317e-07 0.0062345972091109774 0 -4.0492360541176942e-05 0.0059770311075546499 0 1.4410264284081653e-06 0.0048299364563967511 0 0.00039297685112111024 0.0047139326883233676 0 5.1178503974389593e-08 0.0048269440795956492 0 -0.00038915337790934552 0.0088794847787429659 0 -0.00071870343175606493 0.0092590780665856003 0 -0.00023803771646201038 0.0092442079688376793 0 -0.00071870343175606493 0.0092590780665856003 0 -0.00032709499845131235 0.0096598013067881322 0 -0.00023803771646201038 0.0092442079688376793 0 -5.5166482790926269e-05 0.0067264611191521721 0 -2.667700950590933e-05 0.0071843768532177501 0 0.00014983235755729977 0.0075449871467714201 0 -0.00010124967538160214 0.0067331961024745916 0 -1.5209170924843792e-05 0.0082049144471607344 0 0.00010595459110664429 0.0067606157202284188 0 1.0033297202568816e-05 0.0068052951913532235 0 0.00029591764356450608 0.0070757682546465266 0 -0.00033381346029496428 0.0079644549432425441 0 -1.5209170924843792e-05 0.0082049144471607344 0 -6.4568640842780584e-05 0.0065159088728843958 0 0.00010595459110664429 0.0067606157202284188 0 1.0033297202568816e-05 0.0068052951913532235 0 -0.00019879006689490261 0.0065788430310693008 0 -5.5166482790926269e-05 0.0067264611191521721 0 -0.00016796939874055779 0.0066662675196981326 0 -5.5166482790926269e-05 0.0067264611191521721 0 -0.00016796939874055779 0.0066662675196981326 0 -0.00016555225312572927 0.0067601361689909696 0 -0.00019879006689490261 0.0065788430310693008 0 -0.00020628775635100175 0.006628206166651076 0 -0.00016796939874055779 0.0066662675196981326 0 -0.00016139826128541048 0.0066221666350619168 0 -0.00010124967538160214 0.0067331961024745916 0 -0.00020628775635100175 0.006628206166651076 0 -0.0002034169029394431 0.0066367680650646884 0 -0.00016796939874055779 0.0066662675196981326 0 -0.0002034169029394431 0.0066367680650646884 0 -0.00016555225312572927 0.0067601361689909696 0 -0.00017157432302176146 0.0067851965871052553 0 -0.0002034169029394431 0.0066367680650646884 0 -0.00016796939874055779 0.0066662675196981326 0 -0.00016555225312572927 0.0067601361689909696 0 -5.5166482790926269e-05 0.0067264611191521721 0 -0.00016555225312572927 0.0067601361689909696 0 -2.667700950590933e-05 0.0071843768532177501 0 -0.00016555225312572927 0.0067601361689909696 0 -2.667700950590933e-05 0.0071843768532177501 0 -0.00017157432302176146 0.0067851965871052553 0 -2.667700950590933e-05 0.0071843768532177501 0 -0.00017157432302176146 0.0067851965871052553 0 -4.26754261907046e-07 0.0076431061420700885 0 -8.6228761076477317e-07 0.0062345972091109774 0 -0.00017157432302176146 0.0067851965871052553 0 -4.26754261907046e-07 0.0076431061420700885 0 -4.26754261907046e-07 0.0076431061420700885 0 0.00014983235755729977 0.0075449871467714201 0 1.1016523361523057e-06 0.0090485942266970223 0 -2.667700950590933e-05 0.0071843768532177501 0 -4.26754261907046e-07 0.0076431061420700885 0 0.00014983235755729977 0.0075449871467714201 0 -1.5209170924843792e-05 0.0082049144471607344 0 5.5590298033501582e-08 0.009565157751402242 0 -0.00032709499845131235 0.0096598013067881322 0 -1.3607027734454311e-06 0.0095691423857547381 0 -6.8716390739959659e-05 0.0097180696665505328 0 -1.3607027734454311e-06 0.0095691423857547381 0 -6.8716390739959659e-05 0.0097180696665505328 0 -4.313117433203308e-05 0.0099965886258654695 0 -1.120079723252035e-06 0.0084618623096484984 0 -1.0135044762691561e-08 0.0090532990729982419 0 9.2187100271125931e-09 0.0095624795272660993 0 -1.5209170924843792e-05 0.0082049144471607344 0 4.4326531478962592e-08 0.0090500226403509906 0 -0.00032709499845131235 0.0096598013067881322 0 -6.8716390739959659e-05 0.0097180696665505328 0 -0.00023803771646201038 0.0092442079688376793 0 -6.8716390739959659e-05 0.0097180696665505328 0 -0.00023803771646201038 0.0092442079688376793 0 1.8525644818742865e-05 0.0091477671820272451 0 -6.8716390739959659e-05 0.0097180696665505328 0 1.8525644818742865e-05 0.0091477671820272451 0 0.00048786781091091221 0.0089500757529173327 0 0.00016213470104145124 0.010270529159747648 0 0.00053949900337355949 0.0099115313183175853 0 -6.8716390739959659e-05 0.0097180696665505328 0 0.00012208063230497441 0.010374175002337426 0 0.00048786781091091221 0.0089500757529173327 0 -1.3607027734454311e-06 0.0095691423857547381 0 -4.313117433203308e-05 0.0099965886258654695 0 1.6707595497525681e-06 0.010747805054608954 0 -6.8716390739959659e-05 0.0097180696665505328 0 -4.313117433203308e-05 0.0099965886258654695 0 0.00012208063230497441 0.010374175002337426 0 -4.313117433203308e-05 0.0099965886258654695 0 1.6707595497525681e-06 0.010747805054608954 0 0.00012208063230497441 0.010374175002337426 0 -4.5558336783915246e-08 0.010752598804794055 0 4.0965186946759334e-05 0.011656573846947965 0 1.1362041628267527e-06 0.010754353977228593 0 -1.1256101691731003e-06 0.012685254349109087 0 -1.5083912478937244e-05 0.01282962712464472 0 1.6707595497525681e-06 0.010747805054608954 0 0.00012208063230497441 0.010374175002337426 0 0.00023025506109930724 0.010286071359419653 0 -1.1256101691731003e-06 0.012685254349109087 0 -1.5083912478937244e-05 0.01282962712464472 0 -0.00014306476577218894 0.013135474804391891 0 -1.5083912478937244e-05 0.01282962712464472 0 -0.00014306476577218894 0.013135474804391891 0 -9.8851078949184381e-05 0.012981262496660605 0 4.0965186946759334e-05 0.011656573846947965 0 -0.00045613402339753491 0.011173017766311464 0 0.00023025506109930724 0.010286071359419653 0 0.00021377483151231163 0.010625496570886656 0 4.9326193282816179e-05 0.010696865340636427 0 0.00012208063230497441 0.010374175002337426 0 0.00023025506109930724 0.010286071359419653 0 0.00046509403274429381 0.010614346949264421 0 0.00023025506109930724 0.010286071359419653 0 0.00021377483151231163 0.010625496570886656 0 0.00046509403274429381 0.010614346949264421 0 0.00021377483151231163 0.010625496570886656 0 0.00026058276802515512 0.010991628084105781 0 0.00046509403274429381 0.010614346949264421 0 0.00021377483151231163 0.010625496570886656 0 5.6708780379916937e-05 0.010887520525233953 0 0.00026058276802515512 0.010991628084105781 0 0.00023025506109930724 0.010286071359419653 0 4.9326193282816179e-05 0.010696865340636427 0 -0.0001420777452053132 0.010732108978767096 0 0.00023025506109930724 0.010286071359419653 0 -0.0001420777452053132 0.010732108978767096 0 -0.00028198371287305413 0.010704200997568317 0 0.00021377483151231163 0.010625496570886656 0 4.9326193282816179e-05 0.010696865340636427 0 5.6708780379916937e-05 0.010887520525233953 0 4.9326193282816179e-05 0.010696865340636427 0 5.6708780379916937e-05 0.010887520525233953 0 -7.8524532750238627e-05 0.01084812183471774 0 4.9326193282816179e-05 0.010696865340636427 0 -7.8524532750238627e-05 0.01084812183471774 0 -0.0001420777452053132 0.010732108978767096 0 -7.8524532750238627e-05 0.01084812183471774 0 -0.0001420777452053132 0.010732108978767096 0 -0.00023728182846418185 0.010892738164681046 0 5.6708780379916937e-05 0.010887520525233953 0 -7.8524532750238627e-05 0.01084812183471774 0 -0.00012815715396287262 0.011026810756012322 0 -7.8524532750238627e-05 0.01084812183471774 0 -0.00012815715396287262 0.011026810756012322 0 -0.00023728182846418185 0.010892738164681046 0 5.6708780379916937e-05 0.010887520525233953 0 4.1760987317366027e-05 0.01113008347783678 0 0.00026058276802515512 0.010991628084105781 0 5.6708780379916937e-05 0.010887520525233953 0 -0.00012815715396287262 0.011026810756012322 0 4.1760987317366027e-05 0.01113008347783678 0 -0.00012815715396287262 0.011026810756012322 0 4.1760987317366027e-05 0.01113008347783678 0 -0.00013500703470019587 0.01133540380962304 0 4.1760987317366027e-05 0.01113008347783678 0 0.00026058276802515512 0.010991628084105781 0 0.00023735756958846485 0.011461238820073869 0 -4.9307993362789101e-05 0.008666994058463235 0 0.00048786781091091221 0.0089500757529173327 0 0.00037444316849730841 0.0080270571961732345 0 0.00026058276802515512 0.010991628084105781 0 0.00046509403274429381 0.010614346949264421 0 0.0006123999075531198 0.011276834743622226 0 0.00053949900337355949 0.0099115313183175853 0 -0.00018255568288713523 0.0092212568730973589 0 -0.00014756809401244301 0.0082398588265893032 0 -4.9307993362789101e-05 0.008666994058463235 0 0.00037444316849730841 0.0080270571961732345 0 -0.00021930383755086884 0.0080495745431196503 0 -0.00018255568288713523 0.0092212568730973589 0 -0.00035297357049561469 0.0083941314092440163 0 -0.00014756809401244301 0.0082398588265893032 0 -4.9307993362789101e-05 0.008666994058463235 0 -0.00038915337790934552 0.0088794847787429659 0 -0.00035297357049561469 0.0083941314092440163 0 -4.9307993362789101e-05 0.008666994058463235 0 -0.00038915337790934552 0.0088794847787429659 0 -0.00023803771646201038 0.0092442079688376793 0 -4.9307993362789101e-05 0.008666994058463235 0 -0.00023803771646201038 0.0092442079688376793 0 -4.9307993362789101e-05 0.008666994058463235 0 1.8525644818742865e-05 0.0091477671820272451 0 -4.9307993362789101e-05 0.008666994058463235 0 1.8525644818742865e-05 0.0091477671820272451 0 0.00048786781091091221 0.0089500757529173327 0 -0.00013192927800100208 0.01747718863740921 0 -6.8751459646227038e-05 0.017891004487434786 0 -9.5251782555920187e-06 0.016808566240034715 0 -0.00013192927800100208 0.01747718863740921 0 -6.8751459646227038e-05 0.017891004487434786 0 -7.0448402446827451e-05 0.019077703696993027 0 -6.8751459646227038e-05 0.017891004487434786 0 -7.6086613416684512e-07 0.016718788006281876 0 -9.5251782555920187e-06 0.016808566240034715 0 -7.6086613416684512e-07 0.016718788006281876 0 -9.5251782555920187e-06 0.016808566240034715 0 2.0501438419346587e-06 0.014620847896907039 0 -0.00013192927800100208 0.01747718863740921 0 -9.5251782555920187e-06 0.016808566240034715 0 0.0004985267965526215 0.017342443813335391 0 0.00032540364334081545 0.013411440127318201 0 5.0806126606414901e-05 0.013098597259572384 0 0.00028901892380607021 0.012960485358021169 0 -9.5251782555920187e-06 0.016808566240034715 0 0.00058086466079590915 0.016592387940475566 0 0.0004985267965526215 0.017342443813335391 0 0.00036568581055629188 0.014974769189302174 0 0.00049397640214062432 0.015398858864550351 0 0.00032540364334081545 0.013411440127318201 0 1.1223600165593296e-06 0.014615024043076285 0 -0.00014306476577218894 0.013135474804391891 0 0.00036568581055629188 0.014974769189302174 0 2.596145715343467e-07 0.014617997556058934 0 -9.5251782555920187e-06 0.016808566240034715 0 0.00058086466079590915 0.016592387940475566 0 2.0501438419346587e-06 0.014620847896907039 0 -1.1256101691731003e-06 0.012685254349109087 0 1.1223600165593296e-06 0.014615024043076285 0 -0.00014306476577218894 0.013135474804391891 0 5.0806126606414901e-05 0.013098597259572384 0 -0.00014306476577218894 0.013135474804391891 0 -9.8851078949184381e-05 0.012981262496660605 0 0.00032540364334081545 0.013411440127318201 0 5.0806126606414901e-05 0.013098597259572384 0 -0.00014306476577218894 0.013135474804391891 0 -0.00029939717157444369 0.010779176564207814 0 -0.00040752164359924832 0.010886004302964242 0 -0.00074106690441163388 0.010721162799781844 0 5.0806126606414901e-05 0.013098597259572384 0 -9.8851078949184381e-05 0.012981262496660605 0 0.00028901892380607021 0.012960485358021169 0 -0.00045613402339753491 0.011173017766311464 0 0.00049397640214062432 0.015398858864550351 0 -0.00030859657107600719 0.011069240554305308 0 -0.00045613402339753491 0.011173017766311464 0 -0.00045613402339753491 0.011173017766311464 0 -0.00031267601137080069 0.010922378315177938 0 -0.00027998896970431284 0.010719327461732013 0 -0.00040752164359924832 0.010886004302964242 0 -0.00023728182846418185 0.010892738164681046 0 -0.0001420777452053132 0.010732108978767096 0 -0.00027998896970431284 0.010719327461732013 0 -0.00023728182846418185 0.010892738164681046 0 -0.00012815715396287262 0.011026810756012322 0 -0.00023728182846418185 0.010892738164681046 0 -0.00033695009181928707 0.011076446507395983 0 -0.00040752164359924832 0.010886004302964242 0 -0.00023728182846418185 0.010892738164681046 0 -0.00033695009181928707 0.011076446507395983 0 -0.00012815715396287262 0.011026810756012322 0 -0.00033695009181928707 0.011076446507395983 0 -0.00013500703470019587 0.01133540380962304 0 -0.00033695009181928707 0.011076446507395983 0 -0.00049459505974376063 0.011281048896272248 0 -0.00013500703470019587 0.01133540380962304 0 -0.00033695009181928707 0.011076446507395983 0 -0.00049459505974376063 0.011281048896272248 0 -0.00058759118627812567 0.011042050244708668 0 -0.00040752164359924832 0.010886004302964242 0 -0.00033695009181928707 0.011076446507395983 0 -0.00058759118627812567 0.011042050244708668 0 -0.00058759118627812567 0.011042050244708668 0 -0.00083558068090190576 0.011252156901229457 0 -0.00074106690441163388 0.010721162799781844 0 -0.00049459505974376063 0.011281048896272248 0 -0.00058759118627812567 0.011042050244708668 0 -0.00083558068090190576 0.011252156901229457 0 8.206968960687489e-05 0.015054289929505695 0 0.00049397640214062432 0.015398858864550351 0 -0.00040752164359924832 0.010886004302964242 0 -0.00058759118627812567 0.011042050244708668 0 -0.00074106690441163388 0.010721162799781844 0 0.00099595928163599494 0.019821979734229788 0 0.0010861866149943786 0.019440357625253427 0 0.00081570627044180472 0.019716541284891916 0 0.00033458201784965512 0.018840481838236767 0 0.00049397640214062432 0.015398858864550351 0 0.00064159188269757644 0.019334875574944826 0 0.0010861866149943786 0.019440357625253427 0 0.00081570627044180472 0.019716541284891916 0 0.00099595928163599494 0.019821979734229788 0 0.00081570627044180472 0.019716541284891916 0 0.00085361228634304065 0.019953386668644497 0 0.00081570627044180472 0.019716541284891916 0 0.00072534976940519984 0.019884554880427979 0 0.00085361228634304065 0.019953386668644497 0 0.00074841502149384002 0.019734719608777016 0 0.00051667306430478973 0.020034282237546237 0 0.00081570627044180472 0.019716541284891916 0 0.00072534976940519984 0.019884554880427979 0 0.00054250298505577614 0.019846858203948416 0 0.00081570627044180472 0.019716541284891916 0 0.00029382721660237425 0.019660562865764508 0 0.00025450756905108458 0.020102344415010853 0 0.00064159188269757644 0.019334875574944826 0 0.00081570627044180472 0.019716541284891916 0 0.00029382721660237425 0.019660562865764508 0 -0.00080988082594938605 0.024956490861805142 0 -0.00089548534320386269 0.025233852875625965 0 -0.00065451795025144651 0.025127367489633821 0 -0.00080988082594938605 0.024956490861805142 0 -0.00089548534320386269 0.025233852875625965 0 -0.0011037806511469126 0.024799932010053063 0 0.00072534976940519984 0.019884554880427979 0 0.00068488140684143189 0.020023419746311572 0 0.00054250298505577614 0.019846858203948416 0 0.00068488140684143189 0.020023419746311572 0 0.00085361228634304065 0.019953386668644497 0 0.00094031732843072909 0.020089846025559251 0 0.00099595928163599494 0.019821979734229788 0 0.00085361228634304065 0.019953386668644497 0 0.00094031732843072909 0.020089846025559251 0 0.00072534976940519984 0.019884554880427979 0 0.00068488140684143189 0.020023419746311572 0 0.00085361228634304065 0.019953386668644497 0 -0.00089548534320386269 0.025233852875625965 0 -0.0013624388340905062 0.025041009643477358 0 -0.0011037806511469126 0.024799932010053063 0 5.0633847750965484e-05 0.023307187635249634 0 -7.305470802574049e-05 0.018038041981813909 0 -0.00033221155236531441 0.014356855402046191 0 7.9216497883500383e-06 0.014611448892328578 0 -0.00026970005619856853 0.013995116539636726 0 -0.00033221155236531441 0.014356855402046191 0 7.9216497883500383e-06 0.014611448892328578 0 -0.00045500303453843276 0.014406041854279865 0 -0.00033221155236531441 0.014356855402046191 0 -0.00044854102184596146 0.014396445578664796 0 -0.00049560320306150419 0.014110755564251431 0 -0.00069460471117998158 0.013324342586120421 0 -0.00068226424752443186 0.013104849705216845 0 -7.305470802574049e-05 0.018038041981813909 0 -0.00068226424752443186 0.013104849705216845 0 -0.00066051014092512259 0.011769029962015431 0 -0.00092189967110365898 0.011899213609104863 0 -0.00055542913109244546 0.012025567151347562 0 8.206968960687489e-05 0.015054289929505695 0 -7.305470802574049e-05 0.018038041981813909 0 -0.00083558068090190576 0.011252156901229457 0 -0.00092189967110365898 0.011899213609104863 0 -0.00065779422022212229 0.011523011752779784 0 -0.00049459505974376063 0.011281048896272248 0 -0.00083558068090190576 0.011252156901229457 0 -0.00065779422022212229 0.011523011752779784 0 -0.00066051014092512259 0.011769029962015431 0 -0.00065779422022212229 0.011523011752779784 0 -0.00042924186382536185 0.011628165064822837 0 -0.00066051014092512259 0.011769029962015431 0 -0.00092189967110365898 0.011899213609104863 0 -0.00065779422022212229 0.011523011752779784 0 -0.00042924186382536185 0.011628165064822837 0 -0.00013500703470019587 0.01133540380962304 0 -6.2079555527511199e-05 0.011789914729669004 0 -0.00049459505974376063 0.011281048896272248 0 -0.00065779422022212229 0.011523011752779784 0 -0.00042924186382536185 0.011628165064822837 0 -0.00049459505974376063 0.011281048896272248 0 -0.00042924186382536185 0.011628165064822837 0 -0.00013500703470019587 0.01133540380962304 0 -0.00042924186382536185 0.011628165064822837 0 -0.00055542913109244546 0.012025567151347562 0 -6.2079555527511199e-05 0.011789914729669004 0 -0.00068226424752443186 0.013104849705216845 0 -0.0006102862003925046 0.011851726374107452 0 -0.00070508582840646847 0.012026458723291809 0 -0.00045948861361866519 0.011914174633338872 0 -0.00043615437724550492 0.012125300547997422 0 -0.00068226424752443186 0.013104849705216845 0 -0.00027031477968147223 0.011025602433454677 0 -0.00066051014092512259 0.011769029962015431 0 -0.00042924186382536185 0.011628165064822837 0 -0.00055542913109244546 0.012025567151347562 0 -0.00049560320306150419 0.014110755564251431 0 -0.00063434634350635003 0.013698475979259517 0 -0.0010836175168400565 0.014108156695366072 0 -0.00044854102184596146 0.014396445578664796 0 -0.00049560320306150419 0.014110755564251431 0 -0.0010836175168400565 0.014108156695366072 0 -0.00049560320306150419 0.014110755564251431 0 -0.00063434634350635003 0.013698475979259517 0 -0.00026970005619856853 0.013995116539636726 0 -0.00063434634350635003 0.013698475979259517 0 -0.0011477716071054598 0.013321101777674284 0 -0.00053282525046593858 0.013098856267944907 0 -0.00063434634350635003 0.013698475979259517 0 -0.00031722204856269351 0.013535337314833746 0 -0.00053282525046593858 0.013098856267944907 0 -0.00031722204856269351 0.013535337314833746 0 7.4180693270031238e-05 0.013732854878586418 0 8.7027814912946184e-05 0.012862058240455278 0 -0.00063434634350635003 0.013698475979259517 0 -0.00031722204856269351 0.013535337314833746 0 -0.00026970005619856853 0.013995116539636726 0 -0.00031722204856269351 0.013535337314833746 0 -0.00026970005619856853 0.013995116539636726 0 7.4180693270031238e-05 0.013732854878586418 0 -7.305470802574049e-05 0.018038041981813909 0 -0.00077494829796791534 0.019533554478397878 0 7.9216497883500383e-06 0.014611448892328578 0 -0.00026970005619856853 0.013995116539636726 0 7.4180693270031238e-05 0.013732854878586418 0 -0.00033221155236531441 0.014356855402046191 0 -0.00049560320306150419 0.014110755564251431 0 -0.00026970005619856853 0.013995116539636726 0 -0.0013624388340905062 0.025041009643477358 0 -0.0011037806511469126 0.024799932010053063 0 -0.0014128669732531489 0.024537843502999014 0 -0.0014128669732531489 0.024537843502999014 0 -0.0010033224744359984 0.024285096229665723 0 -0.0016328338682276681 0.023633184130995195 0 -0.00077494829796791534 0.019533554478397878 0 -0.00075445709251864437 0.018132535684715938 0 -0.0011037806511469126 0.024799932010053063 0 -0.0014128669732531489 0.024537843502999014 0 -0.0010033224744359984 0.024285096229665723 0 -0.0010033224744359984 0.024285096229665723 0 -0.0007013727581916371 0.024408613695235257 0 -0.00078635333752938102 0.024677142531419036 0 -0.0010033224744359984 0.024285096229665723 0 -0.0007013727581916371 0.024408613695235257 0 -0.00064680872296339772 0.024204201592398514 0 -0.0011037806511469126 0.024799932010053063 0 -0.0010033224744359984 0.024285096229665723 0 -0.00078635333752938102 0.024677142531419036 0 -0.00080988082594938605 0.024956490861805142 0 -0.0011037806511469126 0.024799932010053063 0 -0.00078635333752938102 0.024677142531419036 0 -0.00080988082594938605 0.024956490861805142 0 -0.00078635333752938102 0.024677142531419036 0 -0.00058162066320432255 0.024913218787161111 0 -0.00073438799604009055 0.0089225187580953286 0 -0.00018255568288713523 0.0092212568730973589 0 -0.00034217335464414449 0.0082401065944009665 0 -0.00074304484330225821 0.0084558519097247733 0 -0.00050130819723151596 0.0081318050717551441 0 -0.00032932155538455767 0.0085674959607409725 0 -0.00034217335464414449 0.0082401065944009665 0 -0.00074304484330225821 0.0084558519097247733 0 -0.00040927538626958746 0.007997479776359168 0 -0.00050130819723151596 0.0081318050717551441 0 -0.00070463950367211114 0.0080489566814296656 0 -0.00030407529949703227 0.0080360677648614737 0 -0.00040927538626958746 0.007997479776359168 0 -0.00050130819723151596 0.0081318050717551441 0 -0.00034217335464414449 0.0082401065944009665 0 -0.00030407529949703227 0.0080360677648614737 0 -0.00050130819723151596 0.0081318050717551441 0 -0.00074304484330225821 0.0084558519097247733 0 -0.00050130819723151596 0.0081318050717551441 0 -0.00070463950367211114 0.0080489566814296656 0 -0.00058969119632018877 0.0096248863503091611 0 -0.00063088954352239184 0.0093165348149613272 0 -0.00083504286680676561 0.0094053124628934674 0 0.00026058276802515512 0.010991628084105781 0 0.0006123999075531198 0.011276834743622226 0 0.00023735756958846485 0.011461238820073869 0 -0.00018255568288713523 0.0092212568730973589 0 -0.00035085788465218977 0.010468805631015946 0 4.1760987317366027e-05 0.01113008347783678 0 0.00023735756958846485 0.011461238820073869 0 -0.00013500703470019587 0.01133540380962304 0 -0.00010644086323844303 0.011594970080825866 0 -0.00027031477968147223 0.011025602433454677 0 0.00023735756958846485 0.011461238820073869 0 -0.00013500703470019587 0.01133540380962304 0 -9.5481556901672986e-05 0.011613157858772776 0 -0.00035085788465218977 0.010468805631015946 0 -0.00027031477968147223 0.011025602433454677 0 -0.00083504286680676561 0.0094053124628934674 0 -0.0010362249444394844 0.0095003973374481795 0 -0.00093385135247253518 0.0096033276428992374 0 -0.00027031477968147223 0.011025602433454677 0 -0.0006102862003925046 0.011851726374107452 0 -0.0010362249444394844 0.0095003973374481795 0 -0.00093385135247253518 0.0096033276428992374 0 -0.0010233027856053083 0.0096855341552512762 0 -0.00083504286680676561 0.0094053124628934674 0 -0.00093385135247253518 0.0096033276428992374 0 -0.00080718045599043021 0.0096203880162748414 0 -0.00058969119632018877 0.0096248863503091611 0 -0.00083504286680676561 0.0094053124628934674 0 -0.00080718045599043021 0.0096203880162748414 0 -0.00058969119632018877 0.0096248863503091611 0 -0.00080718045599043021 0.0096203880162748414 0 -0.00076313446297635902 0.009812079007531985 0 -0.00080718045599043021 0.0096203880162748414 0 -0.00076313446297635902 0.009812079007531985 0 -0.0008892707627517171 0.0097191483257558463 0 -0.00093385135247253518 0.0096033276428992374 0 -0.00080718045599043021 0.0096203880162748414 0 -0.0008892707627517171 0.0097191483257558463 0 -0.0008892707627517171 0.0097191483257558463 0 -0.0010233027856053083 0.0096855341552512762 0 -0.0010502541959571709 0.0099766223235024896 0 -0.00093385135247253518 0.0096033276428992374 0 -0.0008892707627517171 0.0097191483257558463 0 -0.0010233027856053083 0.0096855341552512762 0 -0.0006102862003925046 0.011851726374107452 0 -0.0011514467927866128 0.011662134072562095 0 -0.00063434634350635003 0.013698475979259517 0 -0.0010836175168400565 0.014108156695366072 0 -0.0011477716071054598 0.013321101777674284 0 -0.00076313446297635902 0.009812079007531985 0 -0.0010502541959571709 0.0099766223235024896 0 -0.00076428905066326235 0.01001345389192513 0 -0.00076313446297635902 0.009812079007531985 0 -0.0008892707627517171 0.0097191483257558463 0 -0.0010502541959571709 0.0099766223235024896 0 -0.00076313446297635902 0.009812079007531985 0 -0.00052975166980230668 0.0099586278257804313 0 -0.00076428905066326235 0.01001345389192513 0 -0.00058969119632018877 0.0096248863503091611 0 -0.00076313446297635902 0.009812079007531985 0 -0.00052975166980230668 0.0099586278257804313 0 -0.00073438799604009055 0.0089225187580953286 0 -0.00061291185928462582 0.0095849864323068624 0 -0.00032932155538455767 0.0085674959607409725 0 -0.00074304484330225821 0.0084558519097247733 0 -0.0007364256869690168 0.0091430453168348802 0 -0.00032932155538455767 0.0085674959607409725 0 -0.00020853998986995379 0.0091153279285712697 0 -0.0007364256869690168 0.0091430453168348802 0 -0.00020853998986995379 0.0091153279285712697 0 -0.0007364256869690168 0.0091430453168348802 0 -0.00037076158714618768 0.0094772919235705539 0 -0.0007364256869690168 0.0091430453168348802 0 -0.00037076158714618768 0.0094772919235705539 0 -0.00051306812265236742 0.010038813572493838 0 -0.00061291185928462582 0.0095849864323068624 0 -0.00053212514679599012 0.0099949241047227518 0 -0.00037076158714618768 0.0094772919235705539 0 -0.00029508934919632052 0.0097605409729146341 0 -0.00051306812265236742 0.010038813572493838 0 -0.00029508934919632052 0.0097605409729146341 0 -0.00051306812265236742 0.010038813572493838 0 -0.00044696814834409542 0.0099944993150815464 0 0.00019344144967972451 0.01072026375739956 0 -0.00063435811227119171 0.010253769285241745 0 -0.0003373396047696078 0.010947659493572449 0 -0.00014599894344507485 0.010353499306558022 0 -0.00061963602703513196 0.010237452228942958 0 -0.00063435811227119171 0.010253769285241745 0 -0.00075434946093995642 0.0108621575843543 0 -0.0003373396047696078 0.010947659493572449 0 -0.00051306812265236742 0.010038813572493838 0 -0.00044696814834409542 0.0099944993150815464 0 -0.00063435811227119171 0.010253769285241745 0 -0.00052975166980230668 0.0099586278257804313 0 -0.00076428905066326235 0.01001345389192513 0 -0.00063435811227119171 0.010253769285241745 0 -0.00052975166980230668 0.0099586278257804313 0 -0.00051306812265236742 0.010038813572493838 0 -0.00063435811227119171 0.010253769285241745 0 -0.00076428905066326235 0.01001345389192513 0 -0.0011576968174401622 0.010444390484781843 0 -0.00063435811227119171 0.010253769285241745 0 -0.0011477716071054598 0.013321101777674284 0 -0.0011756225001016817 0.012546115841996051 0 -0.00081012445577313057 0.012806084402225927 0 -0.0010502541959571709 0.0099766223235024896 0 -0.00076428905066326235 0.01001345389192513 0 -0.0011576968174401622 0.010444390484781843 0 -0.0011514467927866128 0.011662134072562095 0 -0.0011443808998209519 0.011516208008825083 0 -0.0011756225001016817 0.012546115841996051 0 -0.00086826453199749065 0.012099336943033326 0 -0.00081012445577313057 0.012806084402225927 0 -0.0011576968174401622 0.010444390484781843 0 -0.00063435811227119171 0.010253769285241745 0 -0.00075434946093995642 0.0108621575843543 0 -0.0011576968174401622 0.010444390484781843 0 -0.00075434946093995642 0.0108621575843543 0 -0.0010749642789378321 0.011622447744100754 0 -0.00075434946093995642 0.0108621575843543 0 -0.00062394412247476219 0.011311157711052537 0 -0.0003373396047696078 0.010947659493572449 0 -0.00075434946093995642 0.0108621575843543 0 -0.00062394412247476219 0.011311157711052537 0 -0.0010749642789378321 0.011622447744100754 0 -0.0011756225001016817 0.012546115841996051 0 -0.00086826453199749065 0.012099336943033326 0 -0.0010749642789378321 0.011622447744100754 0 -0.0011443808998209519 0.011516208008825083 0 -0.0010933864115195999 0.011625582685782922 0 -0.00086826453199749065 0.012099336943033326 0 -0.0010749642789378321 0.011622447744100754 0 -0.00061806791016863428 0.011862999394308181 0 -0.00062250805761602699 0.01176479286430848 0 -0.00061806791016863428 0.011862999394308181 0 -0.00056195429383035852 0.011730412057571027 0 -0.0010749642789378321 0.011622447744100754 0 -0.0010279139236930379 0.011663046625021184 0 -0.00061806791016863428 0.011862999394308181 0 -0.00080390256084169806 0.011724320490187373 0 -0.00063146878085279534 0.011853849661336286 0 -0.00062394412247476219 0.011311157711052537 0 -0.0010749642789378321 0.011622447744100754 0 -0.00071460973699393328 0.01165998640558014 0 -0.0010749642789378321 0.011622447744100754 0 -0.0010279139236930379 0.011663046625021184 0 -0.00071460973699393328 0.01165998640558014 0 -0.00023535120087168334 0.011430561940575823 0 0.00011358433469417148 0.011871648114786946 0 -0.00032200007884959067 0.011887081205706399 0 -0.00071460973699393328 0.01165998640558014 0 -0.00023535120087168334 0.011430561940575823 0 -0.00032200007884959067 0.011887081205706399 0 -0.00062394412247476219 0.011311157711052537 0 -0.00071460973699393328 0.01165998640558014 0 -0.00023535120087168334 0.011430561940575823 0 -0.00023535120087168334 0.011430561940575823 0 0.00034024882013847306 0.011300713748839229 0 0.00011358433469417148 0.011871648114786946 0 0.00019344144967972451 0.01072026375739956 0 0.00034024882013847306 0.011300713748839229 0 1.83970069366215e-06 0.011099966363236777 0 0.00019344144967972451 0.01072026375739956 0 1.83970069366215e-06 0.011099966363236777 0 -0.0003373396047696078 0.010947659493572449 0 -0.00023535120087168334 0.011430561940575823 0 0.00034024882013847306 0.011300713748839229 0 1.83970069366215e-06 0.011099966363236777 0 -0.00062394412247476219 0.011311157711052537 0 -0.00023535120087168334 0.011430561940575823 0 -0.0003373396047696078 0.010947659493572449 0 -0.00023535120087168334 0.011430561940575823 0 1.83970069366215e-06 0.011099966363236777 0 -0.0003373396047696078 0.010947659493572449 0 -0.00095900885512999884 0.023028228478956733 0 -0.00022075696718238977 0.021484651363434297 0 -5.9722656540574824e-05 0.023181509508669797 0 -0.00095900885512999884 0.023028228478956733 0 -0.00061303370362464967 0.02343625757870247 0 -0.0010637202528974426 0.023696670667002477 0 -0.00061303370362464967 0.02343625757870247 0 -0.00034227718698095946 0.023643811868923999 0 -5.9722656540574824e-05 0.023181509508669797 0 -0.00095900885512999884 0.023028228478956733 0 -0.00061303370362464967 0.02343625757870247 0 -5.9722656540574824e-05 0.023181509508669797 0 -0.00052069017202508556 0.024412570857254939 0 -0.00052491721726047444 0.025159982422394922 0 -0.00034227718698095946 0.023643811868923999 0 -0.00069479888193570833 0.023981257099051433 0 4.0447956824068667e-05 0.023946676620197564 0 -0.00061303370362464967 0.02343625757870247 0 -0.00034227718698095946 0.023643811868923999 0 -0.00069479888193570833 0.023981257099051433 0 -0.00069479888193570833 0.023981257099051433 0 -0.00064680872296339772 0.024204201592398514 0 -0.00054671930561580424 0.024145877222334997 0 -0.0010033224744359984 0.024285096229665723 0 -0.00069479888193570833 0.023981257099051433 0 -0.00064680872296339772 0.024204201592398514 0 -0.0010033224744359984 0.024285096229665723 0 -0.00069479888193570833 0.023981257099051433 0 -0.0010637202528974426 0.023696670667002477 0 -0.00061303370362464967 0.02343625757870247 0 -0.00069479888193570833 0.023981257099051433 0 -0.0010637202528974426 0.023696670667002477 0 -0.0010033224744359984 0.024285096229665723 0 -0.0010637202528974426 0.023696670667002477 0 -0.0016328338682276681 0.023633184130995195 0 -0.00095900885512999884 0.023028228478956733 0 -0.0016328338682276681 0.023633184130995195 0 -0.0016903385843752496 0.021926862948228626 0 -0.00075445709251864437 0.018132535684715938 0 -0.00084309794208433189 0.017084978646385869 0 -0.00095900885512999884 0.023028228478956733 0 -0.0010637202528974426 0.023696670667002477 0 -0.0016328338682276681 0.023633184130995195 0 8.7027814912946184e-05 0.012862058240455278 0 -0.00043986666871408044 0.012415057733385217 0 -3.3458431052242403e-06 0.012134464775654023 0 8.7027814912946184e-05 0.012862058240455278 0 -0.00053282525046593858 0.013098856267944907 0 -0.00043986666871408044 0.012415057733385217 0 -0.00031722204856269351 0.013535337314833746 0 8.7027814912946184e-05 0.012862058240455278 0 -0.00053282525046593858 0.013098856267944907 0 -0.00053282525046593858 0.013098856267944907 0 -0.00081012445577313057 0.012806084402225927 0 -0.00043986666871408044 0.012415057733385217 0 -0.0011477716071054598 0.013321101777674284 0 -0.00053282525046593858 0.013098856267944907 0 -0.00081012445577313057 0.012806084402225927 0 -0.00086826453199749065 0.012099336943033326 0 -0.00081012445577313057 0.012806084402225927 0 -0.00043986666871408044 0.012415057733385217 0 -0.00086826453199749065 0.012099336943033326 0 -0.00043986666871408044 0.012415057733385217 0 -0.00061806791016863428 0.011862999394308181 0 -0.00043986666871408044 0.012415057733385217 0 -0.00061806791016863428 0.011862999394308181 0 -0.00033872428669126387 0.012045117159355917 0 -0.00061806791016863428 0.011862999394308181 0 -0.00031559434294237923 0.011836338186002665 0 -0.00048219490479424064 0.011763414298879544 0 -0.00061806791016863428 0.011862999394308181 0 -0.00048219490479424064 0.011763414298879544 0 -0.00056195429383035852 0.011730412057571027 0 -0.00031559434294237923 0.011836338186002665 0 -0.00033872428669126387 0.012045117159355917 0 -3.3458431052242403e-06 0.012134464775654023 0 -0.00061806791016863428 0.011862999394308181 0 -0.00031559434294237923 0.011836338186002665 0 -0.00033872428669126387 0.012045117159355917 0 -0.00043986666871408044 0.012415057733385217 0 -0.00033872428669126387 0.012045117159355917 0 -3.3458431052242403e-06 0.012134464775654023 0 -0.00084309794208433189 0.017084978646385869 0 -0.00086160354890711221 0.015805122832626726 0 -0.0016903385843752496 0.021926862948228626 0 -0.00022075696718238977 0.021484651363434297 0 -0.0015490713824265513 0.020073551945750223 0 -0.00031559434294237923 0.011836338186002665 0 -3.3458431052242403e-06 0.012134464775654023 0 -0.00014615667577823167 0.011763271605796159 0 -0.0011742840936922803 0.022641150114837957 0 -0.0013173936788809567 0.021964388870276318 0 -0.00095900885512999884 0.023028228478956733 0 -0.0016903385843752496 0.021926862948228626 0 -0.00022075696718238977 0.021484651363434297 0 -0.0022540124634003594 0.023874737174200907 0 -0.0023398391288936768 0.023268792019915194 0 -0.0020130220575982826 0.023444719501048521 0 -0.00047354955323650059 0.01966473547844701 0 -0.0013767027566837441 0.018226994667514776 0 -0.00075513968913190751 0.017864865572150598 0 -0.0013173936788809567 0.021964388870276318 0 -0.0018453311804213595 0.020012065488819519 0 -0.00022075696718238977 0.021484651363434297 0 -0.00047354955323650059 0.01966473547844701 0 -0.0015490713824265513 0.020073551945750223 0 4.245245674183115e-05 0.011732349713649415 0 -0.00059381007790865886 0.015448876714482744 0 -0.00086160354890711221 0.015805122832626726 0 -0.00059381007790865886 0.015448876714482744 0 -0.00047354955323650059 0.01966473547844701 0 -0.0015490713824265513 0.020073551945750223 0 -0.0013767027566837441 0.018226994667514776 0 -0.00014615667577823167 0.011763271605796159 0 -0.0002992053730091014 0.011655004333697436 0 -0.00018317126740613647 0.01162465995618441 0 0.0005384808365103698 0.013168281767734524 0 0.00028792893166874932 0.012886371068668271 0 -9.2681135981404877e-05 0.013917815086301211 0 -0.00030901299375703245 0.011645163603952414 0 -0.0002992053730091014 0.011655004333697436 0 -0.00018317126740613647 0.01162465995618441 0 -9.4201498366971661e-05 0.012066459022746227 0 4.245245674183115e-05 0.011732349713649415 0 -0.00032306228217198781 0.011627722431760648 0 -0.0002992053730091014 0.011655004333697436 0 -0.00037313642220758258 0.01171156631339915 0 4.245245674183115e-05 0.011732349713649415 0 -3.0371873057203217e-05 0.011677805291627406 0 -0.00014615667577823167 0.011763271605796159 0 -0.0002992053730091014 0.011655004333697436 0 -0.00028171722035390874 0.011739703103041788 0 -0.00031559434294237923 0.011836338186002665 0 -0.00014615667577823167 0.011763271605796159 0 -0.00028171722035390874 0.011739703103041788 0 -0.00031559434294237923 0.011836338186002665 0 -0.00028171722035390874 0.011739703103041788 0 -0.00037313642220758258 0.01171156631339915 0 -0.00031559434294237923 0.011836338186002665 0 -0.00037313642220758258 0.01171156631339915 0 -0.00048219490479424064 0.011763414298879544 0 -0.0002992053730091014 0.011655004333697436 0 -0.00028171722035390874 0.011739703103041788 0 -0.00037313642220758258 0.01171156631339915 0 -0.00032306228217198781 0.011627722431760648 0 -0.00037313642220758258 0.01171156631339915 0 -0.00051181009326768613 0.011681390914550272 0 -0.00037313642220758258 0.01171156631339915 0 -0.00048219490479424064 0.011763414298879544 0 -0.00051181009326768613 0.011681390914550272 0 -0.00056195429383035852 0.011730412057571027 0 -0.00052477213500567955 0.011696849334741728 0 -0.00054803315870089505 0.011634957752182436 0 -0.00048219490479424064 0.011763414298879544 0 -0.00056195429383035852 0.011730412057571027 0 -0.00051181009326768613 0.011681390914550272 0 -0.00049976595075329011 0.011754798982391665 0 -0.00044200421118016539 0.011762652887411944 0 4.245245674183115e-05 0.011732349713649415 0 -0.00044200421118016539 0.011762652887411944 0 -0.00045505848136607991 0.011621584388027802 0 -0.00054803315870089505 0.011634957752182436 0 -0.00051967848359129459 0.011547726704213213 0 -0.00045505848136607991 0.011621584388027802 0 -0.00052477213500567955 0.011696849334741728 0 -0.00054803315870089505 0.011634957752182436 0 -0.0001599661541728691 0.011740446647578198 0 -0.00011218581169479991 0.01179386060133731 0 -0.00029857564624736062 0.011898229466578012 0 -9.4201498366971661e-05 0.012066459022746227 0 -0.00044200421118016539 0.011762652887411944 0 0.00021958879666707137 0.0094237094016964562 0 -0.00024836283783823577 0.010271215122437614 0 6.8178134043094519e-05 0.0099313688983948996 0 0.00015365127118755566 0.010026180939282363 0 -0.00028191905225744544 0.010050378866568784 0 -0.00023584046536393011 0.011531487709034983 0 -7.3452213388946926e-06 0.011783296045185909 0 -0.00025340343864412225 0.011725055700848492 0 -9.4201498366971661e-05 0.012066459022746227 0 -0.00011452092814436023 0.010653761914700034 0 -0.00011452092814436023 0.010653761914700034 0 -0.00024836283783823577 0.010271215122437614 0 -7.3452213388946926e-06 0.011783296045185909 0 -0.00026585582946651106 0.011876437234788836 0 -0.00025340343864412225 0.011725055700848492 0 -0.00011452092814436023 0.010653761914700034 0 0.00021958879666707137 0.0094237094016964562 0 0.00060061847254894651 0.0088128042010114406 0 0.00013659235366350681 0.0093447424439082501 0 -0.00035012620684975263 0.0088654243066324315 0 0.00060061847254894651 0.0088128042010114406 0 0.00013659235366350681 0.0093447424439082501 0 0.0011027785414320335 0.0096000504213834565 0 0.00099398231178772544 0.0097071548695834703 0 -0.00037881801763223487 0.0096167579816288009 0 0.00013659235366350681 0.0093447424439082501 0 0.0011027785414320335 0.0096000504213834565 0 -0.0003795130083359978 0.010040704951702695 0 -0.00034648907708641625 0.010331295731036539 0 -0.00068750456341232593 0.013024834761258005 0 -0.00082512065916781608 0.0094694416765168706 0 -0.00052271620363460245 0.0089223791633480567 0 -0.0015080101063524476 0.0092669935819055249 0 0.00013659235366350681 0.0093447424439082501 0 -0.00040457045588566958 0.0093111709816251012 0 -0.00035012620684975263 0.0088654243066324315 0 -0.00082512065916781608 0.0094694416765168706 0 -0.0013116604896157721 0.0097883108469336046 0 -0.0003795130083359978 0.010040704951702695 0 -0.00040457045588566958 0.0093111709816251012 0 -0.00052271620363460245 0.0089223791633480567 0 -0.00035012620684975263 0.0088654243066324315 0 0.00013659235366350681 0.0093447424439082501 0 -0.00040457045588566958 0.0093111709816251012 0 -0.0003795130083359978 0.010040704951702695 0 -0.00040457045588566958 0.0093111709816251012 0 -0.00082512065916781608 0.0094694416765168706 0 -0.0003795130083359978 0.010040704951702695 0 -0.00040457045588566958 0.0093111709816251012 0 -0.00082512065916781608 0.0094694416765168706 0 -0.00052271620363460245 0.0089223791633480567 0 -0.00032240393989227287 0.011897829210775895 0 -0.00044199251712983444 0.011767001787837987 0 -0.00065676057587107234 0.01202121540660951 0 -0.00032240393989227287 0.011897829210775895 0 -0.00026585582946651106 0.011876437234788836 0 -0.00025340343864412225 0.011725055700848492 0 -0.00032240393989227287 0.011897829210775895 0 -0.00025340343864412225 0.011725055700848492 0 -0.00044199251712983444 0.011767001787837987 0 -0.00034648907708641625 0.010331295731036539 0 -0.00024836283783823577 0.010271215122437614 0 -0.00023584046536393011 0.011531487709034983 0 -0.00025340343864412225 0.011725055700848492 0 -0.00044199251712983444 0.011767001787837987 0 -9.4201498366971661e-05 0.012066459022746227 0 -0.00030779111043165061 0.012871141802218865 0 -9.2681135981404877e-05 0.013917815086301211 0 -0.00096178146564600395 0.013648330875151597 0 -0.0007244189589593735 0.014663300692303982 0 0.00028792893166874932 0.012886371068668271 0 -9.2681135981404877e-05 0.013917815086301211 0 -0.00096178146564600395 0.013648330875151597 0 -0.00096178146564600395 0.013648330875151597 0 -0.0010730262323810206 0.01478306957415247 0 -0.0007244189589593735 0.014663300692303982 0 -0.00059381007790865886 0.015448876714482744 0 -0.0012803612637926932 0.016222741863723408 0 -0.00055696764217172065 0.017942251622559472 0 -0.00071382209614430771 0.019459422342182772 0 -0.0012481603221952495 0.018835526248304899 0 -0.00030779111043165061 0.012871141802218865 0 -0.00068750456341232593 0.013024834761258005 0 -0.00082512065916781608 0.0094694416765168706 0 -0.0013116604896157721 0.0097883108469336046 0 -0.0015080101063524476 0.0092669935819055249 0 -0.0013116604896157721 0.0097883108469336046 0 -0.0018923468666251647 0.0097193930695278936 0 -0.0015080101063524476 0.0092669935819055249 0 -0.001306835647460752 0.014062079192468709 0 -0.0012803612637926932 0.016222741863723408 0 -0.0016648997824564942 0.014700217898926903 0 -0.0016077983991095494 0.014140152073958179 0 -0.0010099745151251208 0.013940746182146543 0 -0.001306835647460752 0.014062079192468709 0 -0.00068750456341232593 0.013024834761258005 0 -0.0012803612637926932 0.016222741863723408 0 -0.00068750456341232593 0.013024834761258005 0 -0.00074333515972999954 0.017643589336583589 0 -0.00069910032676289921 0.017188874583983459 0 -0.0022343447334918554 0.017730110064711486 0 -0.0012803612637926932 0.016222741863723408 0 -0.002153676735864246 0.018831527745378197 0 -0.00071382209614430771 0.019459422342182772 0 -0.0016177492145417619 0.019181460508476928 0 -0.0021798818008217802 0.019968471623382382 0 -0.00071382209614430771 0.019459422342182772 0 -0.0016177492145417619 0.019181460508476928 0 -0.0012481603221952495 0.018835526248304899 0 -0.0018453311804213595 0.020012065488819519 0 -0.0022529086622892999 0.021077741285456059 0 -0.0016177492145417619 0.019181460508476928 0 -0.0013133901271597974 0.018421582021452467 0 -0.0026280205773811884 0.019229743510025182 0 -0.00055696764217172065 0.017942251622559472 0 -0.0012481603221952495 0.018835526248304899 0 -0.0013161455941329157 0.018402670405092265 0 -0.0016177492145417619 0.019181460508476928 0 -0.0012481603221952495 0.018835526248304899 0 -0.0013133901271597974 0.018421582021452467 0 -0.0017804116672366843 0.019192371705696539 0 -0.0018453311804213595 0.020012065488819519 0 -0.00059381007790865886 0.015448876714482744 0 -0.0018453311804213595 0.020012065488819519 0 0.00071895555904850233 0.0099857715787705411 0 -0.0006910809158849671 0.012016657687118465 0 0.00071895555904850233 0.0099857715787705411 0 -6.0346218517540632e-05 0.010609201368483459 0 -0.00071970974488424762 0.011624698029113948 0 -0.00067483529418985557 0.011685435506738244 0 -0.00064082008662394365 0.011598053523166231 0 0.00071895555904850233 0.0099857715787705411 0 0.0033559436169187597 0.0084578625585826524 0 0.0019649226095814184 0.0075208071626232786 0 0.0023400135532360305 0.0077432527617125038 0 0.0023912578282043969 0.0073575348072633757 0 0.00071895555904850233 0.0099857715787705411 0 0.001540684531433135 0.0097635915692284303 0 0.00034024882013847306 0.011300713748839229 0 0.00011358433469417148 0.011871648114786946 0 0.00068986784402074071 0.012144534295601113 0 -0.00011324248891244937 0.012427174827135614 0 0.00011358433469417148 0.011871648114786946 0 0.00068986784402074071 0.012144534295601113 0 -0.00071460973699393328 0.01165998640558014 0 -0.00032200007884959067 0.011887081205706399 0 -0.00063896838418884096 0.012065409151819641 0 -0.00011324248891244937 0.012427174827135614 0 -0.00032200007884959067 0.011887081205706399 0 -0.00063896838418884096 0.012065409151819641 0 -0.00011324248891244937 0.012427174827135614 0 0.00011358433469417148 0.011871648114786946 0 -0.00032200007884959067 0.011887081205706399 0 -0.0010279139236930379 0.011663046625021184 0 -0.00071460973699393328 0.01165998640558014 0 -0.00063896838418884096 0.012065409151819641 0 -0.00067483529418985557 0.011685435506738244 0 -0.00060759452827731006 0.011712758581330808 0 -0.00061147746060346772 0.011665199752575562 0 -0.00062250805761602699 0.01176479286430848 0 -0.00067483529418985557 0.011685435506738244 0 -0.00060759452827731006 0.011712758581330808 0 -0.00080390256084169806 0.011724320490187373 0 -0.0006910809158849671 0.012016657687118465 0 -0.00056195429383035852 0.011730412057571027 0 -0.00054803315870089505 0.011634957752182436 0 -0.00058271340577560724 0.011686092105798835 0 -0.00062250805761602699 0.01176479286430848 0 -0.00056195429383035852 0.011730412057571027 0 -0.00060759452827731006 0.011712758581330808 0 -0.00060759452827731006 0.011712758581330808 0 -0.00058271340577560724 0.011686092105798835 0 -0.00061147746060346772 0.011665199752575562 0 -0.00056195429383035852 0.011730412057571027 0 -0.00060759452827731006 0.011712758581330808 0 -0.00058271340577560724 0.011686092105798835 0 -0.00054803315870089505 0.011634957752182436 0 -0.00061147746060346772 0.011665199752575562 0 -0.00064082008662394365 0.011598053523166231 0 -0.00054803315870089505 0.011634957752182436 0 -0.00058271340577560724 0.011686092105798835 0 -0.00061147746060346772 0.011665199752575562 0 -0.00067483529418985557 0.011685435506738244 0 -0.00061147746060346772 0.011665199752575562 0 -0.00064082008662394365 0.011598053523166231 0 0.0007846444157888281 0.0098886649470989203 0 0.00073637876533873747 0.0094833410656588214 0 0.0016888296697405076 0.00982378757001009 0 -0.00010399790422233004 0.0099523909089998808 0 0.0007846444157888281 0.0098886649470989203 0 0.00073637876533873747 0.0094833410656588214 0 -0.00022926053921487483 0.0098135728583089374 0 -0.00010399790422233004 0.0099523909089998808 0 0.00073637876533873747 0.0094833410656588214 0 0.00021958879666707137 0.0094237094016964562 0 0.001343806994768864 0.0091837118372728472 0 -0.00011452092814436023 0.010653761914700034 0 -6.0346218517540632e-05 0.010609201368483459 0 -0.00054803315870089505 0.011634957752182436 0 -0.00051967848359129459 0.011547726704213213 0 -0.00064082008662394365 0.011598053523166231 0 0.00021958879666707137 0.0094237094016964562 0 0.0016180808073473539 0.0096695091031315551 0 0.00059330405015620179 0.008607250491120523 0 0.0019017676281554846 0.0085142746230489896 0 0.0015753893001128831 0.009702903952714257 0 0.00060061847254894651 0.0088128042010114406 0 0.0011027785414320335 0.0096000504213834565 0 0.0015771360024974975 0.0098294765407265037 0 0.0023807529154371058 0.0090603866594483884 0 0.0028326669730417554 0.0096022876935774205 0 0.0015753893001128831 0.009702903952714257 0 0.0019017676281554846 0.0085142746230489896 0 0.0023807529154371058 0.0090603866594483884 0 0.0015753893001128831 0.009702903952714257 0 0.0023807529154371058 0.0090603866594483884 0 0.0028326669730417554 0.0096022876935774205 0 0.0032027139480246469 0.0084305878101377796 0 0.0019017676281554846 0.0085142746230489896 0 0.0023807529154371058 0.0090603866594483884 0 0.0032027139480246469 0.0084305878101377796 0 0.0017196971530870882 0.0091465568681698538 0 0.00073637876533873747 0.0094833410656588214 0 0.0016888296697405076 0.00982378757001009 0 0.001343806994768864 0.0091837118372728472 0 0.0024746969925188858 0.0091814094971656348 0 0.0032027139480246469 0.0084305878101377796 0 0.0039893379078549153 0.0092928144717862454 0 0.0044511849968696645 0.0083435630719129704 0 0.0024746969925188858 0.0091814094971656348 0 0.0033559436169187597 0.0084578625585826524 0 0.0017196971530870882 0.0091465568681698538 0 0.0016888296697405076 0.00982378757001009 0 0.0026029995854828666 0.0097530533365198426 0 0.0028326669730417554 0.0096022876935774205 0 0.0032027139480246469 0.0084305878101377796 0 0.0039893379078549153 0.0092928144717862454 0 0.0039893379078549153 0.0092928144717862454 0 0.0049578565691098826 0.008696269335201158 0 0.0048444359707810773 0.010301971244444132 0 0.0039893379078549153 0.0092928144717862454 0 0.0049578565691098826 0.008696269335201158 0 0.0044511849968696645 0.0083435630719129704 0 0.0049578565691098826 0.008696269335201158 0 0.0057928347417560604 0.0091827247967254805 0 0.0048444359707810773 0.010301971244444132 0 0.0056033031089116111 0.008245874103969715 0 0.0049578565691098826 0.008696269335201158 0 0.0044477907983631907 0.008337093550945536 0 0.004268915933992568 0.0082246470825204799 0 0.0033559436169187597 0.0084578625585826524 0 0.0056033031089116111 0.008245874103969715 0 0.0049578565691098826 0.008696269335201158 0 0.0057928347417560604 0.0091827247967254805 0 0.0048744411621546076 0.0088724349812642905 0 0.0033559436169187597 0.0084578625585826524 0 0.002693880173605953 0.0076835008393827215 0 0.0023400135532360305 0.0077432527617125038 0 0.0023912578282043969 0.0073575348072633757 0 0.002693880173605953 0.0076835008393827215 0 0.0023912578282043969 0.0073575348072633757 0 0.0027919851546459578 0.0072046800818494376 0 0.001540684531433135 0.0097635915692284303 0 0.0023119689895605127 0.0094172263581315217 0 0.00068986784402074071 0.012144534295601113 0 0.0014565998217275795 0.011849766327737665 0 0.0009988428664152811 0.011528576647412655 0 0.002693880173605953 0.0076835008393827215 0 0.0027919851546459578 0.0072046800818494376 0 0.0029810125001797608 0.0073840265572531335 0 0.0023119689895605127 0.0094172263581315217 0 0.0018318481836414088 0.0099618067910986832 0 0.0027919851546459578 0.0072046800818494376 0 0.0029810125001797608 0.0073840265572531335 0 0.0031533071418976353 0.007070732075134748 0 0.0029810125001797608 0.0073840265572531335 0 0.0032164139327526824 0.0073740845313091021 0 0.0031533071418976353 0.007070732075134748 0 0.002693880173605953 0.0076835008393827215 0 0.0029810125001797608 0.0073840265572531335 0 0.0030227944800022039 0.0076166721411382709 0 0.0041614488440377666 0.0042184852761881384 0 0.0033934689660598942 0.0030805914029156849 0 0.0029810125001797608 0.0073840265572531335 0 0.0030227944800022039 0.0076166721411382709 0 0.0032164139327526824 0.0073740845313091021 0 0.0033349452547160861 -0.00075236105378151939 0 0.0032879107984837711 -0.0007407955926687828 0 0.0034284786551266695 -0.00084489519613443716 0 0.0033349452547160861 -0.00075236105378151939 0 0.0031804326775993507 -0.00073123099147010852 0 0.0031994712197271923 -0.00014116944173198884 0 0.0033349452547160861 -0.00075236105378151939 0 0.0031994712197271923 -0.00014116944173198884 0 0.0035110787859594034 -0.00071441824404721156 0 0.00366743444839558 0.0027562345068243639 0 0.0041614488440377666 0.0042184852761881384 0 0.0041614488440377666 0.0042184852761881384 0 0.0043992238498203832 0.0043956261070810434 0 0.0056033031089116111 0.008245874103969715 0 0.0067037086835956888 0.0081250089459040369 0 0.0057928347417560604 0.0091827247967254805 0 0.004268915933992568 0.0082246470825204799 0 0.0041614488440377666 0.0042184852761881384 0 0.0026055689463907838 -5.9771741642478185e-05 0 0.0031994712197271923 -0.00014116944173198884 0 0.0026135807122135784 0.00051173292222045233 0 0.0031804326775993507 -0.00073123099147010852 0 0.0026055689463907838 -5.9771741642478185e-05 0 0.0031994712197271923 -0.00014116944173198884 0 0.0037229783478955935 -0.0008523012364144365 0 0.0035664167094737616 -0.00086131430458551714 0 0.0037441007899192565 -0.0010211967557539835 0 0.0037229783478955935 -0.0008523012364144365 0 0.0035664167094737616 -0.00086131430458551714 0 0.0035110787859594034 -0.00071441824404721156 0 0.0034593051742920298 -0.00051152613870726821 0 0.0035025243476337511 -0.000666205302071638 0 0.0035238188259069277 -0.00099532569626025304 0 0.0036310755056080026 -0.0011343371656404471 0 0.0035664167094737616 -0.00086131430458551714 0 0.0034453589453251575 -0.00080832097292639262 0 0.0035110787859594034 -0.00071441824404721156 0 0.0035664167094737616 -0.00086131430458551714 0 0.0034453589453251575 -0.00080832097292639262 0 0.0035514123059838709 -0.0010069629780439463 0 0.0034686473080422307 -0.00082320530162691304 0 0.0034467339613823878 -0.0009745892530826193 0 0.0034694143771522353 -0.00086580805601571618 0 0.0034453589453251575 -0.00080832097292639262 0 0.0034686473080422307 -0.00082320530162691304 0 0.0035110787859594034 -0.00071441824404721156 0 0.0034453589453251575 -0.00080832097292639262 0 0.0034686473080422307 -0.00082320530162691304 0 0.0034467339613823878 -0.0009745892530826193 0 0.0034686473080422307 -0.00082320530162691304 0 0.00347455061947973 -0.00081175331653057228 0 0.0034694143771522353 -0.00086580805601571618 0 0.0034686473080422307 -0.00082320530162691304 0 0.0035110787859594034 -0.00071441824404721156 0 0.00347455061947973 -0.00081175331653057228 0 0.0033349452547160861 -0.00075236105378151939 0 0.0035110787859594034 -0.00071441824404721156 0 0.00347455061947973 -0.00081175331653057228 0 0.0033635882596193879 -0.0012060623508810542 0 0.0034520484295934395 -0.0012101619326666607 0 0.0034454413620386556 -0.0013104913735838702 0 0.0033635882596193879 -0.0012060623508810542 0 0.0034520484295934395 -0.0012101619326666607 0 0.0034183816379176344 -0.0011327904128681609 0 0.0034520484295934395 -0.0012101619326666607 0 0.0034982387679003317 -0.0011612410220681168 0 0.0034183816379176344 -0.0011327904128681609 0 0.0034520484295934395 -0.0012101619326666607 0 0.0034982387679003317 -0.0011612410220681168 0 0.0035346509597063347 -0.0012517114748807341 0 0.0036155189171475761 -0.0011701729665670262 0 0.0034982387679003317 -0.0011612410220681168 0 0.0035346509597063347 -0.0012517114748807341 0 0.0035238188259069277 -0.00099532569626025304 0 0.0034516314348848084 -0.00096400438307489144 0 0.0036155189171475761 -0.0011701729665670262 0 0.0034982387679003317 -0.0011612410220681168 0 0.0034467339613823878 -0.0009745892530826193 0 0.0034982387679003317 -0.0011612410220681168 0 0.0034467339613823878 -0.0009745892530826193 0 0.0034183816379176344 -0.0011327904128681609 0 0.0033635882596193879 -0.0012060623508810542 0 0.0034183816379176344 -0.0011327904128681609 0 0.0033459358218691339 -0.0010778067282765373 0 0.0034467339613823878 -0.0009745892530826193 0 0.0034183816379176344 -0.0011327904128681609 0 0.0033459358218691339 -0.0010778067282765373 0 0.0032984777373802421 -0.0010583103721157287 0 0.0033459358218691339 -0.0010778067282765373 0 0.0033348295075723666 -0.0010023653298147114 0 0.0034467339613823878 -0.0009745892530826193 0 0.0033459358218691339 -0.0010778067282765373 0 0.0033348295075723666 -0.0010023653298147114 0 0.0034467339613823878 -0.0009745892530826193 0 0.0034503900460847903 -0.00087529163559894191 0 0.0034694143771522353 -0.00086580805601571618 0 0.0034467339613823878 -0.0009745892530826193 0 0.0033348295075723666 -0.0010023653298147114 0 0.0034503900460847903 -0.00087529163559894191 0 0.0034092209912288357 -0.00094074346732455597 0 0.0032594703264415248 -0.0012064620154308592 0 0.0033165741628576745 -0.0010036550480224007 0 0.0033116332721875733 -0.0010308320981868434 0 0.0033227199682048778 -0.0010062367327997221 0 0.0033165741628576745 -0.0010036550480224007 0 0.0033227199682048778 -0.0010062367327997221 0 0.0033241176341455778 -0.00098600351598376879 0 0.0033348295075723666 -0.0010023653298147114 0 0.0033165741628576745 -0.0010036550480224007 0 0.0033116332721875733 -0.0010308320981868434 0 0.0033116332721875733 -0.0010308320981868434 0 0.0032873460244981405 -0.0010657943254919389 0 0.0033227199682048778 -0.0010062367327997221 0 0.0032708038576596218 -0.0010609918944766226 0 0.0033116332721875733 -0.0010308320981868434 0 0.0032873460244981405 -0.0010657943254919389 0 0.0032708038576596218 -0.0010609918944766226 0 0.0033348295075723666 -0.0010023653298147114 0 0.0033116332721875733 -0.0010308320981868434 0 0.0033349452547160861 -0.00075236105378151939 0 0.0034284786551266695 -0.00084489519613443716 0 0.00347455061947973 -0.00081175331653057228 0 0.0034284786551266695 -0.00084489519613443716 0 0.00347455061947973 -0.00081175331653057228 0 0.0034639141952757259 -0.00084967711692196014 0 0.00347455061947973 -0.00081175331653057228 0 0.0034694143771522353 -0.00086580805601571618 0 0.0034639141952757259 -0.00084967711692196014 0 0.0034503900460847903 -0.00087529163559894191 0 0.0034694143771522353 -0.00086580805601571618 0 0.0034639141952757259 -0.00084967711692196014 0 0.0032594703264415248 -0.0012064620154308592 0 0.0025383194598378438 0.0038311072337266399 0 0.0033165741628576745 -0.0010036550480224007 0 0.0033206799825877334 -0.00096237755934240913 0 0.0033241176341455778 -0.00098600351598376879 0 0.0034503900460847903 -0.00087529163559894191 0 0.0034639141952757259 -0.00084967711692196014 0 0.0034619953748128707 -0.00083626333467115674 0 0.0033934689660598942 0.0030805914029156849 0 0.0025383194598378438 0.0038311072337266399 0 0.0025383194598378438 0.0038311072337266399 0 0.0018318481836414088 0.0099618067910986832 0 0.0034284786551266695 -0.00084489519613443716 0 0.0034639141952757259 -0.00084967711692196014 0 0.0034619953748128707 -0.00083626333467115674 0 0.0032164139327526824 0.0073740845313091021 0 0.0033994923669611768 0.0071519174272458947 0 0.0031533071418976353 0.007070732075134748 0 0.00093772314962122373 0.010443033055760784 0 0.00011222900764981436 0.0099271491354139974 0 0.0008355434851433734 0.010004619807918516 0 0.0018318481836414088 0.0099618067910986832 0 0.00039716071321723091 0.0099562686633167755 0 0.00011222900764981436 0.0099271491354139974 0 0.00078552085876556566 0.0097499867226828393 0 0.0008355434851433734 0.010004619807918516 0 0.00071496925747829712 0.0098581796693140503 0 0.00078552085876556566 0.0097499867226828393 0 0.00073789139870105542 0.0097557202430816892 0 0.00078552085876556566 0.0097499867226828393 0 0.00089403673693925188 0.0096597727243023478 0 0.00073789139870105542 0.0097557202430816892 0 0.00093772314962122373 0.010443033055760784 0 0.0008355434851433734 0.010004619807918516 0 0.001085263464760299 0.009720412150597409 0 0.0033206799825877334 -0.00096237755934240913 0 0.0033241176341455778 -0.00098600351598376879 0 0.0033373508376698161 -0.00096263887565807636 0 0.001085263464760299 0.009720412150597409 0 0.00089403673693925188 0.0096597727243023478 0 0.00094459369849353924 0.009279030757281528 0 0.00093772314962122373 0.010443033055760784 0 0.001085263464760299 0.009720412150597409 0 0.0023044791172488637 0.0089778468713950597 0 0.0025383194598378438 0.0038311072337266399 0 0.0027872689097254025 0.0043109023476963814 0 0.0008355434851433734 0.010004619807918516 0 0.001085263464760299 0.009720412150597409 0 0.0008974107448993698 0.0097710887889222321 0 0.00078552085876556566 0.0097499867226828393 0 0.0008355434851433734 0.010004619807918516 0 0.0008974107448993698 0.0097710887889222321 0 0.00078552085876556566 0.0097499867226828393 0 0.0008974107448993698 0.0097710887889222321 0 0.00089403673693925188 0.0096597727243023478 0 0.001085263464760299 0.009720412150597409 0 0.0008974107448993698 0.0097710887889222321 0 0.00089403673693925188 0.0096597727243023478 0 0.001084671817432499 0.0096334966223592857 0 0.0015740067862768288 0.0085716368217216322 0 0.001085263464760299 0.009720412150597409 0 0.00094459369849353924 0.009279030757281528 0 0.0012404036358295803 0.0091472815223615951 0 0.00094459369849353924 0.009279030757281528 0 0.0012404036358295803 0.0091472815223615951 0 0.0010533939840325186 0.0090350571199293659 0 0.0008677200493046219 0.0096513110694535342 0 0.00068138560366928032 0.0094246374026009071 0 0.00089403673693925188 0.0096597727243023478 0 0.00073789139870105542 0.0097557202430816892 0 0.00074659976893888676 0.0097100291499693861 0 0.00089403673693925188 0.0096597727243023478 0 0.00094459369849353924 0.009279030757281528 0 0.00057516050835887693 0.00910576604083543 0 0.00094459369849353924 0.009279030757281528 0 0.00057516050835887693 0.00910576604083543 0 0.0008320663302274487 0.0089921694613988006 0 0.00073789139870105542 0.0097557202430816892 0 0.00074659976893888676 0.0097100291499693861 0 0.00067353800109380875 0.0097567618566849253 0 0.0032504627944024557 -0.0010334332532283364 0 0.0032873460244981405 -0.0010657943254919389 0 0.0033208616227723893 -0.00097088640257809056 0 0.0032873460244981405 -0.0010657943254919389 0 0.0033227199682048778 -0.0010062367327997221 0 0.0033208616227723893 -0.00097088640257809056 0 0.0033227199682048778 -0.0010062367327997221 0 0.0033241176341455778 -0.00098600351598376879 0 0.0033373508376698161 -0.00096263887565807636 0 0.0033227199682048778 -0.0010062367327997221 0 0.0033373508376698161 -0.00096263887565807636 0 0.0033208616227723893 -0.00097088640257809056 0 0.0018029059087934158 0.0079167038636142779 0 0.0023044791172488637 0.0089778468713950597 0 0.0029292471773810819 0.0070433349848992161 0 0.001085263464760299 0.009720412150597409 0 0.0018029059087934158 0.0079167038636142779 0 0.0023044791172488637 0.0089778468713950597 0 0.0027872689097254025 0.0043109023476963814 0 0.0030404360675890195 0.0023597724048148045 0 0.0033373508376698161 -0.00096263887565807636 0 0.0033208616227723893 -0.00097088640257809056 0 0.003322623222561257 -0.00085848867221931518 0 0.0033126680738062219 -0.00091712116744175134 0 0.0032504627944024557 -0.0010334332532283364 0 0.0033208616227723893 -0.00097088640257809056 0 0.0033126680738062219 -0.00091712116744175134 0 0.0033208616227723893 -0.00097088640257809056 0 0.003322623222561257 -0.00085848867221931518 0 0.0023044791172488637 0.0089778468713950597 0 0.0039695088355231811 0.0072054760455533559 0 0.0029292471773810819 0.0070433349848992161 0 0.0030404360675890195 0.0023597724048148045 0 0.002411384623984234 0.0045572290441444323 0 0.0028299350344337558 0.0013110737197581737 0 0.002411384623984234 0.0045572290441444323 0 0.0039695088355231811 0.0072054760455533559 0 0.0034084565776468442 0.0067571109475668975 0 0.0037009693950938193 0.0063084383608475302 0 0.0022498347230979869 0.0027197710063007483 0 0.0027166490535890874 0.0022331895534162707 0 0.0030154629290712505 0.0032650604934775429 0 0.0028299350344337558 0.0013110737197581737 0 0.0030404360675890195 0.0023597724048148045 0 0.0028730454967814852 -0.0013385316507591291 0 0.0030404360675890195 0.0023597724048148045 0 0.0039695088355231811 0.0072054760455533559 0 0.0034084565776468442 0.0067571109475668975 0 0.0029292471773810819 0.0070433349848992161 0 0.0034084565776468442 0.0067571109475668975 0 0.0030306547474384005 0.0064700273099673267 0 0.0037009693950938193 0.0063084383608475302 0 0.0034084565776468442 0.0067571109475668975 0 0.0030306547474384005 0.0064700273099673267 0 0.0029292471773810819 0.0070433349848992161 0 0.0012404036358295803 0.0091472815223615951 0 0.0012196800532159608 0.0088654783632433551 0 0.0014974504834615254 0.0085738460105029366 0 0.0018029059087934158 0.0079167038636142779 0 0.0029292471773810819 0.0070433349848992161 0 0.0026926131144790087 0.0059973878268459249 0 0.0015740067862768288 0.0085716368217216322 0 0.0016705255663144569 0.0070690485642616527 0 0.0030306547474384005 0.0064700273099673267 0 0.0029292471773810819 0.0070433349848992161 0 0.0026926131144790087 0.0059973878268459249 0 0.0012196800532159608 0.0088654783632433551 0 0.0013370256808252626 0.0086172488766780679 0 0.0011132374120583863 0.00869767755969327 0 0.00096741335848141521 0.0081296698752130522 0 0.0015364683333846294 0.0084878099231420635 0 0.0010719861866339713 0.0085038233668151553 0 0.0013370256808252626 0.0086172488766780679 0 0.0015364683333846294 0.0084878099231420635 0 0.0010719861866339713 0.0085038233668151553 0 0.0012196800532159608 0.0088654783632433551 0 0.0013370256808252626 0.0086172488766780679 0 0.0014974504834615254 0.0085738460105029366 0 0.0016705255663144569 0.0070690485642616527 0 0.0017568127979221166 0.0060649214834556904 0 0.0013019497362264734 0.0070538326378996406 0 0.0016705255663144569 0.0070690485642616527 0 0.0015308393756014442 0.0065370353811434493 0 0.0014787250857907284 0.0066436959433211536 0 0.0016307854845398744 0.0066061089246914236 0 0.0013370256808252626 0.0086172488766780679 0 0.0015364683333846294 0.0084878099231420635 0 0.0014951598257857605 0.0085740550497459232 0 0.0012849059775660191 0.0076660766566100744 0 0.0016705255663144569 0.0070690485642616527 0 0.0030306547474384005 0.0064700273099673267 0 0.0026926131144790087 0.0059973878268459249 0 0.0030018843305400513 0.0061677453876177162 0 0.0030306547474384005 0.0064700273099673267 0 0.0030018843305400513 0.0061677453876177162 0 0.0037009693950938193 0.0063084383608475302 0 0.0030018843305400513 0.0061677453876177162 0 0.0031073853151418812 0.0058970996014824015 0 0.0037009693950938193 0.0063084383608475302 0 0.0017568127979221166 0.0060649214834556904 0 0.002411384623984234 0.0045572290441444323 0 0.0017568127979221166 0.0060649214834556904 0 0.00091775993468989567 0.0047020854814137768 0 0.0016736992611784262 0.005101647866719604 0 0.001640561530830806 0.0051080421608336339 0 0.0016307897118785629 0.0050686081325458376 0 0.0026926131144790087 0.0059973878268459249 0 0.0030018843305400513 0.0061677453876177162 0 0.0031073853151418812 0.0058970996014824015 0 0.001146636445710844 0.0058889925921979209 0 0.0011398358541064926 0.0059096472707731761 0 0.0011543733590807163 0.0059082293376529456 0 0.00045856508514968491 0.0057786056209966664 0 0.00091775993468989567 0.0047020854814137768 0 0.00045856508514968491 0.0057786056209966664 0 0.0013019497362264734 0.0070538326378996406 0 0.0013019497362264734 0.0070538326378996406 0 0.0017568127979221166 0.0060649214834556904 0 0.0011398358541064926 0.0059096472707731761 0 0.0011457139087932295 0.0059125308459653716 0 0.0011543733590807163 0.0059082293376529456 0 -0.00015802803397949383 0.0045207575600905749 0 -0.00055731195251145903 0.0043889530808011992 0 -0.00051018426213259656 0.0042754638715441842 0 0.0018674360321528677 0.0028539294115823982 0 0.0018870747409537409 0.0028911693262310897 0 0.0018849373197815746 0.0028740818894616928 0 0.00091775993468989567 0.0047020854814137768 0 0.002411384623984234 0.0045572290441444323 0 0.00062931704320264795 0.0088246491115468867 0 0.00057516050835887693 0.00910576604083543 0 0.00030203661257943189 0.0086134860611522309 0 0.00068138560366928032 0.0094246374026009071 0 0.00048526393813278201 0.0089755550971053616 0 0.00062931704320264795 0.0088246491115468867 0 0.0008320663302274487 0.0089921694613988006 0 0.00088728687408718646 0.0087134260596343285 0 0.00062931704320264795 0.0088246491115468867 0 0.00057516050835887693 0.00910576604083543 0 0.0008320663302274487 0.0089921694613988006 0 0.0008320663302274487 0.0089921694613988006 0 0.0010533939840325186 0.0090350571199293659 0 0.0010139220060183614 0.0088405782421555751 0 0.00094459369849353924 0.009279030757281528 0 0.0008320663302274487 0.0089921694613988006 0 0.0010533939840325186 0.0090350571199293659 0 0.0012404036358295803 0.0091472815223615951 0 0.0012196800532159608 0.0088654783632433551 0 0.0010533939840325186 0.0090350571199293659 0 0.0012196800532159608 0.0088654783632433551 0 0.0010533939840325186 0.0090350571199293659 0 0.0010139220060183614 0.0088405782421555751 0 0.0012196800532159608 0.0088654783632433551 0 0.0010139220060183614 0.0088405782421555751 0 0.0011132374120583863 0.00869767755969327 0 0.0010139220060183614 0.0088405782421555751 0 0.00088728687408718646 0.0087134260596343285 0 0.0011132374120583863 0.00869767755969327 0 0.0008320663302274487 0.0089921694613988006 0 0.0010139220060183614 0.0088405782421555751 0 0.00088728687408718646 0.0087134260596343285 0 0.00096741335848141521 0.0081296698752130522 0 0.0010719861866339713 0.0085038233668151553 0 0.00065073068795272828 0.0084744948391659754 0 0.00088728687408718646 0.0087134260596343285 0 0.0010719861866339713 0.0085038233668151553 0 0.00065073068795272828 0.0084744948391659754 0 0.0013370256808252626 0.0086172488766780679 0 0.0011132374120583863 0.00869767755969327 0 0.0010719861866339713 0.0085038233668151553 0 0.00088728687408718646 0.0087134260596343285 0 0.0011132374120583863 0.00869767755969327 0 0.0010719861866339713 0.0085038233668151553 0 0.00043061798256278889 0.0082075573634360251 0 0.00065073068795272828 0.0084744948391659754 0 0.00029394433453667644 0.0086063433579891147 0 0.00062931704320264795 0.0088246491115468867 0 0.00088728687408718646 0.0087134260596343285 0 0.00065073068795272828 0.0084744948391659754 0 0.00062931704320264795 0.0088246491115468867 0 0.00065073068795272828 0.0084744948391659754 0 0.00029394433453667644 0.0086063433579891147 0 0.0004899842453028277 0.0087443868407225366 0 0.00048526393813278201 0.0089755550971053616 0 0.00040211593747453228 0.0091482520754101199 0 0.00048526393813278201 0.0089755550971053616 0 0.0001817465360531053 0.0084199958639796912 0 0.00048526393813278201 0.0089755550971053616 0 0.00069289460827466219 0.0095263188186223459 0 0.00062705529746564148 0.0096776975585651046 0 0.0005148336306373876 0.0095487815407148628 0 0.00074659976893888676 0.0097100291499693861 0 0.00062705529746564148 0.0096776975585651046 0 0.00067353800109380875 0.0097567618566849253 0 0.00074659976893888676 0.0097100291499693861 0 0.00069289460827466219 0.0095263188186223459 0 0.00062705529746564148 0.0096776975585651046 0 0.00041622404642983706 0.0097294365994686043 0 0.0005148336306373876 0.0095487815407148628 0 0.00027312850401101552 0.0095240592792860644 0 0.00062705529746564148 0.0096776975585651046 0 0.00041622404642983706 0.0097294365994686043 0 0.0005148336306373876 0.0095487815407148628 0 0.00062705529746564148 0.0096776975585651046 0 0.00041622404642983706 0.0097294365994686043 0 0.00058834424659938705 0.0097751865992090851 0 0.00049852084709740569 0.0093115908638291018 0 0.0005148336306373876 0.0095487815407148628 0 0.00027312850401101552 0.0095240592792860644 0 0.00049852084709740569 0.0093115908638291018 0 0.00069289460827466219 0.0095263188186223459 0 0.0005148336306373876 0.0095487815407148628 0 0.00015469977877845208 0.0092915612073910265 0 0.00049852084709740569 0.0093115908638291018 0 0.00027312850401101552 0.0095240592792860644 0 0.00015469977877845208 0.0092915612073910265 0 0.00027312850401101552 0.0095240592792860644 0 -8.9858202687680177e-05 0.009506303335047742 0 0.00027312850401101552 0.0095240592792860644 0 -8.9858202687680177e-05 0.009506303335047742 0 2.76874174492908e-05 0.0097765304529658977 0 -0.00020853998986995379 0.0091153279285712697 0 -0.00037076158714618768 0.0094772919235705539 0 -8.9858202687680177e-05 0.009506303335047742 0 -0.00020853998986995379 0.0091153279285712697 0 0.00015469977877845208 0.0092915612073910265 0 -8.9858202687680177e-05 0.009506303335047742 0 -0.00037076158714618768 0.0094772919235705539 0 -0.00029508934919632052 0.0097605409729146341 0 -8.9858202687680177e-05 0.009506303335047742 0 -0.00044696814834409542 0.0099944993150815464 0 2.76874174492908e-05 0.0097765304529658977 0 0.0001091463431992576 0.0099901825738259904 0 -0.00029508934919632052 0.0097605409729146341 0 -0.00044696814834409542 0.0099944993150815464 0 2.76874174492908e-05 0.0097765304529658977 0 -0.00029508934919632052 0.0097605409729146341 0 -8.9858202687680177e-05 0.009506303335047742 0 2.76874174492908e-05 0.0097765304529658977 0 0.00041622404642983706 0.0097294365994686043 0 2.76874174492908e-05 0.0097765304529658977 0 0.0001091463431992576 0.0099901825738259904 0 0.00041622404642983706 0.0097294365994686043 0 0.00027312850401101552 0.0095240592792860644 0 2.76874174492908e-05 0.0097765304529658977 0 0.00041622404642983706 0.0097294365994686043 0 0.0001091463431992576 0.0099901825738259904 0 0.00049327872568276159 0.0099385912282338434 0 0.00048142876887899091 0.010498438295938918 0 0.00095260444045687303 0.010707173546091988 0 0.00034024882013847306 0.011300713748839229 0 0.00086078828289303899 0.011034860258480014 0 0.0009988428664152811 0.011528576647412655 0 -0.00014599894344507485 0.010353499306558022 0 0.00048142876887899091 0.010498438295938918 0 0.00019344144967972451 0.01072026375739956 0 0.00034024882013847306 0.011300713748839229 0 0.00086078828289303899 0.011034860258480014 0 0.00034024882013847306 0.011300713748839229 0 0.00068986784402074071 0.012144534295601113 0 0.0009988428664152811 0.011528576647412655 0 0.00086078828289303899 0.011034860258480014 0 0.0009988428664152811 0.011528576647412655 0 0.0015310005755240766 0.011316550961703602 0 0.0014565998217275795 0.011849766327737665 0 0.0021798362357180771 0.011577419994010369 0 0.0015310005755240766 0.011316550961703602 0 0.0014565998217275795 0.011849766327737665 0 0.0009988428664152811 0.011528576647412655 0 0.0015310005755240766 0.011316550961703602 0 0.00071496925747829712 0.0098581796693140503 0 0.00049327872568276159 0.0099385912282338434 0 0.00064685188910237629 0.0098179563845628599 0 0.0018318481836414088 0.0099618067910986832 0 0.00095260444045687303 0.010707173546091988 0 0.00071496925747829712 0.0098581796693140503 0 0.00073789139870105542 0.0097557202430816892 0 0.00064685188910237629 0.0098179563845628599 0 0.00049327872568276159 0.0099385912282338434 0 0.00064685188910237629 0.0098179563845628599 0 0.00058834424659938705 0.0097751865992090851 0 0.00064685188910237629 0.0098179563845628599 0 0.00067353800109380875 0.0097567618566849253 0 0.00058834424659938705 0.0097751865992090851 0 0.00073789139870105542 0.0097557202430816892 0 0.00064685188910237629 0.0098179563845628599 0 0.00067353800109380875 0.0097567618566849253 0 0.00062705529746564148 0.0096776975585651046 0 0.00067353800109380875 0.0097567618566849253 0 0.00058834424659938705 0.0097751865992090851 0 0.00041622404642983706 0.0097294365994686043 0 0.00049327872568276159 0.0099385912282338434 0 0.00058834424659938705 0.0097751865992090851 0 -1.9966661567685289e-05 0.034985305887799072 0 -1.0121713219204545e-05 0.034942956325651767 0 -6.2829087952867297e-05 0.03497069972664122 0 3.376351094411674e-08 0.034999937241105492 0 -1.2115437685399956e-05 0.034992384945476532 0 -5.8726835932579613e-08 0.034999993692043173 0 -1.9966661567685289e-05 0.034985305887799072 0 3.376351094411674e-08 0.034999937241105492 0 -1.2115437685399956e-05 0.034992384945476532 0 3.376351094411674e-08 0.034999937241105492 0 -1.0121713219204545e-05 0.034942956325651767 0 1.2680724435254257e-05 0.034904475280971514 0 -1.9966661567685289e-05 0.034985305887799072 0 3.376351094411674e-08 0.034999937241105492 0 -1.0121713219204545e-05 0.034942956325651767 0 -1.0121713219204545e-05 0.034942956325651767 0 -6.2829087952867297e-05 0.03497069972664122 0 -7.1548101533575438e-05 0.034766424743984961 0 -0.00014288321936457168 0.034596467462005204 0 -9.5431796577876254e-05 0.034764307775514196 0 -0.00012260283133727688 0.034504979276367302 0 -0.00027344050184613123 0.034357301658181641 0 -7.1548101533575438e-05 0.034766424743984961 0 -0.00012260283133727688 0.034504979276367302 0 -0.00027344050184613123 0.034357301658181641 0 -0.00010077809515670095 0.034327144924010317 0 -2.8260402970299033e-05 0.034478012466244774 0 -6.3360866796075742e-05 0.03451488471442795 0 -6.3826931686624519e-05 0.034577422442316701 0 -0.00012260283133727688 0.034504979276367302 0 -6.3360866796075742e-05 0.03451488471442795 0 -3.9964689162390206e-05 0.034381667548969951 0 -0.00012260283133727688 0.034504979276367302 0 -6.3360866796075742e-05 0.03451488471442795 0 -7.7938109489370625e-05 0.034615984557829757 0 -0.00012260283133727688 0.034504979276367302 0 -3.9964689162390206e-05 0.034381667548969951 0 -0.00010077809515670095 0.034327144924010317 0 -2.8260402970299033e-05 0.034478012466244774 0 -6.3360866796075742e-05 0.03451488471442795 0 -3.9964689162390206e-05 0.034381667548969951 0 -3.9964689162390206e-05 0.034381667548969951 0 -4.4063197514249539e-05 0.034354471668687589 0 -5.1830918157599162e-05 0.034333774688579059 0 -2.8260402970299033e-05 0.034478012466244774 0 -3.9964689162390206e-05 0.034381667548969951 0 -4.4063197514249539e-05 0.034354471668687589 0 -3.9964689162390206e-05 0.034381667548969951 0 2.2934278768389416e-05 0.034223450561907752 0 0.00021216488518417361 0.034234269040542893 0 -2.6336432788797126e-05 0.034278198923243526 0 -0.00027750572736649477 0.034078672099647454 0 -9.2505457233004547e-05 0.034187044586529006 0 -0.00027750572736649477 0.034078672099647454 0 2.2934278768389416e-05 0.034223450561907752 0 -0.00010077809515670095 0.034327144924010317 0 -8.9674526737981949e-05 0.034119921533177951 0 -3.9964689162390206e-05 0.034381667548969951 0 2.2934278768389416e-05 0.034223450561907752 0 -0.00010077809515670095 0.034327144924010317 0 2.2934278768389416e-05 0.034223450561907752 0 -8.9674526737981949e-05 0.034119921533177951 0 0.00010795725970479681 0.033949360179887145 0 2.2934278768389416e-05 0.034223450561907752 0 0.00010795725970479681 0.033949360179887145 0 0.00021216488518417361 0.034234269040542893 0 -0.00027344050184613123 0.034357301658181641 0 -8.9674526737981949e-05 0.034119921533177951 0 -0.00024185477422229555 0.033817414513382889 0 -1.9966661567685289e-05 0.034985305887799072 0 -6.2829087952867297e-05 0.03497069972664122 0 -2.1926750732075629e-05 0.034982581510401733 0 -0.00014288321936457168 0.034596467462005204 0 -0.00017520208642561087 0.034635245893460655 0 -0.00027344050184613123 0.034357301658181641 0 -0.00010077809515670095 0.034327144924010317 0 -8.9674526737981949e-05 0.034119921533177951 0 -8.9674526737981949e-05 0.034119921533177951 0 -0.00024185477422229555 0.033817414513382889 0 0.00010795725970479681 0.033949360179887145 0 -0.00024185477422229555 0.033817414513382889 0 0.00010795725970479681 0.033949360179887145 0 0.00020349940382669449 0.033518744706591247 0 0.00011710762317698263 0.033017625375167781 0 0.00023449470421045668 0.032195902639453697 0 -0.00024185477422229555 0.033817414513382889 0 -0.00013562223064489585 0.033259514768737022 0 0.00020349940382669449 0.033518744706591247 0 -2.1926750732075629e-05 0.034982581510401733 0 -1.6508242138872475e-05 0.034963824867908812 0 -2.0681508834923721e-05 0.034982556676025532 0 -2.1926750732075629e-05 0.034982581510401733 0 -1.6508242138872475e-05 0.034963824867908812 0 2.0259180325750106e-06 0.034942608944123384 0 -0.00017520208642561087 0.034635245893460655 0 0.00011710762317698263 0.033017625375167781 0 -2.6196271068724024e-05 0.034965320606512279 0 -2.0681508834923721e-05 0.034982556676025532 0 -1.9969629409520984e-05 0.034985946171518428 0 -1.6508242138872475e-05 0.034963824867908812 0 -2.6196271068724024e-05 0.034965320606512279 0 -2.0681508834923721e-05 0.034982556676025532 0 -1.9966661567685289e-05 0.034985305887799072 0 -2.1926750732075629e-05 0.034982581510401733 0 -2.0681508834923721e-05 0.034982556676025532 0 -1.9966661567685289e-05 0.034985305887799072 0 -2.0681508834923721e-05 0.034982556676025532 0 -1.2115437685399956e-05 0.034992384945476532 0 -2.0681508834923721e-05 0.034982556676025532 0 -1.2115437685399956e-05 0.034992384945476532 0 -1.9969629409520984e-05 0.034985946171518428 0 -1.2115437685399956e-05 0.034992384945476532 0 -5.8726835932579613e-08 0.034999993692043173 0 -1.9969629409520984e-05 0.034985946171518428 0 -3.4235481511607413e-09 0.034999991228767929 0 -1.1203188394399276e-05 0.034990537680559319 0 4.8123834787452806e-10 0.034999999300256789 0 -1.2463552099829026e-09 0.035000000000881763 0 -7.5838385797411966e-07 0.034999644321677119 0 -7.536580298792948e-05 0.034921977290322301 0 7.4312574896646541e-08 0.035000005862572008 0 -2.0856516903353853e-06 0.034999488923819794 0 -1.2463552099829026e-09 0.035000000000881763 0 -7.5838385797411966e-07 0.034999644321677119 0 -7.536580298792948e-05 0.034921977290322301 0 -1.1203188394399276e-05 0.034990537680559319 0 3.258146166557585e-05 0.035009213302551488 0 2.4521912719375908e-09 0.035000024293469274 0 2.1149230584171175e-08 0.035000015122110963 0 3.258146166557585e-05 0.035009213302551488 0 2.1149230584171175e-08 0.035000015122110963 0 3.3835599137141142e-05 0.034981639079666185 0 -0.00017509448014904535 0.034618340470112779 0 0.0001583048958100873 0.034204350414062994 0 0.00034851593444476959 0.034347605725576567 0 -7.536580298792948e-05 0.034921977290322301 0 0.00022466461148737543 0.033617031639619904 0 -7.536580298792948e-05 0.034921977290322301 0 0.00021470833173799911 0.034728557025979739 0 3.258146166557585e-05 0.035009213302551488 0 3.3835599137141142e-05 0.034981639079666185 0 8.256600094990836e-05 0.034974941350477795 0 5.9972624633804269e-05 0.034946435728017658 0 2.0187949675709422e-05 0.034968600239698798 0 7.1824609852100686e-05 0.03482047147708546 0 5.9972624633804269e-05 0.034946435728017658 0 7.1824609852100686e-05 0.03482047147708546 0 0.00012317830036547123 0.034885939777413159 0 0.00012025973488448638 0.034898010567868037 0 0.00021470833173799911 0.034728557025979739 0 3.3835599137141142e-05 0.034981639079666185 0 5.9972624633804269e-05 0.034946435728017658 0 8.256600094990836e-05 0.034974941350477795 0 5.9972624633804269e-05 0.034946435728017658 0 0.00012317830036547123 0.034885939777413159 0 0.00012170162911023491 0.034974353240307246 0 3.3835599137141142e-05 0.034981639079666185 0 5.9972624633804269e-05 0.034946435728017658 0 2.0187949675709422e-05 0.034968600239698798 0 2.1149230584171175e-08 0.035000015122110963 0 2.0187949675709422e-05 0.034968600239698798 0 -4.2439470327549988e-08 0.034999805682452728 0 2.1149230584171175e-08 0.035000015122110963 0 3.3835599137141142e-05 0.034981639079666185 0 2.0187949675709422e-05 0.034968600239698798 0 2.0187949675709422e-05 0.034968600239698798 0 -4.2439470327549988e-08 0.034999805682452728 0 7.1824609852100686e-05 0.03482047147708546 0 9.6671904690905601e-08 0.034999599643733996 0 -0.00019169144841373151 0.034737201530654682 0 -0.00015867355822793297 0.034010167952457204 0 -8.4295828600609493e-07 0.03499786488109375 0 1.3635305279590446e-06 0.031923192339497683 0 3.1934127764404804e-07 0.034999715838892866 0 -0.00015867355822793297 0.034010167952457204 0 -8.4295828600609493e-07 0.03499786488109375 0 0.0020113853770180254 0.028244476869005969 0 0.0015124082302324588 0.027442534731239074 0 0.0012152697151816274 0.028567822263710987 0 -1.796180640733639e-05 0.031169785204264451 0 3.380952730029365e-07 0.031916881325356597 0 -3.2634364358444392e-07 0.030622127279549542 0 0.00059726459669435692 0.031519068238221148 0 0.00065824237478371271 0.029560203222325991 0 -1.796180640733639e-05 0.031169785204264451 0 -3.2634364358444392e-07 0.030622127279549542 0 1.594862918600888e-05 0.030581765281077474 0 0.00059726459669435692 0.031519068238221148 0 3.0977407640381101e-07 0.031918562806962987 0 -0.00015867355822793297 0.034010167952457204 0 0.00054516627751822154 0.032724743840611033 0 1.3635305279590446e-06 0.031923192339497683 0 7.1824609852100686e-05 0.03482047147708546 0 0.00018253568657632883 0.034817814476248335 0 0.00012317830036547123 0.034885939777413159 0 7.1824609852100686e-05 0.03482047147708546 0 0.00023137538537418609 0.034694452540979658 0 0.00018253568657632883 0.034817814476248335 0 -0.00019169144841373151 0.034737201530654682 0 0.00059726459669435692 0.031519068238221148 0 0.00018253568657632883 0.034817814476248335 0 0.00027161205231197399 0.034780511632997814 0 0.00022979469830302287 0.034842465535040779 0 0.00023137538537418609 0.034694452540979658 0 0.00018253568657632883 0.034817814476248335 0 0.00027161205231197399 0.034780511632997814 0 0.00059726459669435692 0.031519068238221148 0 0.00091543167012301337 0.031212711296963416 0 0.00027161205231197399 0.034780511632997814 0 0.00022979469830302287 0.034842465535040779 0 0.00030586549125561301 0.034836752851765983 0 0.00022979469830302287 0.034842465535040779 0 0.00023267457249286029 0.034891527124337657 0 0.00017382607466071161 0.034883907163308997 0 0.00022979469830302287 0.034842465535040779 0 0.00023267457249286029 0.034891527124337657 0 0.00030586549125561301 0.034836752851765983 0 0.00017560446043462242 0.033103619678974239 0 0.00030237028195986208 0.03063691143845047 0 0.00039582875441050393 0.031340158910075175 0 0.00017061320030963448 0.031268407253690046 0 6.7405830752118311e-05 0.031499129456920079 0 0.00018253568657632883 0.034817814476248335 0 0.00012317830036547123 0.034885939777413159 0 0.00017382607466071161 0.034883907163308997 0 0.00018253568657632883 0.034817814476248335 0 0.00022979469830302287 0.034842465535040779 0 0.00017382607466071161 0.034883907163308997 0 0.00023267457249286029 0.034891527124337657 0 0.00017382607466071161 0.034883907163308997 0 0.00017791850189432016 0.034916141085677567 0 0.00017382607466071161 0.034883907163308997 0 0.0001602239708527529 0.034903853223211108 0 0.00017791850189432016 0.034916141085677567 0 0.00012708680156608848 0.034920013951851243 0 0.00021470833173799911 0.034728557025979739 0 0.00012317830036547123 0.034885939777413159 0 0.00017382607466071161 0.034883907163308997 0 0.00012170162911023491 0.034974353240307246 0 -1.6508242138872475e-05 0.034963824867908812 0 -2.6196271068724024e-05 0.034965320606512279 0 -9.7196445318584162e-06 0.034935364037935859 0 0.00021470833173799911 0.034728557025979739 0 0.00022466461148737543 0.033617031639619904 0 0.00017560446043462242 0.033103619678974239 0 0.00022466461148737543 0.033617031639619904 0 0.00022466461148737543 0.033617031639619904 0 0.00011710762317698263 0.033017625375167781 0 0.00070443593612338877 0.031192002837226836 0 0.00050289937049151627 0.031130332810742067 0 0.00052000200495136255 0.031047856891267097 0 -1.6508242138872475e-05 0.034963824867908812 0 -9.7196445318584162e-06 0.034935364037935859 0 2.0259180325750106e-06 0.034942608944123384 0 0.00052589529174757138 0.031030718947801777 0 0.00020236232276747452 0.031060853400481443 0 0.00014863144598983627 0.030708116342366969 0 0.00039582875441050393 0.031340158910075175 0 0.00035975636925635436 0.031167116966927054 0 0.00017061320030963448 0.031268407253690046 0 0.00035975636925635436 0.031167116966927054 0 0.00020236232276747452 0.031060853400481443 0 0.00017061320030963448 0.031268407253690046 0 0.00039582875441050393 0.031340158910075175 0 0.00035975636925635436 0.031167116966927054 0 0.00050289937049151627 0.031130332810742067 0 0.00039582875441050393 0.031340158910075175 0 0.00070443593612338877 0.031192002837226836 0 0.00050289937049151627 0.031130332810742067 0 0.00035975636925635436 0.031167116966927054 0 0.00050289937049151627 0.031130332810742067 0 0.00052589529174757138 0.031030718947801777 0 0.00030112125114427173 0.032121378775589723 0 0.00011710762317698263 0.033017625375167781 0 0.00035975636925635436 0.031167116966927054 0 0.00052589529174757138 0.031030718947801777 0 0.00020236232276747452 0.031060853400481443 0 0.00011084979944125359 0.028673692796184324 0 0.00030237028195986208 0.03063691143845047 0 0.00020236232276747452 0.031060853400481443 0 -0.00017703915420331904 0.031085495558982327 0 0.00014863144598983627 0.030708116342366969 0 -0.00017703915420331904 0.031085495558982327 0 0.00017061320030963448 0.031268407253690046 0 6.7405830752118311e-05 0.031499129456920079 0 0.00020236232276747452 0.031060853400481443 0 -0.00017703915420331904 0.031085495558982327 0 0.00017061320030963448 0.031268407253690046 0 0.00052954007621181106 0.026516006456542486 0 0.00021446801506429621 0.026815712812055453 0 0.00010055724537650089 0.026424705375307556 0 0.00021446801506429621 0.026815712812055453 0 0.00042849068713589399 0.027099659452656993 0 1.4538377060436338e-05 0.027233612500178528 0 0.00052954007621181106 0.026516006456542486 0 0.00021446801506429621 0.026815712812055453 0 0.00057598191314074654 0.02684014218927723 0 0.00021446801506429621 0.026815712812055453 0 0.00042849068713589399 0.027099659452656993 0 0.00057598191314074654 0.02684014218927723 0 0.00052954007621181106 0.026516006456542486 0 0.00057598191314074654 0.02684014218927723 0 0.00089148611069692074 0.026890447060362022 0 0.00042849068713589399 0.027099659452656993 0 0.00081863276809920839 0.026922427471164943 0 0.00085826978553341148 0.027170042772620362 0 0.00042849068713589399 0.027099659452656993 0 0.00057598191314074654 0.02684014218927723 0 0.00081863276809920839 0.026922427471164943 0 0.00057598191314074654 0.02684014218927723 0 0.00089148611069692074 0.026890447060362022 0 0.00081863276809920839 0.026922427471164943 0 0.00091543167012301337 0.031212711296963416 0 0.00030237028195986208 0.03063691143845047 0 0.0015124082302324588 0.027442534731239074 0 0.00098012106262348802 0.026834824966413092 0 0.00085826978553341148 0.027170042772620362 0 0.00098012106262348802 0.026834824966413092 0 0.00081863276809920839 0.026922427471164943 0 0.00085826978553341148 0.027170042772620362 0 0.00030237028195986208 0.03063691143845047 0 0.00087813982698265532 0.029942032140366257 0 0.0015124082302324588 0.027442534731239074 0 0.00065346328955921251 0.027575286896936498 0 0.00085826978553341148 0.027170042772620362 0 0.0015124082302324588 0.027442534731239074 0 0.00065346328955921251 0.027575286896936498 0 0.0012152697151816274 0.028567822263710987 0 0.00042849068713589399 0.027099659452656993 0 0.00065346328955921251 0.027575286896936498 0 0.00085826978553341148 0.027170042772620362 0 0.00065346328955921251 0.027575286896936498 0 1.4538377060436338e-05 0.027233612500178528 0 0.00014568933231521648 0.027979460194205621 0 0.00042849068713589399 0.027099659452656993 0 0.00065346328955921251 0.027575286896936498 0 1.4538377060436338e-05 0.027233612500178528 0 1.4538377060436338e-05 0.027233612500178528 0 0.00014568933231521648 0.027979460194205621 0 -6.4531189512476779e-05 0.027652293068064604 0 0.00014568933231521648 0.027979460194205621 0 1.7634542196942263e-06 0.029320942102935132 0 -6.4531189512476779e-05 0.027652293068064604 0 0.00014568933231521648 0.027979460194205621 0 1.7634542196942263e-06 0.029320942102935132 0 0.0012152697151816274 0.028567822263710987 0 3.3017993387488882e-07 0.029324543975155846 0 -3.2634364358444392e-07 0.030622127279549542 0 1.594862918600888e-05 0.030581765281077474 0 0.00065346328955921251 0.027575286896936498 0 0.00014568933231521648 0.027979460194205621 0 0.0012152697151816274 0.028567822263710987 0 -1.3099580570118544e-07 0.029324545057957979 0 0.00065824237478371271 0.029560203222325991 0 -9.1144647280893784e-07 0.027223287507952981 0 -0.00011385392326839916 0.026825675463235783 0 -2.7107930532035235e-05 0.025806715585488575 0 1.7634542196942263e-06 0.029320942102935132 0 -9.1144647280893784e-07 0.027223287507952981 0 -6.4531189512476779e-05 0.027652293068064604 0 -9.1144647280893784e-07 0.027223287507952981 0 -6.4531189512476779e-05 0.027652293068064604 0 -0.00011385392326839916 0.026825675463235783 0 1.4538377060436338e-05 0.027233612500178528 0 -0.00011385392326839916 0.026825675463235783 0 -0.0001630128163227231 0.026909047967612242 0 1.4538377060436338e-05 0.027233612500178528 0 -6.4531189512476779e-05 0.027652293068064604 0 -0.00011385392326839916 0.026825675463235783 0 -0.00011385392326839916 0.026825675463235783 0 -0.0001630128163227231 0.026909047967612242 0 -2.7107930532035235e-05 0.025806715585488575 0 -5.6355070943470809e-05 0.026131753268468352 0 -1.340189523859692e-05 0.025864487749630276 0 0.00015745174776331318 0.025345973019229102 0 8.895580360247267e-05 0.025309703988409257 0 -4.7606021074928001e-05 0.0253149870175375 0 0.00021446801506429621 0.026815712812055453 0 1.4538377060436338e-05 0.027233612500178528 0 -0.0001630128163227231 0.026909047967612242 0 -5.6355070943470809e-05 0.026131753268468352 0 0.0002194368555713635 0.025837970477163321 0 0.00021446801506429621 0.026815712812055453 0 -0.0001630128163227231 0.026909047967612242 0 0.00010055724537650089 0.026424705375307556 0 0.00015745174776331318 0.025345973019229102 0 1.2465250565163036e-05 0.025385425311375501 0 0.00010432761664715212 0.025368364367275357 0 0.00015745174776331318 0.025345973019229102 0 0.00010432761664715212 0.025368364367275357 0 8.895580360247267e-05 0.025309703988409257 0 0.00010432761664715212 0.025368364367275357 0 0.00011475145029763251 0.025491544046798605 0 8.895580360247267e-05 0.025309703988409257 0 9.1192395679006165e-05 0.025311995163651377 0 9.5469836243344716e-05 0.025301189127440414 0 8.895580360247267e-05 0.025309703988409257 0 0.00016676216194469812 0.024920752959395078 0 1.9388896881038585e-05 0.025477199893651745 0 9.4844391192825992e-05 0.025327721007704831 0 9.1192395679006165e-05 0.025311995163651377 0 9.5469836243344716e-05 0.025301189127440414 0 9.4844391192825992e-05 0.025327721007704831 0 9.1694158388526314e-05 0.025303956957010671 0 9.5469836243344716e-05 0.025301189127440414 0 9.4844391192825992e-05 0.025327721007704831 0 7.9592227178080932e-05 0.025310264616927456 0 9.1694158388526314e-05 0.025303956957010671 0 8.4879353051409002e-05 0.025344648316032028 0 9.1192395679006165e-05 0.025311995163651377 0 5.7780848304402484e-05 0.025365704989913144 0 0.00011475145029763251 0.025491544046798605 0 -6.1804869638133389e-05 0.025595275821513126 0 -0.00013634471619230836 0.025810373583072952 0 9.4844391192825992e-05 0.025327721007704831 0 8.4879353051409002e-05 0.025344648316032028 0 9.1192395679006165e-05 0.025311995163651377 0 0.00016676216194469812 0.024920752959395078 0 0.00057633889083999565 0.028923762852495701 0 8.4879353051409002e-05 0.025344648316032028 0 5.7780848304402484e-05 0.025365704989913144 0 9.089749956070035e-05 0.025382409195930551 0 9.4844391192825992e-05 0.025327721007704831 0 8.4879353051409002e-05 0.025344648316032028 0 9.089749956070035e-05 0.025382409195930551 0 1.2465250565163036e-05 0.025385425311375501 0 0.00010432761664715212 0.025368364367275357 0 0.00011475145029763251 0.025491544046798605 0 1.2465250565163036e-05 0.025385425311375501 0 0.00011475145029763251 0.025491544046798605 0 -6.1804869638133389e-05 0.025595275821513126 0 0.00052954007621181106 0.026516006456542486 0 0.00010055724537650089 0.026424705375307556 0 0.00028288681067352515 0.02618002724214688 0 1.2465250565163036e-05 0.025385425311375501 0 -0.00012509504460869343 0.025547362205828018 0 -6.1804869638133389e-05 0.025595275821513126 0 0.00011084979944125359 0.028673692796184324 0 0.00025215642950287827 0.027848092906131272 0 0.0002194368555713635 0.025837970477163321 0 0.00025215642950287827 0.027848092906131272 0 0.00025215642950287827 0.027848092906131272 0 0.00020297570623745105 0.030359817899804038 0 -0.00012509504460869343 0.025547362205828018 0 -6.1804869638133389e-05 0.025595275821513126 0 -0.00024020193258785853 0.025739039540216897 0 -0.00017703915420331904 0.031085495558982327 0 -0.00043334383514551339 0.030650404151757338 0 0.00014863144598983627 0.030708116342366969 0 -0.00043334383514551339 0.030650404151757338 0 0.00014863144598983627 0.030708116342366969 0 -0.00024185306154923049 0.030388698517846143 0 0.00023449470421045668 0.032195902639453697 0 0.00020297570623745105 0.030359817899804038 0 0.00060511730291927101 0.030160455898006068 0 0.0013631935300027138 0.030736352443671941 0 -0.0012255263328202297 0.032775001945400339 0 0.00010795725970479681 0.033949360179887145 0 0.00053814856544884162 0.033762484045403121 0 0.00021216488518417361 0.034234269040542893 0 0.00010795725970479681 0.033949360179887145 0 0.00020349940382669449 0.033518744706591247 0 0.00053814856544884162 0.033762484045403121 0 -6.1804869638133389e-05 0.025595275821513126 0 -0.00024020193258785853 0.025739039540216897 0 -0.00013634471619230836 0.025810373583072952 0 0.00020297570623745105 0.030359817899804038 0 0.00057633889083999565 0.028923762852495701 0 0.0012146095187056739 0.032946131439578287 0 0.0010002038351637629 0.033781595154164817 0 0.0020926048000341354 0.033607316110433334 0 0.0010002038351637629 0.033781595154164817 0 0.00020569371496130477 0.033834118810336045 0 0.00045867827277599229 0.034225352510275357 0 0.00057633889083999565 0.028923762852495701 0 -0.00027750572736649477 0.034078672099647454 0 0.0012146095187056739 0.032946131439578287 0 0.0010002038351637629 0.033781595154164817 0 0.00020569371496130477 0.033834118810336045 0 0.00020297570623745105 0.030359817899804038 0 -0.00027750572736649477 0.034078672099647454 0 -2.8260402970299033e-05 0.034478012466244774 0 3.3613253193441578e-07 0.034523189290128008 0 -6.3826931686624519e-05 0.034577422442316701 0 -2.8260402970299033e-05 0.034478012466244774 0 0.00045867827277599229 0.034225352510275357 0 0.0012143035998236312 0.034725253022917964 0 0.00028007786948340839 0.035187788276664946 0 0.00020429107973896413 0.031981442542053387 0 -4.4063197514249539e-05 0.034354471668687589 0 0.00020569371496130477 0.033834118810336045 0 0.00045867827277599229 0.034225352510275357 0 -2.8260402970299033e-05 0.034478012466244774 0 -4.4063197514249539e-05 0.034354471668687589 0 0.00045867827277599229 0.034225352510275357 0 0.0010002038351637629 0.033781595154164817 0 0.0012143035998236312 0.034725253022917964 0 0.0020926048000341354 0.033607316110433334 0 0.0010002038351637629 0.033781595154164817 0 0.00045867827277599229 0.034225352510275357 0 0.0012143035998236312 0.034725253022917964 0 0.00077088334501796915 0.025742471823594383 0 0.00047296172004211289 0.025788046074948834 0 0.00035828225571533581 0.02554900921805622 0 0.00077088334501796915 0.025742471823594383 0 0.00047296172004211289 0.025788046074948834 0 0.00050282972487490348 0.02603486818335814 0 0.00020429107973896413 0.031981442542053387 0 0.0008487349243303156 0.028015372616924841 0 0.00047296172004211289 0.025788046074948834 0 0.00024846054927265404 0.025778850678883049 0 0.00050282972487490348 0.02603486818335814 0 0.00047296172004211289 0.025788046074948834 0 0.00024846054927265404 0.025778850678883049 0 0.00035828225571533581 0.02554900921805622 0 5.7479690629751233e-05 0.025311593324897769 0 7.9592227178080932e-05 0.025310264616927456 0 0.0001000899543316022 0.025323769857369994 0 9.4844391192825992e-05 0.025327721007704831 0 7.9592227178080932e-05 0.025310264616927456 0 0.0001000899543316022 0.025323769857369994 0 -8.1532259211155122e-05 0.025217604154182602 0 0.0008487349243303156 0.028015372616924841 0 0.00053716465465243862 0.025090638639490872 0 0.0008487349243303156 0.028015372616924841 0 0.00057633889083999565 0.028923762852495701 0 0.0008487349243303156 0.028015372616924841 0 0.00011827909835573767 0.025247969039490559 0 0.00010358914183571245 0.02526833567754936 0 9.63794880625189e-05 0.025288829374388477 0 0.00011827909835573767 0.025247969039490559 0 9.63794880625189e-05 0.025288829374388477 0 0.00011120122195510608 0.025274901579888841 0 0.00011827909835573767 0.025247969039490559 0 0.00012481246129161379 0.025240270888169436 0 0.00010358914183571245 0.02526833567754936 0 0.00011827909835573767 0.025247969039490559 0 0.00012481246129161379 0.025240270888169436 0 0.00013454423955326053 0.025215770080170192 0 0.00010358914183571245 0.02526833567754936 0 7.9263889130390993e-05 0.025298570835664422 0 9.2996295826298315e-05 0.025288740904077806 0 7.9592227178080932e-05 0.025310264616927456 0 7.9263889130390993e-05 0.025298570835664422 0 9.2996295826298315e-05 0.025288740904077806 0 5.7479690629751233e-05 0.025311593324897769 0 7.9592227178080932e-05 0.025310264616927456 0 7.9263889130390993e-05 0.025298570835664422 0 0.00010358914183571245 0.02526833567754936 0 7.9263889130390993e-05 0.025298570835664422 0 9.63794880625189e-05 0.025288829374388477 0 0.00024846054927265404 0.025778850678883049 0 7.0628243643912664e-05 0.025434664730392503 0 0.00017592749275312637 0.025523903877656035 0 5.7479690629751233e-05 0.025311593324897769 0 7.824144743312603e-05 0.025327723494202967 0 7.0628243643912664e-05 0.025434664730392503 0 -8.1532259211155122e-05 0.025217604154182602 0 0.00019853386825869916 0.025565586417991691 0 7.9263889130390993e-05 0.025298570835664422 0 7.824144743312603e-05 0.025327723494202967 0 9.63794880625189e-05 0.025288829374388477 0 5.7479690629751233e-05 0.025311593324897769 0 7.9263889130390993e-05 0.025298570835664422 0 7.824144743312603e-05 0.025327723494202967 0 7.824144743312603e-05 0.025327723494202967 0 9.3611387832946201e-05 0.025334436594980286 0 7.0628243643912664e-05 0.025434664730392503 0 7.824144743312603e-05 0.025327723494202967 0 9.3611387832946201e-05 0.025334436594980286 0 9.63794880625189e-05 0.025288829374388477 0 9.3611387832946201e-05 0.025334436594980286 0 9.63794880625189e-05 0.025288829374388477 0 0.00011120122195510608 0.025274901579888841 0 9.3611387832946201e-05 0.025334436594980286 0 0.00011520327859383817 0.025299428637635582 0 8.0170067281685797e-05 0.025383846005200533 0 9.3611387832946201e-05 0.025334436594980286 0 0.00011120122195510608 0.025274901579888841 0 0.00011520327859383817 0.025299428637635582 0 0.00011520327859383817 0.025299428637635582 0 0.00014504327694726016 0.025240140068077361 0 0.00014530218509846551 0.025326433059727958 0 0.00014504327694726016 0.025240140068077361 0 0.00016007938740827377 0.025123503771053827 0 0.00013389994726506618 0.025214765722349413 0 0.00011520327859383817 0.025299428637635582 0 0.00014504327694726016 0.025240140068077361 0 0.00013389994726506618 0.025214765722349413 0 0.00011120122195510608 0.025274901579888841 0 0.00011520327859383817 0.025299428637635582 0 0.00013389994726506618 0.025214765722349413 0 0.00014504327694726016 0.025240140068077361 0 0.00016007938740827377 0.025123503771053827 0 0.00020825678443128537 0.025256574714331619 0 0.00016007938740827377 0.025123503771053827 0 0.00017683665806041913 0.024987756611570509 0 0.00020825678443128537 0.025256574714331619 0 0.00015826521856033857 0.025068324557972092 0 0.00036916286745085737 0.024758255352828287 0 0.00017683665806041913 0.024987756611570509 0 9.4497704648772207e-05 0.024667684002697882 0 0.00033962687426027029 0.024642532217093623 0 0.00014504327694726016 0.025240140068077361 0 0.00020825678443128537 0.025256574714331619 0 0.00014530218509846551 0.025326433059727958 0 0.00016014634052910614 0.025090177987357666 0 0.00013217800507820426 0.02507394006176487 0 0.00017683665806041913 0.024987756611570509 0 0.00016014634052910614 0.025090177987357666 0 0.00016007938740827377 0.025123503771053827 0 0.00017683665806041913 0.024987756611570509 0 0.00016014634052910614 0.025090177987357666 0 0.00016007938740827377 0.025123503771053827 0 0.00015258245666241398 0.025160072905043886 0 0.00016007938740827377 0.025123503771053827 0 0.00015258245666241398 0.025160072905043886 0 0.00014728121208337536 0.025183024671252729 0 0.00016014634052910614 0.025090177987357666 0 0.00015258245666241398 0.025160072905043886 0 0.00014302697510514093 0.025126186690861325 0 0.00014302697510514093 0.025126186690861325 0 0.00011066464148908853 0.025136032827057873 0 0.00013217800507820426 0.02507394006176487 0 0.00016014634052910614 0.025090177987357666 0 0.00014302697510514093 0.025126186690861325 0 0.00013217800507820426 0.02507394006176487 0 0.00013389994726506618 0.025214765722349413 0 0.00014728121208337536 0.025183024671252729 0 0.00013454423955326053 0.025215770080170192 0 0.00011827909835573767 0.025247969039490559 0 0.00011120122195510608 0.025274901579888841 0 0.00013389994726506618 0.025214765722349413 0 0.00011827909835573767 0.025247969039490559 0 0.00013389994726506618 0.025214765722349413 0 0.00013454423955326053 0.025215770080170192 0 0.00016007938740827377 0.025123503771053827 0 0.00013389994726506618 0.025214765722349413 0 0.00014728121208337536 0.025183024671252729 0 0.00014728121208337536 0.025183024671252729 0 0.00013454423955326053 0.025215770080170192 0 0.00014202796222017561 0.025210685347532912 0 0.00015258245666241398 0.025160072905043886 0 0.00014728121208337536 0.025183024671252729 0 0.00014202796222017561 0.025210685347532912 0 0.00012481246129161379 0.025240270888169436 0 0.00013454423955326053 0.025215770080170192 0 0.00014202796222017561 0.025210685347532912 0 0.00012481246129161379 0.025240270888169436 0 0.00014202796222017561 0.025210685347532912 0 0.00012965740753503597 0.025253209442809142 0 0.00014202796222017561 0.025210685347532912 0 0.00013900071775162654 0.025234694585327698 0 0.00014328976563081672 0.025202278609138384 0 0.00015258245666241398 0.025160072905043886 0 0.00014202796222017561 0.025210685347532912 0 0.00014328976563081672 0.025202278609138384 0 0.00014202796222017561 0.025210685347532912 0 0.00013900071775162654 0.025234694585327698 0 0.00012965740753503597 0.025253209442809142 0 0.00013645675779972068 0.025178487552180724 0 8.7043860275234553e-05 0.025207360225071133 0 0.00011066464148908853 0.025136032827057873 0 0.00014302697510514093 0.025126186690861325 0 0.00013645675779972068 0.025178487552180724 0 0.00011066464148908853 0.025136032827057873 0 0.00015258245666241398 0.025160072905043886 0 0.00013645675779972068 0.025178487552180724 0 0.00014328976563081672 0.025202278609138384 0 0.00015258245666241398 0.025160072905043886 0 0.00014302697510514093 0.025126186690861325 0 0.00013645675779972068 0.025178487552180724 0 0.00013900071775162654 0.025234694585327698 0 0.00014328976563081672 0.025202278609138384 0 0.00012981574438034973 0.025239652240266967 0 0.00013645675779972068 0.025178487552180724 0 0.00014328976563081672 0.025202278609138384 0 0.00012981574438034973 0.025239652240266967 0 0.00013645675779972068 0.025178487552180724 0 0.00012981574438034973 0.025239652240266967 0 8.7043860275234553e-05 0.025207360225071133 0 9.3975614449283277e-05 0.023050906868451217 0 0.00029299030590140189 0.023074964102006185 0 0.00025343960847626368 0.023316443021392855 0 0.00012981574438034973 0.025239652240266967 0 0.00013800418396580513 0.025271469088927769 0 8.7043860275234553e-05 0.025207360225071133 0 0.00011928500896337602 0.024088428631153107 0 8.4046078067342617e-05 0.024623761011988547 0 0.00013900071775162654 0.025234694585327698 0 0.00012981574438034973 0.025239652240266967 0 0.00013707561501540526 0.02528287306628052 0 0.00013900071775162654 0.025234694585327698 0 0.00013707561501540526 0.02528287306628052 0 0.00012965740753503597 0.025253209442809142 0 0.00012981574438034973 0.025239652240266967 0 0.00013707561501540526 0.02528287306628052 0 0.00013800418396580513 0.025271469088927769 0 0.00013707561501540526 0.02528287306628052 0 0.0001044883846229972 0.025286838145477993 0 8.300735928293687e-05 0.025311601672474641 0 0.00013707561501540526 0.02528287306628052 0 0.0001044883846229972 0.025286838145477993 0 0.00012965740753503597 0.025253209442809142 0 0.0001044883846229972 0.025286838145477993 0 0.00012965740753503597 0.025253209442809142 0 0.00011022251776491183 0.025268198469978111 0 0.00012481246129161379 0.025240270888169436 0 0.00010358914183571245 0.02526833567754936 0 0.00011022251776491183 0.025268198469978111 0 0.00012481246129161379 0.025240270888169436 0 0.00012965740753503597 0.025253209442809142 0 0.00011022251776491183 0.025268198469978111 0 9.1694158388526314e-05 0.025303956957010671 0 9.2996295826298315e-05 0.025288740904077806 0 9.9846718033865973e-05 0.025288562539428239 0 7.9592227178080932e-05 0.025310264616927456 0 9.1694158388526314e-05 0.025303956957010671 0 9.2996295826298315e-05 0.025288740904077806 0 0.00011022251776491183 0.025268198469978111 0 9.2996295826298315e-05 0.025288740904077806 0 9.9846718033865973e-05 0.025288562539428239 0 0.00010358914183571245 0.02526833567754936 0 0.00011022251776491183 0.025268198469978111 0 9.2996295826298315e-05 0.025288740904077806 0 0.0001044883846229972 0.025286838145477993 0 0.00011022251776491183 0.025268198469978111 0 9.9846718033865973e-05 0.025288562539428239 0 9.1694158388526314e-05 0.025303956957010671 0 9.9846718033865973e-05 0.025288562539428239 0 9.5469836243344716e-05 0.025301189127440414 0 0.0001044883846229972 0.025286838145477993 0 9.9846718033865973e-05 0.025288562539428239 0 9.5469836243344716e-05 0.025301189127440414 0 0.0001044883846229972 0.025286838145477993 0 9.5469836243344716e-05 0.025301189127440414 0 8.895580360247267e-05 0.025309703988409257 0 8.895580360247267e-05 0.025309703988409257 0 8.300735928293687e-05 0.025311601672474641 0 -4.7606021074928001e-05 0.0253149870175375 0 0.0001044883846229972 0.025286838145477993 0 8.895580360247267e-05 0.025309703988409257 0 8.300735928293687e-05 0.025311601672474641 0 0.00013707561501540526 0.02528287306628052 0 8.300735928293687e-05 0.025311601672474641 0 0.00022217414421594738 0.025257656970639968 0 8.300735928293687e-05 0.025311601672474641 0 -4.7606021074928001e-05 0.0253149870175375 0 0.00022217414421594738 0.025257656970639968 0 -4.7606021074928001e-05 0.0253149870175375 0 -2.7107930532035235e-05 0.025806715585488575 0 7.5634356094016159e-05 0.024643752130725439 0 0.00015745174776331318 0.025345973019229102 0 -4.7606021074928001e-05 0.0253149870175375 0 -2.7107930532035235e-05 0.025806715585488575 0 7.7123212960164138e-05 0.024523480381019529 0 5.5726632335424448e-05 0.024076394209691054 0 -4.7606021074928001e-05 0.0253149870175375 0 7.5634356094016159e-05 0.024643752130725439 0 0.00022217414421594738 0.025257656970639968 0 7.5634356094016159e-05 0.024643752130725439 0 5.5414426153006494e-06 0.023574215571573947 0 -4.5658542063180308e-05 0.022828501247711942 0 2.8486496150173035e-07 0.025122064286243341 0 7.5634356094016159e-05 0.024643752130725439 0 5.5414426153006494e-06 0.023574215571573947 0 -9.1144647280893784e-07 0.027223287507952981 0 -2.7107930532035235e-05 0.025806715585488575 0 2.8486496150173035e-07 0.025122064286243341 0 -2.7107930532035235e-05 0.025806715585488575 0 2.8486496150173035e-07 0.025122064286243341 0 7.5634356094016159e-05 0.024643752130725439 0 2.9139950160304561e-08 0.023021303619246199 0 2.8037353408045053e-05 0.022464322863910799 0 -0.00010376046499569625 0.021226056492332359 0 2.8486496150173035e-07 0.025122064286243341 0 5.5414426153006494e-06 0.023574215571573947 0 2.9139950160304561e-08 0.023021303619246199 0 5.5414426153006494e-06 0.023574215571573947 0 2.9139950160304561e-08 0.023021303619246199 0 2.8037353408045053e-05 0.022464322863910799 0 5.5414426153006494e-06 0.023574215571573947 0 2.8037353408045053e-05 0.022464322863910799 0 -4.5658542063180308e-05 0.022828501247711942 0 3.3600386853608585e-05 0.022249120839847394 0 6.4510205572306225e-05 0.021725854917894038 0 2.8037353408045053e-05 0.022464322863910799 0 -4.5658542063180308e-05 0.022828501247711942 0 0.00026856543570393773 0.022761141887744828 0 -4.5658542063180308e-05 0.022828501247711942 0 9.3975614449283277e-05 0.023050906868451217 0 0.00026856543570393773 0.022761141887744828 0 5.5726632335424448e-05 0.024076394209691054 0 0.00011928500896337602 0.024088428631153107 0 0.00013707561501540526 0.02528287306628052 0 0.00022217414421594738 0.025257656970639968 0 0.00013800418396580513 0.025271469088927769 0 9.3975614449283277e-05 0.023050906868451217 0 0.00026856543570393773 0.022761141887744828 0 0.00029299030590140189 0.023074964102006185 0 0.00044264671730727395 0.022950182331630566 0 0.00026856543570393773 0.022761141887744828 0 0.00029299030590140189 0.023074964102006185 0 3.6331968006136309e-05 0.021297095018103684 0 -0.00024054056467774358 0.023500489040113398 0 -0.00028562913020479635 0.020085389969164914 0 -0.00031377783602578598 0.020124639703827215 0 -0.00017562145560834835 0.019942307819886221 0 -0.00028562913020479635 0.020085389969164914 0 -0.00031377783602578598 0.020124639703827215 0 -4.7857586268862951e-05 0.020537244726124792 0 3.6331968006136309e-05 0.021297095018103684 0 6.4510205572306225e-05 0.021725854917894038 0 2.8037353408045053e-05 0.022464322863910799 0 -4.7857586268862951e-05 0.020537244726124792 0 -0.00010376046499569625 0.021226056492332359 0 -0.00031377783602578598 0.020124639703827215 0 -4.7857586268862951e-05 0.020537244726124792 0 -0.00010376046499569625 0.021226056492332359 0 -0.00031377783602578598 0.020124639703827215 0 -0.00010376046499569625 0.021226056492332359 0 -0.00017384132534560031 0.020006865671089925 0 -0.00010376046499569625 0.021226056492332359 0 -0.00017384132534560031 0.020006865671089925 0 -4.166159295130733e-07 0.020920455151213234 0 -0.00017384132534560031 0.020006865671089925 0 -4.166159295130733e-07 0.020920455151213234 0 -1.5738719928398721e-07 0.018819911044320254 0 2.9139950160304561e-08 0.023021303619246199 0 -0.00010376046499569625 0.021226056492332359 0 -4.166159295130733e-07 0.020920455151213234 0 -6.8751459646227038e-05 0.017891004487434786 0 -7.6086613416684512e-07 0.016718788006281876 0 -1.5738719928398721e-07 0.018819911044320254 0 -6.8751459646227038e-05 0.017891004487434786 0 -1.5738719928398721e-07 0.018819911044320254 0 -7.0448402446827451e-05 0.019077703696993027 0 -0.00017384132534560031 0.020006865671089925 0 -1.5738719928398721e-07 0.018819911044320254 0 -7.0448402446827451e-05 0.019077703696993027 0 -0.00031377783602578598 0.020124639703827215 0 -0.00017384132534560031 0.020006865671089925 0 -7.0448402446827451e-05 0.019077703696993027 0 0.00033458201784965512 0.018840481838236767 0 -0.00019643156660049041 0.018824443971661432 0 0.00064159188269757644 0.019334875574944826 0 -7.0448402446827451e-05 0.019077703696993027 0 0.00029382721660237425 0.019660562865764508 0 -7.0448402446827451e-05 0.019077703696993027 0 0.00029382721660237425 0.019660562865764508 0 -0.00017562145560834835 0.019942307819886221 0 -0.00031377783602578598 0.020124639703827215 0 -7.0448402446827451e-05 0.019077703696993027 0 -0.00017562145560834835 0.019942307819886221 0 -0.00028562913020479635 0.020085389969164914 0 -0.00017562145560834835 0.019942307819886221 0 -0.00017804923109754868 0.0202627924937645 0 -0.00017562145560834835 0.019942307819886221 0 -1.6483427481025267e-05 0.020212914460077027 0 -0.00017804923109754868 0.0202627924937645 0 0.00029382721660237425 0.019660562865764508 0 -0.00017562145560834835 0.019942307819886221 0 0.00025450756905108458 0.020102344415010853 0 -0.00017562145560834835 0.019942307819886221 0 0.00025450756905108458 0.020102344415010853 0 -1.6483427481025267e-05 0.020212914460077027 0 0.00051667306430478973 0.020034282237546237 0 -1.8291614729277574e-05 0.021516905716861781 0 0.00068488140684143189 0.020023419746311572 0 0.00054250298505577614 0.019846858203948416 0 0.00039479213269173437 0.019926060427136294 0 -0.00046972954026367966 0.025373716394698508 0 -0.00065451795025144651 0.025127367489633821 0 -0.00046274015405800692 0.02513106235224246 0 -0.00089548534320386269 0.025233852875625965 0 -0.00046972954026367966 0.025373716394698508 0 -0.00065451795025144651 0.025127367489633821 0 5.0633847750965484e-05 0.023307187635249634 0 -1.8291614729277574e-05 0.021516905716861781 0 -0.00065451795025144651 0.025127367489633821 0 -0.00046274015405800692 0.02513106235224246 0 -0.00058162066320432255 0.024913218787161111 0 -0.00046274015405800692 0.02513106235224246 0 -0.00058162066320432255 0.024913218787161111 0 -0.00035504004565408326 0.024929954140554926 0 -0.00080988082594938605 0.024956490861805142 0 -0.00065451795025144651 0.025127367489633821 0 -0.00058162066320432255 0.024913218787161111 0 -0.00028872296910378202 0.025123179656856825 0 -0.00019969124473517204 0.02502414143366994 0 -0.00035504004565408326 0.024929954140554926 0 -0.00046274015405800692 0.02513106235224246 0 -0.00028872296910378202 0.025123179656856825 0 -0.00035504004565408326 0.024929954140554926 0 -0.00028872296910378202 0.025123179656856825 0 -0.00029988505718451462 0.025275861746589207 0 -8.0033326764191834e-05 0.025174237483225718 0 -0.00046972954026367966 0.025373716394698508 0 -0.00046274015405800692 0.02513106235224246 0 -0.00029165141199410331 0.02528557792648025 0 -0.00010457334108939213 0.02531470845452161 0 -0.00024054056467774358 0.023500489040113398 0 -0.00046274015405800692 0.02513106235224246 0 -0.00028872296910378202 0.025123179656856825 0 -0.00029988505718451462 0.025275861746589207 0 -1.8291614729277574e-05 0.021516905716861781 0 -0.00024054056467774358 0.023500489040113398 0 -0.00024054056467774358 0.023500489040113398 0 0.00022720686494826173 0.024185019790949971 0 0.00044264671730727395 0.022950182331630566 0 0.00061436795697785709 0.023137021316285318 0 0.00043643627102097103 0.023224976655028051 0 0.00044264671730727395 0.022950182331630566 0 0.00043643627102097103 0.023224976655028051 0 0.00029299030590140189 0.023074964102006185 0 0.00043643627102097103 0.023224976655028051 0 0.00029299030590140189 0.023074964102006185 0 0.00025343960847626368 0.023316443021392855 0 -8.0033326764191834e-05 0.025174237483225718 0 6.3156396264964394e-05 0.025092353077455394 0 -4.0866867287360301e-05 0.025060205764208157 0 0.00022720686494826173 0.024185019790949971 0 8.4046078067342617e-05 0.024623761011988547 0 8.4046078067342617e-05 0.024623761011988547 0 7.4611918681336442e-05 0.025147900633969197 0 6.3156396264964394e-05 0.025092353077455394 0 -4.0866867287360301e-05 0.025060205764208157 0 -9.3218282334556797e-06 0.024997066627529888 0 8.7043860275234553e-05 0.025207360225071133 0 0.00011066464148908853 0.025136032827057873 0 -9.3218282334556797e-06 0.024997066627529888 0 -0.00028872296910378202 0.025123179656856825 0 -8.0033326764191834e-05 0.025174237483225718 0 -0.00019969124473517204 0.02502414143366994 0 -8.0033326764191834e-05 0.025174237483225718 0 -4.0866867287360301e-05 0.025060205764208157 0 -0.00019969124473517204 0.02502414143366994 0 -4.0866867287360301e-05 0.025060205764208157 0 -0.00019969124473517204 0.02502414143366994 0 -0.00017239251172189733 0.024890066484203711 0 -0.00017239251172189733 0.024890066484203711 0 -9.3218282334556797e-06 0.024997066627529888 0 -0.00011856768439554525 0.024677240599007128 0 -4.0866867287360301e-05 0.025060205764208157 0 -0.00017239251172189733 0.024890066484203711 0 -9.3218282334556797e-06 0.024997066627529888 0 -9.3218282334556797e-06 0.024997066627529888 0 0.00017683665806041913 0.024987756611570509 0 -0.00011856768439554525 0.024677240599007128 0 0.00011066464148908853 0.025136032827057873 0 0.00013217800507820426 0.02507394006176487 0 -9.3218282334556797e-06 0.024997066627529888 0 0.00013217800507820426 0.02507394006176487 0 -9.3218282334556797e-06 0.024997066627529888 0 0.00017683665806041913 0.024987756611570509 0 0.00017683665806041913 0.024987756611570509 0 9.4497704648772207e-05 0.024667684002697882 0 -0.00011856768439554525 0.024677240599007128 0 -0.00017239251172189733 0.024890066484203711 0 -0.00011856768439554525 0.024677240599007128 0 -0.00034262140320298818 0.024687234028133002 0 -0.00011856768439554525 0.024677240599007128 0 -0.00034262140320298818 0.024687234028133002 0 -0.00038463011145382952 0.024445672392178128 0 -0.00034262140320298818 0.024687234028133002 0 -0.00038463011145382952 0.024445672392178128 0 -0.00052938044068968882 0.024524937053826995 0 -0.00057292069752100437 0.024349019814173655 0 -0.00052938044068968882 0.024524937053826995 0 -0.00048042542421133146 0.024377495373144733 0 -0.00038463011145382952 0.024445672392178128 0 -0.00052938044068968882 0.024524937053826995 0 -0.00048042542421133146 0.024377495373144733 0 -0.0007013727581916371 0.024408613695235257 0 -0.00057292069752100437 0.024349019814173655 0 -0.00052938044068968882 0.024524937053826995 0 -0.0007013727581916371 0.024408613695235257 0 -0.00064680872296339772 0.024204201592398514 0 -0.00057292069752100437 0.024349019814173655 0 -0.0007013727581916371 0.024408613695235257 0 -0.00078635333752938102 0.024677142531419036 0 -0.00052938044068968882 0.024524937053826995 0 -0.00034262140320298818 0.024687234028133002 0 -0.00052938044068968882 0.024524937053826995 0 -0.00050366653097501195 0.024739807144290363 0 -0.00078635333752938102 0.024677142531419036 0 -0.00058162066320432255 0.024913218787161111 0 -0.00050366653097501195 0.024739807144290363 0 -0.00078635333752938102 0.024677142531419036 0 -0.00052938044068968882 0.024524937053826995 0 -0.00050366653097501195 0.024739807144290363 0 -0.00058162066320432255 0.024913218787161111 0 -0.00050366653097501195 0.024739807144290363 0 -0.00035504004565408326 0.024929954140554926 0 -0.00017239251172189733 0.024890066484203711 0 -0.00034262140320298818 0.024687234028133002 0 -0.00035504004565408326 0.024929954140554926 0 -0.00034262140320298818 0.024687234028133002 0 -0.00050366653097501195 0.024739807144290363 0 -0.00035504004565408326 0.024929954140554926 0 -0.00019969124473517204 0.02502414143366994 0 -0.00017239251172189733 0.024890066484203711 0 -0.00035504004565408326 0.024929954140554926 0 -0.0014249139958703275 0.028231609325289182 0 -0.0014000186269509821 0.028207012441832331 0 -0.0014403815344675645 0.02823564140532495 0 -0.0014249139958703275 0.028231609325289182 0 -0.0014000186269509821 0.028207012441832331 0 -0.0014005269838542579 0.02818694895984148 0 -0.0014464972322507813 0.025581053935032506 0 -0.00052491721726047444 0.025159982422394922 0 -0.00034227718698095946 0.023643811868923999 0 -5.9722656540574824e-05 0.023181509508669797 0 4.0447956824068667e-05 0.023946676620197564 0 -0.0005605949898291404 0.024223101014746545 0 -0.0005441355383997477 0.024252457670404511 0 -0.00048042542421133146 0.024377495373144733 0 -0.00064680872296339772 0.024204201592398514 0 -0.00054671930561580424 0.024145877222334997 0 -0.0005441355383997477 0.024252457670404511 0 -0.00052491721726047444 0.025159982422394922 0 -0.00057283355171133636 0.024729342480699159 0 -0.00057292069752100437 0.024349019814173655 0 -0.0005441355383997477 0.024252457670404511 0 -0.00048042542421133146 0.024377495373144733 0 -0.00064680872296339772 0.024204201592398514 0 -0.00057292069752100437 0.024349019814173655 0 -0.0005441355383997477 0.024252457670404511 0 -0.00038463011145382952 0.024445672392178128 0 -0.0005605949898291404 0.024223101014746545 0 -0.00048042542421133146 0.024377495373144733 0 -0.00052491721726047444 0.025159982422394922 0 -0.00094888953271106055 0.026407864364297255 0 -0.0014249139958703275 0.028231609325289182 0 -0.0014005269838542579 0.02818694895984148 0 -0.0014171288896046902 0.028231429189391515 0 -0.00038463011145382952 0.024445672392178128 0 -0.0005605949898291404 0.024223101014746545 0 -0.00027301208735343958 0.024370751331279264 0 -0.00011856768439554525 0.024677240599007128 0 -0.00038463011145382952 0.024445672392178128 0 -0.00027301208735343958 0.024370751331279264 0 -0.00094888953271106055 0.026407864364297255 0 -0.00069055492401949646 0.026363016899785558 0 -0.00011856768439554525 0.024677240599007128 0 -0.00027301208735343958 0.024370751331279264 0 6.255374568642291e-05 0.024425539355345971 0 9.4497704648772207e-05 0.024667684002697882 0 -0.00011856768439554525 0.024677240599007128 0 6.255374568642291e-05 0.024425539355345971 0 9.4497704648772207e-05 0.024667684002697882 0 6.255374568642291e-05 0.024425539355345971 0 0.00033962687426027029 0.024642532217093623 0 -0.0013345774569913323 0.028305030311638196 0 -0.0015295034443810742 0.028250620372529237 0 -0.0013984334632891505 0.028271969031370661 0 -0.0014123571016349693 0.0282800730798329 0 -0.0013631472642759829 0.028248277567965392 0 -0.0014249139958703275 0.028231609325289182 0 -0.0014171288896046902 0.028231429189391515 0 -0.0014123571016349693 0.0282800730798329 0 -0.0014171288896046902 0.028231429189391515 0 -0.0013984334632891505 0.028271969031370661 0 -0.0014123571016349693 0.0282800730798329 0 -0.0014249139958703275 0.028231609325289182 0 -0.0014123571016349693 0.0282800730798329 0 -0.0014385246064069414 0.028248289410923916 0 -0.0014123571016349693 0.0282800730798329 0 -0.0014385246064069414 0.028248289410923916 0 -0.0014334729866048097 0.028255303057659633 0 -0.0014123571016349693 0.0282800730798329 0 -0.0013645857509157482 0.028315712978147722 0 -0.0013396604897556929 0.028370441849781197 0 -0.0014123571016349693 0.0282800730798329 0 -0.0013645857509157482 0.028315712978147722 0 -0.0014334729866048097 0.028255303057659633 0 -0.0013645857509157482 0.028315712978147722 0 -0.0014334729866048097 0.028255303057659633 0 -0.0013680934991641769 0.028274465964354116 0 -0.0014334729866048097 0.028255303057659633 0 -0.0013680934991641769 0.028274465964354116 0 -0.0015033536167503722 0.028133634934254092 0 -0.0014385246064069414 0.028248289410923916 0 -0.0014334729866048097 0.028255303057659633 0 -0.0014801963498130787 0.028176182011452264 0 -0.0017474912522118429 0.02458983156186283 0 -0.0018746094965561779 0.024146702032497393 0 -0.0014418053195011738 0.024082360247647244 0 -0.0014385246064069414 0.028248289410923916 0 -0.0014403815344675645 0.02823564140532495 0 -0.0014801963498130787 0.028176182011452264 0 -0.0017014207514194019 0.026655743527645329 0 -0.0013595721696811934 0.025982095424039738 0 -0.0014249139958703275 0.028231609325289182 0 -0.0014385246064069414 0.028248289410923916 0 -0.0014403815344675645 0.02823564140532495 0 -0.0021625644308257775 0.0244888121899603 0 -0.0020608178192405759 0.025113832107120211 0 -0.0017474912522118429 0.02458983156186283 0 -0.0011742840936922803 0.022641150114837957 0 -0.0014464972322507813 0.025581053935032506 0 -0.0014464972322507813 0.025581053935032506 0 -0.0017014207514194019 0.026655743527645329 0 -0.0021625644308257775 0.0244888121899603 0 -0.0017474912522118429 0.02458983156186283 0 -0.0018746094965561779 0.024146702032497393 0 -0.0021625644308257775 0.0244888121899603 0 -0.0022540124634003594 0.023874737174200907 0 -0.0018746094965561779 0.024146702032497393 0 -0.0022540124634003594 0.023874737174200907 0 -0.0018746094965561779 0.024146702032497393 0 -0.0017917898202561896 0.023717672028428279 0 -0.0018746094965561779 0.024146702032497393 0 -0.0014418053195011738 0.024082360247647244 0 -0.0017917898202561896 0.023717672028428279 0 -0.0014894849740608889 0.023583854547617637 0 -0.0017917898202561896 0.023717672028428279 0 -0.0017077554283191558 0.023301194251850899 0 -0.0014418053195011738 0.024082360247647244 0 -0.0014894849740608889 0.023583854547617637 0 -0.0017917898202561896 0.023717672028428279 0 -0.0022540124634003594 0.023874737174200907 0 -0.0017917898202561896 0.023717672028428279 0 -0.0020130220575982826 0.023444719501048521 0 -0.0017917898202561896 0.023717672028428279 0 -0.0020130220575982826 0.023444719501048521 0 -0.0017077554283191558 0.023301194251850899 0 -0.0020130220575982826 0.023444719501048521 0 -0.0017077554283191558 0.023301194251850899 0 -0.0019756760531228889 0.023071329605246604 0 -0.0023398391288936768 0.023268792019915194 0 -0.0020130220575982826 0.023444719501048521 0 -0.0019756760531228889 0.023071329605246604 0 -0.0014894849740608889 0.023583854547617637 0 -0.0017077554283191558 0.023301194251850899 0 -0.001372624153410778 0.023225185778684525 0 -0.002644117554431424 0.023312531706174748 0 -0.0021018082154152886 0.02499178773698894 0 -0.0039375132531034905 0.020041415347998852 0 -0.0026280205773811884 0.019229743510025182 0 -0.0036326415670482237 0.020483931370873974 0 -0.0017077554283191558 0.023301194251850899 0 -0.0016167114731602075 0.022867545377002044 0 -0.001372624153410778 0.023225185778684525 0 -0.0017077554283191558 0.023301194251850899 0 -0.0016167114731602075 0.022867545377002044 0 -0.0019756760531228889 0.023071329605246604 0 -0.002644117554431424 0.023312531706174748 0 -0.0036273343139631761 0.025076986557223884 0 -0.002644117554431424 0.023312531706174748 0 -0.0033923753490559742 0.021593899949999683 0 -0.002153676735864246 0.018831527745378197 0 -0.0033923753490559742 0.021593899949999683 0 -0.002644117554431424 0.023312531706174748 0 -0.0022529086622892999 0.021077741285456059 0 -0.0021798818008217802 0.019968471623382382 0 -0.0026280205773811884 0.019229743510025182 0 -0.0036326415670482237 0.020483931370873974 0 -0.0016177492145417619 0.019181460508476928 0 -0.0021798818008217802 0.019968471623382382 0 -0.0026280205773811884 0.019229743510025182 0 -0.0018215381900945158 0.025889883819827528 0 -0.0026419424899931441 0.026027624809306725 0 -0.0029855661722788902 0.025289223815110271 0 -0.0035911283192613494 0.025658148009098429 0 -0.0026419424899931441 0.026027624809306725 0 -0.0028744218377460564 0.026684521907096956 0 -0.0035911283192613494 0.025658148009098429 0 -0.0026419424899931441 0.026027624809306725 0 -0.0029855661722788902 0.025289223815110271 0 -0.0026419424899931441 0.026027624809306725 0 -0.0028744218377460564 0.026684521907096956 0 -0.0020305279928299262 0.026650595362313852 0 -0.0018215381900945158 0.025889883819827528 0 -0.0026419424899931441 0.026027624809306725 0 -0.0020305279928299262 0.026650595362313852 0 -0.0014894849740608889 0.023583854547617637 0 -0.001372624153410778 0.023225185778684525 0 -0.0011334258600928589 0.023590511254129573 0 -0.0028744218377460564 0.026684521907096956 0 -0.0019784043469157995 0.027257485577527878 0 -0.0022021300526606433 0.027612023198048927 0 -0.0021018082154152886 0.02499178773698894 0 -0.0016899170816800468 0.026278839365746286 0 -0.0028744218377460564 0.026684521907096956 0 -0.0019784043469157995 0.027257485577527878 0 -0.0020305279928299262 0.026650595362313852 0 -0.0025043289758810783 0.026920028875987323 0 -0.0018015271160555938 0.027533150398544311 0 -0.0019784043469157995 0.027257485577527878 0 -0.0020305279928299262 0.026650595362313852 0 -0.0011300390839204778 0.027382598466535572 0 -0.0018215381900945158 0.025889883819827528 0 -0.0020305279928299262 0.026650595362313852 0 -0.0011300390839204778 0.027382598466535572 0 -0.0015724113398988267 0.027682248479498281 0 -0.0021101629562996212 0.027543344204052623 0 -0.0015033536167503722 0.028133634934254092 0 -0.0016899170816800468 0.026278839365746286 0 -0.0013646065082188203 0.028518173832758554 0 -0.0019784043469157995 0.027257485577527878 0 -0.0015724113398988267 0.027682248479498281 0 -0.0011300390839204778 0.027382598466535572 0 -0.0019784043469157995 0.027257485577527878 0 -0.0015724113398988267 0.027682248479498281 0 -0.0021101629562996212 0.027543344204052623 0 -0.0021041650498761044 0.027142432489658641 0 -0.0016899170816800468 0.026278839365746286 0 -0.0015724113398988267 0.027682248479498281 0 -0.0015033536167503722 0.028133634934254092 0 -0.0012667548254379807 0.028011933754399577 0 -0.0013595721696811934 0.025982095424039738 0 -0.0016899170816800468 0.026278839365746286 0 -0.0014418053195011738 0.024082360247647244 0 -0.0014894849740608889 0.023583854547617637 0 -0.0011334258600928589 0.023590511254129573 0 -0.0014801963498130787 0.028176182011452264 0 -0.00149986129916191 0.028118868142669767 0 -0.0015033536167503722 0.028133634934254092 0 -0.0014334729866048097 0.028255303057659633 0 -0.0014801963498130787 0.028176182011452264 0 -0.0015033536167503722 0.028133634934254092 0 -0.0013680934991641769 0.028274465964354116 0 -0.0015033536167503722 0.028133634934254092 0 -0.0013174042346272184 0.028219998316682496 0 -0.0012092736455758379 0.028251577171006952 0 -0.0012667548254379807 0.028011933754399577 0 -0.0010135328819478862 0.028188467894116536 0 -0.0013174042346272184 0.028219998316682496 0 -0.0012092736455758379 0.028251577171006952 0 -0.0012667548254379807 0.028011933754399577 0 -0.0013174042346272184 0.028219998316682496 0 -0.0012092736455758379 0.028251577171006952 0 -0.0012643251179788068 0.028324538376083189 0 -0.0015033536167503722 0.028133634934254092 0 -0.0013174042346272184 0.028219998316682496 0 -0.0012667548254379807 0.028011933754399577 0 -0.0014451773573055365 0.028533729146237793 0 -0.001309221403502356 0.028573497220611054 0 -0.0012110910687333509 0.028555616799154939 0 -0.0013034902141199241 0.028517793347591677 0 -0.0012000270597751946 0.028419532712928804 0 -0.001352397700540851 0.028745420449175361 0 -0.0013604708939147364 0.028710084305350856 0 -0.0013034902141199241 0.028517793347591677 0 -0.0012092736455758379 0.028251577171006952 0 -0.0010135328819478862 0.028188467894116536 0 -0.0012000270597751946 0.028419532712928804 0 -0.0014451773573055365 0.028533729146237793 0 -0.0012523476291905773 0.028352995562390498 0 -0.001352397700540851 0.028745420449175361 0 -0.0014087150818477825 0.028727246539794537 0 -0.0013604708939147364 0.028710084305350856 0 -0.001352397700540851 0.028745420449175361 0 -0.0016985814085961456 0.028519146293385228 0 -0.0014087150818477825 0.028727246539794537 0 -0.0014451773573055365 0.028533729146237793 0 -0.0017711464986765056 0.028185564982158927 0 -0.0018654443086080022 0.028696482363921628 0 -0.0024270336821057489 0.02791510608562571 0 -0.0018086972998111453 0.027818421491698657 0 -0.0012667548254379807 0.028011933754399577 0 -0.0010135328819478862 0.028188467894116536 0 -0.0011300390839204778 0.027382598466535572 0 -0.0015724113398988267 0.027682248479498281 0 -0.0012667548254379807 0.028011933754399577 0 -0.0011300390839204778 0.027382598466535572 0 -0.0014451773573055365 0.028533729146237793 0 -0.0018015271160555938 0.027533150398544311 0 -0.0024270336821057489 0.02791510608562571 0 -0.0018086972998111453 0.027818421491698657 0 -0.0022730490256637152 0.02733144602548062 0 -0.0017711464986765056 0.028185564982158927 0 -0.0018003388609963886 0.027179264269691614 0 -0.0018086972998111453 0.027818421491698657 0 -0.0022730490256637152 0.02733144602548062 0 -0.0017580568045298167 0.026923113964292648 0 -0.0022730490256637152 0.02733144602548062 0 -0.0023858657616158117 0.026870201188462679 0 -0.0017580568045298167 0.026923113964292648 0 -0.0030061488815339515 0.027133410938503716 0 -0.0022730490256637152 0.02733144602548062 0 -0.0023858657616158117 0.026870201188462679 0 -0.0030061488815339515 0.027133410938503716 0 -0.0024270336821057489 0.02791510608562571 0 -0.0022730490256637152 0.02733144602548062 0 -0.00088821368203942201 0.027917753760768462 0 -0.00042145216491677463 0.027828671211942956 0 -0.00079699305989354343 0.026878326874390384 0 -0.00088821368203942201 0.027917753760768462 0 -0.00062074988974454841 0.028340761942683139 0 -0.00042145216491677463 0.027828671211942956 0 -0.0013171145191044978 0.02836935800191126 0 -0.0012397129397784847 0.027455648938057568 0 -0.0018793615576221815 0.027482910727260248 0 -0.00088821368203942201 0.027917753760768462 0 -0.0013171145191044978 0.02836935800191126 0 -0.0012397129397784847 0.027455648938057568 0 -0.0016985814085961456 0.028519146293385228 0 -0.0013171145191044978 0.02836935800191126 0 -0.0018793615576221815 0.027482910727260248 0 -0.0016985814085961456 0.028519146293385228 0 -0.0013171145191044978 0.02836935800191126 0 -0.0014087150818477825 0.028727246539794537 0 -0.0010452004714324834 0.028479233857111288 0 -0.00095580805008295487 0.028860877966024552 0 -0.0012306909597737284 0.028726502772308295 0 -0.0013171145191044978 0.02836935800191126 0 -0.0010452004714324834 0.028479233857111288 0 -0.0012306909597737284 0.028726502772308295 0 -0.00088821368203942201 0.027917753760768462 0 -0.0013171145191044978 0.02836935800191126 0 -0.0010452004714324834 0.028479233857111288 0 -0.00088821368203942201 0.027917753760768462 0 -0.0010452004714324834 0.028479233857111288 0 -0.00062074988974454841 0.028340761942683139 0 -0.00062074988974454841 0.028340761942683139 0 -0.00095580805008295487 0.028860877966024552 0 -0.00035519674966688456 0.028770770987572306 0 -0.0010452004714324834 0.028479233857111288 0 -0.00062074988974454841 0.028340761942683139 0 -0.00095580805008295487 0.028860877966024552 0 -0.0009878958378350016 0.02886714041839621 0 -0.0020684180784304711 0.030408256645114339 0 -0.00095580805008295487 0.028860877966024552 0 -0.00096040815925893899 0.031323317106699326 0 -0.002573656492591247 0.031919480813068515 0 -0.00095580805008295487 0.028860877966024552 0 -0.0012306909597737284 0.028726502772308295 0 -0.0013805704295570727 0.02875735222931142 0 -0.0013171145191044978 0.02836935800191126 0 -0.0012306909597737284 0.028726502772308295 0 -0.0014087150818477825 0.028727246539794537 0 -0.0012306909597737284 0.028726502772308295 0 -0.0014087150818477825 0.028727246539794537 0 -0.0013805704295570727 0.02875735222931142 0 -0.0013604708939147364 0.028710084305350856 0 -0.0013805704295570727 0.02875735222931142 0 -0.0013034902141199241 0.028517793347591677 0 -0.0014087150818477825 0.028727246539794537 0 -0.0013604708939147364 0.028710084305350856 0 -0.0013805704295570727 0.02875735222931142 0 -0.00096040815925893899 0.031323317106699326 0 -0.002573656492591247 0.031919480813068515 0 -0.0003005216166316535 0.033084062838602372 0 -0.002573656492591247 0.031919480813068515 0 -0.001462488621622466 0.033920119031924802 0 -0.0003005216166316535 0.033084062838602372 0 -0.00055272434507982202 0.033855534432564553 0 -0.00052793645377704384 0.033920597330280633 0 -0.00058002841788867734 0.033892126606800202 0 -0.00055272434507982202 0.033855534432564553 0 -0.00052793645377704384 0.033920597330280633 0 -0.00049398461351520884 0.033886644086146833 0 -0.00052793645377704384 0.033920597330280633 0 -0.00058002841788867734 0.033892126606800202 0 -0.00056535365070964328 0.033940546297347503 0 -0.00052793645377704384 0.033920597330280633 0 -0.00056535365070964328 0.033940546297347503 0 -0.00049999721004084904 0.03399761223276343 0 -0.00058002841788867734 0.033892126606800202 0 -0.00056535365070964328 0.033940546297347503 0 -0.00060451420966050023 0.033913200245783141 0 -0.00058002841788867734 0.033892126606800202 0 -0.00060451420966050023 0.033913200245783141 0 -0.00062735708085559158 0.033857283790641915 0 -0.00060451420966050023 0.033913200245783141 0 -0.00062735708085559158 0.033857283790641915 0 -0.0006493291280148777 0.033896281171704123 0 -0.00055272434507982202 0.033855534432564553 0 -0.00058002841788867734 0.033892126606800202 0 -0.00062735708085559158 0.033857283790641915 0 -0.0013805704295570727 0.02875735222931142 0 -0.0013161531900795955 0.028418898145507333 0 -0.0013034902141199241 0.028517793347591677 0 -0.002573656492591247 0.031919480813068515 0 -0.001462488621622466 0.033920119031924802 0 -0.0038840761388153656 0.034494325990219572 0 -0.0020684180784304711 0.030408256645114339 0 -0.0017370486931279432 0.031132977154034621 0 -0.001220773160312759 0.034112530206362943 0 -0.0017370486931279432 0.031132977154034621 0 -0.0017370486931279432 0.031132977154034621 0 -0.00097651324644303604 0.027733195954169374 0 -0.0013161531900795955 0.028418898145507333 0 -0.0012000270597751946 0.028419532712928804 0 -0.0012791148675735532 0.028349796825819652 0 -0.0013161531900795955 0.028418898145507333 0 -0.0013034902141199241 0.028517793347591677 0 -0.0012000270597751946 0.028419532712928804 0 -0.0012092736455758379 0.028251577171006952 0 -0.0012000270597751946 0.028419532712928804 0 -0.0012643251179788068 0.028324538376083189 0 -0.0012000270597751946 0.028419532712928804 0 -0.0012643251179788068 0.028324538376083189 0 -0.0012791148675735532 0.028349796825819652 0 -0.0013645857509157482 0.028315712978147722 0 -0.0013680934991641769 0.028274465964354116 0 -0.0012791148675735532 0.028349796825819652 0 -0.0013680934991641769 0.028274465964354116 0 -0.0013174042346272184 0.028219998316682496 0 -0.0012643251179788068 0.028324538376083189 0 -0.0013680934991641769 0.028274465964354116 0 -0.0012643251179788068 0.028324538376083189 0 -0.0012791148675735532 0.028349796825819652 0 -0.0013645857509157482 0.028315712978147722 0 -0.0012791148675735532 0.028349796825819652 0 -0.0012937247849341138 0.028365567075661596 0 -0.0013645857509157482 0.028315712978147722 0 -0.0012937247849341138 0.028365567075661596 0 -0.0013396604897556929 0.028370441849781197 0 -0.0012791148675735532 0.028349796825819652 0 -0.0012937247849341138 0.028365567075661596 0 -0.0012927900803795522 0.028376523980911065 0 -0.0013117005026515294 0.028419294245201371 0 -0.0012791148675735532 0.028349796825819652 0 -0.0012927900803795522 0.028376523980911065 0 -0.0017370486931279432 0.031132977154034621 0 -0.0010857852275788084 0.0313269810801802 0 0.00013936773977749013 0.025441187924756612 0 0.00013028215720453916 0.025414910507427193 0 5.1943694768437735e-05 0.025399107610530599 0 -0.0006493291280148777 0.033896281171704123 0 -0.00067300138955865595 0.033922723593318535 0 -0.00058331685350044139 0.034004517930955214 0 -0.0012937247849341138 0.028365567075661596 0 -0.0012927900803795522 0.028376523980911065 0 -0.0012808686009973225 0.028393250506354356 0 -0.0010857852275788084 0.0313269810801802 0 -0.00049342946595593484 0.029464234511501829 0 -0.00049342946595593484 0.029464234511501829 0 -0.00021004701178859076 0.026071065625626822 0 0.00013936773977749013 0.025441187924756612 0 0.00013028215720453916 0.025414910507427193 0 0.00014645141259402923 0.025420290793377147 0 8.3062504089819161e-05 0.025849381853782615 0 -0.00021004701178859076 0.026071065625626822 0 -0.0013984334632891505 0.028271969031370661 0 -0.0013631472642759829 0.028248277567965392 0 -0.0012942619981945462 0.028280028578541068 0 -0.0012937247849341138 0.028365567075661596 0 -0.0012808686009973225 0.028393250506354356 0 -0.0013396604897556929 0.028370441849781197 0 -0.0012791045557133199 0.02825919259771353 0 -0.0013631472642759829 0.028248277567965392 0 -0.0012942619981945462 0.028280028578541068 0 -0.00049342946595593484 0.029464234511501829 0 -0.0015295034443810742 0.028250620372529237 0 6.255374568642291e-05 0.024425539355345971 0 0.00033962687426027029 0.024642532217093623 0 0.0004606912990514127 0.024414201604263941 0 -0.00069055492401949646 0.026363016899785558 0 -0.00021004701178859076 0.026071065625626822 0 0.00036916286745085737 0.024758255352828287 0 -0.00021004701178859076 0.026071065625626822 0 0.00020825678443128537 0.025256574714331619 0 0.00017420014201022539 0.025406654888589373 0 0.00014530218509846551 0.025326433059727958 0 0.00013028215720453916 0.025414910507427193 0 0.0001197157949723873 0.025357292109085029 0 9.1574191483356177e-05 0.025378767839504535 0 0.00013028215720453916 0.025414910507427193 0 0.00017420014201022539 0.025406654888589373 0 0.00014530218509846551 0.025326433059727958 0 0.00013028215720453916 0.025414910507427193 0 0.00014530218509846551 0.025326433059727958 0 0.0001197157949723873 0.025357292109085029 0 0.00011520327859383817 0.025299428637635582 0 0.0001197157949723873 0.025357292109085029 0 9.1574191483356177e-05 0.025378767839504535 0 0.00011520327859383817 0.025299428637635582 0 0.00014530218509846551 0.025326433059727958 0 0.0001197157949723873 0.025357292109085029 0 0.00011520327859383817 0.025299428637635582 0 9.1574191483356177e-05 0.025378767839504535 0 8.0170067281685797e-05 0.025383846005200533 0 0.00013028215720453916 0.025414910507427193 0 9.1574191483356177e-05 0.025378767839504535 0 5.1943694768437735e-05 0.025399107610530599 0 9.1574191483356177e-05 0.025378767839504535 0 5.1943694768437735e-05 0.025399107610530599 0 8.0170067281685797e-05 0.025383846005200533 0 5.1943694768437735e-05 0.025399107610530599 0 8.0170067281685797e-05 0.025383846005200533 0 7.0628243643912664e-05 0.025434664730392503 0 9.3611387832946201e-05 0.025334436594980286 0 8.0170067281685797e-05 0.025383846005200533 0 7.0628243643912664e-05 0.025434664730392503 0 5.1943694768437735e-05 0.025399107610530599 0 7.0628243643912664e-05 0.025434664730392503 0 0.00017592749275312637 0.025523903877656035 0 -0.00018956031589652792 0.029783942548559358 0 -9.073561299314453e-05 0.029533309647190822 0 5.1943694768437735e-05 0.025399107610530599 0 0.00017592749275312637 0.025523903877656035 0 0.00035828225571533581 0.02554900921805622 0 -0.00058331685350044139 0.034004517930955214 0 -0.00049999721004084904 0.03399761223276343 0 -0.00043399298690615908 0.034106916649433376 0 -0.00056535365070964328 0.033940546297347503 0 -0.00058331685350044139 0.034004517930955214 0 -0.00049999721004084904 0.03399761223276343 0 -0.00060451420966050023 0.033913200245783141 0 -0.0006493291280148777 0.033896281171704123 0 -0.00058331685350044139 0.034004517930955214 0 -0.00056535365070964328 0.033940546297347503 0 -0.00060451420966050023 0.033913200245783141 0 -0.00058331685350044139 0.034004517930955214 0 -0.00049342946595593484 0.029464234511501829 0 -0.00018956031589652792 0.029783942548559358 0 -0.00040681289475998263 0.034039678612007324 0 -0.00030622871656687108 0.034109761381374795 0 -0.00033387015586405506 0.034005861788571082 0 -0.00040681289475998263 0.034039678612007324 0 -0.00043399298690615908 0.034106916649433376 0 -0.00030622871656687108 0.034109761381374795 0 -0.00040681289475998263 0.034039678612007324 0 -0.00049999721004084904 0.03399761223276343 0 -0.00045606942154281782 0.0339589216495291 0 -0.00040681289475998263 0.034039678612007324 0 -0.00049999721004084904 0.03399761223276343 0 -0.00043399298690615908 0.034106916649433376 0 0.00024846054927265404 0.025778850678883049 0 0.00017592749275312637 0.025523903877656035 0 0.00035828225571533581 0.02554900921805622 0 -0.00029119267042567598 0.03416481247000748 0 -0.00043399298690615908 0.034106916649433376 0 -0.00030622871656687108 0.034109761381374795 0 0.00020429107973896413 0.031981442542053387 0 -9.073561299314453e-05 0.029533309647190822 0 0.00020429107973896413 0.031981442542053387 0 -0.00034985973886471073 0.034791870135652797 0 -0.00029119267042567598 0.03416481247000748 0 -0.00023385268618519609 0.03414547034231262 0 -0.00030622871656687108 0.034109761381374795 0 3.3613253193441578e-07 0.034523189290128008 0 -9.6563280467729665e-05 0.034581235287723527 0 -6.3826931686624519e-05 0.034577422442316701 0 -0.00023385268618519609 0.03414547034231262 0 -0.00024222074790283574 0.034125412819849876 0 -0.0001364179287606314 0.03433669382357088 0 -0.00034985973886471073 0.034791870135652797 0 -2.4595649046860962e-05 0.034156528715166799 0 -0.00030622871656687108 0.034109761381374795 0 -0.00024222074790283574 0.034125412819849876 0 -0.00033387015586405506 0.034005861788571082 0 -0.00023385268618519609 0.03414547034231262 0 -0.00030622871656687108 0.034109761381374795 0 -0.00024222074790283574 0.034125412819849876 0 -0.00024222074790283574 0.034125412819849876 0 -0.0002291921568713172 0.034027691005382998 0 -0.00033387015586405506 0.034005861788571082 0 -0.00024222074790283574 0.034125412819849876 0 -0.0002291921568713172 0.034027691005382998 0 -0.0001364179287606314 0.03433669382357088 0 -0.0002291921568713172 0.034027691005382998 0 -0.00016940576238308919 0.034005581245852103 0 -0.0001364179287606314 0.03433669382357088 0 -0.0002291921568713172 0.034027691005382998 0 -0.00016940576238308919 0.034005581245852103 0 -0.00022359105805457033 0.033839272092405046 0 -0.0002291921568713172 0.034027691005382998 0 -0.00026856276430649843 0.033894700384899557 0 -0.00033387015586405506 0.034005861788571082 0 -0.00026856276430649843 0.033894700384899557 0 -0.00035355133920935789 0.033870685293357905 0 -0.00033387015586405506 0.034005861788571082 0 -0.00026856276430649843 0.033894700384899557 0 -0.00024277562202898071 0.033664324759990774 0 -0.00022359105805457033 0.033839272092405046 0 -0.0002291921568713172 0.034027691005382998 0 -0.00026856276430649843 0.033894700384899557 0 -0.00022359105805457033 0.033839272092405046 0 -0.00026856276430649843 0.033894700384899557 0 -0.00035355133920935789 0.033870685293357905 0 -0.00024277562202898071 0.033664324759990774 0 -0.00035355133920935789 0.033870685293357905 0 -0.0004682093456664413 0.03381553070905001 0 -0.00024277562202898071 0.033664324759990774 0 -0.00043530378685229703 0.033897128175956019 0 -0.00035355133920935789 0.033870685293357905 0 -0.0004682093456664413 0.03381553070905001 0 -0.00043530378685229703 0.033897128175956019 0 -0.00035355133920935789 0.033870685293357905 0 -0.00033387015586405506 0.034005861788571082 0 -0.00043530378685229703 0.033897128175956019 0 -0.00033387015586405506 0.034005861788571082 0 -0.00045606942154281782 0.0339589216495291 0 -0.00040681289475998263 0.034039678612007324 0 -0.00033387015586405506 0.034005861788571082 0 -0.00045606942154281782 0.0339589216495291 0 -0.00052793645377704384 0.033920597330280633 0 -0.00049999721004084904 0.03399761223276343 0 -0.00045606942154281782 0.0339589216495291 0 -0.00043530378685229703 0.033897128175956019 0 -0.00045606942154281782 0.0339589216495291 0 -0.00049398461351520884 0.033886644086146833 0 -0.00052793645377704384 0.033920597330280633 0 -0.00045606942154281782 0.0339589216495291 0 -0.00049398461351520884 0.033886644086146833 0 -0.001220773160312759 0.034112530206362943 0 -8.5261463696527311e-05 0.033549621067192892 0 -0.00055272434507982202 0.033855534432564553 0 -0.00049398461351520884 0.033886644086146833 0 -0.0004682093456664413 0.03381553070905001 0 -0.001462488621622466 0.033920119031924802 0 0.00027779209775482898 0.033255540340278986 0 -0.0003005216166316535 0.033084062838602372 0 -0.00043530378685229703 0.033897128175956019 0 -0.00049398461351520884 0.033886644086146833 0 -0.0004682093456664413 0.03381553070905001 0 -0.00026687953467195382 0.032943873099177172 0 0.00031665844911003371 0.030660823783467215 0 -0.00096040815925893899 0.031323317106699326 0 -0.0003005216166316535 0.033084062838602372 0 0.00013207147630599211 0.029755458898385097 0 0.00027779209775482898 0.033255540340278986 0 -0.0003005216166316535 0.033084062838602372 0 0.00013046299691918669 0.033095610926580352 0 -0.0003005216166316535 0.033084062838602372 0 0.00013046299691918669 0.033095610926580352 0 0.00025325197056608114 0.032396362429250557 0 0.00013046299691918669 0.033095610926580352 0 4.5381905826494445e-05 0.033441052454983411 0 -8.3032476241158055e-05 0.033760515974509159 0 0.00011739522256014482 0.033160155977605937 0 0.00048995028780365272 0.03300047455398368 0 -8.5261463696527311e-05 0.033549621067192892 0 -0.00020999590540006155 0.033631343114251547 0 0.00027779209775482898 0.033255540340278986 0 4.5381905826494445e-05 0.033441052454983411 0 -0.00024277562202898071 0.033664324759990774 0 0.00013046299691918669 0.033095610926580352 0 0.00092717184471099632 0.03235818935135519 0 0.00025325197056608114 0.032396362429250557 0 0.00027779209775482898 0.033255540340278986 0 0.00013046299691918669 0.033095610926580352 0 4.5381905826494445e-05 0.033441052454983411 0 4.5381905826494445e-05 0.033441052454983411 0 -8.3032476241158055e-05 0.033760515974509159 0 -0.00024277562202898071 0.033664324759990774 0 0.00092717184471099632 0.03235818935135519 0 0.00052315073421783887 0.031947281284251394 0 0.0008421468485580964 0.031539426579649747 0 0.00052315073421783887 0.031947281284251394 0 0.00025325197056608114 0.032396362429250557 0 0.00026696447459803585 0.031999390506348618 0 0.00092717184471099632 0.03235818935135519 0 0.00052315073421783887 0.031947281284251394 0 0.00025325197056608114 0.032396362429250557 0 0.00052315073421783887 0.031947281284251394 0 0.00039999319907619587 0.031652151043833912 0 0.0008421468485580964 0.031539426579649747 0 0.00052315073421783887 0.031947281284251394 0 0.00026696447459803585 0.031999390506348618 0 0.00026467897941240753 0.031842617327221927 0 0.00052315073421783887 0.031947281284251394 0 0.00026467897941240753 0.031842617327221927 0 0.00039999319907619587 0.031652151043833912 0 -0.0003005216166316535 0.033084062838602372 0 0.0005316522388895418 0.029410533067505313 0 0.00013207147630599211 0.029755458898385097 0 -0.00095580805008295487 0.028860877966024552 0 -0.00096040815925893899 0.031323317106699326 0 0.00013207147630599211 0.029755458898385097 0 -0.0003005216166316535 0.033084062838602372 0 0.00025325197056608114 0.032396362429250557 0 2.8404055811470203e-05 0.031810985936150768 0 0.00025325197056608114 0.032396362429250557 0 0.00026696447459803585 0.031999390506348618 0 2.8404055811470203e-05 0.031810985936150768 0 0.00026696447459803585 0.031999390506348618 0 0.00026467897941240753 0.031842617327221927 0 2.8404055811470203e-05 0.031810985936150768 0 0.00026467897941240753 0.031842617327221927 0 2.8404055811470203e-05 0.031810985936150768 0 0.00039999319907619587 0.031652151043833912 0 2.8404055811470203e-05 0.031810985936150768 0 0.00043165387697772313 0.031195952694895845 0 0.0002264052308764824 0.030293497232902682 0 0.0005316522388895418 0.029410533067505313 0 0.00062149540315077699 0.027989052045211394 0 0.0010519621167656753 0.026266440346392472 0 -0.00095580805008295487 0.028860877966024552 0 0.00013207147630599211 0.029755458898385097 0 -0.00035519674966688456 0.028770770987572306 0 0.00031665844911003371 0.030660823783467215 0 0.00019318639635185312 0.028133387501338904 0 0.00013207147630599211 0.029755458898385097 0 -0.00035519674966688456 0.028770770987572306 0 8.9115496773350378e-05 0.028357723723067021 0 -0.00062074988974454841 0.028340761942683139 0 -0.00035519674966688456 0.028770770987572306 0 8.9115496773350378e-05 0.028357723723067021 0 -0.00062074988974454841 0.028340761942683139 0 8.9115496773350378e-05 0.028357723723067021 0 -0.00042145216491677463 0.027828671211942956 0 0.00010718851678628369 0.029605132159098307 0 0.00039516768333062953 0.028074684370499734 0 0.0005316522388895418 0.029410533067505313 0 0.00013207147630599211 0.029755458898385097 0 0.00062149540315077699 0.027989052045211394 0 2.8404055811470203e-05 0.031810985936150768 0 0.00039999319907619587 0.031652151043833912 0 0.00043165387697772313 0.031195952694895845 0 0.00039999319907619587 0.031652151043833912 0 0.0008421468485580964 0.031539426579649747 0 0.00043165387697772313 0.031195952694895845 0 0.0008421468485580964 0.031539426579649747 0 0.0006583516408885002 0.030775114692629741 0 0.0017007622215425274 0.031704182547582581 0 0.00081759554723341045 0.031499110006608849 0 0.00031821009593935111 0.030584440698469349 0 0.0008421468485580964 0.031539426579649747 0 0.00043165387697772313 0.031195952694895845 0 0.00066222443255134576 0.030676469489118254 0 -0.00086660436049882023 0.031300462376009551 0 -0.00037568500024764609 0.031188898355687136 0 -0.00072974741039358792 0.030850330140733018 0 0.00010184036380172506 0.029797904568094578 0 -0.00028342764543670804 0.029458187790667972 0 -0.00013401484806726971 0.028825817202975411 0 0.00043165387697772313 0.031195952694895845 0 0.00066222443255134576 0.030676469489118254 0 0.0002264052308764824 0.030293497232902682 0 0.00031821009593935111 0.030584440698469349 0 -0.00048719607253971145 0.029140672795665814 0 -0.00086660436049882023 0.031300462376009551 0 -0.0010049005439716865 0.030724111272887097 0 -0.00072974741039358792 0.030850330140733018 0 0.00031821009593935111 0.030584440698469349 0 0.00019318639635185312 0.028133387501338904 0 0.00019318639635185312 0.028133387501338904 0 -0.00048719607253971145 0.029140672795665814 0 0.00015658859615900165 0.027702638784114299 0 -0.00042145216491677463 0.027828671211942956 0 -0.00079699305989354343 0.026878326874390384 0 0.00039516768333062953 0.028074684370499734 0 0.00019318639635185312 0.028133387501338904 0 8.9115496773350378e-05 0.028357723723067021 0 0.00015658859615900165 0.027702638784114299 0 -0.00042145216491677463 0.027828671211942956 0 -1.3171981168209847e-07 0.031002462957637793 0 -0.00037568500024764609 0.031188898355687136 0 0.0002375386240038203 0.031440143157918432 0 -1.3171981168209847e-07 0.031002462957637793 0 0.0002375386240038203 0.031440143157918432 0 0.00034577839565420355 0.031020945181157656 0 -1.3171981168209847e-07 0.031002462957637793 0 0.00034577839565420355 0.031020945181157656 0 0.00021455605190015336 0.030816382244809523 0 -0.00037568500024764609 0.031188898355687136 0 -0.00048016083856387392 0.030793375619206833 0 -0.00024113746968819181 0.030785789328614331 0 -1.3171981168209847e-07 0.031002462957637793 0 -0.00037568500024764609 0.031188898355687136 0 -0.00024113746968819181 0.030785789328614331 0 -0.00037568500024764609 0.031188898355687136 0 -0.00048016083856387392 0.030793375619206833 0 -0.00072974741039358792 0.030850330140733018 0 -0.00086660436049882023 0.031300462376009551 0 -0.00037568500024764609 0.031188898355687136 0 -0.00025714022750419321 0.031849405660969457 0 0.00031821009593935111 0.030584440698469349 0 6.4272931641114553e-05 0.032679906317442019 0 -0.00037568500024764609 0.031188898355687136 0 0.0002375386240038203 0.031440143157918432 0 -0.00025714022750419321 0.031849405660969457 0 -0.00010521236988881586 0.032435769298249664 0 6.4272931641114553e-05 0.032679906317442019 0 -0.00028792881406194883 0.033344483357264594 0 -0.00027923074680790886 0.03356785830115501 0 -0.00053983460370579227 0.033552251681307016 0 -0.00027923074680790886 0.03356785830115501 0 -0.0003083620416299495 0.033768363831108344 0 -0.00053983460370579227 0.033552251681307016 0 -0.0002428037579270449 0.033879921241008977 0 6.4272931641114553e-05 0.032679906317442019 0 -0.0001949456911677615 0.033780056024081337 0 -0.00021761328565030871 0.033803937168263805 0 -0.00022667131966631001 0.033756633183544021 0 0.00092717184471099632 0.03235818935135519 0 0.0008421468485580964 0.031539426579649747 0 0.0017007622215425274 0.031704182547582581 0 0.00048995028780365272 0.03300047455398368 0 6.4272931641114553e-05 0.032679906317442019 0 -8.3032476241158055e-05 0.033760515974509159 0 -0.00021761328565030871 0.033803937168263805 0 -0.00022667131966631001 0.033756633183544021 0 -8.3032476241158055e-05 0.033760515974509159 0 -0.00022667131966631001 0.033756633183544021 0 -0.00024277562202898071 0.033664324759990774 0 -0.00022667131966631001 0.033756633183544021 0 -0.00024277562202898071 0.033664324759990774 0 -0.00022359105805457033 0.033839272092405046 0 -0.0001949456911677615 0.033780056024081337 0 -0.00022667131966631001 0.033756633183544021 0 -0.00022359105805457033 0.033839272092405046 0 -0.00016940576238308919 0.034005581245852103 0 -0.0001949456911677615 0.033780056024081337 0 -0.00022359105805457033 0.033839272092405046 0 -0.00016940576238308919 0.034005581245852103 0 -0.0001949456911677615 0.033780056024081337 0 -8.155818838774683e-05 0.033974705275125507 0 -0.0002428037579270449 0.033879921241008977 0 -0.00011023841955428819 0.033924418883163908 0 -0.0003083620416299495 0.033768363831108344 0 -8.155818838774683e-05 0.033974705275125507 0 -8.8446944937168551e-05 0.033745604108178097 0 -8.155818838774683e-05 0.033974705275125507 0 3.353931685698165e-05 0.033864948852116689 0 -8.8446944937168551e-05 0.033745604108178097 0 3.353931685698165e-05 0.033864948852116689 0 0.00012795555897494526 0.033670715929998034 0 0.0001802745539068834 0.034064487480245181 0 -8.155818838774683e-05 0.033974705275125507 0 3.353931685698165e-05 0.033864948852116689 0 0.0001802745539068834 0.034064487480245181 0 5.5859647219634056e-05 0.034322044814150618 0 0.00013347495129175746 0.034515975883547427 0 3.353931685698165e-05 0.033864948852116689 0 0.00012795555897494526 0.033670715929998034 0 -8.8446944937168551e-05 0.033745604108178097 0 0.00012795555897494526 0.033670715929998034 0 -8.8446944937168551e-05 0.033745604108178097 0 -6.5582218565633953e-06 0.033553042101471316 0 -0.00027923074680790886 0.03356785830115501 0 -0.0003083620416299495 0.033768363831108344 0 -8.8446944937168551e-05 0.033745604108178097 0 -8.8446944937168551e-05 0.033745604108178097 0 -0.00012214249917685843 0.033512742548992815 0 -6.5582218565633953e-06 0.033553042101471316 0 -0.00027923074680790886 0.03356785830115501 0 -8.8446944937168551e-05 0.033745604108178097 0 -0.00012214249917685843 0.033512742548992815 0 -0.00028792881406194883 0.033344483357264594 0 -0.00012214249917685843 0.033512742548992815 0 5.7115553423121557e-05 0.033281603747405589 0 -0.00012214249917685843 0.033512742548992815 0 -6.5582218565633953e-06 0.033553042101471316 0 5.7115553423121557e-05 0.033281603747405589 0 -0.00028792881406194883 0.033344483357264594 0 -0.00027923074680790886 0.03356785830115501 0 -0.00012214249917685843 0.033512742548992815 0 5.5859647219634056e-05 0.034322044814150618 0 0.0002705760130844797 0.033839424553891585 0 3.0414890868196935e-05 0.034930214088053101 0 -9.8154266507445665e-06 0.034688343812169425 0 8.7966745737147562e-05 0.034921429516227891 0 0.00012795555897494526 0.033670715929998034 0 -6.5582218565633953e-06 0.033553042101471316 0 5.7115553423121557e-05 0.033281603747405589 0 0.0002705760130844797 0.033839424553891585 0 0.00021858755900761641 0.034907646394874647 0 0.000214360389396683 0.033836085260026169 0 0.00043448679537676444 0.033783013838680563 0 0.00065150879441374201 0.03463406519787153 0 0.0002705760130844797 0.033839424553891585 0 0.00038010338988575152 0.031988436779859672 0 0.000214360389396683 0.033836085260026169 0 0.00043448679537676444 0.033783013838680563 0 0.00014340494147091303 0.03345765002010441 0 0.00059197944928962706 0.033483926109232121 0 0.00030810065329293408 0.032155792182688485 0 -1.8334827309611362e-05 0.032422331945239816 0 0.0002705760130844797 0.033839424553891585 0 0.00040469729389059104 0.032215616419830832 0 0.00040469729389059104 0.032215616419830832 0 0.00038010338988575152 0.031988436779859672 0 -0.00010521236988881586 0.032435769298249664 0 0.00038010338988575152 0.031988436779859672 0 0.0002375386240038203 0.031440143157918432 0 0.00073004803765043405 0.031036643668319007 0 0.00034577839565420355 0.031020945181157656 0 -0.00028792881406194883 0.033344483357264594 0 5.7115553423121557e-05 0.033281603747405589 0 -2.6348681426367439e-05 0.033127853366798847 0 8.6639841612520725e-08 0.034999843594759925 0 -9.0613838028582778e-06 0.035000970947311222 0 1.2910030016241742e-05 0.03487129731274824 0 -5.3236800198192596e-10 0.034999970606601767 0 1.375520329185739e-06 0.034933632634090155 0 2.635174150089107e-09 0.03500000170153908 0 -4.7955041932212602e-09 0.035000001933670477 0 -4.3176502789508746e-06 0.035002122017625537 0 -0.00010098972190772712 0.034937884259164324 0 -7.6393497435228356e-05 0.034799783149972445 0 1.2910030016241742e-05 0.03487129731274824 0 -0.00010098972190772712 0.034937884259164324 0 -9.0613838028582778e-06 0.035000970947311222 0 1.2910030016241742e-05 0.03487129731274824 0 -0.00010098972190772712 0.034937884259164324 0 -9.0613838028582778e-06 0.035000970947311222 0 -2.8986369627620571e-05 0.035013276857764661 0 0.00017419326927825435 0.034338877847193833 0 0.00021858755900761641 0.034907646394874647 0 -9.0613838028582778e-06 0.035000970947311222 0 -1.0520684702334158e-06 0.035003123159548691 0 -3.6064955361597018e-09 0.035000084146340753 0 8.6639841612520725e-08 0.034999843594759925 0 -9.0613838028582778e-06 0.035000970947311222 0 -3.6064955361597018e-09 0.035000084146340753 0 -9.0613838028582778e-06 0.035000970947311222 0 -1.0520684702334158e-06 0.035003123159548691 0 -2.8986369627620571e-05 0.035013276857764661 0 3.0414890868196935e-05 0.034930214088053101 0 8.7966745737147562e-05 0.034921429516227891 0 8.3344374222465455e-05 0.034986184168347971 0 0.00021858755900761641 0.034907646394874647 0 0.00011003437419295075 0.034984324750817752 0 0.00021858755900761641 0.034907646394874647 0 -1.5284817629700064e-05 0.035001838107288116 0 0.00012214071300697317 0.035005082022340268 0 8.3344374222465455e-05 0.034986184168347971 0 2.6860560282351195e-05 0.034985376522478857 0 3.0414890868196935e-05 0.034930214088053101 0 8.3344374222465455e-05 0.034986184168347971 0 0.00011032235197639296 0.034989022766463589 0 8.3344374222465455e-05 0.034986184168347971 0 2.6860560282351195e-05 0.034985376522478857 0 0.00011032235197639296 0.034989022766463589 0 -1.0520684702334158e-06 0.035003123159548691 0 -2.8986369627620571e-05 0.035013276857764661 0 2.6860560282351195e-05 0.034985376522478857 0 -1.0520684702334158e-06 0.035003123159548691 0 -3.6064955361597018e-09 0.035000084146340753 0 2.6860560282351195e-05 0.034985376522478857 0 -3.6064955361597018e-09 0.035000084146340753 0 2.6860560282351195e-05 0.034985376522478857 0 -4.6219016881415143e-08 0.034999832659661487 0 2.6860560282351195e-05 0.034985376522478857 0 -4.6219016881415143e-08 0.034999832659661487 0 4.5624125781336839e-05 0.034918528650565474 0 -4.6219016881415143e-08 0.034999832659661487 0 8.705420442347985e-05 0.03471007163934 0 6.9837632180278782e-08 0.034999665616491732 0 -4.6219016881415143e-08 0.034999832659661487 0 8.705420442347985e-05 0.03471007163934 0 4.5624125781336839e-05 0.034918528650565474 0 2.6860560282351195e-05 0.034985376522478857 0 0.00011032235197639296 0.034989022766463589 0 4.5624125781336839e-05 0.034918528650565474 0 8.705420442347985e-05 0.03471007163934 0 0.00011032235197639296 0.034989022766463589 0 4.5624125781336839e-05 0.034918528650565474 0 0.00010158333618881823 0.034685255125781841 0 0.00013347495129175746 0.034515975883547427 0 8.705420442347985e-05 0.03471007163934 0 0.0001802745539068834 0.034064487480245181 0 -4.6252712602619799e-05 0.034214711847092329 0 -8.155818838774683e-05 0.033974705275125507 0 0.0001802745539068834 0.034064487480245181 0 -4.6252712602619799e-05 0.034214711847092329 0 -0.00016940576238308919 0.034005581245852103 0 -4.6252712602619799e-05 0.034214711847092329 0 -0.0001364179287606314 0.03433669382357088 0 -0.00016940576238308919 0.034005581245852103 0 -8.155818838774683e-05 0.033974705275125507 0 -4.6252712602619799e-05 0.034214711847092329 0 8.705420442347985e-05 0.03471007163934 0 -4.6252712602619799e-05 0.034214711847092329 0 -0.0001364179287606314 0.03433669382357088 0 8.705420442347985e-05 0.03471007163934 0 -0.0001364179287606314 0.03433669382357088 0 -7.3069588916796895e-05 0.03462060710986313 0 8.705420442347985e-05 0.03471007163934 0 -7.3069588916796895e-05 0.03462060710986313 0 -7.1548101533575438e-05 0.034766424743984961 0 -9.6563280467729665e-05 0.034581235287723527 0 -0.0001364179287606314 0.03433669382357088 0 -7.3069588916796895e-05 0.03462060710986313 0 -9.6563280467729665e-05 0.034581235287723527 0 -7.3069588916796895e-05 0.03462060710986313 0 -6.3826931686624519e-05 0.034577422442316701 0 -7.3069588916796895e-05 0.03462060710986313 0 -7.7938109489370625e-05 0.034615984557829757 0 -6.3826931686624519e-05 0.034577422442316701 0 -6.3360866796075742e-05 0.03451488471442795 0 -7.7938109489370625e-05 0.034615984557829757 0 -6.3826931686624519e-05 0.034577422442316701 0 -7.3069588916796895e-05 0.03462060710986313 0 -7.7938109489370625e-05 0.034615984557829757 0 -7.1548101533575438e-05 0.034766424743984961 0 -0.00012260283133727688 0.034504979276367302 0 -7.7938109489370625e-05 0.034615984557829757 0 -7.1548101533575438e-05 0.034766424743984961 0 -1.0121713219204545e-05 0.034942956325651767 0 -7.1548101533575438e-05 0.034766424743984961 0 1.2680724435254257e-05 0.034904475280971514 0 3.376351094411674e-08 0.034999937241105492 0 1.2680724435254257e-05 0.034904475280971514 0 6.9837632180278782e-08 0.034999665616491732 0 8.705420442347985e-05 0.03471007163934 0 1.2680724435254257e-05 0.034904475280971514 0 6.9837632180278782e-08 0.034999665616491732 0 8.705420442347985e-05 0.03471007163934 0 -7.1548101533575438e-05 0.034766424743984961 0 1.2680724435254257e-05 0.034904475280971514 0 -7.1087743682519277e-06 0.034982748856791063 0 -3.9575566039718978e-09 0.034999975929903906 0 2.233578024603842e-09 0.034999991419027279 0 -7.1087743682519277e-06 0.034982748856791063 0 -3.9575566039718978e-09 0.034999975929903906 0 -6.1818866662774141e-06 0.03498278505590964 0 -3.9575566039718978e-09 0.034999975929903906 0 -6.1818866662774141e-06 0.03498278505590964 0 -4.3451414346169294e-09 0.034999971336844606 0 -7.1087743682519277e-06 0.034982748856791063 0 -6.1818866662774141e-06 0.03498278505590964 0 -1.5965578488911207e-05 0.034961802742781281 0 -1.5965578488911207e-05 0.034961802742781281 0 -3.3693973555836443e-05 0.034937224873583417 0 -2.2727247402178921e-05 0.034943407834214478 0 -1.5965578488911207e-05 0.034961802742781281 0 -3.3693973555836443e-05 0.034937224873583417 0 -2.4339531189195093e-05 0.034958252902927325 0 -3.3693973555836443e-05 0.034937224873583417 0 -5.0888522947450146e-05 0.034919511536972932 0 -4.2229523801427076e-05 0.034907493458320595 0 -3.3693973555836443e-05 0.034937224873583417 0 -4.7668156401685777e-05 0.034932336159382842 0 -5.0888522947450146e-05 0.034919511536972932 0 -3.3693973555836443e-05 0.034937224873583417 0 -4.7668156401685777e-05 0.034932336159382842 0 -2.4339531189195093e-05 0.034958252902927325 0 -4.7668156401685777e-05 0.034932336159382842 0 -2.4339531189195093e-05 0.034958252902927325 0 -2.2356961043148827e-05 0.034983906165471743 0 -7.1087743682519277e-06 0.034982748856791063 0 -2.4339531189195093e-05 0.034958252902927325 0 -2.2356961043148827e-05 0.034983906165471743 0 -7.1087743682519277e-06 0.034982748856791063 0 -1.5965578488911207e-05 0.034961802742781281 0 -2.4339531189195093e-05 0.034958252902927325 0 -4.8660409557829035e-05 0.03493149521230323 0 -5.6056243166747948e-05 0.034938111108684292 0 -4.86539496120973e-05 0.034926814133190438 0 -0.00022719935230780216 0.032642423823503332 0 -0.00020686015092269216 0.032671657627130722 0 -0.0002772505163857788 0.032496241164273028 0 -4.6060135323658376e-05 0.034936571218230683 0 -3.1243439426058894e-05 0.034956868349908188 0 -0.00026907076181612483 0.031199378620892466 0 -0.00016386120879617724 0.032493649819010199 0 -4.7668156401685777e-05 0.034932336159382842 0 -4.2356973438981676e-05 0.034930569627303808 0 -4.8660409557829035e-05 0.03493149521230323 0 -9.3766010116762066e-05 0.033693546265400651 0 -0.00016386120879617724 0.032493649819010199 0 -4.7668156401685777e-05 0.034932336159382842 0 -4.8660409557829035e-05 0.03493149521230323 0 -4.86539496120973e-05 0.034926814133190438 0 -4.2356973438981676e-05 0.034930569627303808 0 -4.8660409557829035e-05 0.03493149521230323 0 -4.8275419423814555e-05 0.034939662390807535 0 -0.00022719935230780216 0.032642423823503332 0 -0.00022330666579967539 0.03269200446475972 0 -0.0002772505163857788 0.032496241164273028 0 -0.00022719935230780216 0.032642423823503332 0 -0.00020669433687747456 0.032671440342247449 0 -0.00022330666579967539 0.03269200446475972 0 -0.00026934988169713094 0.033291279968306532 0 -9.3766010116762066e-05 0.033693546265400651 0 -5.6056243166747948e-05 0.034938111108684292 0 -4.8275419423814555e-05 0.034939662390807535 0 -5.5158654524998066e-05 0.034947734120241686 0 -4.8660409557829035e-05 0.03493149521230323 0 -5.6056243166747948e-05 0.034938111108684292 0 -4.8275419423814555e-05 0.034939662390807535 0 -0.00026234738468558109 0.033604110413214608 0 -0.00034795175646472483 0.033462862348854636 0 -0.0002916631733918129 0.033488874235286334 0 -0.00020669433687747456 0.032671440342247449 0 -0.00019664237801476339 0.032703239925696403 0 -0.00022330666579967539 0.03269200446475972 0 -9.3766010116762066e-05 0.033693546265400651 0 -0.00024782150675104988 0.032889329384843777 0 -9.3766010116762066e-05 0.033693546265400651 0 1.3087232023565193e-05 0.033893201729177182 0 -0.00024782150675104988 0.032889329384843777 0 -0.00026907076181612483 0.031199378620892466 0 1.3087232023565193e-05 0.033893201729177182 0 -0.00024782150675104988 0.032889329384843777 0 -4.2356973438981676e-05 0.034930569627303808 0 -3.5720227893537256e-05 0.034954165922789458 0 -1.4806786480177086e-05 0.034959463824563913 0 -4.2356973438981676e-05 0.034930569627303808 0 -4.8275419423814555e-05 0.034939662390807535 0 -3.5720227893537256e-05 0.034954165922789458 0 -4.8275419423814555e-05 0.034939662390807535 0 -5.5158654524998066e-05 0.034947734120241686 0 -3.5720227893537256e-05 0.034954165922789458 0 -5.5158654524998066e-05 0.034947734120241686 0 -3.5720227893537256e-05 0.034954165922789458 0 -2.1023889200057192e-05 0.034986466621560172 0 -3.5720227893537256e-05 0.034954165922789458 0 -1.4806786480177086e-05 0.034959463824563913 0 -2.1023889200057192e-05 0.034986466621560172 0 -3.1243439426058894e-05 0.034956868349908188 0 -1.2139493401027888e-05 0.034978949497978473 0 -7.1087743682519277e-06 0.034982748856791063 0 -2.2356961043148827e-05 0.034983906165471743 0 -6.0418050158674892e-06 0.034999273056932526 0 -7.1087743682519277e-06 0.034982748856791063 0 -6.0418050158674892e-06 0.034999273056932526 0 2.233578024603842e-09 0.034999991419027279 0 -1.2139493401027888e-05 0.034978949497978473 0 -4.678335199366593e-09 0.034999990975412384 0 -6.0418050158674892e-06 0.034999273056932526 0 2.233578024603842e-09 0.034999991419027279 0 -3.5928794924269981e-09 0.03500000812115369 0 -1.0368335896535487e-05 0.035124459012285426 0 -9.2882823380605909e-08 0.034999853228123441 0 1.139894864953701e-08 0.034999918761689786 0 -2.1023889200057192e-05 0.034986466621560172 0 -9.111028141522108e-09 0.035000052072033175 0 -1.4806786480177086e-05 0.034959463824563913 0 1.139894864953701e-08 0.034999918761689786 0 -2.1023889200057192e-05 0.034986466621560172 0 -2.0652970007934423e-05 0.034952509969698904 0 -1.1609950245683608e-05 0.0349879778859504 0 -5.3264693541557189e-05 0.03497078248890944 0 -1.1609950245683608e-05 0.0349879778859504 0 -1.9006483337705153e-05 0.035000127625229617 0 -5.3264693541557189e-05 0.03497078248890944 0 -1.1609950245683608e-05 0.0349879778859504 0 8.6134381388362305e-09 0.034999952339714785 0 -2.9472347778725235e-09 0.035000009743333303 0 -2.0652970007934423e-05 0.034952509969698904 0 -1.1609950245683608e-05 0.0349879778859504 0 8.6134381388362305e-09 0.034999952339714785 0 -1.1609950245683608e-05 0.0349879778859504 0 -2.9472347778725235e-09 0.035000009743333303 0 -1.9006483337705153e-05 0.035000127625229617 0 -3.8138261086929813e-05 0.034798186524582282 0 1.375520329185739e-06 0.034933632634090155 0 -4.4941419265286574e-05 0.034632476820599147 0 -7.6393497435228356e-05 0.034799783149972445 0 1.2910030016241742e-05 0.03487129731274824 0 -2.9472347778725235e-09 0.035000009743333303 0 -4.7955041932212602e-09 0.035000001933670477 0 -4.3176502789508746e-06 0.035002122017625537 0 -2.9472347778725235e-09 0.035000009743333303 0 -1.9006483337705153e-05 0.035000127625229617 0 -4.3176502789508746e-06 0.035002122017625537 0 0.00083328942024636437 0.030986351740535066 0 0.00055573006979025533 0.030728040259758997 0 0.0006801155613095517 0.030287225986969386 0 0.00055573006979025533 0.030728040259758997 0 0.0006801155613095517 0.030287225986969386 0 0.00040933178715714738 0.030425319446281018 0 0.00055573006979025533 0.030728040259758997 0 0.00040933178715714738 0.030425319446281018 0 0.00019811673607771381 0.030563712162776917 0 0.00034577839565420355 0.031020945181157656 0 0.00055573006979025533 0.030728040259758997 0 0.00021455605190015336 0.030816382244809523 0 0.00055573006979025533 0.030728040259758997 0 0.00021455605190015336 0.030816382244809523 0 0.00019811673607771381 0.030563712162776917 0 0.00073004803765043405 0.031036643668319007 0 0.00034577839565420355 0.031020945181157656 0 0.00055573006979025533 0.030728040259758997 0 0.00038010338988575152 0.031988436779859672 0 0.00036293424908336941 0.030771571349909769 0 0.00083328942024636437 0.030986351740535066 0 0.00074084486837800204 0.031062844899489166 0 0.00055573006979025533 0.030728040259758997 0 0.00014340494147091303 0.03345765002010441 0 0.00021993455562075578 0.032992130546163304 0 9.1440806596512342e-06 0.032775209218986058 0 -0.00010098972190772712 0.034937884259164324 0 -7.6393497435228356e-05 0.034799783149972445 0 -0.00021545316682954435 0.034732677519211524 0 0.00040469729389059104 0.032215616419830832 0 0.00035574086666559991 0.031572957848526151 0 0.00043448679537676444 0.033783013838680563 0 0.00014340494147091303 0.03345765002010441 0 0.00021993455562075578 0.032992130546163304 0 0.00017419326927825435 0.034338877847193833 0 4.3161685777211318e-06 0.033870518799292898 0 -4.4941419265286574e-05 0.034632476820599147 0 -7.6393497435228356e-05 0.034799783149972445 0 -0.00021545316682954435 0.034732677519211524 0 -0.00021545316682954435 0.034732677519211524 0 -0.000195609516629428 0.034512323214457866 0 -0.00034546170273054691 0.034358000401180332 0 -4.4941419265286574e-05 0.034632476820599147 0 -0.00021545316682954435 0.034732677519211524 0 -0.000195609516629428 0.034512323214457866 0 0.00021993455562075578 0.032992130546163304 0 9.1440806596512342e-06 0.032775209218986058 0 1.735316001422918e-05 0.032261458715492006 0 4.3161685777211318e-06 0.033870518799292898 0 -0.00017723677919503572 0.03327291146371706 0 0.0006801155613095517 0.030287225986969386 0 0.00040933178715714738 0.030425319446281018 0 0.00020482587026292932 0.030123179944220157 0 9.1440806596512342e-06 0.032775209218986058 0 -0.0001223623042234091 0.032142633716900147 0 1.735316001422918e-05 0.032261458715492006 0 0.00035574086666559991 0.031572957848526151 0 0.00020523411100722608 0.030698276549110656 0 0.0006801155613095517 0.030287225986969386 0 0.00051902932044293202 0.029617631946518251 0 0.00020482587026292932 0.030123179944220157 0 -3.8138261086929813e-05 0.034798186524582282 0 -0.00014430671094270881 0.034709932127818907 0 -4.4941419265286574e-05 0.034632476820599147 0 -0.000195609516629428 0.034512323214457866 0 -0.0002026183584513045 0.034294180889810941 0 -0.000195609516629428 0.034512323214457866 0 -0.00034546170273054691 0.034358000401180332 0 -0.0002026183584513045 0.034294180889810941 0 1.3087232023565193e-05 0.033893201729177182 0 -1.0368335896535487e-05 0.035124459012285426 0 -9.4829490063847639e-05 0.034894060512501615 0 -2.0652970007934423e-05 0.034952509969698904 0 -5.3264693541557189e-05 0.03497078248890944 0 0.00035824132954900351 0.028989482948463693 0 0.00051902932044293202 0.029617631946518251 0 0.00015274554397695558 0.02938929084259486 0 -0.00026907076181612483 0.031199378620892466 0 0.00020523411100722608 0.030698276549110656 0 -0.0001774672070787898 0.031590007282670772 0 -0.00025718379274723685 0.031553795331397204 0 -0.0001223623042234091 0.032142633716900147 0 -0.00024782150675104988 0.032889329384843777 0 -0.00017723677919503572 0.03327291146371706 0 -0.0001774672070787898 0.031590007282670772 0 -0.0001223623042234091 0.032142633716900147 0 1.735316001422918e-05 0.032261458715492006 0 -0.00043545278502220698 0.033893991478884632 0 -0.00034546170273054691 0.034358000401180332 0 -0.0002026183584513045 0.034294180889810941 0 -0.00043545278502220698 0.033893991478884632 0 -0.0004714532376471688 0.03387687486112495 0 -0.00034546170273054691 0.034358000401180332 0 1.3087232023565193e-05 0.033893201729177182 0 -0.00014430671094270881 0.034709932127818907 0 0.00035824132954900351 0.028989482948463693 0 -0.00011448789214264466 0.029175125629632745 0 0.00015274554397695558 0.02938929084259486 0 -0.00011448789214264466 0.029175125629632745 0 -0.00012377252325934015 0.029499558171775433 0 0.00015274554397695558 0.02938929084259486 0 -0.00012377252325934015 0.029499558171775433 0 0.00015274554397695558 0.02938929084259486 0 8.2905561100471824e-05 0.029718228902747609 0 -0.00011448789214264466 0.029175125629632745 0 -0.00045365827619628043 0.029180708541161161 0 -0.00030899580777322744 0.029379237168733363 0 -0.00012377252325934015 0.029499558171775433 0 -0.00030899580777322744 0.029379237168733363 0 -0.00036206607258253961 0.02959714544734509 0 -0.00011448789214264466 0.029175125629632745 0 -0.00012377252325934015 0.029499558171775433 0 -0.00030899580777322744 0.029379237168733363 0 -0.00045365827619628043 0.029180708541161161 0 -0.00030899580777322744 0.029379237168733363 0 -0.00048512865821556927 0.029453108326770915 0 -0.00030899580777322744 0.029379237168733363 0 -0.00048512865821556927 0.029453108326770915 0 -0.00036206607258253961 0.02959714544734509 0 -0.00045365827619628043 0.029180708541161161 0 -0.00048512865821556927 0.029453108326770915 0 -0.00067273109253982268 0.029389922867633516 0 -0.00052537080899930303 0.029644959502502403 0 -0.00052763202279644593 0.02979275530811749 0 -0.00061409720629244501 0.029742789506586445 0 -0.00052537080899930303 0.029644959502502403 0 -0.00041002197308875459 0.029808112790168741 0 -0.00052763202279644593 0.02979275530811749 0 -0.00048512865821556927 0.029453108326770915 0 -0.00052537080899930303 0.029644959502502403 0 -0.00059840246061322545 0.029526713629027521 0 -0.00052537080899930303 0.029644959502502403 0 -0.00059840246061322545 0.029526713629027521 0 -0.00062372836577800526 0.029622349925194733 0 -0.00048512865821556927 0.029453108326770915 0 -0.00052537080899930303 0.029644959502502403 0 -0.00036206607258253961 0.02959714544734509 0 -0.00052537080899930303 0.029644959502502403 0 -0.00036206607258253961 0.02959714544734509 0 -0.00041002197308875459 0.029808112790168741 0 -0.00012377252325934015 0.029499558171775433 0 -0.00036206607258253961 0.02959714544734509 0 -0.00020091291987495811 0.029755993716835034 0 -0.00036206607258253961 0.02959714544734509 0 -0.00020091291987495811 0.029755993716835034 0 -0.00041002197308875459 0.029808112790168741 0 -0.00020091291987495811 0.029755993716835034 0 -0.00028284115998899041 0.029964290822830492 0 -5.6023920213569009e-05 0.029940815425773194 0 -0.00020091291987495811 0.029755993716835034 0 -0.00028284115998899041 0.029964290822830492 0 -0.00041002197308875459 0.029808112790168741 0 -0.00041002197308875459 0.029808112790168741 0 -0.00042612188101146475 0.029961447033675436 0 -0.00049927066251280081 0.029898406501554824 0 -0.00028284115998899041 0.029964290822830492 0 -0.00041002197308875459 0.029808112790168741 0 -0.00042612188101146475 0.029961447033675436 0 -0.00053923114304054115 0.030017875939214501 0 -0.00059113263300619289 0.029871818347891571 0 -0.0006301654317276608 0.029969771362726626 0 -0.00049927066251280081 0.029898406501554824 0 -0.00053923114304054115 0.030017875939214501 0 -0.00059113263300619289 0.029871818347891571 0 -0.00042612188101146475 0.029961447033675436 0 -0.00049927066251280081 0.029898406501554824 0 -0.00053923114304054115 0.030017875939214501 0 -0.00052763202279644593 0.02979275530811749 0 -0.00059113263300619289 0.029871818347891571 0 -0.00061409720629244501 0.029742789506586445 0 -0.00049927066251280081 0.029898406501554824 0 -0.00052763202279644593 0.02979275530811749 0 -0.00059113263300619289 0.029871818347891571 0 -0.00041002197308875459 0.029808112790168741 0 -0.00049927066251280081 0.029898406501554824 0 -0.00052763202279644593 0.02979275530811749 0 0.00051902932044293202 0.029617631946518251 0 8.2905561100471824e-05 0.029718228902747609 0 0.00020482587026292932 0.030123179944220157 0 0.00051902932044293202 0.029617631946518251 0 0.00015274554397695558 0.02938929084259486 0 8.2905561100471824e-05 0.029718228902747609 0 -0.00012377252325934015 0.029499558171775433 0 -0.00020091291987495811 0.029755993716835034 0 8.2905561100471824e-05 0.029718228902747609 0 -0.00020091291987495811 0.029755993716835034 0 8.2905561100471824e-05 0.029718228902747609 0 -5.6023920213569009e-05 0.029940815425773194 0 8.2905561100471824e-05 0.029718228902747609 0 -5.6023920213569009e-05 0.029940815425773194 0 0.00020482587026292932 0.030123179944220157 0 0.00040933178715714738 0.030425319446281018 0 0.00020482587026292932 0.030123179944220157 0 0.00019811673607771381 0.030563712162776917 0 0.00020482587026292932 0.030123179944220157 0 -7.2234731001688609e-06 0.03035921323206333 0 0.00019811673607771381 0.030563712162776917 0 -7.2234731001688609e-06 0.03035921323206333 0 -0.00018382307615805803 0.030350337560541684 0 -0.00018003749712270449 0.03053890181274278 0 -7.2234731001688609e-06 0.03035921323206333 0 -0.00017706939094893048 0.030158823917389922 0 -0.00018382307615805803 0.030350337560541684 0 0.00020482587026292932 0.030123179944220157 0 -7.2234731001688609e-06 0.03035921323206333 0 -0.00017706939094893048 0.030158823917389922 0 -5.6023920213569009e-05 0.029940815425773194 0 0.00020482587026292932 0.030123179944220157 0 -0.00017706939094893048 0.030158823917389922 0 -0.00028284115998899041 0.029964290822830492 0 -5.6023920213569009e-05 0.029940815425773194 0 -0.00017706939094893048 0.030158823917389922 0 -0.00028284115998899041 0.029964290822830492 0 -0.00017706939094893048 0.030158823917389922 0 -0.00040119665434411588 0.030119290592999889 0 -0.00017706939094893048 0.030158823917389922 0 -0.00040119665434411588 0.030119290592999889 0 -0.00035598719360404956 0.030304178027682 0 -0.00053923114304054115 0.030017875939214501 0 -0.00057605819237119976 0.030153387829183229 0 -0.00065868449212663283 0.030090828493721827 0 -0.00053923114304054115 0.030017875939214501 0 -0.00040119665434411588 0.030119290592999889 0 -0.00057605819237119976 0.030153387829183229 0 -0.00042612188101146475 0.029961447033675436 0 -0.00053923114304054115 0.030017875939214501 0 -0.00040119665434411588 0.030119290592999889 0 -0.00028284115998899041 0.029964290822830492 0 -0.00042612188101146475 0.029961447033675436 0 -0.00040119665434411588 0.030119290592999889 0 -0.00040119665434411588 0.030119290592999889 0 -0.0004843221531667965 0.030249765920019305 0 -0.00035598719360404956 0.030304178027682 0 -0.00040119665434411588 0.030119290592999889 0 -0.00057605819237119976 0.030153387829183229 0 -0.0004843221531667965 0.030249765920019305 0 -0.00057605819237119976 0.030153387829183229 0 -0.0004843221531667965 0.030249765920019305 0 -0.00062116894060386309 0.030284024939866296 0 -0.0004843221531667965 0.030249765920019305 0 -0.00047532725531126827 0.030380788560815334 0 -0.00062116894060386309 0.030284024939866296 0 -0.0004843221531667965 0.030249765920019305 0 -0.00047532725531126827 0.030380788560815334 0 -0.00035598719360404956 0.030304178027682 0 -0.00047532725531126827 0.030380788560815334 0 -0.00035598719360404956 0.030304178027682 0 -0.00040690268970572461 0.03051212114733232 0 -0.00047532725531126827 0.030380788560815334 0 -0.00058478195985784505 0.030441250115550371 0 -0.00062116894060386309 0.030284024939866296 0 -0.00047532725531126827 0.030380788560815334 0 -0.00058478195985784505 0.030441250115550371 0 -0.00040690268970572461 0.03051212114733232 0 -0.00017706939094893048 0.030158823917389922 0 -0.00035598719360404956 0.030304178027682 0 -0.00018382307615805803 0.030350337560541684 0 -0.00035598719360404956 0.030304178027682 0 -0.00018382307615805803 0.030350337560541684 0 -0.00040690268970572461 0.03051212114733232 0 -0.00018003749712270449 0.03053890181274278 0 -0.00040690268970572461 0.03051212114733232 0 -0.00024113746968819181 0.030785789328614331 0 -0.00018382307615805803 0.030350337560541684 0 -0.00018003749712270449 0.03053890181274278 0 -0.00040690268970572461 0.03051212114733232 0 -0.00040690268970572461 0.03051212114733232 0 -0.00048016083856387392 0.030793375619206833 0 -0.00062882134942879135 0.030619764875221878 0 -0.00058478195985784505 0.030441250115550371 0 -0.00040690268970572461 0.03051212114733232 0 -0.00062882134942879135 0.030619764875221878 0 -0.00040690268970572461 0.03051212114733232 0 -0.00048016083856387392 0.030793375619206833 0 -0.00024113746968819181 0.030785789328614331 0 -1.3171981168209847e-07 0.031002462957637793 0 -0.00024113746968819181 0.030785789328614331 0 -4.0234624353809369e-06 0.03067693399885375 0 -1.3171981168209847e-07 0.031002462957637793 0 0.00021455605190015336 0.030816382244809523 0 -4.0234624353809369e-06 0.03067693399885375 0 0.00021455605190015336 0.030816382244809523 0 0.00019811673607771381 0.030563712162776917 0 -4.0234624353809369e-06 0.03067693399885375 0 -7.2234731001688609e-06 0.03035921323206333 0 -0.00018003749712270449 0.03053890181274278 0 -4.0234624353809369e-06 0.03067693399885375 0 -7.2234731001688609e-06 0.03035921323206333 0 0.00019811673607771381 0.030563712162776917 0 -4.0234624353809369e-06 0.03067693399885375 0 -0.00018003749712270449 0.03053890181274278 0 -0.00024113746968819181 0.030785789328614331 0 -4.0234624353809369e-06 0.03067693399885375 0 -6.4034436958824284e-05 0.02751414387274417 0 -0.00049287386281265152 0.026835232541370851 0 -0.00079699305989354343 0.026878326874390384 0 0.00019318639635185312 0.028133387501338904 0 -0.00085641625756495106 0.026714921783620241 0 -6.4034436958824284e-05 0.02751414387274417 0 -0.00022796018232698083 0.026932991671070869 0 -0.00049287386281265152 0.026835232541370851 0 -6.4034436958824284e-05 0.02751414387274417 0 -0.00022796018232698083 0.026932991671070869 0 2.358010870517766e-05 0.027086136911972258 0 -0.0010049005439716865 0.030724111272887097 0 -0.00072974741039358792 0.030850330140733018 0 -0.00083164238541809355 0.03066629098423513 0 -0.00072974741039358792 0.030850330140733018 0 -0.00062882134942879135 0.030619764875221878 0 -0.00083164238541809355 0.03066629098423513 0 -0.00048016083856387392 0.030793375619206833 0 -0.00072974741039358792 0.030850330140733018 0 -0.00062882134942879135 0.030619764875221878 0 -0.00062882134942879135 0.030619764875221878 0 -0.00077129969509066724 0.030557146041387678 0 -0.00083164238541809355 0.03066629098423513 0 -0.00077129969509066724 0.030557146041387678 0 -0.00083164238541809355 0.03066629098423513 0 -0.00085054179185248171 0.03053969813145492 0 -0.00077129969509066724 0.030557146041387678 0 -0.00085054179185248171 0.03053969813145492 0 -0.00078081638161641407 0.030443186579673834 0 -0.00077129969509066724 0.030557146041387678 0 -0.00069470586773626836 0.030486944447239907 0 -0.00078081638161641407 0.030443186579673834 0 -0.00058478195985784505 0.030441250115550371 0 -0.00062882134942879135 0.030619764875221878 0 -0.00069470586773626836 0.030486944447239907 0 -0.00062882134942879135 0.030619764875221878 0 -0.00077129969509066724 0.030557146041387678 0 -0.00069470586773626836 0.030486944447239907 0 -0.00048719607253971145 0.029140672795665814 0 -0.00078680348742964275 0.030057055322554364 0 -0.0010049005439716865 0.030724111272887097 0 -0.00097619882643995971 0.030606094424943688 0 -0.00083164238541809355 0.03066629098423513 0 -0.00097619882643995971 0.030606094424943688 0 -0.00083164238541809355 0.03066629098423513 0 -0.00085054179185248171 0.03053969813145492 0 -0.00097619882643995971 0.030606094424943688 0 -0.00085054179185248171 0.03053969813145492 0 -0.00086286704972705116 0.030381073890039342 0 -0.00078680348742964275 0.030057055322554364 0 -0.00082773304724201389 0.029925931778700569 0 -0.00097619882643995971 0.030606094424943688 0 -0.00085843751293384599 0.030273336311927052 0 -0.00086288210892823984 0.030092758994042838 0 -0.00086209461723573777 0.029980211308825239 0 -0.00081800378418740792 0.02977752472876917 0 -0.00089365616365547713 0.02972587169701759 0 -0.00097619882643995971 0.030606094424943688 0 -0.00086286704972705116 0.030381073890039342 0 -0.00085843751293384599 0.030273336311927052 0 -0.00085054179185248171 0.03053969813145492 0 -0.00086286704972705116 0.030381073890039342 0 -0.00078081638161641407 0.030443186579673834 0 -0.00086286704972705116 0.030381073890039342 0 -0.00085843751293384599 0.030273336311927052 0 -0.00081444613758981175 0.030285267574997825 0 -0.00058478195985784505 0.030441250115550371 0 -0.00070771184444018225 0.030372974316617361 0 -0.00062116894060386309 0.030284024939866296 0 -0.00058478195985784505 0.030441250115550371 0 -0.00069470586773626836 0.030486944447239907 0 -0.00070771184444018225 0.030372974316617361 0 -0.00070771184444018225 0.030372974316617361 0 -0.00078081638161641407 0.030443186579673834 0 -0.0007832042889259201 0.03034728907230775 0 -0.00069470586773626836 0.030486944447239907 0 -0.00070771184444018225 0.030372974316617361 0 -0.00078081638161641407 0.030443186579673834 0 -0.00086286704972705116 0.030381073890039342 0 -0.00078081638161641407 0.030443186579673834 0 -0.0007832042889259201 0.03034728907230775 0 -0.00070771184444018225 0.030372974316617361 0 -0.0007832042889259201 0.03034728907230775 0 -0.00074949924450819585 0.0302532062505767 0 -0.00086286704972705116 0.030381073890039342 0 -0.0007832042889259201 0.03034728907230775 0 -0.00081444613758981175 0.030285267574997825 0 -0.0007832042889259201 0.03034728907230775 0 -0.00081444613758981175 0.030285267574997825 0 -0.00074949924450819585 0.0302532062505767 0 -0.00085843751293384599 0.030273336311927052 0 -0.00081444613758981175 0.030285267574997825 0 -0.00080320939820337765 0.030227048457143798 0 -0.00081444613758981175 0.030285267574997825 0 -0.00074949924450819585 0.0302532062505767 0 -0.00080320939820337765 0.030227048457143798 0 -0.00070771184444018225 0.030372974316617361 0 -0.00074949924450819585 0.0302532062505767 0 -0.00062116894060386309 0.030284024939866296 0 -0.00074949924450819585 0.0302532062505767 0 -0.00062116894060386309 0.030284024939866296 0 -0.00069322510359345597 0.030173982922825068 0 -0.00057605819237119976 0.030153387829183229 0 -0.00062116894060386309 0.030284024939866296 0 -0.00069322510359345597 0.030173982922825068 0 -0.00057605819237119976 0.030153387829183229 0 -0.00069322510359345597 0.030173982922825068 0 -0.00065868449212663283 0.030090828493721827 0 -0.00069322510359345597 0.030173982922825068 0 -0.00074640742274224446 0.030119475604460388 0 -0.00065868449212663283 0.030090828493721827 0 -0.00069322510359345597 0.030173982922825068 0 -0.00074640742274224446 0.030119475604460388 0 -0.0007699890628038022 0.030177260263463724 0 -0.00074640742274224446 0.030119475604460388 0 -0.0007699890628038022 0.030177260263463724 0 -0.00080473649551077977 0.030120712120589768 0 -0.00074949924450819585 0.0302532062505767 0 -0.00069322510359345597 0.030173982922825068 0 -0.0007699890628038022 0.030177260263463724 0 -0.0007699890628038022 0.030177260263463724 0 -0.00080320939820337765 0.030227048457143798 0 -0.00082328428134752771 0.030166084358834246 0 -0.00074949924450819585 0.0302532062505767 0 -0.0007699890628038022 0.030177260263463724 0 -0.00080320939820337765 0.030227048457143798 0 -0.00085843751293384599 0.030273336311927052 0 -0.00080320939820337765 0.030227048457143798 0 -0.00082328428134752771 0.030166084358834246 0 -0.00082328428134752771 0.030166084358834246 0 -0.00080473649551077977 0.030120712120589768 0 -0.00086288210892823984 0.030092758994042838 0 -0.0007699890628038022 0.030177260263463724 0 -0.00082328428134752771 0.030166084358834246 0 -0.00080473649551077977 0.030120712120589768 0 -0.00079801958887976599 0.030019916048313999 0 -0.00086288210892823984 0.030092758994042838 0 -0.00077764769810653028 0.029939507006753262 0 -0.0008052890456192093 0.030076218956836893 0 -0.00079801958887976599 0.030019916048313999 0 -0.00086288210892823984 0.030092758994042838 0 -0.00080473649551077977 0.030120712120589768 0 -0.0008052890456192093 0.030076218956836893 0 -0.00086288210892823984 0.030092758994042838 0 -0.00074640742274224446 0.030119475604460388 0 -0.00080473649551077977 0.030120712120589768 0 -0.0008052890456192093 0.030076218956836893 0 -0.00079801958887976599 0.030019916048313999 0 -0.00069485665868048558 0.030016224323750451 0 -0.00073389571007599164 0.029949826586108317 0 -0.0008052890456192093 0.030076218956836893 0 -0.00079801958887976599 0.030019916048313999 0 -0.00069485665868048558 0.030016224323750451 0 -0.00074640742274224446 0.030119475604460388 0 -0.0008052890456192093 0.030076218956836893 0 -0.00069485665868048558 0.030016224323750451 0 -0.00053923114304054115 0.030017875939214501 0 -0.00065868449212663283 0.030090828493721827 0 -0.0006301654317276608 0.029969771362726626 0 -0.00065868449212663283 0.030090828493721827 0 -0.00069485665868048558 0.030016224323750451 0 -0.0006301654317276608 0.029969771362726626 0 -0.00074640742274224446 0.030119475604460388 0 -0.00065868449212663283 0.030090828493721827 0 -0.00069485665868048558 0.030016224323750451 0 -0.00085843751293384599 0.030273336311927052 0 -0.00082328428134752771 0.030166084358834246 0 -0.00086288210892823984 0.030092758994042838 0 -0.00048719607253971145 0.029140672795665814 0 -0.00043129335989349247 0.027381884690935769 0 -0.00018050067056423399 0.026430905744189707 0 -0.00043129335989349247 0.027381884690935769 0 -0.00086850024917759709 0.030027879689380914 0 -0.00086209461723573777 0.029980211308825239 0 -0.0009849059050235059 0.029709830800058283 0 -0.00086209461723573777 0.029980211308825239 0 -0.0009849059050235059 0.029709830800058283 0 -0.00089365616365547713 0.02972587169701759 0 -0.00022796018232698083 0.026932991671070869 0 2.358010870517766e-05 0.027086136911972258 0 -0.00019576394771307772 0.02631867122722829 0 -0.00022796018232698083 0.026932991671070869 0 -0.00044557514922474907 0.026486636348432794 0 -0.00024437327292220148 0.026139596376829465 0 -0.00022796018232698083 0.026932991671070869 0 -0.00049287386281265152 0.026835232541370851 0 -0.00044557514922474907 0.026486636348432794 0 -0.00044557514922474907 0.026486636348432794 0 -0.00049353100070349658 0.02607860903190156 0 -0.00024437327292220148 0.026139596376829465 0 -0.0009849059050235059 0.029709830800058283 0 -0.00084225304767212455 0.029645236281496238 0 -0.0010018550226235025 0.029149536655099249 0 -0.00049353100070349658 0.02607860903190156 0 -0.00024437327292220148 0.026139596376829465 0 -0.00045660932149041563 0.025751938738337744 0 -0.00043129335989349247 0.027381884690935769 0 -0.00043671858659098353 0.025794780226439828 0 -0.00079922306690890057 0.029891811733958717 0 -0.00074580815442469985 0.029519348090052227 0 -0.00070607454370775471 0.029524981705781373 0 -0.00082773304724201389 0.029925931778700569 0 -0.00072647403103005294 0.029595846214663619 0 -0.00082773304724201389 0.029925931778700569 0 -0.00075173778077992296 0.029518115181512216 0 -0.00081800378418740792 0.02977752472876917 0 -0.00082876704446845409 0.029667969508106289 0 -0.00074580815442469985 0.029519348090052227 0 -0.00086288210892823984 0.030092758994042838 0 -0.0007479712652000562 0.029788022971477607 0 -0.00070607454370775471 0.029524981705781373 0 -0.00086288210892823984 0.030092758994042838 0 -0.00077764769810653028 0.029939507006753262 0 -0.0007479712652000562 0.029788022971477607 0 -0.00065848937284815681 0.029819259635755636 0 -0.00059113263300619289 0.029871818347891571 0 -0.00061409720629244501 0.029742789506586445 0 -0.00068090160321505801 0.029773118169772409 0 -0.00065848937284815681 0.029819259635755636 0 -0.00061409720629244501 0.029742789506586445 0 -0.00065848937284815681 0.029819259635755636 0 -0.0007031285681487118 0.029827809335018884 0 -0.00067566511894115206 0.029885821853091139 0 -0.00068090160321505801 0.029773118169772409 0 -0.00065848937284815681 0.029819259635755636 0 -0.0007031285681487118 0.029827809335018884 0 -0.0007031285681487118 0.029827809335018884 0 -0.00067566511894115206 0.029885821853091139 0 -0.00073107401845033269 0.029876725610460786 0 -0.00065848937284815681 0.029819259635755636 0 -0.00059113263300619289 0.029871818347891571 0 -0.00067566511894115206 0.029885821853091139 0 -0.00059113263300619289 0.029871818347891571 0 -0.0006301654317276608 0.029969771362726626 0 -0.00067566511894115206 0.029885821853091139 0 -0.00069485665868048558 0.030016224323750451 0 -0.0006301654317276608 0.029969771362726626 0 -0.00073389571007599164 0.029949826586108317 0 -0.0006301654317276608 0.029969771362726626 0 -0.00067566511894115206 0.029885821853091139 0 -0.00073389571007599164 0.029949826586108317 0 -0.00073107401845033269 0.029876725610460786 0 -0.00073389571007599164 0.029949826586108317 0 -0.00077764769810653028 0.029939507006753262 0 -0.00067566511894115206 0.029885821853091139 0 -0.00073107401845033269 0.029876725610460786 0 -0.00073389571007599164 0.029949826586108317 0 -0.00073107401845033269 0.029876725610460786 0 -0.00077764769810653028 0.029939507006753262 0 -0.0007479712652000562 0.029788022971477607 0 -0.00079801958887976599 0.030019916048313999 0 -0.00073389571007599164 0.029949826586108317 0 -0.00077764769810653028 0.029939507006753262 0 -0.0007031285681487118 0.029827809335018884 0 -0.00073107401845033269 0.029876725610460786 0 -0.0007479712652000562 0.029788022971477607 0 -0.00068090160321505801 0.029773118169772409 0 -0.0007479712652000562 0.029788022971477607 0 -0.00068225026369195772 0.029687712579957452 0 -0.00068090160321505801 0.029773118169772409 0 -0.0007031285681487118 0.029827809335018884 0 -0.0007479712652000562 0.029788022971477607 0 -0.0009849059050235059 0.029709830800058283 0 -0.00084225304767212455 0.029645236281496238 0 -0.00089365616365547713 0.02972587169701759 0 -0.00081800378418740792 0.02977752472876917 0 -0.00082876704446845409 0.029667969508106289 0 -0.00089365616365547713 0.02972587169701759 0 -0.00084225304767212455 0.029645236281496238 0 -0.00082876704446845409 0.029667969508106289 0 -0.00089365616365547713 0.02972587169701759 0 -0.00084225304767212455 0.029645236281496238 0 -0.00082876704446845409 0.029667969508106289 0 -0.00074580815442469985 0.029519348090052227 0 -0.0007479712652000562 0.029788022971477607 0 -0.00070607454370775471 0.029524981705781373 0 -0.00068225026369195772 0.029687712579957452 0 -0.00070607454370775471 0.029524981705781373 0 -0.00062372836577800526 0.029622349925194733 0 -0.00068225026369195772 0.029687712579957452 0 -0.00070607454370775471 0.029524981705781373 0 -0.00059840246061322545 0.029526713629027521 0 -0.00062372836577800526 0.029622349925194733 0 -0.00052537080899930303 0.029644959502502403 0 -0.00062372836577800526 0.029622349925194733 0 -0.00061409720629244501 0.029742789506586445 0 -0.00068090160321505801 0.029773118169772409 0 -0.00068225026369195772 0.029687712579957452 0 -0.00061409720629244501 0.029742789506586445 0 -0.00062372836577800526 0.029622349925194733 0 -0.00068225026369195772 0.029687712579957452 0 -0.00061409720629244501 0.029742789506586445 0 -0.00084225304767212455 0.029645236281496238 0 -0.00074580815442469985 0.029519348090052227 0 -0.0010018550226235025 0.029149536655099249 0 -0.00074580815442469985 0.029519348090052227 0 -0.00071655238200720188 0.029231868484425255 0 -0.0010018550226235025 0.029149536655099249 0 -0.00074580815442469985 0.029519348090052227 0 -0.00067273109253982268 0.029389922867633516 0 -0.00071655238200720188 0.029231868484425255 0 -0.00070607454370775471 0.029524981705781373 0 -0.00059840246061322545 0.029526713629027521 0 -0.00067273109253982268 0.029389922867633516 0 -0.00048512865821556927 0.029453108326770915 0 -0.00059840246061322545 0.029526713629027521 0 -0.00067273109253982268 0.029389922867633516 0 -0.00074580815442469985 0.029519348090052227 0 -0.00070607454370775471 0.029524981705781373 0 -0.00067273109253982268 0.029389922867633516 0 -0.00045365827619628043 0.029180708541161161 0 -0.00067273109253982268 0.029389922867633516 0 -0.00071655238200720188 0.029231868484425255 0 -0.00024280941240184989 0.026968714487669337 0 -0.00018090959469965672 0.026030371158128743 0 -0.0004272947624731218 0.026185497672742777 0 -0.00043129335989349247 0.027381884690935769 0 -0.00052385866058323263 0.027662890062401982 0 -0.00045660932149041563 0.025751938738337744 0 -0.00054786767988660779 0.025476274653809958 0 -0.00059940366842452003 0.025641047197969242 0 -0.00018090959469965672 0.026030371158128743 0 -0.00015790761489828148 0.025250831048468529 0 -0.00054786767988660779 0.025476274653809958 0 -0.00018090959469965672 0.026030371158128743 0 -0.0004272947624731218 0.026185497672742777 0 -0.00054786767988660779 0.025476274653809958 0 -0.00043671858659098353 0.025794780226439828 0 -0.00053460075809624375 0.025580045199588876 0 -0.00052385866058323263 0.027662890062401982 0 -0.0012571069492782524 0.027420998924458945 0 -0.00015790761489828148 0.025250831048468529 0 -0.00065826076783455215 0.025050540320783944 0 -0.00054786767988660779 0.025476274653809958 0 -0.0030320005042154688 0.0297751938346692 0 -0.0015342340229047499 0.030478702241754176 0 -0.001875680831029263 0.029488589458950852 0 -0.0012571069492782524 0.027420998924458945 0 -0.00096865344459318061 0.02965026299217741 0 -0.00096643719979935924 0.028394017330597179 0 -0.0006564715762764538 0.028912876123396544 0 -0.00031872163411799086 0.028691435535863927 0 -0.0010018550226235025 0.029149536655099249 0 -0.00096643719979935924 0.028394017330597179 0 -0.0006564715762764538 0.028912876123396544 0 -0.00071655238200720188 0.029231868484425255 0 -0.0010018550226235025 0.029149536655099249 0 -0.0006564715762764538 0.028912876123396544 0 -0.00045365827619628043 0.029180708541161161 0 -0.00071655238200720188 0.029231868484425255 0 -0.0006564715762764538 0.028912876123396544 0 -0.00011448789214264466 0.029175125629632745 0 -0.00045365827619628043 0.029180708541161161 0 -0.00031872163411799086 0.028691435535863927 0 -0.00045365827619628043 0.029180708541161161 0 -0.0006564715762764538 0.028912876123396544 0 -0.00031872163411799086 0.028691435535863927 0 -0.00026907076181612483 0.031199378620892466 0 -0.00096865344459318061 0.02965026299217741 0 0.00035824132954900351 0.028989482948463693 0 -0.00011448789214264466 0.029175125629632745 0 -0.00031872163411799086 0.028691435535863927 0 -3.563730394126539e-05 0.031166271031973482 0 -0.00033781262202069423 0.029766908243219713 0 -0.0015342340229047499 0.030478702241754176 0 -0.00033781262202069423 0.029766908243219713 0 -0.0015342340229047499 0.030478702241754176 0 -0.001875680831029263 0.029488589458950852 0 -0.00033781262202069423 0.029766908243219713 0 -0.001875680831029263 0.029488589458950852 0 -0.0013470967782833259 0.028922061517612084 0 -0.001875680831029263 0.029488589458950852 0 -0.0013470967782833259 0.028922061517612084 0 -0.0021478237733000018 0.028777246643837833 0 -4.7668156401685777e-05 0.034932336159382842 0 -4.86539496120973e-05 0.034926814133190438 0 -5.0888522947450146e-05 0.034919511536972932 0 -0.00033781262202069423 0.029766908243219713 0 -0.0013470967782833259 0.028922061517612084 0 -0.00064295447275150304 0.028362146856179857 0 -0.00016386120879617724 0.032493649819010199 0 -0.00037417402830238665 0.031571466472691483 0 -0.0013470967782833259 0.028922061517612084 0 -0.00064295447275150304 0.028362146856179857 0 -0.001735845211906666 0.028207630552433156 0 -0.00064295447275150304 0.028362146856179857 0 -0.001735845211906666 0.028207630552433156 0 -0.0013261879092040588 0.027620737827211139 0 -0.0013470967782833259 0.028922061517612084 0 -0.001735845211906666 0.028207630552433156 0 -0.0021478237733000018 0.028777246643837833 0 -0.001735845211906666 0.028207630552433156 0 -0.0023264850608554766 0.028367956548875129 0 -0.0021478237733000018 0.028777246643837833 0 -0.001735845211906666 0.028207630552433156 0 -0.0018332605048469405 0.027663509263850247 0 -0.0013261879092040588 0.027620737827211139 0 -0.001735845211906666 0.028207630552433156 0 -0.0024434469803090815 0.027895689319019926 0 -0.0018332605048469405 0.027663509263850247 0 -0.0024434469803090815 0.027895689319019926 0 -0.0029506806128203897 0.028655154348983424 0 -0.0028657205963364819 0.027241433898569523 0 -0.0021123156580581037 0.025710100817608484 0 -0.0027014561367804573 0.024467141552475771 0 -0.001735845211906666 0.028207630552433156 0 -0.0024434469803090815 0.027895689319019926 0 -0.0023264850608554766 0.028367956548875129 0 -0.0023264850608554766 0.028367956548875129 0 -0.0027452372857745479 0.028581737634905159 0 -0.0021478237733000018 0.028777246643837833 0 -0.0024434469803090815 0.027895689319019926 0 -0.0023264850608554766 0.028367956548875129 0 -0.0027452372857745479 0.028581737634905159 0 -0.0024434469803090815 0.027895689319019926 0 -0.0027452372857745479 0.028581737634905159 0 -0.0029506806128203897 0.028655154348983424 0 -0.0026277285303631902 0.026229925723124489 0 -0.0021123156580581037 0.025710100817608484 0 -0.0021920925990022151 0.021760084271356499 0 -0.0023676053808860849 0.02165631096005376 0 -0.0024431664110348018 0.021907907101418416 0 -0.0021920925990022151 0.021760084271356499 0 -0.0023676053808860849 0.02165631096005376 0 -0.0020787373501425939 0.021562415754996022 0 -0.0014933830608680472 0.025679502061540734 0 -0.0014818742035203173 0.025499767089706062 0 -0.0016983781122412987 0.025569048425281741 0 -0.0021123156580581037 0.025710100817608484 0 -0.0013484193686518994 0.023679619307179999 0 -0.0012571069492782524 0.027420998924458945 0 -0.0013484193686518994 0.023679619307179999 0 -0.0012571069492782524 0.027420998924458945 0 -0.0021123156580581037 0.025710100817608484 0 -0.0030320005042154688 0.0297751938346692 0 -0.0025570871753639933 0.029066343194391952 0 -0.002947613226966518 0.02865525996910856 0 -0.0030320005042154688 0.0297751938346692 0 -0.001875680831029263 0.029488589458950852 0 -0.0025570871753639933 0.029066343194391952 0 -0.001875680831029263 0.029488589458950852 0 -0.0025570871753639933 0.029066343194391952 0 -0.0021478237733000018 0.028777246643837833 0 -0.0027452372857745479 0.028581737634905159 0 -0.0025570871753639933 0.029066343194391952 0 -0.0021478237733000018 0.028777246643837833 0 -0.0027452372857745479 0.028581737634905159 0 -0.0025570871753639933 0.029066343194391952 0 -0.002947613226966518 0.02865525996910856 0 -0.0018524223299130661 0.022983852527297545 0 -0.0017477724612175733 0.023387768299758749 0 -0.0010626080607179672 0.023135126937934167 0 -0.0013484193686518994 0.023679619307179999 0 -0.0020160540248391327 0.021974104191396553 0 -0.0018524223299130661 0.022983852527297545 0 -0.0010626080607179672 0.023135126937934167 0 -0.0020186410038351955 0.022695722881518582 0 -0.001704839741358481 0.022755352208414802 0 -0.0020160540248391327 0.021974104191396553 0 -0.0018059454727136959 0.021954441711288145 0 -0.0018251366202450604 0.021903950487774305 0 -0.0018466310657413425 0.021936744261590299 0 -0.0018524223299130661 0.022983852527297545 0 -0.0018714514490025863 0.023072356339535201 0 -0.0020186410038351955 0.022695722881518582 0 -0.0018251366202450604 0.021903950487774305 0 -0.001844803382371801 0.021894319848718227 0 -0.0018466310657413425 0.021936744261590299 0 -0.0017185154195346422 0.022798904704825446 0 -0.001704839741358481 0.022755352208414802 0 -0.001704839741358481 0.022755352208414802 0 -0.0014171882432655726 0.023330917029490039 0 -0.001704839741358481 0.022755352208414802 0 -0.0014078742869780426 0.023980597755597636 0 -0.0018059454727136959 0.021954441711288145 0 -0.0018466310657413425 0.021936744261590299 0 -0.0018177922516734507 0.022006614578426408 0 -0.0016090262704913088 0.023128165612974722 0 -0.0014780317147189176 0.023459827987696177 0 -0.0016963468464012371 0.023540944696199211 0 -0.0018524223299130661 0.022983852527297545 0 -0.0018713626839939913 0.023072660192102343 0 -0.0017477724612175733 0.023387768299758749 0 -0.00096365387942906556 0.025184050108071579 0 -0.00065826076783455215 0.025050540320783944 0 -0.00074155822979027352 0.025321827441346249 0 -0.0020787373501425939 0.021562415754996022 0 -0.0020155305781908986 0.021718353562120176 0 -0.001855215560512487 0.021681385083389289 0 -0.0014078742869780426 0.023980597755597636 0 -0.0013484193686518994 0.023679619307179999 0 -0.0021920925990022151 0.021760084271356499 0 -0.0020787373501425939 0.021562415754996022 0 -0.0020155305781908986 0.021718353562120176 0 -0.0021920925990022151 0.021760084271356499 0 -0.0020155305781908986 0.021718353562120176 0 -0.002032270574969088 0.021838963610622056 0 -0.0020155305781908986 0.021718353562120176 0 -0.0019099482600166927 0.021790958939094954 0 -0.002032270574969088 0.021838963610622056 0 -0.0020155305781908986 0.021718353562120176 0 -0.0019099482600166927 0.021790958939094954 0 -0.001855215560512487 0.021681385083389289 0 -0.0019099482600166927 0.021790958939094954 0 -0.001855215560512487 0.021681385083389289 0 -0.0018435394038876943 0.02182471579442051 0 -0.0020160540248391327 0.021974104191396553 0 -0.0019499995515012826 0.02197918456322363 0 -0.0020160540248391327 0.021974104191396553 0 -0.001852840785948655 0.021780408018585877 0 -0.0018746465459780477 0.021863813240862458 0 -0.001844803382371801 0.021894319848718227 0 -0.0018435394038876943 0.02182471579442051 0 -0.0018299033626575938 0.021902600442690656 0 -0.001844803382371801 0.021894319848718227 0 -0.0018435394038876943 0.02182471579442051 0 -0.0018746465459780477 0.021863813240862458 0 -0.0018992522889740065 0.021834810869757228 0 -0.0018435394038876943 0.02182471579442051 0 -0.0018746465459780477 0.021863813240862458 0 -0.0019337100326718168 0.021867051170704865 0 -0.0018992522889740065 0.021834810869757228 0 -0.0018746465459780477 0.021863813240862458 0 -0.0019073664220534356 0.021898448984389675 0 -0.0019337100326718168 0.021867051170704865 0 -0.0018746465459780477 0.021863813240862458 0 -0.0019073664220534356 0.021898448984389675 0 -0.0018752078924871233 0.02189252218668564 0 -0.0019073664220534356 0.021898448984389675 0 -0.0018752078924871233 0.02189252218668564 0 -0.0018755629709992904 0.02191424839875121 0 -0.0018752078924871233 0.02189252218668564 0 -0.001844803382371801 0.021894319848718227 0 -0.0018755629709992904 0.02191424839875121 0 -0.0018746465459780477 0.021863813240862458 0 -0.0018752078924871233 0.02189252218668564 0 -0.001844803382371801 0.021894319848718227 0 -0.0019856538084813721 0.021872748135161896 0 -0.0020374508938291818 0.021829211584899502 0 -0.0019810824642980196 0.021820617238511236 0 -0.0019337100326718168 0.021867051170704865 0 -0.0019856538084813721 0.021872748135161896 0 -0.0019810824642980196 0.021820617238511236 0 -0.0019337100326718168 0.021867051170704865 0 -0.0019810824642980196 0.021820617238511236 0 -0.0018992522889740065 0.021834810869757228 0 -0.0019073664220534356 0.021898448984389675 0 -0.0019337100326718168 0.021867051170704865 0 -0.0019575228906794956 0.021909099349462093 0 -0.0019337100326718168 0.021867051170704865 0 -0.0019856538084813721 0.021872748135161896 0 -0.0019575228906794956 0.021909099349462093 0 -0.0019856538084813721 0.021872748135161896 0 -0.0019575228906794956 0.021909099349462093 0 -0.002026313458040661 0.021908768074217978 0 -0.0019848659819273603 0.021955931811591226 0 -0.0019102251402442522 0.021951201157008673 0 -0.0019710089642602717 0.022042547159311032 0 -0.0019575228906794956 0.021909099349462093 0 -0.0019848659819273603 0.021955931811591226 0 -0.002026313458040661 0.021908768074217978 0 -0.0019575228906794956 0.021909099349462093 0 -0.0019848659819273603 0.021955931811591226 0 -0.0019102251402442522 0.021951201157008673 0 -0.0018466310657413425 0.021936744261590299 0 -0.0019102251402442522 0.021951201157008673 0 -0.0018177922516734507 0.022006614578426408 0 -0.0018466310657413425 0.021936744261590299 0 -0.0018755629709992904 0.02191424839875121 0 -0.0019102251402442522 0.021951201157008673 0 -0.001844803382371801 0.021894319848718227 0 -0.0018466310657413425 0.021936744261590299 0 -0.0018755629709992904 0.02191424839875121 0 -0.0019073664220534356 0.021898448984389675 0 -0.0019575228906794956 0.021909099349462093 0 -0.0019102251402442522 0.021951201157008673 0 -0.0019073664220534356 0.021898448984389675 0 -0.0018755629709992904 0.02191424839875121 0 -0.0019102251402442522 0.021951201157008673 0 -0.0019102251402442522 0.021951201157008673 0 -0.0019710089642602717 0.022042547159311032 0 -0.0018177922516734507 0.022006614578426408 0 -0.002291812008061599 0.023810621783400949 0 -0.001446174658060702 0.024259421049526077 0 -0.0012685251272169663 0.023429025701526881 0 -0.0022634123866701154 0.023204257969748166 0 -0.0014171882432655726 0.023330917029490039 0 -0.002291812008061599 0.023810621783400949 0 -0.0020166714219027604 0.024436226443855957 0 -0.0026808035353260125 0.024428022018669174 0 -0.0020166714219027604 0.024436226443855957 0 -0.0022137905099128565 0.024888152431723102 0 -0.0026808035353260125 0.024428022018669174 0 -0.002291812008061599 0.023810621783400949 0 -0.0020166714219027604 0.024436226443855957 0 -0.001446174658060702 0.024259421049526077 0 -0.0020166714219027604 0.024436226443855957 0 -0.001446174658060702 0.024259421049526077 0 -0.001619866995071814 0.025109243736514967 0 -0.00163903767256231 0.024776283270694789 0 -0.0010529751341329698 0.024666060052160224 0 -0.0013129630042027383 0.02530312292826117 0 -0.00163903767256231 0.024776283270694789 0 -0.0014831316413075216 0.024049521697124359 0 -0.0010529751341329698 0.024666060052160224 0 -0.0013170329501076684 0.023988079740505781 0 -0.0014831316413075216 0.024049521697124359 0 -0.0010529751341329698 0.024666060052160224 0 -0.0015489308273256082 0.024595452580422499 0 -0.0014171882432655726 0.023330917029490039 0 -0.00096365387942906556 0.025184050108071579 0 -0.00074155822979027352 0.025321827441346249 0 -0.0007746157884868241 0.025545416700974707 0 -0.0014078742869780426 0.023980597755597636 0 -0.00086597550053354837 0.025220074685589084 0 -0.0014078742869780426 0.023980597755597636 0 -0.0014171882432655726 0.023330917029490039 0 -0.00065826076783455215 0.025050540320783944 0 -0.00074155822979027352 0.025321827441346249 0 -0.00054786767988660779 0.025476274653809958 0 -0.00074155822979027352 0.025321827441346249 0 -0.00054786767988660779 0.025476274653809958 0 -0.0007746157884868241 0.025545416700974707 0 -0.0007746157884868241 0.025545416700974707 0 -0.00059940366842452003 0.025641047197969242 0 -0.00062807944267263111 0.025787981609563061 0 -0.00086597550053354837 0.025220074685589084 0 -0.00071510497015816836 0.025544296720465796 0 -0.00054786767988660779 0.025476274653809958 0 -0.0007746157884868241 0.025545416700974707 0 -0.00059940366842452003 0.025641047197969242 0 -0.00045660932149041563 0.025751938738337744 0 -0.00059940366842452003 0.025641047197969242 0 -0.00062807944267263111 0.025787981609563061 0 -0.0010529751341329698 0.024666060052160224 0 -0.00078565905810128341 0.025329427615512073 0 -0.0013129630042027383 0.02530312292826117 0 -0.00049353100070349658 0.02607860903190156 0 -0.00045660932149041563 0.025751938738337744 0 -0.00062807944267263111 0.025787981609563061 0 -0.00078565905810128341 0.025329427615512073 0 -0.0013129630042027383 0.02530312292826117 0 -0.001145123454430075 0.025619818511817254 0 -0.00078565905810128341 0.025329427615512073 0 -0.001145123454430075 0.025619818511817254 0 -0.00088255507827234687 0.025811788428757174 0 -0.00163903767256231 0.024776283270694789 0 -0.0013129630042027383 0.02530312292826117 0 -0.0017826453259364283 0.025499017456255067 0 -0.0013129630042027383 0.02530312292826117 0 -0.0015572812374974384 0.025757103979063303 0 -0.001145123454430075 0.025619818511817254 0 -0.0013129630042027383 0.02530312292826117 0 -0.0015572812374974384 0.025757103979063303 0 -0.0017826453259364283 0.025499017456255067 0 -0.0015572812374974384 0.025757103979063303 0 -0.001145123454430075 0.025619818511817254 0 -0.0011683293552197016 0.02589224146348364 0 -0.0011683293552197016 0.02589224146348364 0 -0.0011433528661583638 0.026132104978375831 0 -0.0013980713834092118 0.026103696956850924 0 -0.0015572812374974384 0.025757103979063303 0 -0.0011683293552197016 0.02589224146348364 0 -0.0013980713834092118 0.026103696956850924 0 -0.0015572812374974384 0.025757103979063303 0 -0.0013980713834092118 0.026103696956850924 0 -0.0017186988004371515 0.026175798299438349 0 -0.00050935787253096848 0.026043085964239196 0 -0.00071510497015816836 0.025544296720465796 0 -0.00049353100070349658 0.02607860903190156 0 -0.00078565905810128341 0.025329427615512073 0 -0.00088255507827234687 0.025811788428757174 0 -0.001145123454430075 0.025619818511817254 0 -0.0011683293552197016 0.02589224146348364 0 -0.00088255507827234687 0.025811788428757174 0 -0.0011683293552197016 0.02589224146348364 0 -0.00088255507827234687 0.025811788428757174 0 -0.00089199499506242017 0.026164790509612356 0 -0.0011683293552197016 0.02589224146348364 0 -0.0011433528661583638 0.026132104978375831 0 -0.00089199499506242017 0.026164790509612356 0 -0.00049353100070349658 0.02607860903190156 0 -0.00088255507827234687 0.025811788428757174 0 -0.00089199499506242017 0.026164790509612356 0 -0.00049353100070349658 0.02607860903190156 0 -0.00089199499506242017 0.026164790509612356 0 -0.00075141845497055592 0.026510632557759751 0 -0.00044557514922474907 0.026486636348432794 0 -0.00049353100070349658 0.02607860903190156 0 -0.00075141845497055592 0.026510632557759751 0 -0.00049287386281265152 0.026835232541370851 0 -0.00044557514922474907 0.026486636348432794 0 -0.00075141845497055592 0.026510632557759751 0 -0.00049287386281265152 0.026835232541370851 0 -0.00075141845497055592 0.026510632557759751 0 -0.00079699305989354343 0.026878326874390384 0 -0.00075141845497055592 0.026510632557759751 0 -0.0011281299816625749 0.026427550968016824 0 -0.00079699305989354343 0.026878326874390384 0 -0.00089199499506242017 0.026164790509612356 0 -0.00075141845497055592 0.026510632557759751 0 -0.0011281299816625749 0.026427550968016824 0 -0.0011433528661583638 0.026132104978375831 0 -0.00089199499506242017 0.026164790509612356 0 -0.0011281299816625749 0.026427550968016824 0 -0.0011433528661583638 0.026132104978375831 0 -0.0013980713834092118 0.026103696956850924 0 -0.0011281299816625749 0.026427550968016824 0 -0.0013980713834092118 0.026103696956850924 0 -0.0011281299816625749 0.026427550968016824 0 -0.0013973943297942387 0.026394879975231347 0 -0.0013980713834092118 0.026103696956850924 0 -0.0013973943297942387 0.026394879975231347 0 -0.0017186988004371515 0.026175798299438349 0 -0.0013973943297942387 0.026394879975231347 0 -0.0013492038072470717 0.026830130882037194 0 -0.0017186988004371515 0.026175798299438349 0 -0.0011281299816625749 0.026427550968016824 0 -0.0013492038072470717 0.026830130882037194 0 -0.00079699305989354343 0.026878326874390384 0 -0.0011281299816625749 0.026427550968016824 0 -0.0013973943297942387 0.026394879975231347 0 -0.0013492038072470717 0.026830130882037194 0 -0.0013492038072470717 0.026830130882037194 0 -0.0018793615576221815 0.027482910727260248 0 -0.0017186988004371515 0.026175798299438349 0 -0.0013492038072470717 0.026830130882037194 0 -0.0012397129397784847 0.027455648938057568 0 -0.0018793615576221815 0.027482910727260248 0 -0.0013492038072470717 0.026830130882037194 0 -0.0012397129397784847 0.027455648938057568 0 -0.00079699305989354343 0.026878326874390384 0 -0.00088821368203942201 0.027917753760768462 0 -0.0012397129397784847 0.027455648938057568 0 -0.00079699305989354343 0.026878326874390384 0 -0.0024953578859687694 0.026555399258434823 0 -0.0023858657616158117 0.026870201188462679 0 -0.0021244493204733046 0.026441244162776132 0 -0.0024953578859687694 0.026555399258434823 0 -0.0023858657616158117 0.026870201188462679 0 -0.0027639377821183776 0.026692853428342597 0 -0.0023858657616158117 0.026870201188462679 0 -0.0017580568045298167 0.026923113964292648 0 -0.0021244493204733046 0.026441244162776132 0 -0.0017580568045298167 0.026923113964292648 0 -0.0017186988004371515 0.026175798299438349 0 -0.0021244493204733046 0.026441244162776132 0 -0.0018003388609963886 0.027179264269691614 0 -0.0017318543218673885 0.026241085533125864 0 -0.0019073666352801416 0.026069011305212792 0 -0.0022545147314672847 0.02605020825430639 0 -0.0021251280050087009 0.02579371900633326 0 -0.0019073666352801416 0.026069011305212792 0 -0.0022545147314672847 0.02605020825430639 0 -0.0021244493204733046 0.026441244162776132 0 -0.0017186988004371515 0.026175798299438349 0 -0.0019073666352801416 0.026069011305212792 0 -0.0021244493204733046 0.026441244162776132 0 -0.0024953578859687694 0.026555399258434823 0 -0.0021244493204733046 0.026441244162776132 0 -0.0024274623582362658 0.0263111849564556 0 -0.0022545147314672847 0.02605020825430639 0 -0.0021244493204733046 0.026441244162776132 0 -0.0024274623582362658 0.0263111849564556 0 -0.0024274623582362658 0.0263111849564556 0 -0.0026161894784132223 0.026085594088897539 0 -0.0027262452349719065 0.026371396924548322 0 -0.0024953578859687694 0.026555399258434823 0 -0.0024274623582362658 0.0263111849564556 0 -0.0027262452349719065 0.026371396924548322 0 -0.0022545147314672847 0.02605020825430639 0 -0.0024274623582362658 0.0263111849564556 0 -0.0026161894784132223 0.026085594088897539 0 -0.0026161894784132223 0.026085594088897539 0 -0.0024779631072343157 0.025869072532931279 0 -0.0028252378895705053 0.025874410233766826 0 -0.0022545147314672847 0.02605020825430639 0 -0.0026161894784132223 0.026085594088897539 0 -0.0024779631072343157 0.025869072532931279 0 -0.0024779631072343157 0.025869072532931279 0 -0.0026344730165704868 0.025572593021615367 0 -0.0023265215381176011 0.025633745607362424 0 -0.0024779631072343157 0.025869072532931279 0 -0.0026344730165704868 0.025572593021615367 0 -0.0028252378895705053 0.025874410233766826 0 -0.0022545147314672847 0.02605020825430639 0 -0.0024779631072343157 0.025869072532931279 0 -0.0023265215381176011 0.025633745607362424 0 -0.0022545147314672847 0.02605020825430639 0 -0.0023265215381176011 0.025633745607362424 0 -0.0021251280050087009 0.02579371900633326 0 -0.0023265215381176011 0.025633745607362424 0 -0.0021251280050087009 0.02579371900633326 0 -0.0020349866441463568 0.025413480421625417 0 -0.0023265215381176011 0.025633745607362424 0 -0.0020349866441463568 0.025413480421625417 0 -0.0024350519831399281 0.025251820651447286 0 -0.0026344730165704868 0.025572593021615367 0 -0.0023265215381176011 0.025633745607362424 0 -0.0024350519831399281 0.025251820651447286 0 -0.0026344730165704868 0.025572593021615367 0 -0.0024350519831399281 0.025251820651447286 0 -0.0027902672797815091 0.025268902767067215 0 -0.0018836731451252694 0.026010109300520813 0 -0.0017073340302838961 0.025296242063968022 0 -0.0015572812374974384 0.025757103979063303 0 -0.0019073666352801416 0.026069011305212792 0 -0.0017826453259364283 0.025499017456255067 0 -0.0019073666352801416 0.026069011305212792 0 -0.0020349866441463568 0.025413480421625417 0 -0.001619866995071814 0.025109243736514967 0 -0.0015572812374974384 0.025757103979063303 0 -0.0017186988004371515 0.026175798299438349 0 -0.0019073666352801416 0.026069011305212792 0 -0.0019073666352801416 0.026069011305212792 0 -0.0021251280050087009 0.02579371900633326 0 -0.0020349866441463568 0.025413480421625417 0 -0.0015489308273256082 0.024595452580422499 0 -0.0017073340302838961 0.025296242063968022 0 -0.0020166714219027604 0.024436226443855957 0 -0.001619866995071814 0.025109243736514967 0 -0.0022137905099128565 0.024888152431723102 0 -0.0020349866441463568 0.025413480421625417 0 -0.001619866995071814 0.025109243736514967 0 -0.0022137905099128565 0.024888152431723102 0 -0.0024350519831399281 0.025251820651447286 0 -0.0022137905099128565 0.024888152431723102 0 -0.0027097739868236466 0.024921922267713191 0 -0.0024350519831399281 0.025251820651447286 0 -0.0027097739868236466 0.024921922267713191 0 -0.0027902672797815091 0.025268902767067215 0 -0.0020349866441463568 0.025413480421625417 0 -0.0024350519831399281 0.025251820651447286 0 -0.0022137905099128565 0.024888152431723102 0 -0.0022137905099128565 0.024888152431723102 0 -0.0027097739868236466 0.024921922267713191 0 -0.0026808035353260125 0.024428022018669174 0 -0.0027097739868236466 0.024921922267713191 0 -0.0029754066516221654 0.024638820121021678 0 -0.003039007283486949 0.024990808004334415 0 -0.0027097739868236466 0.024921922267713191 0 -0.0029754066516221654 0.024638820121021678 0 -0.0026808035353260125 0.024428022018669174 0 -0.0029754066516221654 0.024638820121021678 0 -0.0031789142393596169 0.024772750831212872 0 -0.0032813854757508098 0.024564661297373797 0 -0.0031789142393596169 0.024772750831212872 0 -0.003039007283486949 0.024990808004334415 0 -0.0034175484045257066 0.024896914108787208 0 -0.0029754066516221654 0.024638820121021678 0 -0.0031789142393596169 0.024772750831212872 0 -0.003039007283486949 0.024990808004334415 0 -0.003039007283486949 0.024990808004334415 0 -0.0034175484045257066 0.024896914108787208 0 -0.0032072540074670457 0.025311914692469815 0 -0.003039007283486949 0.024990808004334415 0 -0.0027902672797815091 0.025268902767067215 0 -0.0032072540074670457 0.025311914692469815 0 -0.0027097739868236466 0.024921922267713191 0 -0.003039007283486949 0.024990808004334415 0 -0.0027902672797815091 0.025268902767067215 0 -0.0034175484045257066 0.024896914108787208 0 -0.0040027725721000565 0.024416820131625269 0 -0.0032813854757508098 0.024564661297373797 0 -0.0034175484045257066 0.024896914108787208 0 -0.003674797745731013 0.025160972452616382 0 -0.0040027725721000565 0.024416820131625269 0 -0.0031789142393596169 0.024772750831212872 0 -0.0034175484045257066 0.024896914108787208 0 -0.0032813854757508098 0.024564661297373797 0 -0.0034175484045257066 0.024896914108787208 0 -0.003674797745731013 0.025160972452616382 0 -0.0032072540074670457 0.025311914692469815 0 -0.003674797745731013 0.025160972452616382 0 -0.0035251404438024058 0.025732112193812495 0 -0.0042193174155225497 0.025456891825305073 0 -0.003674797745731013 0.025160972452616382 0 -0.0035251404438024058 0.025732112193812495 0 -0.0032072540074670457 0.025311914692469815 0 -0.0035251404438024058 0.025732112193812495 0 -0.0032072540074670457 0.025311914692469815 0 -0.0030848655579205518 0.025738933901329437 0 -0.0026344730165704868 0.025572593021615367 0 -0.0029268542621701359 0.02552292306244407 0 -0.0027902672797815091 0.025268902767067215 0 -0.0029268542621701359 0.02552292306244407 0 -0.0027902672797815091 0.025268902767067215 0 -0.0032072540074670457 0.025311914692469815 0 -0.0029268542621701359 0.02552292306244407 0 -0.0030848655579205518 0.025738933901329437 0 -0.0028252378895705053 0.025874410233766826 0 -0.0029268542621701359 0.02552292306244407 0 -0.0032072540074670457 0.025311914692469815 0 -0.0030848655579205518 0.025738933901329437 0 -0.0026344730165704868 0.025572593021615367 0 -0.0029268542621701359 0.02552292306244407 0 -0.0028252378895705053 0.025874410233766826 0 -0.0026161894784132223 0.026085594088897539 0 -0.0028252378895705053 0.025874410233766826 0 -0.002984566979661765 0.02613186913429013 0 -0.0026161894784132223 0.026085594088897539 0 -0.0027262452349719065 0.026371396924548322 0 -0.002984566979661765 0.02613186913429013 0 -0.002984566979661765 0.02613186913429013 0 -0.0033517257483778387 0.026213189190774634 0 -0.0030789720974330409 0.02647013402590135 0 -0.0027262452349719065 0.026371396924548322 0 -0.002984566979661765 0.02613186913429013 0 -0.0030789720974330409 0.02647013402590135 0 -0.002984566979661765 0.02613186913429013 0 -0.0032355065620267428 0.025954636116681622 0 -0.0033517257483778387 0.026213189190774634 0 -0.0030848655579205518 0.025738933901329437 0 -0.002984566979661765 0.02613186913429013 0 -0.0032355065620267428 0.025954636116681622 0 -0.0030848655579205518 0.025738933901329437 0 -0.0028252378895705053 0.025874410233766826 0 -0.002984566979661765 0.02613186913429013 0 -0.0035251404438024058 0.025732112193812495 0 -0.0032355065620267428 0.025954636116681622 0 -0.0033517257483778387 0.026213189190774634 0 -0.0035251404438024058 0.025732112193812495 0 -0.0036732268474429755 0.026265321212450465 0 -0.0042193174155225497 0.025456891825305073 0 -0.0035251404438024058 0.025732112193812495 0 -0.0030848655579205518 0.025738933901329437 0 -0.0032355065620267428 0.025954636116681622 0 -0.0035251404438024058 0.025732112193812495 0 -0.0036732268474429755 0.026265321212450465 0 -0.0033517257483778387 0.026213189190774634 0 -0.0022478195681092019 0.022995259874733106 0 -0.0037279448362889118 0.024734969349343942 0 -0.0036409030595044361 0.026270685101058205 0 -0.0033517257483778387 0.026213189190774634 0 -0.0030789720974330409 0.02647013402590135 0 -0.0028640321261239965 0.024225857102702045 0 -0.0029855661722788902 0.025289223815110271 0 -0.003223063174836571 0.024715838162290608 0 -0.0018215381900945158 0.025889883819827528 0 -0.0028640321261239965 0.024225857102702045 0 -0.0029855661722788902 0.025289223815110271 0 -0.0030061488815339515 0.027133410938503716 0 -0.0036409030595044361 0.026270685101058205 0 -0.0030789720974330409 0.02647013402590135 0 -0.0025043289758810783 0.026920028875987323 0 -0.0022478195681092019 0.022995259874733106 0 -0.0030061488815339515 0.027133410938503716 0 -0.0023858657616158117 0.026870201188462679 0 -0.0027639377821183776 0.026692853428342597 0 -0.0030061488815339515 0.027133410938503716 0 -0.0027639377821183776 0.026692853428342597 0 -0.0030789720974330409 0.02647013402590135 0 -0.0024953578859687694 0.026555399258434823 0 -0.0027262452349719065 0.026371396924548322 0 -0.0027639377821183776 0.026692853428342597 0 -0.0027262452349719065 0.026371396924548322 0 -0.0027639377821183776 0.026692853428342597 0 -0.0030789720974330409 0.02647013402590135 0 -0.001926038546529129 0.017704350735593209 0 -0.0021868021529757495 0.017317336063156399 0 -0.0033521074780731648 0.01800125942160961 0 -0.0022343447334918554 0.017730110064711486 0 -0.0027190819802609223 0.018494971626987943 0 -0.0037462872144768209 0.018267660455791944 0 -0.0029145831686279954 0.02012814197441247 0 -0.0025769641660865102 0.016969511925981662 0 -0.0031371181597308899 0.019146834820519102 0 -0.0027190819802609223 0.018494971626987943 0 -0.0017536860330680042 0.018836653717061318 0 -0.0022343447334918554 0.017730110064711486 0 -0.0027190819802609223 0.018494971626987943 0 -0.0017536860330680042 0.018836653717061318 0 -0.0031371181597308899 0.019146834820519102 0 -0.0027190819802609223 0.018494971626987943 0 -0.0037462872144768209 0.018267660455791944 0 -0.0028640321261239965 0.024225857102702045 0 -0.0043217572097446694 0.024511135245625364 0 -0.003223063174836571 0.024715838162290608 0 -0.0043217572097446694 0.024511135245625364 0 -0.0036571469657592508 0.024944081866617868 0 -0.003223063174836571 0.024715838162290608 0 -0.0035782557484741267 0.025596955720901694 0 -0.0038219019800190849 0.025235673601825177 0 -0.0036025032378374914 0.025167980622803496 0 -0.0033923753490559742 0.021593899949999683 0 -0.0038062922516688309 0.022186366098749331 0 -0.0038357743346363734 0.02523771993985614 0 -0.0036571469657592508 0.024944081866617868 0 -0.0036025032378374914 0.025167980622803496 0 -0.0029855661722788902 0.025289223815110271 0 -0.0033029182154152748 0.025089649682889396 0 -0.003223063174836571 0.024715838162290608 0 -0.0035782557484741267 0.025596955720901694 0 -0.0036025032378374914 0.025167980622803496 0 -0.0033029182154152748 0.025089649682889396 0 -0.0035782557484741267 0.025596955720901694 0 -0.0029855661722788902 0.025289223815110271 0 -0.0033029182154152748 0.025089649682889396 0 -0.0036571469657592508 0.024944081866617868 0 -0.0036025032378374914 0.025167980622803496 0 -0.0033029182154152748 0.025089649682889396 0 -0.0036571469657592508 0.024944081866617868 0 -0.0033029182154152748 0.025089649682889396 0 -0.003223063174836571 0.024715838162290608 0 -0.0029145831686279954 0.02012814197441247 0 -0.0033923753490559742 0.021593899949999683 0 -0.0043217572097446694 0.024511135245625364 0 -0.0038357743346363734 0.02523771993985614 0 -0.0036571469657592508 0.024944081866617868 0 -0.0022478195681092019 0.022995259874733106 0 -0.0029145831686279954 0.02012814197441247 0 -0.0022478195681092019 0.022995259874733106 0 -0.0027300218335153687 0.020528895606941978 0 -4.8714917044623068e-05 0.017316418756537413 0 -0.0019183904932991364 0.01770596446109526 0 -0.0014426182702744312 0.016675228545466714 0 -4.8714917044623068e-05 0.017316418756537413 0 -0.0014426182702744312 0.016675228545466714 0 -0.001247979782544898 0.01564423492380607 0 -0.0014426182702744312 0.016675228545466714 0 -0.0018409795727947547 0.016613253808266018 0 -0.0015606833222468119 0.015919712637921617 0 -0.002277200298757779 0.016670785229986003 0 -0.001644087279068146 0.015980933449801827 0 -0.0018409795727947547 0.016613253808266018 0 -0.0024876877388762173 0.016979088386674612 0 -0.0015606833222468119 0.015919712637921617 0 -0.0020152456047344558 0.016275511267466514 0 -0.0020090649071058102 0.01590227030697472 0 -0.0015606833222468119 0.015919712637921617 0 -0.0018409795727947547 0.016613253808266018 0 -0.0019732872807169187 0.017058063174667317 0 -0.0024876877388762173 0.016979088386674612 0 -0.0014426182702744312 0.016675228545466714 0 -0.0018409795727947547 0.016613253808266018 0 -0.0019732872807169187 0.017058063174667317 0 -0.0019183904932991364 0.01770596446109526 0 -0.0014426182702744312 0.016675228545466714 0 -0.0019732872807169187 0.017058063174667317 0 -0.0019732872807169187 0.017058063174667317 0 -0.0021868021529757495 0.017317336063156399 0 -0.0024876877388762173 0.016979088386674612 0 -0.0029145831686279954 0.02012814197441247 0 -0.0031231376015412177 0.018839415352576754 0 -0.0019183904932991364 0.01770596446109526 0 -0.0019732872807169187 0.017058063174667317 0 -0.0021868021529757495 0.017317336063156399 0 -0.002277200298757779 0.016670785229986003 0 -0.0025769641660865102 0.016969511925981662 0 -0.0021868021529757495 0.017317336063156399 0 -0.0024876877388762173 0.016979088386674612 0 -0.0033521074780731648 0.01800125942160961 0 -0.0020152456047344558 0.016275511267466514 0 -0.0020090649071058102 0.01590227030697472 0 -0.0022767907310244431 0.0160411392950284 0 -0.0020090649071058102 0.01590227030697472 0 -0.0022767907310244431 0.0160411392950284 0 -0.0022884254787446357 0.015581765198453825 0 -0.0020090649071058102 0.01590227030697472 0 -0.0018720023407435785 0.015417090842372002 0 -0.0022884254787446357 0.015581765198453825 0 -0.0018720023407435785 0.015417090842372002 0 -0.0015606833222468119 0.015919712637921617 0 -0.001247979782544898 0.01564423492380607 0 -0.0020090649071058102 0.01590227030697472 0 -0.0018720023407435785 0.015417090842372002 0 -0.0015606833222468119 0.015919712637921617 0 -0.0014426182702744312 0.016675228545466714 0 -0.0015606833222468119 0.015919712637921617 0 -0.001247979782544898 0.01564423492380607 0 -0.003674797745731013 0.025160972452616382 0 -0.0042193174155225497 0.025456891825305073 0 -0.0040027725721000565 0.024416820131625269 0 -0.0030053542071589276 0.018704779145346361 0 -0.0032526554250965011 0.020401901551939335 0 -0.0042193174155225497 0.025456891825305073 0 -0.0047407674547352528 0.024649783021652071 0 -0.0040027725721000565 0.024416820131625269 0 -0.0027300218335153687 0.020528895606941978 0 -0.0030053542071589276 0.018704779145346361 0 -0.0018720023407435785 0.015417090842372002 0 -0.0020997374780916392 0.014766290390239944 0 -0.0022884254787446357 0.015581765198453825 0 -0.0018720023407435785 0.015417090842372002 0 -0.001247979782544898 0.01564423492380607 0 -0.0019650778523048447 0.014716872592649505 0 -0.0018720023407435785 0.015417090842372002 0 -0.0019650778523048447 0.014716872592649505 0 -0.0020997374780916392 0.014766290390239944 0 -0.0030053542071589276 0.018704779145346361 0 -0.0024232839466331304 0.018133891132288388 0 -0.0020022824662715164 0.014733689884042734 0 -0.0020997374780916392 0.014766290390239944 0 -0.0025121786183085015 0.014272616571580266 0 -0.0018525286998784442 0.016026786390628312 0 -0.0018496349910586179 0.016183990048369859 0 -0.0021392721402056138 0.016133078199037469 0 -0.0018525286998784442 0.016026786390628312 0 -0.0018496349910586179 0.016183990048369859 0 -0.0016757366160615236 0.01622569485627998 0 -0.0030053542071589276 0.018704779145346361 0 -0.0021910763357747662 0.014882470437490919 0 -0.0018496349910586179 0.016183990048369859 0 -0.0017936427089017262 0.016308186233187423 0 -0.0019619300126416704 0.016302369828212836 0 -0.0018496349910586179 0.016183990048369859 0 -0.0017936427089017262 0.016308186233187423 0 -0.0016757366160615236 0.01622569485627998 0 -0.0017936427089017262 0.016308186233187423 0 -0.0017377526318943382 0.016431454829729721 0 -0.0016712549349390002 0.016339756447225535 0 -0.0017936427089017262 0.016308186233187423 0 -0.0019619300126416704 0.016302369828212836 0 -0.0019019521372489047 0.01642346576364468 0 -0.0019019521372489047 0.01642346576364468 0 -0.0017377526318943382 0.016431454829729721 0 -0.0018985741201733753 0.016581110212166468 0 -0.0017936427089017262 0.016308186233187423 0 -0.0019019521372489047 0.01642346576364468 0 -0.0017377526318943382 0.016431454829729721 0 -0.0019619300126416704 0.016302369828212836 0 -0.0021498921792779931 0.016469796179217899 0 -0.0021392721402056138 0.016133078199037469 0 -0.0019619300126416704 0.016302369828212836 0 -0.0019019521372489047 0.01642346576364468 0 -0.0021498921792779931 0.016469796179217899 0 -0.0019019521372489047 0.01642346576364468 0 -0.0021498921792779931 0.016469796179217899 0 -0.0018985741201733753 0.016581110212166468 0 -0.0018496349910586179 0.016183990048369859 0 -0.0019619300126416704 0.016302369828212836 0 -0.0021392721402056138 0.016133078199037469 0 -0.0032526554250965011 0.020401901551939335 0 -0.0024359678676764878 0.020577136702546798 0 -0.0021498921792779931 0.016469796179217899 0 -0.0021392721402056138 0.016133078199037469 0 -0.0024327455172760055 0.016256711057913313 0 -0.0040027725721000565 0.024416820131625269 0 -0.0032813854757508098 0.024564661297373797 0 -0.0032779397708020733 0.024175824785887246 0 -0.0029754066516221654 0.024638820121021678 0 -0.0032779397708020733 0.024175824785887246 0 -0.0026808035353260125 0.024428022018669174 0 -0.002291812008061599 0.023810621783400949 0 -0.0032779397708020733 0.024175824785887246 0 -0.0026808035353260125 0.024428022018669174 0 -0.0029754066516221654 0.024638820121021678 0 -0.0032813854757508098 0.024564661297373797 0 -0.0032779397708020733 0.024175824785887246 0 -0.0022634123866701154 0.023204257969748166 0 -0.0024359678676764878 0.020577136702546798 0 -0.0019710089642602717 0.022042547159311032 0 -0.0021127422431132495 0.022064458300872423 0 -0.0021216655829212343 0.021944755658999032 0 -0.0019848659819273603 0.021955931811591226 0 -0.0019710089642602717 0.022042547159311032 0 -0.0021216655829212343 0.021944755658999032 0 -0.0021498921792779931 0.016469796179217899 0 -0.0024327455172760055 0.016256711057913313 0 -0.0024295660528824122 0.016586350837552791 0 -0.0024359678676764878 0.020577136702546798 0 -0.0022767513030064737 0.018963290475892902 0 -0.0021498921792779931 0.016469796179217899 0 -0.0024295660528824122 0.016586350837552791 0 -0.0022289321799305217 0.016752530556969122 0 -0.0024295660528824122 0.016586350837552791 0 -0.0022289321799305217 0.016752530556969122 0 -0.002561334011969158 0.016936147328805089 0 -0.0021216655829212343 0.021944755658999032 0 -0.002026313458040661 0.021908768074217978 0 -0.0020722706352537855 0.021859140623259613 0 -0.0019848659819273603 0.021955931811591226 0 -0.0021216655829212343 0.021944755658999032 0 -0.002026313458040661 0.021908768074217978 0 -0.0021216655829212343 0.021944755658999032 0 -0.0020722706352537855 0.021859140623259613 0 -0.0021558540635794946 0.021823586024799328 0 -0.0019856538084813721 0.021872748135161896 0 -0.002026313458040661 0.021908768074217978 0 -0.0020722706352537855 0.021859140623259613 0 -0.0020722706352537855 0.021859140623259613 0 -0.0020885355909491259 0.021806455677910827 0 -0.0021558540635794946 0.021823586024799328 0 -0.0019856538084813721 0.021872748135161896 0 -0.0020722706352537855 0.021859140623259613 0 -0.0020374508938291818 0.021829211584899502 0 -0.0020722706352537855 0.021859140623259613 0 -0.0020885355909491259 0.021806455677910827 0 -0.0020374508938291818 0.021829211584899502 0 -0.0022767513030064737 0.018963290475892902 0 -0.0023586948122582647 0.019474417107627841 0 -0.0022289321799305217 0.016752530556969122 0 -0.002561334011969158 0.016936147328805089 0 -0.0022365769910004671 0.016979815429933619 0 -0.002561334011969158 0.016936147328805089 0 -0.0022365769910004671 0.016979815429933619 0 -0.0022229412063242068 0.01754658255825739 0 -0.0022365769910004671 0.016979815429933619 0 -0.002080010315040251 0.016895199569448804 0 -0.0020987131248168876 0.017201324024526479 0 -0.002080010315040251 0.016895199569448804 0 -0.0019758171616120492 0.017140069688492288 0 -0.0020987131248168876 0.017201324024526479 0 -0.0022289321799305217 0.016752530556969122 0 -0.002080010315040251 0.016895199569448804 0 -0.0020067171568196461 0.016715494470420457 0 -0.0022289321799305217 0.016752530556969122 0 -0.0022365769910004671 0.016979815429933619 0 -0.002080010315040251 0.016895199569448804 0 -0.002080010315040251 0.016895199569448804 0 -0.0018735214677109877 0.016920850933885422 0 -0.0020067171568196461 0.016715494470420457 0 -0.002080010315040251 0.016895199569448804 0 -0.0018735214677109877 0.016920850933885422 0 -0.0019758171616120492 0.017140069688492288 0 -0.0018735214677109877 0.016920850933885422 0 -0.001864101496196236 0.017138469219578806 0 -0.0019758171616120492 0.017140069688492288 0 -0.0018735214677109877 0.016920850933885422 0 -0.0016930904505536284 0.016798334704657462 0 -0.0016981261045233671 0.017049609712831103 0 -0.0018735214677109877 0.016920850933885422 0 -0.001864101496196236 0.017138469219578806 0 -0.0016981261045233671 0.017049609712831103 0 -0.0018735214677109877 0.016920850933885422 0 -0.0018267750479926907 0.016719472654494794 0 -0.0016930904505536284 0.016798334704657462 0 -0.0018735214677109877 0.016920850933885422 0 -0.0018267750479926907 0.016719472654494794 0 -0.0020067171568196461 0.016715494470420457 0 -0.0018267750479926907 0.016719472654494794 0 -0.0018985741201733753 0.016581110212166468 0 -0.0020067171568196461 0.016715494470420457 0 -0.0018267750479926907 0.016719472654494794 0 -0.0016930904505536284 0.016798334704657462 0 -0.0016829142656779117 0.016574964359650429 0 -0.0018267750479926907 0.016719472654494794 0 -0.0018985741201733753 0.016581110212166468 0 -0.0016829142656779117 0.016574964359650429 0 -0.0017377526318943382 0.016431454829729721 0 -0.0018985741201733753 0.016581110212166468 0 -0.0016829142656779117 0.016574964359650429 0 -0.0021498921792779931 0.016469796179217899 0 -0.0022289321799305217 0.016752530556969122 0 -0.0020067171568196461 0.016715494470420457 0 -0.0021498921792779931 0.016469796179217899 0 -0.0018985741201733753 0.016581110212166468 0 -0.0020067171568196461 0.016715494470420457 0 -0.0019941232403332021 0.017400874480898609 0 -0.0020390405621972646 0.017468948348839813 0 -0.0020538882934601397 0.017385312430270219 0 -0.0019941232403332021 0.017400874480898609 0 -0.0019178519761342255 0.01741419498764394 0 -0.0019368954357805654 0.017312483611264588 0 -0.0019941232403332021 0.017400874480898609 0 -0.0020390405621972646 0.017468948348839813 0 -0.0019178519761342255 0.01741419498764394 0 -0.0020390405621972646 0.017468948348839813 0 -0.0019178519761342255 0.01741419498764394 0 -0.0019095593309372688 0.017529410291490039 0 -0.0018432010446108626 0.017455971381578977 0 -0.0019178519761342255 0.01741419498764394 0 -0.0019095593309372688 0.017529410291490039 0 -0.0018432010446108626 0.017455971381578977 0 -0.0017889357320199531 0.017397211841836055 0 -0.0019178519761342255 0.01741419498764394 0 -0.0018432010446108626 0.017455971381578977 0 -0.0017511665408715927 0.017478708610902748 0 -0.0019095593309372688 0.017529410291490039 0 -0.0018432010446108626 0.017455971381578977 0 -0.0017511665408715927 0.017478708610902748 0 -0.0017889357320199531 0.017397211841836055 0 -0.0017511665408715927 0.017478708610902748 0 -0.0017889357320199531 0.017397211841836055 0 -0.001694411941484799 0.017481557933030533 0 -0.0017889357320199531 0.017397211841836055 0 -0.0018256169143654707 0.017281079750184655 0 -0.0016759046740623925 0.017265154520851166 0 -0.0017889357320199531 0.017397211841836055 0 -0.0019178519761342255 0.01741419498764394 0 -0.0018256169143654707 0.017281079750184655 0 -0.0019178519761342255 0.01741419498764394 0 -0.0019368954357805654 0.017312483611264588 0 -0.0018256169143654707 0.017281079750184655 0 -0.0019368954357805654 0.017312483611264588 0 -0.0018256169143654707 0.017281079750184655 0 -0.001864101496196236 0.017138469219578806 0 -0.0018256169143654707 0.017281079750184655 0 -0.0016759046740623925 0.017265154520851166 0 -0.0016981261045233671 0.017049609712831103 0 -0.0018256169143654707 0.017281079750184655 0 -0.001864101496196236 0.017138469219578806 0 -0.0016981261045233671 0.017049609712831103 0 -0.0019368954357805654 0.017312483611264588 0 -0.001864101496196236 0.017138469219578806 0 -0.0019758171616120492 0.017140069688492288 0 -0.0019368954357805654 0.017312483611264588 0 -0.0019758171616120492 0.017140069688492288 0 -0.0020538882934601397 0.017385312430270219 0 -0.0020390405621972646 0.017468948348839813 0 -0.0020538882934601397 0.017385312430270219 0 -0.0022229412063242068 0.01754658255825739 0 -0.0019941232403332021 0.017400874480898609 0 -0.0019368954357805654 0.017312483611264588 0 -0.0020538882934601397 0.017385312430270219 0 -0.0019758171616120492 0.017140069688492288 0 -0.0020538882934601397 0.017385312430270219 0 -0.0020987131248168876 0.017201324024526479 0 -0.0020538882934601397 0.017385312430270219 0 -0.0020987131248168876 0.017201324024526479 0 -0.0022229412063242068 0.01754658255825739 0 -0.002561334011969158 0.016936147328805089 0 -0.0022229412063242068 0.01754658255825739 0 -0.0025837844481671965 0.018911900349515832 0 -0.0022365769910004671 0.016979815429933619 0 -0.0020987131248168876 0.017201324024526479 0 -0.0022229412063242068 0.01754658255825739 0 -0.0021558540635794946 0.021823586024799328 0 -0.002120582503206226 0.02174165235404309 0 -0.0022197776008252689 0.021617093519978162 0 -0.0023586948122582647 0.019474417107627841 0 -0.0023657809002552792 0.020253123051790601 0 -0.0020885355909491259 0.021806455677910827 0 -0.0020374508938291818 0.021829211584899502 0 -0.0020501932174792088 0.021772709749470834 0 -0.0020374508938291818 0.021829211584899502 0 -0.0020501932174792088 0.021772709749470834 0 -0.0019810824642980196 0.021820617238511236 0 -0.0020885355909491259 0.021806455677910827 0 -0.0020501932174792088 0.021772709749470834 0 -0.002120582503206226 0.02174165235404309 0 -0.0020885355909491259 0.021806455677910827 0 -0.0021558540635794946 0.021823586024799328 0 -0.002120582503206226 0.02174165235404309 0 -0.0020501932174792088 0.021772709749470834 0 -0.002120582503206226 0.02174165235404309 0 -0.0020939848635456119 0.021679848498705349 0 -0.002120582503206226 0.02174165235404309 0 -0.0020939848635456119 0.021679848498705349 0 -0.0022197776008252689 0.021617093519978162 0 -0.0020501932174792088 0.021772709749470834 0 -0.0020939848635456119 0.021679848498705349 0 -0.0019824264275400362 0.021727801630322074 0 -0.0020939848635456119 0.021679848498705349 0 -0.0022197776008252689 0.021617093519978162 0 -0.0020754051081648722 0.021504686350291683 0 -0.0020939848635456119 0.021679848498705349 0 -0.0020754051081648722 0.021504686350291683 0 -0.0019824264275400362 0.021727801630322074 0 -0.0011852335497788016 0.019626857489758825 0 -0.0025837844481671965 0.018911900349515832 0 -0.0021386454178722526 0.021168966033580532 0 -0.0011852335497788016 0.019626857489758825 0 -0.0022229412063242068 0.01754658255825739 0 -0.0025837844481671965 0.018911900349515832 0 -0.001551313662302404 0.018774035988325593 0 -0.002218782081142838 0.017499778653413185 0 -0.0023657809002552792 0.020253123051790601 0 -0.0021928683746812506 0.02110465524572672 0 -0.0022197776008252689 0.021617093519978162 0 -0.0021386454178722526 0.021168966033580532 0 -0.0020754051081648722 0.021504686350291683 0 -0.0021386454178722526 0.021168966033580532 0 -0.0020754051081648722 0.021504686350291683 0 -0.0022245278333959959 0.021374122808893864 0 -0.0021386454178722526 0.021168966033580532 0 -0.0022245278333959959 0.021374122808893864 0 -0.0018349671463791044 0.022007260142220264 0 -0.0012340044008500211 0.02226146488964055 0 -0.0011914476523422648 0.021627610008860036 0 -0.0016222191148115264 0.018257978592842793 0 -0.0011914476523422648 0.021627610008860036 0 -0.0021386454178722526 0.021168966033580532 0 -0.00068055804368223377 0.021211868041259969 0 -0.0018349671463791044 0.022007260142220264 0 -0.00095026883220544127 0.019136411519733856 0 -0.0010732704987520257 0.019798313274757614 0 -0.001701950821315976 0.019949417461006504 0 -0.001551313662302404 0.018774035988325593 0 -0.0016222191148115264 0.018257978592842793 0 -0.0011852335497788016 0.019626857489758825 0 -0.0021386454178722526 0.021168966033580532 0 -0.00068055804368223377 0.021211868041259969 0 -0.0020390405621972646 0.017468948348839813 0 -0.0019095593309372688 0.017529410291490039 0 -0.0019219194494752916 0.017699424706675643 0 -0.0017511665408715927 0.017478708610902748 0 -0.0019095593309372688 0.017529410291490039 0 -0.0019219194494752916 0.017699424706675643 0 -0.0017511665408715927 0.017478708610902748 0 -0.0019219194494752916 0.017699424706675643 0 -0.0017094558964965321 0.017478168642562904 0 -0.0030098172076322939 0.014509032612828108 0 -0.0016670029523159608 0.013103306474608965 0 -0.0017244965079478026 0.014855903294888756 0 -0.0016222191148115264 0.018257978592842793 0 -0.0026889925734494297 0.012951418410914687 0 -0.0016222191148115264 0.018257978592842793 0 -0.0015558057835199782 0.017792975424520803 0 -0.00095026883220544127 0.019136411519733856 0 -0.00052455360848889553 0.019955502669185707 0 -0.0010732704987520257 0.019798313274757614 0 -0.0030098172076322939 0.014509032612828108 0 -0.0021865963892555634 0.016108552256270111 0 -0.0017244965079478026 0.014855903294888756 0 -0.00052455360848889553 0.019955502669185707 0 -0.0010732704987520257 0.019798313274757614 0 -0.001155505637915985 0.020280078991537411 0 -0.00097440375602750025 0.02042321814186775 0 -0.0013345116397568816 0.020618818612292356 0 -0.0013397631783440785 0.020209040386297332 0 -0.0010732704987520257 0.019798313274757614 0 -0.001155505637915985 0.020280078991537411 0 -0.001701950821315976 0.019949417461006504 0 -0.0012198910613923555 0.02026271125205506 0 -0.0011914476523422648 0.021627610008860036 0 -0.00097440375602750025 0.02042321814186775 0 -0.0011836270884537589 0.020888300900734149 0 -0.0013345116397568816 0.020618818612292356 0 -0.00097440375602750025 0.02042321814186775 0 -0.00087048028035258129 0.020853400364216342 0 -0.0011836270884537589 0.020888300900734149 0 -0.00097440375602750025 0.02042321814186775 0 -0.0006057849606229867 0.020609728133333539 0 -0.00087048028035258129 0.020853400364216342 0 -0.00052455360848889553 0.019955502669185707 0 -0.001155505637915985 0.020280078991537411 0 -0.0006057849606229867 0.020609728133333539 0 -0.00052455360848889553 0.019955502669185707 0 -0.0006057849606229867 0.020609728133333539 0 -0.00017173975137759699 0.02072130024085703 0 -0.0012198910613923555 0.02026271125205506 0 -0.00061091204451343387 0.020617063039955658 0 -0.0006057849606229867 0.020609728133333539 0 -0.00057482823950312468 0.020923687896621707 0 -0.00087048028035258129 0.020853400364216342 0 -0.0006057849606229867 0.020609728133333539 0 -0.00057482823950312468 0.020923687896621707 0 -0.00017173975137759699 0.02072130024085703 0 0.000195587761986484 0.019968562062688679 0 0.00074193551266484037 0.019794883107159815 0 0.00091784823475424856 0.019515135478549165 0 -0.00028945781909028075 0.020818881371413061 0 0.00019605524377839606 0.018790373412163597 0 -0.00057482823950312468 0.020923687896621707 0 -0.00075484737980024909 0.021284029774701146 0 -0.00017173975137759699 0.02072130024085703 0 0.000195587761986484 0.019968562062688679 0 0.001001088563744913 0.019093578472112953 0 0.00091784823475424856 0.019515135478549165 0 -0.00057482823950312468 0.020923687896621707 0 -0.00074174974700943835 0.021180626319727981 0 -0.00075484737980024909 0.021284029774701146 0 -0.00057482823950312468 0.020923687896621707 0 -0.00074174974700943835 0.021180626319727981 0 -0.00075312908637750211 0.020997962183172895 0 -0.00074174974700943835 0.021180626319727981 0 -0.00075312908637750211 0.020997962183172895 0 -0.00084880236801622097 0.021056245946485076 0 -0.00075312908637750211 0.020997962183172895 0 -0.00087048028035258129 0.020853400364216342 0 -0.00084880236801622097 0.021056245946485076 0 -0.00057482823950312468 0.020923687896621707 0 -0.00075312908637750211 0.020997962183172895 0 -0.00087048028035258129 0.020853400364216342 0 -0.00087048028035258129 0.020853400364216342 0 -0.0010081629685132155 0.021110999757187943 0 -0.00084880236801622097 0.021056245946485076 0 -0.00087048028035258129 0.020853400364216342 0 -0.0011836270884537589 0.020888300900734149 0 -0.0010081629685132155 0.021110999757187943 0 -0.0011836270884537589 0.020888300900734149 0 -0.0010081629685132155 0.021110999757187943 0 -0.0014310480966962151 0.021038658244472458 0 -0.00074174974700943835 0.021180626319727981 0 -0.0010081629685132155 0.021110999757187943 0 -0.00084880236801622097 0.021056245946485076 0 -0.00075484737980024909 0.021284029774701146 0 -0.0013207406430311018 0.021402374066924214 0 -0.0012265841932861134 0.021751455308919376 0 7.3104546800057446e-05 0.020370069273181909 0 0.000195587761986484 0.019968562062688679 0 -0.00058745781147735807 0.020825215442066898 0 -0.00074174974700943835 0.021180626319727981 0 -0.0010081629685132155 0.021110999757187943 0 -0.0013550298967333152 0.021450637817548444 0 -0.00077873961151764368 0.021197908074774206 0 -0.0013303713164382453 0.02142208547906601 0 -0.00074174974700943835 0.021180626319727981 0 -0.00075484737980024909 0.021284029774701146 0 -0.0013207406430311018 0.021402374066924214 0 -0.00028945781909028075 0.020818881371413061 0 -0.00089382866015246844 0.021248836368011136 0 7.3104546800057446e-05 0.020370069273181909 0 0.00045388837536475697 0.020374506731989456 0 0.00031040603008624127 0.020172518891996324 0 7.3104546800057446e-05 0.020370069273181909 0 0.00045388837536475697 0.020374506731989456 0 -8.920023241487951e-05 0.020633762685717507 0 0.00045388837536475697 0.020374506731989456 0 0.00042539267042248968 0.020077660862633823 0 0.00074193551266484037 0.019794883107159815 0 0.00045388837536475697 0.020374506731989456 0 0.00042539267042248968 0.020077660862633823 0 0.00031040603008624127 0.020172518891996324 0 0.00042539267042248968 0.020077660862633823 0 0.000195587761986484 0.019968562062688679 0 0.00074193551266484037 0.019794883107159815 0 7.3104546800057446e-05 0.020370069273181909 0 0.000195587761986484 0.019968562062688679 0 0.00031040603008624127 0.020172518891996324 0 0.00042539267042248968 0.020077660862633823 0 0.000195587761986484 0.019968562062688679 0 0.00031040603008624127 0.020172518891996324 0 -0.0017966274029055369 0.021252926992613486 0 -0.0022902291710002374 0.021219065647555966 0 -0.0019787927052688685 0.021729402466557184 0 -0.0013550298967333152 0.021450637817548444 0 -0.0017966274029055369 0.021252926992613486 0 -0.0019787927052688685 0.021729402466557184 0 -0.0013303713164382453 0.02142208547906601 0 -0.0019197102615819755 0.021692462906543784 0 -0.0011836270884537589 0.020888300900734149 0 -0.0014310480966962151 0.021038658244472458 0 -0.0013345116397568816 0.020618818612292356 0 -0.0013550298967333152 0.021450637817548444 0 -0.0014310480966962151 0.021038658244472458 0 -0.0017966274029055369 0.021252926992613486 0 -0.0010081629685132155 0.021110999757187943 0 -0.0013550298967333152 0.021450637817548444 0 -0.0014310480966962151 0.021038658244472458 0 -0.0014310480966962151 0.021038658244472458 0 -0.0017966274029055369 0.021252926992613486 0 -0.0018088507582796278 0.020702105126754255 0 -0.0010015130521519673 0.022188678313788429 0 -0.0016017885972185056 0.022759553149141559 0 -0.0017966274029055369 0.021252926992613486 0 -0.0018088507582796278 0.020702105126754255 0 -0.0022902291710002374 0.021219065647555966 0 -0.0018088507582796278 0.020702105126754255 0 -0.0013345116397568816 0.020618818612292356 0 -0.0013397631783440785 0.020209040386297332 0 -0.0014310480966962151 0.021038658244472458 0 -0.0018088507582796278 0.020702105126754255 0 -0.0013345116397568816 0.020618818612292356 0 -0.0010015130521519673 0.022188678313788429 0 -0.0011914476523422648 0.021627610008860036 0 -0.00037246031305810144 0.023705674754492655 0 0.00010272388923648758 0.023155678618998993 0 -0.0003641861708415009 0.023228257906020934 0 -0.00049867313173972833 0.022791567653032866 0 -0.0003641861708415009 0.023228257906020934 0 -0.00081867235583039889 0.02331346551387237 0 -0.00037246031305810144 0.023705674754492655 0 -0.0003641861708415009 0.023228257906020934 0 -0.00081867235583039889 0.02331346551387237 0 -0.00049867313173972833 0.022791567653032866 0 0.00010272388923648758 0.023155678618998993 0 -0.0003641861708415009 0.023228257906020934 0 -0.00049867313173972833 0.022791567653032866 0 -0.00081867235583039889 0.02331346551387237 0 -0.00093621793115483698 0.022871045906039042 0 -0.00081867235583039889 0.02331346551387237 0 -0.0013527301824106848 0.022954974131717622 0 -0.00093621793115483698 0.022871045906039042 0 -0.0008105803079894667 0.023355905985008179 0 -0.001712016899814811 0.023366598719608007 0 -0.00081867235583039889 0.02331346551387237 0 -0.0015435985749869567 0.023473392632098966 0 -0.0013527301824106848 0.022954974131717622 0 -0.00081867235583039889 0.02331346551387237 0 -0.0010468527854825078 0.023801353834744153 0 -0.0016673875387233133 0.02353423669535647 0 -0.0010468527854825078 0.023801353834744153 0 -0.0015157484175814361 0.024144571057222258 0 -0.0016673875387233133 0.02353423669535647 0 -0.00037246031305810144 0.023705674754492655 0 -0.00081867235583039889 0.02331346551387237 0 -0.0010468527854825078 0.023801353834744153 0 -0.00037246031305810144 0.023705674754492655 0 -0.0010468527854825078 0.023801353834744153 0 -0.0008897572358697181 0.024309742133443991 0 -0.0010468527854825078 0.023801353834744153 0 -0.0008897572358697181 0.024309742133443991 0 -0.0015157484175814361 0.024144571057222258 0 -0.0016017885972185056 0.022759553149141559 0 -0.0021169890792062103 0.02341470423999854 0 -0.0008897572358697181 0.024309742133443991 0 -0.0015157484175814361 0.024144571057222258 0 -0.001436667479023877 0.02492568733734404 0 -0.0022902291710002374 0.021219065647555966 0 -0.0023764834808922535 0.021670439100295286 0 -0.002779093946391367 0.021750771194415014 0 -0.0022902291710002374 0.021219065647555966 0 -0.0023764834808922535 0.021670439100295286 0 -0.0019787927052688685 0.021729402466557184 0 -0.0021140965084114768 0.024458830770818361 0 -0.0025938726106766257 0.02509914132231256 0 -0.0020564825737964189 0.025010911587322993 0 -0.0021140965084114768 0.024458830770818361 0 -0.0029161444149264433 0.0245573308593444 0 -0.0025938726106766257 0.02509914132231256 0 -0.0015157484175814361 0.024144571057222258 0 -0.0021140965084114768 0.024458830770818361 0 -0.001436667479023877 0.02492568733734404 0 -0.0021140965084114768 0.024458830770818361 0 -0.0020564825737964189 0.025010911587322993 0 -0.001436667479023877 0.02492568733734404 0 -0.0015157484175814361 0.024144571057222258 0 -0.0021140965084114768 0.024458830770818361 0 -0.001956976682824782 0.023973873018213628 0 -0.0021140965084114768 0.024458830770818361 0 -0.001956976682824782 0.023973873018213628 0 -0.0025341050961865908 0.023758726066979964 0 -0.0021140965084114768 0.024458830770818361 0 -0.0025341050961865908 0.023758726066979964 0 -0.0029161444149264433 0.0245573308593444 0 -0.0017999223839775453 0.024731413350788836 0 -0.001712016899814811 0.023366598719608007 0 -0.0022486402256649556 0.023650523698219295 0 -0.0015435985749869567 0.023473392632098966 0 -0.0020556374543014579 0.023242614847222877 0 -0.0017999223839775453 0.024731413350788836 0 -0.0019695206685147112 0.023099820188569011 0 -0.001956976682824782 0.023973873018213628 0 -0.0025341050961865908 0.023758726066979964 0 -0.0016673875387233133 0.02353423669535647 0 -0.0015157484175814361 0.024144571057222258 0 -0.001956976682824782 0.023973873018213628 0 -0.0016673875387233133 0.02353423669535647 0 -0.0015435985749869567 0.023473392632098966 0 -0.0017040175639378961 0.023135865681520856 0 -0.0013527301824106848 0.022954974131717622 0 -0.0015435985749869567 0.023473392632098966 0 -0.0017040175639378961 0.023135865681520856 0 -0.0020556374543014579 0.023242614847222877 0 -0.0020068280299244401 0.023249936497653743 0 -0.0021166883999113057 0.022975307921812488 0 -0.0018547350125400332 0.022838220956222833 0 -0.0017040175639378961 0.023135865681520856 0 -0.0020556374543014579 0.023242614847222877 0 -0.0018547350125400332 0.022838220956222833 0 -0.0020068280299244401 0.023249936497653743 0 -0.0021166883999113057 0.022975307921812488 0 -0.0023415422194586356 0.023158601928572452 0 -0.0019695206685147112 0.023099820188569011 0 -0.0018952934645154271 0.022936677238833449 0 -0.0019665319526967688 0.022349047904362328 0 -0.0018547350125400332 0.022838220956222833 0 -0.0022394737157167646 0.022646503609812251 0 -0.0021166883999113057 0.022975307921812488 0 -0.0018547350125400332 0.022838220956222833 0 -0.0022394737157167646 0.022646503609812251 0 -0.0019665319526967688 0.022349047904362328 0 -0.0021966728526401354 0.022215694487413579 0 -0.0022394737157167646 0.022646503609812251 0 -0.0019665319526967688 0.022349047904362328 0 -0.0015708518818613032 0.022533490961791372 0 -0.0017511849368439891 0.0219878735077693 0 -0.0019665319526967688 0.022349047904362328 0 -0.0015708518818613032 0.022533490961791372 0 -0.0018547350125400332 0.022838220956222833 0 -0.0015708518818613032 0.022533490961791372 0 -0.0018547350125400332 0.022838220956222833 0 -0.0013527301824106848 0.022954974131717622 0 -0.0017040175639378961 0.023135865681520856 0 -0.0018547350125400332 0.022838220956222833 0 -0.0013527301824106848 0.022954974131717622 0 -0.0013527301824106848 0.022954974131717622 0 -0.00093621793115483698 0.022871045906039042 0 -0.0010748889849580491 0.022425019633004001 0 -0.0015708518818613032 0.022533490961791372 0 -0.0013527301824106848 0.022954974131717622 0 -0.0010748889849580491 0.022425019633004001 0 -0.00049867313173972833 0.022791567653032866 0 -0.00093621793115483698 0.022871045906039042 0 -0.0010748889849580491 0.022425019633004001 0 -0.0012340044008500211 0.02226146488964055 0 -0.0015439084215015783 0.021955150616509978 0 -0.0020754051081648722 0.021504686350291683 0 -0.0022245278333959959 0.021374122808893864 0 -0.0019074934959125076 0.021529989228668753 0 -0.0020754051081648722 0.021504686350291683 0 -0.0019074934959125076 0.021529989228668753 0 -0.0019026666531745716 0.02171421484032543 0 -0.0015708518818613032 0.022533490961791372 0 -0.0010748889849580491 0.022425019633004001 0 -0.0017511849368439891 0.0219878735077693 0 -0.0015439084215015783 0.021955150616509978 0 -0.001724355643406782 0.021970600040243666 0 -0.0019074934959125076 0.021529989228668753 0 -0.0019026666531745716 0.02171421484032543 0 -0.0017511849368439891 0.0219878735077693 0 -0.0019026666531745716 0.02171421484032543 0 -0.0018605079099670641 0.021807018013595875 0 -0.0017511849368439891 0.0219878735077693 0 -0.0020754051081648722 0.021504686350291683 0 -0.0019026666531745716 0.02171421484032543 0 -0.0019824264275400362 0.021727801630322074 0 -0.0019026666531745716 0.02171421484032543 0 -0.0019824264275400362 0.021727801630322074 0 -0.0018605079099670641 0.021807018013595875 0 -0.0020501932174792088 0.021772709749470834 0 -0.0019824264275400362 0.021727801630322074 0 -0.0019810824642980196 0.021820617238511236 0 -0.0019824264275400362 0.021727801630322074 0 -0.0019810824642980196 0.021820617238511236 0 -0.0018605079099670641 0.021807018013595875 0 -0.0019810824642980196 0.021820617238511236 0 -0.0018605079099670641 0.021807018013595875 0 -0.0018992522889740065 0.021834810869757228 0 -0.0018605079099670641 0.021807018013595875 0 -0.0018435394038876943 0.02182471579442051 0 -0.0018525950597524552 0.021873173494788713 0 -0.0018605079099670641 0.021807018013595875 0 -0.0018992522889740065 0.021834810869757228 0 -0.0018435394038876943 0.02182471579442051 0 -0.0019099482600166927 0.021790958939094954 0 -0.0018435394038876943 0.02182471579442051 0 -0.0018525950597524552 0.021873173494788713 0 -0.0019099482600166927 0.021790958939094954 0 -0.0018525950597524552 0.021873173494788713 0 -0.002032270574969088 0.021838963610622056 0 -0.0021920925990022151 0.021760084271356499 0 -0.002032270574969088 0.021838963610622056 0 -0.0022226834722499649 0.021958650529545595 0 -0.002032270574969088 0.021838963610622056 0 -0.0019865371347422109 0.021985232132366465 0 -0.0022226834722499649 0.021958650529545595 0 -0.0018525950597524552 0.021873173494788713 0 -0.002032270574969088 0.021838963610622056 0 -0.0019865371347422109 0.021985232132366465 0 -0.0019865371347422109 0.021985232132366465 0 -0.0021966728526401354 0.022215694487413579 0 -0.0022226834722499649 0.021958650529545595 0 -0.0019665319526967688 0.022349047904362328 0 -0.0019865371347422109 0.021985232132366465 0 -0.0021966728526401354 0.022215694487413579 0 -0.0019665319526967688 0.022349047904362328 0 -0.0019865371347422109 0.021985232132366465 0 -0.0017511849368439891 0.0219878735077693 0 -0.0018605079099670641 0.021807018013595875 0 -0.0018525950597524552 0.021873173494788713 0 -0.0017511849368439891 0.0219878735077693 0 -0.0018525950597524552 0.021873173494788713 0 -0.0019865371347422109 0.021985232132366465 0 -0.0017511849368439891 0.0219878735077693 0 -0.0022623156424080274 0.026648585467131412 0 -0.0027682819591393439 0.025804745433122108 0 -0.0028657205963364819 0.027241433898569523 0 -0.0026646242674232437 0.024077996745792817 0 -0.0027014561367804573 0.024467141552475771 0 -0.0022623156424080274 0.026648585467131412 0 -0.0027682819591393439 0.025804745433122108 0 -0.0019023410002913565 0.026197549941117056 0 -0.0027682819591393439 0.025804745433122108 0 -0.0019023410002913565 0.026197549941117056 0 -0.0020525553691670894 0.025640219714312084 0 -0.0025760090010357463 0.022289008304510503 0 -0.0022226834722499649 0.021958650529545595 0 -0.0024431664110348018 0.021907907101418416 0 -0.0025760090010357463 0.022289008304510503 0 -0.0021966728526401354 0.022215694487413579 0 -0.0022226834722499649 0.021958650529545595 0 -0.0021920925990022151 0.021760084271356499 0 -0.0022226834722499649 0.021958650529545595 0 -0.0024431664110348018 0.021907907101418416 0 -0.0022623156424080274 0.026648585467131412 0 -0.0028657205963364819 0.027241433898569523 0 -0.0020533608872114651 0.027208362399074777 0 -0.0024434469803090815 0.027895689319019926 0 -0.0028657205963364819 0.027241433898569523 0 -0.0020533608872114651 0.027208362399074777 0 -0.0024434469803090815 0.027895689319019926 0 -0.0018332605048469405 0.027663509263850247 0 -0.0020533608872114651 0.027208362399074777 0 -0.0018332605048469405 0.027663509263850247 0 -0.0016010029372057419 0.027224178374400103 0 -0.0020533608872114651 0.027208362399074777 0 -0.0018332605048469405 0.027663509263850247 0 -0.0013261879092040588 0.027620737827211139 0 -0.0016010029372057419 0.027224178374400103 0 -0.0013261879092040588 0.027620737827211139 0 -0.0016010029372057419 0.027224178374400103 0 -0.00099626797101700563 0.026750733782027483 0 -0.0016010029372057419 0.027224178374400103 0 -0.0017173317845593718 0.026796920279063767 0 -0.00099626797101700563 0.026750733782027483 0 -0.0022623156424080274 0.026648585467131412 0 -0.0017173317845593718 0.026796920279063767 0 -0.0020533608872114651 0.027208362399074777 0 -0.0016010029372057419 0.027224178374400103 0 -0.0017173317845593718 0.026796920279063767 0 -0.0020533608872114651 0.027208362399074777 0 -0.00037417402830238665 0.031571466472691483 0 -0.00039335590966691522 0.030986243432855533 0 -5.0888522947450146e-05 0.034919511536972932 0 -4.2229523801427076e-05 0.034907493458320595 0 -6.0260706605552704e-05 0.034877995456183031 0 -0.00064295447275150304 0.028362146856179857 0 -0.0013261879092040588 0.027620737827211139 0 -0.00099626797101700563 0.026750733782027483 0 -0.00039335590966691522 0.030986243432855533 0 -0.00022223357345368028 0.032207071127814783 0 -4.2229523801427076e-05 0.034907493458320595 0 -6.0260706605552704e-05 0.034877995456183031 0 -4.454378556087601e-05 0.034890165100801993 0 -6.0260706605552704e-05 0.034877995456183031 0 -6.2084518636583628e-05 0.034862952100563491 0 -4.454378556087601e-05 0.034890165100801993 0 -0.00099626797101700563 0.026750733782027483 0 -0.0016896959158507472 0.025866210089795481 0 -0.0015563904316098724 0.025260884011576844 0 -0.00039335590966691522 0.030986243432855533 0 -0.0012674639816732923 0.026649136742654886 0 -0.0022623156424080274 0.026648585467131412 0 -0.0017173317845593718 0.026796920279063767 0 -0.0019023410002913565 0.026197549941117056 0 -0.0017173317845593718 0.026796920279063767 0 -0.00099626797101700563 0.026750733782027483 0 -0.0019023410002913565 0.026197549941117056 0 -0.00099626797101700563 0.026750733782027483 0 -0.0016896959158507472 0.025866210089795481 0 -0.0019023410002913565 0.026197549941117056 0 -0.0016896959158507472 0.025866210089795481 0 -0.0019023410002913565 0.026197549941117056 0 -0.0020525553691670894 0.025640219714312084 0 7.0161830997054976e-05 0.031424748908632366 0 -0.00057067934098788955 0.028477819246097057 0 -0.00083721758257884391 0.028765516515625547 0 -0.0020525553691670894 0.025640219714312084 0 -0.0018565701445868556 0.025438021603233153 0 -0.0021296033466577072 0.025154596637097092 0 -0.0016896959158507472 0.025866210089795481 0 -0.0020525553691670894 0.025640219714312084 0 -0.0018565701445868556 0.025438021603233153 0 -0.0016896959158507472 0.025866210089795481 0 -0.0018565701445868556 0.025438021603233153 0 -0.0015563904316098724 0.025260884011576844 0 -0.0018565701445868556 0.025438021603233153 0 -0.0015563904316098724 0.025260884011576844 0 -0.0021296033466577072 0.025154596637097092 0 -0.0015563904316098724 0.025260884011576844 0 -0.0021296033466577072 0.025154596637097092 0 -0.0021322320889298561 0.024604270128512917 0 -6.2084518636583628e-05 0.034862952100563491 0 -4.3420854992013008e-05 0.034894202869816281 0 -4.454378556087601e-05 0.034890165100801993 0 -6.2084518636583628e-05 0.034862952100563491 0 -5.5517154994013166e-05 0.034876323274596853 0 -4.3420854992013008e-05 0.034894202869816281 0 -0.00057067934098788955 0.028477819246097057 0 -0.0012645750508126633 0.025482493567871696 0 -0.0016432708540625386 0.025896369271480812 0 -6.2084518636583628e-05 0.034862952100563491 0 -7.4228652301518296e-05 0.034842962751953838 0 -5.5517154994013166e-05 0.034876323274596853 0 -0.0015563904316098724 0.025260884011576844 0 -0.0021322320889298561 0.024604270128512917 0 -0.0021254768661556869 0.023959791566001681 0 -0.00057067934098788955 0.028477819246097057 0 -0.00083721758257884391 0.028765516515625547 0 -0.0016432708540625386 0.025896369271480812 0 -0.00022223357345368028 0.032207071127814783 0 -0.00065742226596917004 0.029803661140085584 0 -0.0012674639816732923 0.026649136742654886 0 -0.0018538984010298104 0.025014016088207573 0 -0.0021322320889298561 0.024604270128512917 0 -0.0022912977794701263 0.024290906643576887 0 -0.0021254768661556869 0.023959791566001681 0 -0.0021322320889298561 0.024604270128512917 0 -0.0022912977794701263 0.024290906643576887 0 -0.0026232631774113484 0.024455396232518922 0 -0.0021296033466577072 0.025154596637097092 0 -0.0021322320889298561 0.024604270128512917 0 -0.0026232631774113484 0.024455396232518922 0 -0.0026646242674232437 0.024077996745792817 0 -0.0026186981992052821 0.023664293530864695 0 -0.0025760090010357463 0.022289008304510503 0 -0.0026525067554941085 0.022869827270607202 0 -0.0022394737157167646 0.022646503609812251 0 -0.0027682819591393439 0.025804745433122108 0 -0.0021296033466577072 0.025154596637097092 0 -0.0026232631774113484 0.024455396232518922 0 -0.0027682819591393439 0.025804745433122108 0 -0.0020525553691670894 0.025640219714312084 0 -0.0021296033466577072 0.025154596637097092 0 -0.0025760090010357463 0.022289008304510503 0 -0.0021966728526401354 0.022215694487413579 0 -0.0022394737157167646 0.022646503609812251 0 -0.0026525067554941085 0.022869827270607202 0 -0.0022394737157167646 0.022646503609812251 0 -0.0023415422194586356 0.023158601928572452 0 -0.0021166883999113057 0.022975307921812488 0 -0.0022394737157167646 0.022646503609812251 0 -0.0023415422194586356 0.023158601928572452 0 -0.0020068280299244401 0.023249936497653743 0 -0.0023415422194586356 0.023158601928572452 0 -0.0024093208067014144 0.023441929965677451 0 -0.0023415422194586356 0.023158601928572452 0 -0.0024704705790105858 0.023571617349162882 0 -0.0024093208067014144 0.023441929965677451 0 -0.0026186981992052821 0.023664293530864695 0 -0.0025073693117446602 0.023563038802233777 0 -0.0022912977794701263 0.024290906643576887 0 -0.0026232631774113484 0.024455396232518922 0 -0.0024704705790105858 0.023571617349162882 0 -0.0026525067554941085 0.022869827270607202 0 -0.0023415422194586356 0.023158601928572452 0 -0.0024704705790105858 0.023571617349162882 0 -0.0022912977794701263 0.024290906643576887 0 -0.0024704705790105858 0.023571617349162882 0 -0.0021254768661556869 0.023959791566001681 0 -0.0024704705790105858 0.023571617349162882 0 -0.0023117914443150801 0.023382993514783085 0 -0.0021254768661556869 0.023959791566001681 0 -0.0025427622332101565 0.02352013462577985 0 -0.0023117914443150801 0.023382993514783085 0 -0.0020465416674004997 0.02301254613114162 0 -0.0018276611507301551 0.025368449537438085 0 -0.0015684150226809245 0.030210995361836898 0 -0.0024704705790105858 0.023571617349162882 0 -0.0024698750032585994 0.023500763216515737 0 -0.0023117914443150801 0.023382993514783085 0 -0.0024704705790105858 0.023571617349162882 0 -0.0024698750032585994 0.023500763216515737 0 -0.0024093208067014144 0.023441929965677451 0 -0.0024698750032585994 0.023500763216515737 0 -0.0025427622332101565 0.02352013462577985 0 -0.0024093208067014144 0.023441929965677451 0 -0.0024698750032585994 0.023500763216515737 0 -0.0025427622332101565 0.02352013462577985 0 -0.0023117914443150801 0.023382993514783085 0 -0.0017999223839775453 0.024731413350788836 0 -0.0018276611507301551 0.025368449537438085 0 -0.0021925433696363831 0.023561280274893417 0 -0.0020068280299244401 0.023249936497653743 0 -0.0024093208067014144 0.023441929965677451 0 -0.0021925433696363831 0.023561280274893417 0 -0.0025427622332101565 0.02352013462577985 0 -0.0024093208067014144 0.023441929965677451 0 -0.00043889328857458544 0.027041105272465314 0 -0.0014689824782167535 0.027309833619452887 0 -0.0011866785788467841 0.028618482384199902 0 -0.0017999223839775453 0.024731413350788836 0 -0.0020537420522614134 0.026345438703124249 0 -0.0014689824782167535 0.027309833619452887 0 -0.0018417883830477162 0.028097498769822739 0 -0.0011866785788467841 0.028618482384199902 0 -0.0018417883830477162 0.028097498769822739 0 -0.0022151538509381547 0.028878600432587023 0 -0.0024915586254219599 0.027582674240769572 0 -0.0014689824782167535 0.027309833619452887 0 -0.0018417883830477162 0.028097498769822739 0 -0.0024915586254219599 0.027582674240769572 0 -0.0014999503449685634 0.032446944895436779 0 -0.0015684150226809245 0.030210995361836898 0 -0.0020537420522614134 0.026345438703124249 0 -0.0019827863594745468 0.029714482891310588 0 -0.0018417883830477162 0.028097498769822739 0 -0.0022151538509381547 0.028878600432587023 0 -0.0011866785788467841 0.028618482384199902 0 -0.0022151538509381547 0.028878600432587023 0 -0.0011866785788467841 0.028618482384199902 0 -0.0019410046171715824 0.03016915035654805 0 -0.00058014664549179231 0.034719985991346083 0 -0.00040551752266861275 0.035041221963517874 0 -0.00011338261097601499 0.03474779538542614 0 -0.00058014664549179231 0.034719985991346083 0 -0.00011338261097601499 0.03474779538542614 0 -0.00051218216944137372 0.034426938200949095 0 -0.0010122998038074348 0.034669987098436147 0 -0.00058014664549179231 0.034719985991346083 0 -0.00080492149637405351 0.034368946308219669 0 -0.00058014664549179231 0.034719985991346083 0 -0.00080492149637405351 0.034368946308219669 0 -0.00051218216944137372 0.034426938200949095 0 -0.0010122998038074348 0.034669987098436147 0 -0.00058014664549179231 0.034719985991346083 0 -0.00087885227513878432 0.035133234877346257 0 -0.0015684150226809245 0.030210995361836898 0 -0.00019224507627019449 0.035188206616838323 0 -0.00058014664549179231 0.034719985991346083 0 -0.00087885227513878432 0.035133234877346257 0 -0.00040551752266861275 0.035041221963517874 0 -6.3217045226382916e-05 0.034865186461359721 0 -6.4857755086690174e-05 0.034858973281953934 0 -5.6109754650284883e-05 0.034887669864686201 0 -6.4857755086690174e-05 0.034858973281953934 0 -5.5517154994013166e-05 0.034876323274596853 0 -5.6109754650284883e-05 0.034887669864686201 0 -0.0015684150226809245 0.030210995361836898 0 -0.00065742226596917004 0.029803661140085584 0 -0.0023117914443150801 0.023382993514783085 0 -0.0020465416674004997 0.02301254613114162 0 -0.0012645750508126633 0.025482493567871696 0 -8.6687720367921122e-05 0.034818942133846134 0 -6.3217045226382916e-05 0.034865186461359721 0 -6.4857755086690174e-05 0.034858973281953934 0 -8.6687720367921122e-05 0.034818942133846134 0 -6.4857755086690174e-05 0.034858973281953934 0 -7.4228652301518296e-05 0.034842962751953838 0 -0.0023117914443150801 0.023382993514783085 0 -0.0012645750508126633 0.025482493567871696 0 -0.0016432708540625386 0.025896369271480812 0 -0.0022995290702205007 0.023430305369487481 0 -0.0018538984010298104 0.025014016088207573 0 -6.4857755086690174e-05 0.034858973281953934 0 -7.4228652301518296e-05 0.034842962751953838 0 -5.5517154994013166e-05 0.034876323274596853 0 -5.5517154994013166e-05 0.034876323274596853 0 -4.2091011220384303e-05 0.034914113545666758 0 -5.6109754650284883e-05 0.034887669864686201 0 -4.2091011220384303e-05 0.034914113545666758 0 -3.0467138537458176e-05 0.034942838304146934 0 -2.6142185066198082e-05 0.034950614332313105 0 -4.2091011220384303e-05 0.034914113545666758 0 -4.9225258237961583e-05 0.034916532865139502 0 -3.0467138537458176e-05 0.034942838304146934 0 -4.9225258237961583e-05 0.034916532865139502 0 -3.7449314772620207e-05 0.034923367309399926 0 -3.0467138537458176e-05 0.034942838304146934 0 -4.2091011220384303e-05 0.034914113545666758 0 -4.9225258237961583e-05 0.034916532865139502 0 -5.6109754650284883e-05 0.034887669864686201 0 -4.9225258237961583e-05 0.034916532865139502 0 -5.6109754650284883e-05 0.034887669864686201 0 -6.4822198853344107e-05 0.034914343317613894 0 -6.3217045226382916e-05 0.034865186461359721 0 -5.6109754650284883e-05 0.034887669864686201 0 -6.4822198853344107e-05 0.034914343317613894 0 -0.00019224507627019449 0.035188206616838323 0 -8.7261976928968823e-05 0.034895064502343975 0 -0.00040551752266861275 0.035041221963517874 0 -6.4822198853344107e-05 0.034914343317613894 0 -0.00011338261097601499 0.03474779538542614 0 -4.9225258237961583e-05 0.034916532865139502 0 -6.4822198853344107e-05 0.034914343317613894 0 -3.7449314772620207e-05 0.034923367309399926 0 -6.4822198853344107e-05 0.034914343317613894 0 -3.7449314772620207e-05 0.034923367309399926 0 -5.1648599405283211e-05 0.034872408402359611 0 -3.7449314772620207e-05 0.034923367309399926 0 -5.1648599405283211e-05 0.034872408402359611 0 -2.8586347579591764e-05 0.034916658539171995 0 -5.1648599405283211e-05 0.034872408402359611 0 -2.8586347579591764e-05 0.034916658539171995 0 -7.2745222107161922e-05 0.034841101819552259 0 -5.1648599405283211e-05 0.034872408402359611 0 -0.00011338261097601499 0.03474779538542614 0 -7.2745222107161922e-05 0.034841101819552259 0 -6.4822198853344107e-05 0.034914343317613894 0 -5.1648599405283211e-05 0.034872408402359611 0 -0.00011338261097601499 0.03474779538542614 0 3.1481307822289057e-09 0.034999922725450779 0 -8.1519005526253307e-06 0.034956517732166272 0 -1.1386905788726343e-05 0.03496621251148397 0 3.1481307822289057e-09 0.034999922725450779 0 -8.1519005526253307e-06 0.034956517732166272 0 6.5250592742330017e-06 0.03497553754159282 0 -8.1519005526253307e-06 0.034956517732166272 0 -2.8586347579591764e-05 0.034916658539171995 0 -1.7028836297241114e-05 0.034923557695282235 0 -8.1519005526253307e-06 0.034956517732166272 0 -2.8586347579591764e-05 0.034916658539171995 0 -1.1386905788726343e-05 0.03496621251148397 0 -3.7449314772620207e-05 0.034923367309399926 0 -1.1386905788726343e-05 0.03496621251148397 0 -3.0467138537458176e-05 0.034942838304146934 0 -3.7449314772620207e-05 0.034923367309399926 0 -2.8586347579591764e-05 0.034916658539171995 0 -1.1386905788726343e-05 0.03496621251148397 0 3.1481307822289057e-09 0.034999922725450779 0 -1.1386905788726343e-05 0.03496621251148397 0 -4.2145287906714272e-09 0.034999963335446097 0 -1.1386905788726343e-05 0.03496621251148397 0 -4.2145287906714272e-09 0.034999963335446097 0 -1.545861064823227e-05 0.034969706931716506 0 -1.1386905788726343e-05 0.03496621251148397 0 -1.545861064823227e-05 0.034969706931716506 0 -3.0467138537458176e-05 0.034942838304146934 0 -1.545861064823227e-05 0.034969706931716506 0 -3.0467138537458176e-05 0.034942838304146934 0 -2.6142185066198082e-05 0.034950614332313105 0 -1.545861064823227e-05 0.034969706931716506 0 -2.6142185066198082e-05 0.034950614332313105 0 -5.2690856600519677e-08 0.034999894431761033 0 -4.2145287906714272e-09 0.034999963335446097 0 -1.545861064823227e-05 0.034969706931716506 0 -5.2690856600519677e-08 0.034999894431761033 0 -2.6142185066198082e-05 0.034950614332313105 0 -5.2690856600519677e-08 0.034999894431761033 0 -3.0534055759153895e-05 0.034936255666536561 0 -4.2361843035885552e-10 0.034999980581694991 0 -1.5281237045607584e-05 0.034961868665592699 0 3.4142293787941177e-09 0.034999999289288861 0 -9.7854872637827549e-09 0.034999981522866229 0 -5.3180494124114825e-06 0.034989188144402883 0 -2.6142185066198082e-05 0.034950614332313105 0 -3.0534055759153895e-05 0.034936255666536561 0 -3.4290247254947194e-05 0.034921751243986714 0 -4.2091011220384303e-05 0.034914113545666758 0 -2.6142185066198082e-05 0.034950614332313105 0 -3.4290247254947194e-05 0.034921751243986714 0 -4.2091011220384303e-05 0.034914113545666758 0 -3.4290247254947194e-05 0.034921751243986714 0 -4.3420854992013008e-05 0.034894202869816281 0 -5.5517154994013166e-05 0.034876323274596853 0 -4.2091011220384303e-05 0.034914113545666758 0 -4.3420854992013008e-05 0.034894202869816281 0 -1.5281237045607584e-05 0.034961868665592699 0 -2.7395549482483048e-05 0.034931607857760505 0 -3.0534055759153895e-05 0.034936255666536561 0 -3.4290247254947194e-05 0.034921751243986714 0 -3.6412920100842423e-05 0.0348996864271853 0 -3.4290247254947194e-05 0.034921751243986714 0 -4.3420854992013008e-05 0.034894202869816281 0 -3.6412920100842423e-05 0.0348996864271853 0 -4.3420854992013008e-05 0.034894202869816281 0 -3.6412920100842423e-05 0.0348996864271853 0 -4.454378556087601e-05 0.034890165100801993 0 -4.2229523801427076e-05 0.034907493458320595 0 -3.6412920100842423e-05 0.0348996864271853 0 -4.454378556087601e-05 0.034890165100801993 0 -4.1676827612766891e-05 0.034913486386613506 0 -2.7395549482483048e-05 0.034931607857760505 0 -4.2229523801427076e-05 0.034907493458320595 0 -1.4362726765536787e-05 0.034962053771477597 0 -2.2727247402178921e-05 0.034943407834214478 0 -3.3693973555836443e-05 0.034937224873583417 0 -4.2229523801427076e-05 0.034907493458320595 0 -2.2727247402178921e-05 0.034943407834214478 0 -1.4362726765536787e-05 0.034962053771477597 0 -2.2727247402178921e-05 0.034943407834214478 0 -9.996809815607959e-06 0.034975791485678177 0 -1.5965578488911207e-05 0.034961802742781281 0 -2.2727247402178921e-05 0.034943407834214478 0 -9.996809815607959e-06 0.034975791485678177 0 -6.1818866662774141e-06 0.03498278505590964 0 -1.5965578488911207e-05 0.034961802742781281 0 -9.996809815607959e-06 0.034975791485678177 0 -6.1818866662774141e-06 0.03498278505590964 0 -9.996809815607959e-06 0.034975791485678177 0 -4.3451414346169294e-09 0.034999971336844606 0 -9.7854872637827549e-09 0.034999981522866229 0 -9.996809815607959e-06 0.034975791485678177 0 -4.3451414346169294e-09 0.034999971336844606 0 -9.7854872637827549e-09 0.034999981522866229 0 -5.3180494124114825e-06 0.034989188144402883 0 -9.996809815607959e-06 0.034975791485678177 0 -5.3180494124114825e-06 0.034989188144402883 0 -1.4362726765536787e-05 0.034962053771477597 0 -9.996809815607959e-06 0.034975791485678177 0 0.0037537935708156999 -0.0015142168492432693 0 0.0038648362263152373 -0.0014914887613928173 0 0.0037383675542417946 -0.0015416381047627205 0 0.0047331059384092952 0.00034952910843068008 0 0.0042563405170826987 5.7165171335945891e-05 0 0.0037537935708156999 -0.0015142168492432693 0 0.003704145418644627 -0.0015386861234495425 0 0.0037209165058138833 -0.0015800534666919087 0 0.0037537935708156999 -0.0015142168492432693 0 0.0037209165058138833 -0.0015800534666919087 0 0.0037047663164736905 -0.0014845042326149056 0 0.0037537935708156999 -0.0015142168492432693 0 0.0037047663164736905 -0.0014845042326149056 0 0.0037773534869307767 -0.0013717549487778657 0 0.0037537935708156999 -0.0015142168492432693 0 0.003859339230054526 -0.0013840137022260105 0 0.0038648362263152373 -0.0014914887613928173 0 0.0037537935708156999 -0.0015142168492432693 0 0.003859339230054526 -0.0013840137022260105 0 0.0037773534869307767 -0.0013717549487778657 0 0.003859339230054526 -0.0013840137022260105 0 0.0038648362263152373 -0.0014914887613928173 0 0.0039793145492883651 -0.001314108818959087 0 0.005082065215921955 0.0018303331851990538 0 0.0056712544809031946 0.0022961378844987015 0 0.005164679644124745 0.00070809837221251937 0 0.0047331059384092952 0.00034952910843068008 0 0.0045240348655344164 -0.00030274481862846826 0 0.005082065215921955 0.0018303331851990538 0 0.005164679644124745 0.00070809837221251937 0 0.0039075832214863744 0.0019039475342723094 0 0.005164679644124745 0.00070809837221251937 0 0.0035523247186747156 0.00054295177683320298 0 0.0039075832214863744 0.0019039475342723094 0 0.005082065215921955 0.0018303331851990538 0 0.0046473612519428971 0.0025879165345879715 0 0.0039075832214863744 0.0019039475342723094 0 0.005082065215921955 0.0018303331851990538 0 0.0046473612519428971 0.0025879165345879715 0 0.0056676834701950137 0.0023851484805738361 0 0.0056712544809031946 0.0022961378844987015 0 0.0056676834701950137 0.0023851484805738361 0 0.0054168619803288435 0.0016744007665977897 0 0.005082065215921955 0.0018303331851990538 0 0.0056712544809031946 0.0022961378844987015 0 0.0056676834701950137 0.0023851484805738361 0 0.0057322307988354184 0.0023749567837104001 0 0.0058939651664107525 0.0028998714378338716 0 0.0056676834701950137 0.0023851484805738361 0 0.0054168619803288435 0.0016744007665977897 0 0.0059640618868075281 0.0009111059376920934 0 0.0056676834701950137 0.0023851484805738361 0 0.0047287556933386004 0.0037035565255732375 0 0.0059070498612247531 0.0047356804187803445 0 0.0046473612519428971 0.0025879165345879715 0 0.0047287556933386004 0.0037035565255732375 0 0.003662545920543461 0.0033334604982367447 0 0.0046473612519428971 0.0025879165345879715 0 0.0056676834701950137 0.0023851484805738361 0 0.0047287556933386004 0.0037035565255732375 0 0.0047287556933386004 0.0037035565255732375 0 0.0047098206314059492 0.004807494541431266 0 0.0037428423589601929 0.0046482081241546397 0 0.0047287556933386004 0.0037035565255732375 0 0.0047098206314059492 0.004807494541431266 0 0.0059070498612247531 0.0047356804187803445 0 0.0047098206314059492 0.004807494541431266 0 0.0059070498612247531 0.0047356804187803445 0 0.005082400231756129 0.0056921914453402778 0 0.0047098206314059492 0.004807494541431266 0 0.0041559896046980196 0.0056892889537714089 0 0.005082400231756129 0.0056921914453402778 0 0.0047098206314059492 0.004807494541431266 0 0.0037428423589601929 0.0046482081241546397 0 0.0041559896046980196 0.0056892889537714089 0 0.0054168619803288435 0.0016744007665977897 0 0.0059640618868075281 0.0009111059376920934 0 0.0049827099767975128 0.00040227000534226275 0 0.0049827099767975128 0.00040227000534226275 0 0.0047377394005049586 0.0016854208645041948 0 0.0039724872291796521 0.00033273040161521233 0 0.0054168619803288435 0.0016744007665977897 0 0.0049827099767975128 0.00040227000534226275 0 0.0047377394005049586 0.0016854208645041948 0 0.0056712544809031946 0.0022961378844987015 0 0.0054168619803288435 0.0016744007665977897 0 0.0047377394005049586 0.0016854208645041948 0 0.0037383675542417946 -0.0015416381047627205 0 0.003704145418644627 -0.0015386861234495425 0 0.0036335198438475296 -0.0014522492978317606 0 0.0037537935708156999 -0.0015142168492432693 0 0.0037383675542417946 -0.0015416381047627205 0 0.003704145418644627 -0.0015386861234495425 0 0.0042563405170826987 5.7165171335945891e-05 0 0.0038407226081466784 -0.00054467380228695635 0 0.003704145418644627 -0.0015386861234495425 0 0.0036335198438475296 -0.0014522492978317606 0 0.0037719336414134795 -0.0015128984492621545 0 0.0036335198438475296 -0.0014522492978317606 0 0.0037719336414134795 -0.0015128984492621545 0 0.0037843761142430212 -0.0013902048805715509 0 0.0037719336414134795 -0.0015128984492621545 0 0.0038329389153100532 -0.00150586557827329 0 0.0038228768019513415 -0.0015485269584932548 0 0.0037719336414134795 -0.0015128984492621545 0 0.0038329389153100532 -0.00150586557827329 0 0.0037843761142430212 -0.0013902048805715509 0 0.0037719336414134795 -0.0015128984492621545 0 0.0038228768019513415 -0.0015485269584932548 0 0.0037209165058138833 -0.0015800534666919087 0 0.003704145418644627 -0.0015386861234495425 0 0.0037719336414134795 -0.0015128984492621545 0 0.0037209165058138833 -0.0015800534666919087 0 0.0036808550522932589 -0.0018114412972102226 0 0.0037293586605141233 -0.0016323012366626216 0 0.003806577909464556 -0.0016281119151190706 0 0.0038228768019513415 -0.0015485269584932548 0 0.0037293586605141233 -0.0016323012366626216 0 0.003806577909464556 -0.0016281119151190706 0 0.0038329389153100532 -0.00150586557827329 0 0.0038228768019513415 -0.0015485269584932548 0 0.003806577909464556 -0.0016281119151190706 0 0.0034642802555586998 -0.0017464480822678545 0 0.0036106519015351897 -0.001765548330993371 0 0.003506994145210936 -0.0019241734129464038 0 0.003709556891412336 -0.0016559523338143156 0 0.0036240823213548852 -0.0017955087073214188 0 0.0034642802555586998 -0.0017464480822678545 0 0.0036106519015351897 -0.001765548330993371 0 0.0036027924680626928 -0.0015797730951281482 0 0.0034642802555586998 -0.0017464480822678545 0 0.0036027924680626928 -0.0015797730951281482 0 0.0034747647834201482 -0.0015742594393066583 0 0.0036106519015351897 -0.001765548330993371 0 0.0036027924680626928 -0.0015797730951281482 0 0.0037209165058138833 -0.0015800534666919087 0 0.003709556891412336 -0.0016559523338143156 0 0.0037198042952730744 -0.0015927913215986788 0 0.0036027924680626928 -0.0015797730951281482 0 0.0037209165058138833 -0.0015800534666919087 0 0.0037047663164736905 -0.0014845042326149056 0 0.0037047663164736905 -0.0014845042326149056 0 0.0037098254730275563 -0.0013794728572266619 0 0.0036428071520931663 -0.0014588390912961533 0 0.0036027924680626928 -0.0015797730951281482 0 0.0036428071520931663 -0.0014588390912961533 0 0.0035556396299402594 -0.0014513096829437057 0 0.0036027924680626928 -0.0015797730951281482 0 0.0037047663164736905 -0.0014845042326149056 0 0.0036428071520931663 -0.0014588390912961533 0 0.0035556396299402594 -0.0014513096829437057 0 0.0035454602000270269 -0.001346979569960506 0 0.0036560744605888939 -0.0013429442958640342 0 0.0036428071520931663 -0.0014588390912961533 0 0.0035556396299402594 -0.0014513096829437057 0 0.0036560744605888939 -0.0013429442958640342 0 0.0037098254730275563 -0.0013794728572266619 0 0.0036560744605888939 -0.0013429442958640342 0 0.0037636968903674213 -0.0012442994608705684 0 0.0037098254730275563 -0.0013794728572266619 0 0.0036428071520931663 -0.0014588390912961533 0 0.0036560744605888939 -0.0013429442958640342 0 0.0036027924680626928 -0.0015797730951281482 0 0.0034747647834201482 -0.0015742594393066583 0 0.0035556396299402594 -0.0014513096829437057 0 0.0035556396299402594 -0.0014513096829437057 0 0.0034338298581858199 -0.001435024658982846 0 0.0035454602000270269 -0.001346979569960506 0 0.0034747647834201482 -0.0015742594393066583 0 0.0035556396299402594 -0.0014513096829437057 0 0.0034338298581858199 -0.001435024658982846 0 0.0033415832138831343 -0.0013357534760009002 0 0.0034338298581858199 -0.001435024658982846 0 0.0034454413620386556 -0.0013104913735838702 0 0.0034338298581858199 -0.001435024658982846 0 0.0035454602000270269 -0.001346979569960506 0 0.0034454413620386556 -0.0013104913735838702 0 0.0034520484295934395 -0.0012101619326666607 0 0.0035346509597063347 -0.0012517114748807341 0 0.0034454413620386556 -0.0013104913735838702 0 0.0035454602000270269 -0.001346979569960506 0 0.0035346509597063347 -0.0012517114748807341 0 0.0036119773628782697 -0.0012804205733723318 0 0.0035454602000270269 -0.001346979569960506 0 0.0035346509597063347 -0.0012517114748807341 0 0.0034454413620386556 -0.0013104913735838702 0 0.0033415832138831343 -0.0013357534760009002 0 0.0033635882596193879 -0.0012060623508810542 0 0.0034454413620386556 -0.0013104913735838702 0 0.0036560744605888939 -0.0013429442958640342 0 0.0036119773628782697 -0.0012804205733723318 0 0.0036933067307980566 -0.0012634260419336174 0 0.0036560744605888939 -0.0013429442958640342 0 0.0036933067307980566 -0.0012634260419336174 0 0.0037636968903674213 -0.0012442994608705684 0 0.0035454602000270269 -0.001346979569960506 0 0.0036560744605888939 -0.0013429442958640342 0 0.0036119773628782697 -0.0012804205733723318 0 0.0036155189171475761 -0.0011701729665670262 0 0.0035346509597063347 -0.0012517114748807341 0 0.0036119773628782697 -0.0012804205733723318 0 0.0036155189171475761 -0.0011701729665670262 0 0.0036119773628782697 -0.0012804205733723318 0 0.0036933067307980566 -0.0012634260419336174 0 0.0035664167094737616 -0.00086131430458551714 0 0.0035514123059838709 -0.0010069629780439463 0 0.0037441007899192565 -0.0010211967557539835 0 0.0037441007899192565 -0.0010211967557539835 0 0.0038919874798627576 -0.0010017262041988131 0 0.0039097573228339148 -0.0011517585376971606 0 0.0037229783478955935 -0.0008523012364144365 0 0.0037441007899192565 -0.0010211967557539835 0 0.0038919874798627576 -0.0010017262041988131 0 0.0034593051742920298 -0.00051152613870726821 0 0.0031781977473804052 -0.00014625242768285333 0 0.0037441007899192565 -0.0010211967557539835 0 0.0037636968903674213 -0.0012442994608705684 0 0.0039097573228339148 -0.0011517585376971606 0 0.0035514123059838709 -0.0010069629780439463 0 0.0037441007899192565 -0.0010211967557539835 0 0.0037636968903674213 -0.0012442994608705684 0 0.0036310755056080026 -0.0011343371656404471 0 0.0037546076530898006 -0.0012444415665478794 0 0.0037098254730275563 -0.0013794728572266619 0 0.0037636968903674213 -0.0012442994608705684 0 0.0037773534869307767 -0.0013717549487778657 0 0.0037636968903674213 -0.0012442994608705684 0 0.0039012639764240717 -0.0012172294659095687 0 0.0039097573228339148 -0.0011517585376971606 0 0.0037636968903674213 -0.0012442994608705684 0 0.0037773534869307767 -0.0013717549487778657 0 0.0039012639764240717 -0.0012172294659095687 0 0.003859339230054526 -0.0013840137022260105 0 0.0037773534869307767 -0.0013717549487778657 0 0.0039012639764240717 -0.0012172294659095687 0 0.0037047663164736905 -0.0014845042326149056 0 0.0037098254730275563 -0.0013794728572266619 0 0.0037773534869307767 -0.0013717549487778657 0 0.0039793145492883651 -0.001314108818959087 0 0.003976008207361696 -0.0010908061143777364 0 0.003995867445562057 -0.0009327045269196787 0 0.0045240348655344164 -0.00030274481862846826 0 0.0040479628349877495 -0.00091045695908680392 0 0.005164679644124745 0.00070809837221251937 0 0.003995867445562057 -0.0009327045269196787 0 0.0035523247186747156 0.00054295177683320298 0 0.0039793145492883651 -0.001314108818959087 0 0.0039012639764240717 -0.0012172294659095687 0 0.003976008207361696 -0.0010908061143777364 0 0.003859339230054526 -0.0013840137022260105 0 0.0039793145492883651 -0.001314108818959087 0 0.0039012639764240717 -0.0012172294659095687 0 0.0039012639764240717 -0.0012172294659095687 0 0.0039097573228339148 -0.0011517585376971606 0 0.003972137974585406 -0.0011522142448117459 0 0.0039012639764240717 -0.0012172294659095687 0 0.003976008207361696 -0.0010908061143777364 0 0.003972137974585406 -0.0011522142448117459 0 0.003976008207361696 -0.0010908061143777364 0 0.0039684978029161854 -0.0011560908509010326 0 0.003972137974585406 -0.0011522142448117459 0 0.003976008207361696 -0.0010908061143777364 0 0.0039157155236262736 -0.001159862589335166 0 0.0039684978029161854 -0.0011560908509010326 0 0.003995867445562057 -0.0009327045269196787 0 0.0039157155236262736 -0.001159862589335166 0 0.0036150064592661907 -0.0012798724433137631 0 0.003976008207361696 -0.0010908061143777364 0 0.003995867445562057 -0.0009327045269196787 0 0.0039157155236262736 -0.001159862589335166 0 0.0039157155236262736 -0.001159862589335166 0 0.0040186153909395591 -0.0011621803481061009 0 0.0036150064592661907 -0.0012798724433137631 0 0.0018499128661956961 0.0012279743328826127 0 0.0018409015754178293 0.00089544562835567199 0 0.0010086928418357695 0.0019910308217023203 0 0.0031294015343195647 0.0058149471521110156 0 0.0032445933184324549 0.0059217944996083453 0 0.0030580627462329676 -0.00062597833637106817 0 0.0032445933184324549 0.0059217944996083453 0 0.0039684978029161854 -0.0011560908509010326 0 0.0040186153909395591 -0.0011621803481061009 0 0.003972137974585406 -0.0011522142448117459 0 0.0039157155236262736 -0.001159862589335166 0 0.0039684978029161854 -0.0011560908509010326 0 0.0040186153909395591 -0.0011621803481061009 0 0.0038919874798627576 -0.0010017262041988131 0 0.0040186153909395591 -0.0011621803481061009 0 0.0039097573228339148 -0.0011517585376971606 0 0.0040186153909395591 -0.0011621803481061009 0 0.0039097573228339148 -0.0011517585376971606 0 0.003972137974585406 -0.0011522142448117459 0 0.0026055689463907838 -5.9771741642478185e-05 0 0.0026135807122135784 0.00051173292222045233 0 0.0018409015754178293 0.00089544562835567199 0 0.0043992238498203832 0.0043956261070810434 0 0.0031294015343195647 0.0058149471521110156 0 0.0026135807122135784 0.00051173292222045233 0 0.0018499128661956961 0.0012279743328826127 0 0.0018409015754178293 0.00089544562835567199 0 0.0031781977473804052 -0.00014625242768285333 0 0.0030580627462329676 -0.00062597833637106817 0 0.0039893379078549153 0.0092928144717862454 0 0.0048444359707810773 0.010301971244444132 0 0.0036215094534517807 0.010335131034758678 0 0.0028326669730417554 0.0096022876935774205 0 0.0039893379078549153 0.0092928144717862454 0 0.0036215094534517807 0.010335131034758678 0 0.0036215094534517807 0.010335131034758678 0 0.0025893312482505588 0.010842626577747596 0 0.003854848615433205 0.011481559167100261 0 0.0048444359707810773 0.010301971244444132 0 0.0036215094534517807 0.010335131034758678 0 0.003854848615433205 0.011481559167100261 0 0.0025893312482505588 0.010842626577747596 0 0.0023772188864973095 0.011657817384200133 0 0.003854848615433205 0.011481559167100261 0 0.0028326669730417554 0.0096022876935774205 0 0.0036215094534517807 0.010335131034758678 0 0.0025893312482505588 0.010842626577747596 0 0.0028326669730417554 0.0096022876935774205 0 0.0025893312482505588 0.010842626577747596 0 0.0015753893001128831 0.009702903952714257 0 0.0025339130539801351 0.0108261595310857 0 0.0016180808073473539 0.0096695091031315551 0 0.0025893312482505588 0.010842626577747596 0 0.0015771360024974975 0.0098294765407265037 0 0.001667804648604413 0.010923972630502122 0 0.0015771360024974975 0.0098294765407265037 0 0.0010722751342982651 0.010285372436845115 0 0.001667804648604413 0.010923972630502122 0 0.0011027785414320335 0.0096000504213834565 0 0.0010722751342982651 0.010285372436845115 0 0.00025947232504120474 0.010436856220535471 0 0.0011027785414320335 0.0096000504213834565 0 0.0015771360024974975 0.0098294765407265037 0 0.0010722751342982651 0.010285372436845115 0 0.0010722751342982651 0.010285372436845115 0 0.001667804648604413 0.010923972630502122 0 0.00072779792935619939 0.010850885824948427 0 0.001667804648604413 0.010923972630502122 0 0.00077396673229137203 0.011610441457077484 0 0.00072779792935619939 0.010850885824948427 0 0.001667804648604413 0.010923972630502122 0 0.00077396673229137203 0.011610441457077484 0 0.0014935328465555434 0.011859762355396927 0 0.0025893312482505588 0.010842626577747596 0 0.001667804648604413 0.010923972630502122 0 0.0023772188864973095 0.011657817384200133 0 0.001667804648604413 0.010923972630502122 0 0.0023772188864973095 0.011657817384200133 0 0.0014935328465555434 0.011859762355396927 0 0.0023772188864973095 0.011657817384200133 0 0.0020118608634172451 0.012236333446769252 0 0.0025796815771836727 0.012536096359861013 0 0.0020118608634172451 0.012236333446769252 0 0.0014935328465555434 0.011859762355396927 0 0.0016321309178978327 0.012821946927223707 0 0.0023772188864973095 0.011657817384200133 0 0.0020118608634172451 0.012236333446769252 0 0.0014935328465555434 0.011859762355396927 0 0.00077396673229137203 0.011610441457077484 0 0.0014935328465555434 0.011859762355396927 0 0.00081317437979808106 0.012602603437981986 0 0.0014935328465555434 0.011859762355396927 0 0.00081317437979808106 0.012602603437981986 0 0.0016321309178978327 0.012821946927223707 0 0.00081317437979808106 0.012602603437981986 0 0.00032455902357490292 0.013708175897952484 0 0.001171454295466756 0.013595072399201588 0 0.00081317437979808106 0.012602603437981986 0 0.0016321309178978327 0.012821946927223707 0 0.001171454295466756 0.013595072399201588 0 0.0020118608634172451 0.012236333446769252 0 0.0016321309178978327 0.012821946927223707 0 0.0025796815771836727 0.012536096359861013 0 0.0025796815771836727 0.012536096359861013 0 0.0031383354986724132 0.012558529883922285 0 0.0019987477655715826 0.013810459658619016 0 0.0028860672368887967 0.0059763212419422559 0 0.0013717189040446589 0.0075877543007187411 0 0.0016321309178978327 0.012821946927223707 0 0.0025796815771836727 0.012536096359861013 0 0.0019987477655715826 0.013810459658619016 0 0.003995867445562057 -0.0009327045269196787 0 0.0022700301672438903 -0.00014929217187811524 0 0.0035523247186747156 0.00054295177683320298 0 0.0028860672368887967 0.0059763212419422559 0 0.0032445933184324549 0.0059217944996083453 0 0.003995867445562057 -0.0009327045269196787 0 0.0022700301672438903 -0.00014929217187811524 0 0.0036150064592661907 -0.0012798724433137631 0 0.0025796815771836727 0.012536096359861013 0 0.0031383354986724132 0.012558529883922285 0 0.0044994292441900893 0.010809163101439414 0 0.0023772188864973095 0.011657817384200133 0 0.0025796815771836727 0.012536096359861013 0 0.003854848615433205 0.011481559167100261 0 0.0026299342126146134 0.014160195395085716 0 0.0032445933184324549 0.0059217944996083453 0 -0.0027606063733653396 0.016005434356188297 0 -0.0024556572123607574 0.016357350495258851 0 -0.0027989033650582138 0.01675851917944433 0 -0.0025190718199069977 0.013861478725897543 0 -0.0018429843203273627 0.012835832978170038 0 -0.0020152456047344558 0.016275511267466514 0 -0.0022767907310244431 0.0160411392950284 0 -0.0024556572123607574 0.016357350495258851 0 -0.0022767907310244431 0.0160411392950284 0 -0.0027606063733653396 0.016005434356188297 0 -0.0024556572123607574 0.016357350495258851 0 -0.0020152456047344558 0.016275511267466514 0 -0.0024556572123607574 0.016357350495258851 0 -0.0024109514878671865 0.016687646899678922 0 -0.00074333515972999954 0.017643589336583589 0 -0.0022343447334918554 0.017730110064711486 0 -0.0017536860330680042 0.018836653717061318 0 -0.0012610840124460435 0.013896046673659757 0 -0.0025392889570069774 0.015392168884761243 0 -0.0013856543308140713 0.015140105623070006 0 -0.001306835647460752 0.014062079192468709 0 -0.0025769641660865102 0.016969511925981662 0 -0.0025769641660865102 0.016969511925981662 0 -0.0018429843203273627 0.012835832978170038 0 -0.0024556572123607574 0.016357350495258851 0 -0.0024109514878671865 0.016687646899678922 0 -0.0027989033650582138 0.01675851917944433 0 -0.0020399391002125832 0.010193493917949931 0 -0.00091612898154272524 0.010838802637316456 0 -0.00043346798195651815 0.0098517860010003191 0 -0.0013116604896157721 0.0097883108469336046 0 -0.0019612788568957808 0.010446781743315921 0 -0.0003795130083359978 0.010040704951702695 0 -0.0018429843203273627 0.012835832978170038 0 -0.00037881801763223487 0.0096167579816288009 0 -0.0013116604896157721 0.0097883108469336046 0 -0.0018923468666251647 0.0097193930695278936 0 -0.0019612788568957808 0.010446781743315921 0 -0.001306835647460752 0.014062079192468709 0 -0.0018429843203273627 0.012835832978170038 0 -0.0021835551163327423 0.011457590317938544 0 -0.0020399391002125832 0.010193493917949931 0 -0.00091612898154272524 0.010838802637316456 0 -0.0021835551163327423 0.011457590317938544 0 -0.00091612898154272524 0.010838802637316456 0 -0.0010027403303995543 0.012054501215189105 0 -0.00091612898154272524 0.010838802637316456 0 0.00025947232504120474 0.010436856220535471 0 -7.2867546412859274e-05 0.011279074336340839 0 -0.00091612898154272524 0.010838802637316456 0 -7.2867546412859274e-05 0.011279074336340839 0 -0.0010027403303995543 0.012054501215189105 0 -0.00091612898154272524 0.010838802637316456 0 -0.00043346798195651815 0.0098517860010003191 0 0.00025947232504120474 0.010436856220535471 0 0.0011027785414320335 0.0096000504213834565 0 -0.00043346798195651815 0.0098517860010003191 0 0.00025947232504120474 0.010436856220535471 0 0.0010722751342982651 0.010285372436845115 0 0.00025947232504120474 0.010436856220535471 0 0.00072779792935619939 0.010850885824948427 0 0.00025947232504120474 0.010436856220535471 0 0.00072779792935619939 0.010850885824948427 0 -7.2867546412859274e-05 0.011279074336340839 0 0.00077396673229137203 0.011610441457077484 0 0.00072779792935619939 0.010850885824948427 0 -7.2867546412859274e-05 0.011279074336340839 0 0.00077396673229137203 0.011610441457077484 0 0.00081317437979808106 0.012602603437981986 0 9.6405383907149542e-05 0.012123497391656685 0 0.00077396673229137203 0.011610441457077484 0 -7.2867546412859274e-05 0.011279074336340839 0 9.6405383907149542e-05 0.012123497391656685 0 0.00081317437979808106 0.012602603437981986 0 9.6405383907149542e-05 0.012123497391656685 0 -0.00020430286482943171 0.012943708891583158 0 0.00081317437979808106 0.012602603437981986 0 -0.00020430286482943171 0.012943708891583158 0 0.00032455902357490292 0.013708175897952484 0 -0.00020430286482943171 0.012943708891583158 0 -0.0010027403303995543 0.012054501215189105 0 -0.0012015500264560078 0.012988505681828404 0 -0.00020430286482943171 0.012943708891583158 0 -0.00077490704001045906 0.013618418150833134 0 0.00032455902357490292 0.013708175897952484 0 -0.00020430286482943171 0.012943708891583158 0 -0.0012015500264560078 0.012988505681828404 0 -0.00077490704001045906 0.013618418150833134 0 -7.2867546412859274e-05 0.011279074336340839 0 9.6405383907149542e-05 0.012123497391656685 0 -0.0010027403303995543 0.012054501215189105 0 9.6405383907149542e-05 0.012123497391656685 0 -0.00020430286482943171 0.012943708891583158 0 -0.0010027403303995543 0.012054501215189105 0 -0.0021835551163327423 0.011457590317938544 0 -0.0010027403303995543 0.012054501215189105 0 -0.002344578742610202 0.01274927359111588 0 -0.0012015500264560078 0.012988505681828404 0 -0.002344578742610202 0.01274927359111588 0 -0.0017251847830982965 0.013566089847591629 0 -0.0010027403303995543 0.012054501215189105 0 -0.0012015500264560078 0.012988505681828404 0 -0.002344578742610202 0.01274927359111588 0 -0.0012015500264560078 0.012988505681828404 0 -0.0017251847830982965 0.013566089847591629 0 -0.00077490704001045906 0.013618418150833134 0 -0.0020997374780916392 0.014766290390239944 0 -0.00269747979798112 0.015089247019621234 0 -0.0024690955456874238 0.01419987200137114 0 -0.0025023422640599465 0.013904503162744594 0 -0.0024903717196775054 0.014193175261037253 0 -0.002344578742610202 0.01274927359111588 0 -0.0024690955456874238 0.01419987200137114 0 -0.0017251847830982965 0.013566089847591629 0 -0.0020997374780916392 0.014766290390239944 0 -0.00269747979798112 0.015089247019621234 0 -0.0022884254787446357 0.015581765198453825 0 -0.0025190718199069977 0.013861478725897543 0 -0.0025023422640599465 0.013904503162744594 0 -0.0027606063733653396 0.016005434356188297 0 -0.00269747979798112 0.015089247019621234 0 -0.0022884254787446357 0.015581765198453825 0 -0.0022767907310244431 0.0160411392950284 0 -0.0027606063733653396 0.016005434356188297 0 -0.0022884254787446357 0.015581765198453825 0 -0.0016712549349390002 0.016339756447225535 0 -0.0016757366160615236 0.01622569485627998 0 -0.0014801856362200412 0.016394263356676497 0 -0.0025121786183085015 0.014272616571580266 0 -0.0024690955456874238 0.01419987200137114 0 -0.0020335589891500297 0.015259712270329642 0 -0.0024690955456874238 0.01419987200137114 0 -0.0018976806471288365 0.014381727238318999 0 -0.0020335589891500297 0.015259712270329642 0 -0.0021910763357747662 0.014882470437490919 0 -0.0016821471915571744 0.015905387038232292 0 -0.0017377526318943382 0.016431454829729721 0 -0.0016712549349390002 0.016339756447225535 0 -0.0014801856362200412 0.016394263356676497 0 -0.0017936427089017262 0.016308186233187423 0 -0.0016712549349390002 0.016339756447225535 0 -0.0016757366160615236 0.01622569485627998 0 -0.0020997374780916392 0.014766290390239944 0 -0.0025121786183085015 0.014272616571580266 0 -0.0024690955456874238 0.01419987200137114 0 -0.0017251847830982965 0.013566089847591629 0 -0.0013430252320054653 0.014420720730659569 0 -0.00077490704001045906 0.013618418150833134 0 -0.0018976806471288365 0.014381727238318999 0 -0.0017251847830982965 0.013566089847591629 0 -0.0013430252320054653 0.014420720730659569 0 -0.0024690955456874238 0.01419987200137114 0 -0.0018976806471288365 0.014381727238318999 0 -0.0017251847830982965 0.013566089847591629 0 -0.0013430252320054653 0.014420720730659569 0 -0.0020335589891500297 0.015259712270329642 0 -0.00096656580350619535 0.015389569713924814 0 -0.0018976806471288365 0.014381727238318999 0 -0.0013430252320054653 0.014420720730659569 0 -0.0020335589891500297 0.015259712270329642 0 -0.0013430252320054653 0.014420720730659569 0 -0.00096656580350619535 0.015389569713924814 0 -0.00022659034272856887 0.014642394362237958 0 -0.0013430252320054653 0.014420720730659569 0 -0.00022659034272856887 0.014642394362237958 0 -0.00077490704001045906 0.013618418150833134 0 -0.00022659034272856887 0.014642394362237958 0 -0.00077490704001045906 0.013618418150833134 0 0.00032455902357490292 0.013708175897952484 0 -0.00022659034272856887 0.014642394362237958 0 -9.9093594074340592e-05 0.01621878835256875 0 0.00099290598673952373 0.014996088544949149 0 -0.00022659034272856887 0.014642394362237958 0 0.00032455902357490292 0.013708175897952484 0 0.00099290598673952373 0.014996088544949149 0 -0.0020900481803560605 0.0042863513156750572 0 -0.00062854433324057118 0.0027406316534764863 0 -0.00055160421957016524 0.0042606079544029391 0 -0.0011275594471079184 0.010272249435402428 0 0.00019284967526680123 0.0088578767117584774 0 -0.0020900481803560605 0.0042863513156750572 0 -0.0018367191797704825 0.0057909870442845899 0 -0.00055160421957016524 0.0042606079544029391 0 -0.001758384188237897 0.0056260562189711432 0 4.1392552432632381e-05 0.0058207250484910962 0 -0.0020900481803560605 0.0042863513156750572 0 -0.0018367191797704825 0.0057909870442845899 0 -0.0035349499731633094 0.0058577047243040031 0 -0.0011275594471079184 0.010272249435402428 0 -0.0021305988280951181 0.011319894817504048 0 -0.001758384188237897 0.0056260562189711432 0 -0.0021305988280951181 0.011319894817504048 0 -9.9093594074340592e-05 0.01621878835256875 0 -0.0010561938151013939 0.01704327688665358 0 -0.0012231113038101533 0.016416806164519217 0 -0.00096656580350619535 0.015389569713924814 0 -0.00022659034272856887 0.014642394362237958 0 -9.9093594074340592e-05 0.01621878835256875 0 -0.00096656580350619535 0.015389569713924814 0 -9.9093594074340592e-05 0.01621878835256875 0 -0.0012231113038101533 0.016416806164519217 0 -0.0020335589891500297 0.015259712270329642 0 -0.00096656580350619535 0.015389569713924814 0 -0.0012231113038101533 0.016416806164519217 0 -0.0014801856362200412 0.016394263356676497 0 -0.0012231113038101533 0.016416806164519217 0 -0.0015044374146695834 0.016585710428904436 0 -0.0016821471915571744 0.015905387038232292 0 -0.0012970520668895038 0.016359434972164865 0 -0.0021305988280951181 0.011319894817504048 0 -0.0011288666907654169 0.016622084648683217 0 -0.0012231113038101533 0.016416806164519217 0 -0.0014834089654882816 0.01698506184744215 0 -0.0015044374146695834 0.016585710428904436 0 -0.0010561938151013939 0.01704327688665358 0 -0.0012231113038101533 0.016416806164519217 0 -0.0014834089654882816 0.01698506184744215 0 -0.0014834089654882816 0.01698506184744215 0 -0.0016930904505536284 0.016798334704657462 0 -0.0015044374146695834 0.016585710428904436 0 -0.0014834089654882816 0.01698506184744215 0 -0.0016930904505536284 0.016798334704657462 0 -0.0016981261045233671 0.017049609712831103 0 -0.0014801856362200412 0.016394263356676497 0 -0.0016829142656779117 0.016574964359650429 0 -0.0015044374146695834 0.016585710428904436 0 -0.0016930904505536284 0.016798334704657462 0 -0.0016829142656779117 0.016574964359650429 0 -0.0015044374146695834 0.016585710428904436 0 -0.0017377526318943382 0.016431454829729721 0 -0.0014801856362200412 0.016394263356676497 0 -0.0016829142656779117 0.016574964359650429 0 0.0025946846081984121 0.0028706940747698774 0 0.0023945826118054502 0.001564803580139224 0 0.0011000801427827611 0.0030874286696960076 0 0.0025946846081984121 0.0028706940747698774 0 0.0039075832214863744 0.0019039475342723094 0 0.003662545920543461 0.0033334604982367447 0 0.0046473612519428971 0.0025879165345879715 0 0.0039075832214863744 0.0019039475342723094 0 0.003662545920543461 0.0033334604982367447 0 0.0025946846081984121 0.0028706940747698774 0 0.0039075832214863744 0.0019039475342723094 0 0.0023945826118054502 0.001564803580139224 0 0.0035523247186747156 0.00054295177683320298 0 0.0039075832214863744 0.0019039475342723094 0 0.0023945826118054502 0.001564803580139224 0 0.0022700301672438903 -0.00014929217187811524 0 0.0035523247186747156 0.00054295177683320298 0 0.0023945826118054502 0.001564803580139224 0 0.0022700301672438903 -0.00014929217187811524 0 0.0023945826118054502 0.001564803580139224 0 0.00083225115934819295 0.0012526632266591344 0 0.0019987477655715826 0.013810459658619016 0 0.001171454295466756 0.013595072399201588 0 0.00099290598673952373 0.014996088544949149 0 0.0016321309178978327 0.012821946927223707 0 0.0019987477655715826 0.013810459658619016 0 0.001171454295466756 0.013595072399201588 0 0.00032455902357490292 0.013708175897952484 0 0.001171454295466756 0.013595072399201588 0 0.00099290598673952373 0.014996088544949149 0 0.0013717189040446589 0.0075877543007187411 0 0.00019284967526680123 0.0088578767117584774 0 0.0023945826118054502 0.001564803580139224 0 0.00083225115934819295 0.0012526632266591344 0 0.0011000801427827611 0.0030874286696960076 0 0.00083225115934819295 0.0012526632266591344 0 -0.00062854433324057118 0.0027406316534764863 0 0.0011000801427827611 0.0030874286696960076 0 0.0011000801427827611 0.0030874286696960076 0 0.00085485138764415853 0.004600791635417054 0 0.0023217104454413911 0.0042629318910714139 0 0.0011000801427827611 0.0030874286696960076 0 -0.00055160421957016524 0.0042606079544029391 0 0.00085485138764415853 0.004600791635417054 0 -0.00062854433324057118 0.0027406316534764863 0 0.0011000801427827611 0.0030874286696960076 0 -0.00055160421957016524 0.0042606079544029391 0 -0.0018367191797704825 0.0057909870442845899 0 -0.00055160421957016524 0.0042606079544029391 0 -0.00014742323588599494 0.0057255779784125237 0 -0.00055160421957016524 0.0042606079544029391 0 -0.00014742323588599494 0.0057255779784125237 0 0.00085485138764415853 0.004600791635417054 0 4.1392552432632381e-05 0.0058207250484910962 0 0.0014047782865434524 0.0057207794967639352 0 0.0015481773340649463 0.0056905464951487279 0 0.00085485138764415853 0.004600791635417054 0 0.0023217104454413911 0.0042629318910714139 0 -0.00014742323588599494 0.0057255779784125237 0 0.0015481773340649463 0.0056905464951487279 0 0.00085485138764415853 0.004600791635417054 0 0.0015481773340649463 0.0056905464951487279 0 0.0028765465859880903 0.0054971368216027872 0 0.0023217104454413911 0.0042629318910714139 0 0.0025946846081984121 0.0028706940747698774 0 0.0011000801427827611 0.0030874286696960076 0 0.0023217104454413911 0.0042629318910714139 0 0.0025946846081984121 0.0028706940747698774 0 0.0023217104454413911 0.0042629318910714139 0 0.003662545920543461 0.0033334604982367447 0 0.0023217104454413911 0.0042629318910714139 0 0.003662545920543461 0.0033334604982367447 0 0.0037428423589601929 0.0046482081241546397 0 0.0047287556933386004 0.0037035565255732375 0 0.003662545920543461 0.0033334604982367447 0 0.0037428423589601929 0.0046482081241546397 0 0.0028765465859880903 0.0054971368216027872 0 0.0023217104454413911 0.0042629318910714139 0 0.0037428423589601929 0.0046482081241546397 0 0.0028765465859880903 0.0054971368216027872 0 0.0037428423589601929 0.0046482081241546397 0 0.0041559896046980196 0.0056892889537714089 0 0.0028765465859880903 0.0054971368216027872 0 0.0041559896046980196 0.0056892889537714089 0 0.0037272531949799621 0.0066709801275913628 0 0.0037272531949799621 0.0066709801275913628 0 0.0031819491303744355 0.007162826529158014 0 0.0025886451650373784 0.0067223843027962851 0 0.0028765465859880903 0.0054971368216027872 0 0.0037272531949799621 0.0066709801275913628 0 0.0025886451650373784 0.0067223843027962851 0 0.0037272531949799621 0.0066709801275913628 0 0.0039773506491213801 0.0076793882685646173 0 0.0045760994256060401 0.0071411444178328849 0 0.0039773506491213801 0.0076793882685646173 0 0.0034042758746118357 0.0083939026374367631 0 0.0045499229264454443 0.0081181371572080895 0 0.0039773506491213801 0.0076793882685646173 0 0.0023801927240723977 0.0082072723628015855 0 0.0034042758746118357 0.0083939026374367631 0 0.0037272531949799621 0.0066709801275913628 0 0.0031819491303744355 0.007162826529158014 0 0.0039773506491213801 0.0076793882685646173 0 0.0031819491303744355 0.007162826529158014 0 0.0039773506491213801 0.0076793882685646173 0 0.0025747192489032661 0.0074170544019733185 0 0.0039773506491213801 0.0076793882685646173 0 0.0018054280428244785 0.0080890910239583835 0 0.0025747192489032661 0.0074170544019733185 0 0.0039217952979852403 0.0077251899445448949 0 0.002033430848723206 0.0080567438244394402 0 0.0031819491303744355 0.007162826529158014 0 0.0025747192489032661 0.0074170544019733185 0 0.0025886451650373784 0.0067223843027962851 0 0.0025747192489032661 0.0074170544019733185 0 0.0025886451650373784 0.0067223843027962851 0 0.0016293786648062998 0.0071331818155617385 0 0.0018054280428244785 0.0080890910239583835 0 0.0025747192489032661 0.0074170544019733185 0 0.0016293786648062998 0.0071331818155617385 0 0.0015481773340649463 0.0056905464951487279 0 0.0025886451650373784 0.0067223843027962851 0 0.0016293786648062998 0.0071331818155617385 0 0.0015481773340649463 0.0056905464951487279 0 0.0028765465859880903 0.0054971368216027872 0 0.0025886451650373784 0.0067223843027962851 0 8.2517913562997857e-05 0.0058977441132768895 0 0.0015481773340649463 0.0056905464951487279 0 0.00078051064530081126 0.0066761942665436022 0 0.0015481773340649463 0.0056905464951487279 0 0.00078051064530081126 0.0066761942665436022 0 0.0016293786648062998 0.0071331818155617385 0 -0.0013026615206022283 0.0060189601948607745 0 8.2517913562997857e-05 0.0058977441132768895 0 -3.0908996552598155e-06 0.0069463071360910686 0 8.2517913562997857e-05 0.0058977441132768895 0 0.00078051064530081126 0.0066761942665436022 0 -3.0908996552598155e-06 0.0069463071360910686 0 -3.0908996552598155e-06 0.0069463071360910686 0 0.00011131290470137727 0.0078357838632171408 0 -0.00035183821360405045 0.007946891692315914 0 -3.0908996552598155e-06 0.0069463071360910686 0 -0.00035183821360405045 0.007946891692315914 0 -0.00080797308907456036 0.0073448888830543544 0 -3.0908996552598155e-06 0.0069463071360910686 0 0.00011131290470137727 0.0078357838632171408 0 0.00072274332864275632 0.0077187078938849808 0 0.00078051064530081126 0.0066761942665436022 0 -3.0908996552598155e-06 0.0069463071360910686 0 0.00072274332864275632 0.0077187078938849808 0 0.00011131290470137727 0.0078357838632171408 0 0.00072274332864275632 0.0077187078938849808 0 -8.4224279387286146e-05 0.0084827438778474068 0 0.00011131290470137727 0.0078357838632171408 0 -0.00035183821360405045 0.007946891692315914 0 -8.4224279387286146e-05 0.0084827438778474068 0 0.0018054280428244785 0.0080890910239583835 0 0.00072274332864275632 0.0077187078938849808 0 -8.4224279387286146e-05 0.0084827438778474068 0 0.00078051064530081126 0.0066761942665436022 0 0.0016293786648062998 0.0071331818155617385 0 0.00072274332864275632 0.0077187078938849808 0 0.0018054280428244785 0.0080890910239583835 0 0.0016293786648062998 0.0071331818155617385 0 0.00072274332864275632 0.0077187078938849808 0 0.0018714053102199192 0.0090452267175995284 0 0.0015676145170399434 0.0092469600558889274 0 0.0022825533405494967 0.0092054728086968986 0 0.0020802654841114263 0.008861631595729216 0 0.0022825533405494967 0.0092054728086968986 0 0.0027774595258148157 0.0087721266096071511 0 0.0020802654841114263 0.008861631595729216 0 0.0018714053102199192 0.0090452267175995284 0 0.0015768260314481749 0.0088888290646740014 0 0.0023801927240723977 0.0082072723628015855 0 0.0017405498377394369 0.0086826306178682984 0 0.00071679153514166984 0.0085936637912677506 0 0.002033430848723206 0.0080567438244394402 0 0.00078021671289523007 0.009231915037483069 0 0.0020802654841114263 0.008861631595729216 0 0.0018714053102199192 0.0090452267175995284 0 0.0022825533405494967 0.0092054728086968986 0 0.0019948638384380004 0.008785830627654749 0 0.00078021671289523007 0.009231915037483069 0 0.00078021671289523007 0.009231915037483069 0 0.0015101588383982624 0.011524110182880224 0 -0.00035183821360405045 0.007946891692315914 0 -8.4224279387286146e-05 0.0084827438778474068 0 -0.00078052720482578799 0.0084189220806558055 0 0.00078021671289523007 0.009231915037483069 0 0.00063639223364196531 0.010451597409612063 0 0.00035350412474796823 0.0088545056385785897 0 0.00063639223364196531 0.010451597409612063 0 0.0018714053102199192 0.0090452267175995284 0 0.0015768260314481749 0.0088888290646740014 0 0.0015676145170399434 0.0092469600558889274 0 0.0015768260314481749 0.0088888290646740014 0 0.0015676145170399434 0.0092469600558889274 0 0.0011627633930708593 0.0090188555651147147 0 0.0050319230231396905 0.015077398587667998 0 0.0056181394956816193 0.015648836392444018 0 0.0045264482063622066 0.016349272207881439 0 0.0061155485898738678 0.015053498654380203 0 0.0056181394956816193 0.015648836392444018 0 0.0066457154177759215 0.015569500389604139 0 0.0056181394956816193 0.015648836392444018 0 0.0066457154177759215 0.015569500389604139 0 0.0061246469786863421 0.016141774341577059 0 0.0033723359594911035 0.012101740764719494 0 0.0041980305708489932 0.012183104867801702 0 0.0050319230231396905 0.015077398587667998 0 0.0061155485898738678 0.015053498654380203 0 0.0056181394956816193 0.015648836392444018 0 0.0061155485898738678 0.015053498654380203 0 0.0066457154177759215 0.015569500389604139 0 0.007159007515465784 0.015000234653426519 0 0.00641616368962253 0.01558516760919351 0 0.0052699153990450184 0.011447539694581529 0 0.0066268780566386834 0.01548229231226818 0 0.0074387640291280034 0.015445422865077447 0 0.0070168681377416357 0.016064034094054984 0 0.0066268780566386834 0.01548229231226818 0 0.0074387640291280034 0.015445422865077447 0 0.0071628354285572871 0.014844421230973445 0 0.0074387640291280034 0.015445422865077447 0 0.0071628354285572871 0.014844421230973445 0 0.0079765015721873691 0.014777554249800245 0 0.0074387640291280034 0.015445422865077447 0 0.0076546323386360998 0.015975682892921467 0 0.0081164861256860996 0.015481554607251207 0 0.0052699153990450184 0.011447539694581529 0 0.0069661017000661888 0.011048535272769911 0 0.0052699153990450184 0.011447539694581529 0 0.0047873695619680429 0.0069160459799448969 0 0.0034536109095449599 0.0091980119669883096 0 0.0034042758746118357 0.0083939026374367631 0 0.0045499229264454443 0.0081181371572080895 0 0.0034463191216707284 0.007684537605650802 0 0.0053429314696582563 0.0076060125139603045 0 0.0053092213071637487 0.0057162740597664248 0 0.0019948638384380004 0.008785830627654749 0 0.0026549915931325624 0.0087908909160765714 0 0.0041980305708489932 0.012183104867801702 0 0.0052699153990450184 0.011447539694581529 0 0.0023801927240723977 0.0082072723628015855 0 0.0034042758746118357 0.0083939026374367631 0 0.0027774595258148157 0.0087721266096071511 0 0.0023801927240723977 0.0082072723628015855 0 0.0017405498377394369 0.0086826306178682984 0 0.0027774595258148157 0.0087721266096071511 0 0.0022825533405494967 0.0092054728086968986 0 0.0034536109095449599 0.0091980119669883096 0 0.0027774595258148157 0.0087721266096071511 0 0.0034536109095449599 0.0091980119669883096 0 0.0034042758746118357 0.0083939026374367631 0 0.0027774595258148157 0.0087721266096071511 0 -0.0021883552766673218 0.013558427986782527 0 -0.0026889925734494297 0.012951418410914687 0 -0.0026889925734494297 0.012951418410914687 0 -0.0025418321555607535 0.01219993749171786 0 -0.001694411941484799 0.017481557933030533 0 -0.0016759046740623925 0.017265154520851166 0 -0.0014547275197896122 0.017237779087277909 0 -0.0017889357320199531 0.017397211841836055 0 -0.001694411941484799 0.017481557933030533 0 -0.0016759046740623925 0.017265154520851166 0 -0.0016759046740623925 0.017265154520851166 0 -0.0016981261045233671 0.017049609712831103 0 -0.0015789406050344744 0.017133355297912538 0 -0.0014834089654882816 0.01698506184744215 0 -0.0016981261045233671 0.017049609712831103 0 -0.0015789406050344744 0.017133355297912538 0 -0.0014834089654882816 0.01698506184744215 0 -0.0015789406050344744 0.017133355297912538 0 -0.0014547275197896122 0.017237779087277909 0 -0.0016759046740623925 0.017265154520851166 0 -0.0015789406050344744 0.017133355297912538 0 -0.0014547275197896122 0.017237779087277909 0 -0.0012061998112335897 0.016935374515151348 0 -0.0014834089654882816 0.01698506184744215 0 -0.0014547275197896122 0.017237779087277909 0 -0.002647928057008479 0.0061053916377775339 0 -0.0035750529600969937 0.0071268893300776614 0 -0.0023574119276529967 0.0069894393661565513 0 -0.0021305988280951181 0.011319894817504048 0 -0.0025418321555607535 0.01219993749171786 0 -0.0026889925734494297 0.012951418410914687 0 -0.0012487109276335738 0.010527331634215849 0 -0.0035750529600969937 0.0071268893300776614 0 -0.0023574119276529967 0.0069894393661565513 0 -0.0026472701896110471 0.0082591060939654279 0 -0.0044913335056013803 0.0081465866165291428 0 -0.0035750529600969937 0.0071268893300776614 0 -0.0026472701896110471 0.0082591060939654279 0 -0.0015967831648176164 0.007422205115034412 0 -0.00076852026755916565 0.0084041914286932789 0 -0.0026472701896110471 0.0082591060939654279 0 -0.0023574119276529967 0.0069894393661565513 0 -0.0015967831648176164 0.007422205115034412 0 -0.0026472701896110471 0.0082591060939654279 0 -0.0013026615206022283 0.0060189601948607745 0 -0.002647928057008479 0.0061053916377775339 0 -0.0023574119276529967 0.0069894393661565513 0 -0.0013026615206022283 0.0060189601948607745 0 -0.0023574119276529967 0.0069894393661565513 0 -0.0015967831648176164 0.007422205115034412 0 -0.0013026615206022283 0.0060189601948607745 0 -0.00080797308907456036 0.0073448888830543544 0 -0.0015967831648176164 0.007422205115034412 0 -0.0013026615206022283 0.0060189601948607745 0 -3.0908996552598155e-06 0.0069463071360910686 0 -0.00080797308907456036 0.0073448888830543544 0 -0.00035183821360405045 0.007946891692315914 0 -0.00080797308907456036 0.0073448888830543544 0 -0.00076852026755916565 0.0084041914286932789 0 -0.00080797308907456036 0.0073448888830543544 0 -0.0015967831648176164 0.007422205115034412 0 -0.00076852026755916565 0.0084041914286932789 0 0.0021351061286085586 0.013440205289830401 0 0.00189276725127165 0.013709188481235788 0 0.00033587203881540166 0.013298135180579347 0 0.0015676145170399434 0.0092469600558889274 0 0.0011627633930708593 0.0090188555651147147 0 0.00091895532702612737 0.0093102289842952376 0 0.00090336338343692101 0.010392316318442634 0 0.0009774841114109172 0.010407137845149917 0 0.0010062719777093505 0.010381583317297008 0 0.00063639223364196531 0.010451597409612063 0 0.0015101588383982624 0.011524110182880224 0 0.0024411876745463012 0.013665070614193597 0 0.0017733746880682058 0.014396572352959843 0 0.0015865950729924414 0.014404277073433065 0 0.0015101588383982624 0.011524110182880224 0 0.0020295588088103918 0.012971960781812949 0 0.0050319230231396905 0.015077398587667998 0 0.0038814435867403347 0.015103197084936452 0 0.0045264482063622066 0.016349272207881439 0 0.0038814435867403347 0.015103197084936452 0 0.0037285263310302724 0.016035625436644656 0 0.0045264482063622066 0.016349272207881439 0 0.0033723359594911035 0.012101740764719494 0 0.0020295588088103918 0.012971960781812949 0 0.0038814435867403347 0.015103197084936452 0 0.0028022736280697079 0.016263424038547955 0 0.0037285263310302724 0.016035625436644656 0 0.0015865950729924414 0.014404277073433065 0 0.00090779491732337131 0.014040254006115565 0 0.00019304190812032969 0.016091293004860285 0 0.0020295588088103918 0.012971960781812949 0 0.0019509898197963892 0.013049683039398831 0 0.0020295588088103918 0.012971960781812949 0 0.0016056362419199139 0.016259909852675492 0 0.0017725000055085387 0.014398382525886797 0 0.0015865950729924414 0.014404277073433065 0 0.00019304190812032969 0.016091293004860285 0 0.00189276725127165 0.013709188481235788 0 0.00066593000488637832 0.01403250576425373 0 0.00033587203881540166 0.013298135180579347 0 0.0024411876745463012 0.013665070614193597 0 0.0015865950729924414 0.014404277073433065 0 0.00090779491732337131 0.014040254006115565 0 0.00063639223364196531 0.010451597409612063 0 -0.0012487109276335738 0.010527331634215849 0 0.0015101588383982624 0.011524110182880224 0 0.0008128468490867215 0.014133735448987755 0 -0.0016670029523159608 0.013103306474608965 0 0.00033587203881540166 0.013298135180579347 0 -0.00062502968590382715 0.014410200404659457 0 0.00066593000488637832 0.01403250576425373 0 0.00033587203881540166 0.013298135180579347 0 -0.00062502968590382715 0.014410200404659457 0 0.0008128468490867215 0.014133735448987755 0 -0.00051308739763057014 0.014360260230487989 0 0.00090779491732337131 0.014040254006115565 0 -0.00062502968590382715 0.014410200404659457 0 0.00019304190812032969 0.016091293004860285 0 -0.00062502968590382715 0.014410200404659457 0 -0.0017244965079478026 0.014855903294888756 0 0.00019304190812032969 0.016091293004860285 0 -0.0016670029523159608 0.013103306474608965 0 -0.00062502968590382715 0.014410200404659457 0 -0.0017244965079478026 0.014855903294888756 0 -0.0015558057835199782 0.017792975424520803 0 0.00019605524377839606 0.018790373412163597 0 -0.0021865963892555634 0.016108552256270111 0 -0.0013244630212932017 0.017741893547091263 0 0.00019304190812032969 0.016091293004860285 0 -0.0021865963892555634 0.016108552256270111 0 -0.0017244965079478026 0.014855903294888756 0 0.00019304190812032969 0.016091293004860285 0 0.00019605524377839606 0.018790373412163597 0 0.0016056362419199139 0.016259909852675492 0 0.0016351122687487578 0.01751664680503601 0 0.0028022736280697079 0.016263424038547955 0 0.0027794013454205549 0.017681782992244589 0 0.0028022736280697079 0.016263424038547955 0 0.0027794013454205549 0.017681782992244589 0 0.0035696078329444671 0.016795703026266519 0 0.0027794013454205549 0.017681782992244589 0 0.0035696078329444671 0.016795703026266519 0 0.0039728671056175778 0.017666731350885576 0 0.0028022736280697079 0.016263424038547955 0 0.0035696078329444671 0.016795703026266519 0 0.0037285263310302724 0.016035625436644656 0 0.0035696078329444671 0.016795703026266519 0 0.0037285263310302724 0.016035625436644656 0 0.0045264482063622066 0.016349272207881439 0 0.0035696078329444671 0.016795703026266519 0 0.0045264482063622066 0.016349272207881439 0 0.0039728671056175778 0.017666731350885576 0 0.0045264482063622066 0.016349272207881439 0 0.0039728671056175778 0.017666731350885576 0 0.0049525762063512228 0.017104866479590277 0 0.0039728671056175778 0.017666731350885576 0 0.0049525762063512228 0.017104866479590277 0 0.0049099043910172521 0.018025239874331533 0 0.0039728671056175778 0.017666731350885576 0 0.0038992454713253121 0.019012565328450186 0 0.0049099043910172521 0.018025239874331533 0 0.0039470212626898137 0.018811650590600471 0 0.005072268632929703 0.018866279051372468 0 0.0045905569606014395 0.019599691787971798 0 0.0039470212626898137 0.018811650590600471 0 0.0049420755485284247 0.017865808284307064 0 0.005072268632929703 0.018866279051372468 0 0.003926058449508843 0.018913367905307132 0 0.0049319708468897275 0.017936698209224347 0 0.0038992454713253121 0.019012565328450186 0 0.0032365588788515328 0.01848627609933632 0 0.0029194270511947581 0.019955165296134586 0 0.0039728671056175778 0.017666731350885576 0 0.0038992454713253121 0.019012565328450186 0 0.0032365588788515328 0.01848627609933632 0 0.0027794013454205549 0.017681782992244589 0 0.0039728671056175778 0.017666731350885576 0 0.0032365588788515328 0.01848627609933632 0 0.0032365588788515328 0.01848627609933632 0 0.0025410284718607426 0.018981107615318845 0 0.0021558091951531374 0.018309810560333768 0 0.0027794013454205549 0.017681782992244589 0 0.0032365588788515328 0.01848627609933632 0 0.0021558091951531374 0.018309810560333768 0 0.0016351122687487578 0.01751664680503601 0 0.0027794013454205549 0.017681782992244589 0 0.0020507894629551871 0.018309890157916495 0 0.0028215498978764932 0.017686842321553327 0 0.0019390297894598552 0.018821789309005368 0 0.0032365588788515328 0.01848627609933632 0 0.0025410284718607426 0.018981107615318845 0 0.0029194270511947581 0.019955165296134586 0 0.0023572845907740975 0.0188678295369442 0 0.0019390297894598552 0.018821789309005368 0 0.00085995148081711428 0.019921075228996367 0 0.0019390297894598552 0.018821789309005368 0 0.0013432510525969877 0.019378646977838983 0 0.0025410284718607426 0.018981107615318845 0 0.0022679790959414178 0.018475528763141826 0 0.0013432510525969877 0.019378646977838983 0 0.0025410284718607426 0.018981107615318845 0 0.0020967717054890768 0.019764429697075203 0 0.00045388837536475697 0.020374506731989456 0 0.00074193551266484037 0.019794883107159815 0 0.0012984688186275103 0.019651167864418038 0 0.00074193551266484037 0.019794883107159815 0 0.0012984688186275103 0.019651167864418038 0 0.00091784823475424856 0.019515135478549165 0 0.001001088563744913 0.019093578472112953 0 0.0012984688186275103 0.019651167864418038 0 0.00091784823475424856 0.019515135478549165 0 0.00019605524377839606 0.018790373412163597 0 0.0019390297894598552 0.018821789309005368 0 0.0068183474251085627 0.016750973708179913 0 0.0061246469786863421 0.016141774341577059 0 0.0058568099396326253 0.017034144111878209 0 0.0068183474251085627 0.016750973708179913 0 0.0058568099396326253 0.017034144111878209 0 0.0065662300603793883 0.017574909039231652 0 0.0068183474251085627 0.016750973708179913 0 0.0076420787046860179 0.017281188397641013 0 0.0074577224390370506 0.016553435970399218 0 0.0068183474251085627 0.016750973708179913 0 0.0076420787046860179 0.017281188397641013 0 0.0065662300603793883 0.017574909039231652 0 0.0068183474251085627 0.016750973708179913 0 0.0074577224390370506 0.016553435970399218 0 0.0070168681377416357 0.016064034094054984 0 0.0074577224390370506 0.016553435970399218 0 0.0076546323386360998 0.015975682892921467 0 0.0070168681377416357 0.016064034094054984 0 0.0074387640291280034 0.015445422865077447 0 0.0076546323386360998 0.015975682892921467 0 0.0070168681377416357 0.016064034094054984 0 0.0066268780566386834 0.01548229231226818 0 0.0070168681377416357 0.016064034094054984 0 0.0061246469786863421 0.016141774341577059 0 0.0068183474251085627 0.016750973708179913 0 0.0070168681377416357 0.016064034094054984 0 0.0061246469786863421 0.016141774341577059 0 0.00641616368962253 0.01558516760919351 0 0.0062219405464449106 0.015996909987251701 0 0.0061246469786863421 0.016141774341577059 0 0.0054522716488676261 0.016464494564316652 0 0.0058568099396326253 0.017034144111878209 0 0.0056181394956816193 0.015648836392444018 0 0.0061246469786863421 0.016141774341577059 0 0.0054522716488676261 0.016464494564316652 0 0.0045264482063622066 0.016349272207881439 0 0.0054522716488676261 0.016464494564316652 0 0.0049525762063512228 0.017104866479590277 0 0.0056181394956816193 0.015648836392444018 0 0.0045264482063622066 0.016349272207881439 0 0.0054522716488676261 0.016464494564316652 0 0.0054522716488676261 0.016464494564316652 0 0.0049525762063512228 0.017104866479590277 0 0.0058568099396326253 0.017034144111878209 0 0.0058066755479500107 0.017105629047507332 0 0.0049319708468897275 0.017936698209224347 0 0.0049525762063512228 0.017104866479590277 0 0.0058568099396326253 0.017034144111878209 0 0.0049099043910172521 0.018025239874331533 0 0.0058568099396326253 0.017034144111878209 0 0.0058288026871683909 0.017822780582823713 0 0.0049420755485284247 0.017865808284307064 0 0.0058288026871683909 0.017822780582823713 0 0.0062085306478688873 0.018307343264978578 0 0.0065662300603793883 0.017574909039231652 0 0.0058568099396326253 0.017034144111878209 0 0.0058288026871683909 0.017822780582823713 0 0.0065662300603793883 0.017574909039231652 0 0.0058288026871683909 0.017822780582823713 0 0.0055442682279719718 0.018331427692558102 0 0.0062085306478688873 0.018307343264978578 0 0.0058288026871683909 0.017822780582823713 0 0.0049420755485284247 0.017865808284307064 0 0.0055442682279719718 0.018331427692558102 0 0.0049420755485284247 0.017865808284307064 0 0.0055442682279719718 0.018331427692558102 0 0.005072268632929703 0.018866279051372468 0 0.005072268632929703 0.018866279051372468 0 0.0057624005615300967 0.018856795170754493 0 0.0054162592471919601 0.019380394302551743 0 0.0055442682279719718 0.018331427692558102 0 0.005072268632929703 0.018866279051372468 0 0.0057624005615300967 0.018856795170754493 0 0.0055442682279719718 0.018331427692558102 0 0.0062085306478688873 0.018307343264978578 0 0.0057624005615300967 0.018856795170754493 0 0.0062085306478688873 0.018307343264978578 0 0.0057624005615300967 0.018856795170754493 0 0.0062263162558459538 0.019056316121229471 0 0.0062085306478688873 0.018307343264978578 0 0.0069668650404595403 0.018258116358415812 0 0.0062263162558459538 0.019056316121229471 0 0.0069668650404595403 0.018258116358415812 0 0.0071265208765649742 0.019285738922515599 0 0.0062263162558459538 0.019056316121229471 0 0.0062085306478688873 0.018307343264978578 0 0.0069668650404595403 0.018258116358415812 0 0.0065662300603793883 0.017574909039231652 0 0.0076420787046860179 0.017281188397641013 0 0.0069668650404595403 0.018258116358415812 0 0.0065662300603793883 0.017574909039231652 0 0.0076420787046860179 0.017281188397641013 0 0.0069668650404595403 0.018258116358415812 0 0.0077648460072614299 0.018232781320839764 0 0.0069668650404595403 0.018258116358415812 0 0.0077648460072614299 0.018232781320839764 0 0.0071265208765649742 0.019285738922515599 0 0.0077648460072614299 0.018232781320839764 0 0.0083204521786377425 0.018089029359661821 0 0.0083138326501250876 0.018865093647081228 0 0.0083204521786377425 0.018089029359661821 0 0.0090263319823772163 0.017868847264669616 0 0.0083138326501250876 0.018865093647081228 0 0.0093960915130828476 0.018532284800886097 0 0.0090263319823772163 0.017868847264669616 0 0.0083138326501250876 0.018865093647081228 0 0.0073664219881056101 0.013199830829148775 0 0.0061669228337411838 0.011726028719852958 0 0.0083204521786377425 0.018089029359661821 0 0.0085225492531052008 0.017716399203693153 0 0.0090263319823772163 0.017868847264669616 0 0.0085834793935735711 0.017326874811443096 0 0.0090263319823772163 0.017868847264669616 0 0.0086276765339243344 0.01713109658344919 0 0.0085225492531052008 0.017716399203693153 0 0.0085834793935735711 0.017326874811443096 0 0.0090263319823772163 0.017868847264669616 0 0.0085834793935735711 0.017326874811443096 0 0.0081574893547748384 0.01758175381999667 0 0.0086257202236508426 0.017141446733584916 0 0.0085225492531052008 0.017716399203693153 0 0.0085834793935735711 0.017326874811443096 0 0.0081574893547748384 0.01758175381999667 0 0.0076420787046860179 0.017281188397641013 0 0.0081574893547748384 0.01758175381999667 0 0.0086257202236508426 0.017141446733584916 0 0.0076420787046860179 0.017281188397641013 0 0.0077648460072614299 0.018232781320839764 0 0.0081574893547748384 0.01758175381999667 0 0.0083204521786377425 0.018089029359661821 0 0.0085225492531052008 0.017716399203693153 0 0.0081574893547748384 0.01758175381999667 0 0.0077648460072614299 0.018232781320839764 0 0.0083204521786377425 0.018089029359661821 0 0.0081574893547748384 0.01758175381999667 0 0.0060867630876175732 0.012411105644576472 0 0.0049789214324275138 0.0070868790257603131 0 0.0045322920740016297 0.0079447328032275135 0 0.0053309452381048303 0.0077324275242899873 0 0.0051406456996501218 0.007902411637446656 0 0.0051767826153554363 0.0077852369827139086 0 0.0051250960446364664 0.0077941114033221849 0 0.0050594590857131801 0.0077591940491180374 0 0.0051767826153554363 0.0077852369827139086 0 0.0052098945170267752 0.0078370863003442513 0 0.0051250960446364664 0.0077941114033221849 0 0.0060867630876175732 0.012411105644576472 0 0.0073664219881056101 0.013199830829148775 0 0.0052098945170267752 0.0078370863003442513 0 0.0051250960446364664 0.0077941114033221849 0 0.0051304260967989564 0.007836007358836725 0 0.0052098945170267752 0.0078370863003442513 0 0.0051304260967989564 0.007836007358836725 0 0.0052482748871267668 0.0079014799501457445 0 0.0051250960446364664 0.0077941114033221849 0 0.0051304260967989564 0.007836007358836725 0 0.0050881265376993348 0.0077809742727069737 0 0.0036227121651028057 0.0033103359144801402 0 0.0061669228337411838 0.011726028719852958 0 0.0030311990579586228 0.00035047974344490666 0 0.0026346193173996469 0.00015227941932802256 0 0.0022999612753553168 0.00057835739085000486 0 0.0026346193173996469 0.00015227941932802256 0 0.0029480068477871933 -0.00020920699557110933 0 0.0026127234700410147 -0.00036415415588375143 0 0.0030311990579586228 0.00035047974344490666 0 0.0026346193173996469 0.00015227941932802256 0 0.0029480068477871933 -0.00020920699557110933 0 0.0030311990579586228 0.00035047974344490666 0 0.0029480068477871933 -0.00020920699557110933 0 0.0034913029064103404 -0.00026277249574132948 0 0.0086124501012179271 0.018288355134902148 0 0.0061669228337411838 0.011726028719852958 0 0.0076420787046860179 0.017281188397641013 0 0.0081753871752462699 0.016626005838561535 0 0.0088708322789026912 0.016993222423968727 0 0.0076420787046860179 0.017281188397641013 0 0.0074577224390370506 0.016553435970399218 0 0.0081753871752462699 0.016626005838561535 0 0.0087907601660103286 0.016877001344460307 0 0.0086117186394365549 0.016553473671153198 0 0.0088103920915767082 0.015823746536401676 0 0.0081753871752462699 0.016626005838561535 0 0.0088708322789026912 0.016993222423968727 0 0.0088142204116368958 0.016900138952486515 0 0.0062080024445194549 0.01433468478325323 0 0.0061669228337411838 0.011726028719852958 0 0.0061669228337411838 0.011726028719852958 0 0.0063713787321876885 0.010902559524121027 0 0.0026346193173996469 0.00015227941932802256 0 0.0022999612753553168 0.00057835739085000486 0 0.0022665346017223405 0.00052440513897202533 0 0.0081753871752462699 0.016626005838561535 0 0.0088142204116368958 0.016900138952486515 0 0.0086117186394365549 0.016553473671153198 0 0.0063713787321876885 0.010902559524121027 0 0.0089378484863958923 0.016108843276907703 0 0.0063713787321876885 0.010902559524121027 0 0.0054537675651136382 0.0078061446880611732 0 0.0026346193173996469 0.00015227941932802256 0 0.0022665346017223405 0.00052440513897202533 0 0.0022513630186677329 -9.8935406566825752e-05 0 0.0086117186394365549 0.016553473671153198 0 0.0088103920915767082 0.015823746536401676 0 0.0082356382986641698 0.016103526022947501 0 0.0026346193173996469 0.00015227941932802256 0 0.0022513630186677329 -9.8935406566825752e-05 0 0.0026127234700410147 -0.00036415415588375143 0 0.0088103920915767082 0.015823746536401676 0 0.0082356382986641698 0.016103526022947501 0 0.0081164861256860996 0.015481554607251207 0 0.0081753871752462699 0.016626005838561535 0 0.0086117186394365549 0.016553473671153198 0 0.0082356382986641698 0.016103526022947501 0 0.0074577224390370506 0.016553435970399218 0 0.0076546323386360998 0.015975682892921467 0 0.0081753871752462699 0.016626005838561535 0 0.0076546323386360998 0.015975682892921467 0 0.0081753871752462699 0.016626005838561535 0 0.0082356382986641698 0.016103526022947501 0 0.0076546323386360998 0.015975682892921467 0 0.0082356382986641698 0.016103526022947501 0 0.0081164861256860996 0.015481554607251207 0 0.0081164861256860996 0.015481554607251207 0 0.0079765015721873691 0.014777554249800245 0 0.0087963051517909018 0.014692534704047019 0 0.0074387640291280034 0.015445422865077447 0 0.0081164861256860996 0.015481554607251207 0 0.0079765015721873691 0.014777554249800245 0 0.0069661017000661888 0.011048535272769911 0 0.0059411707246411483 0.0050965080189044132 0 0.0062800251970233445 0.0066262982027189754 0 0.0053092213071637487 0.0057162740597664248 0 0.0072245813612892423 0.0056465879993960752 0 0.0062800251970233445 0.0066262982027189754 0 0.0053429314696582563 0.0076060125139603045 0 0.0072415474766523583 0.0075308423624188209 0 0.0062800251970233445 0.0066262982027189754 0 0.0053429314696582563 0.0076060125139603045 0 0.0053092213071637487 0.0057162740597664248 0 0.0062800251970233445 0.0066262982027189754 0 0.0072415474766523583 0.0075308423624188209 0 0.0072245813612892423 0.0056465879993960752 0 0.0059411707246411483 0.0050965080189044132 0 0.006302960162460956 0.0018482246452842836 0 0.0054030668163865857 -0.0015437410511088786 0 0.0042510021885986777 -0.0014965889904448445 0 0.0054280048336878411 -0.000996066969899482 0 0.0088103920915767082 0.015823746536401676 0 0.0081164861256860996 0.015481554607251207 0 0.0087963051517909018 0.014692534704047019 0 0.0022513630186677329 -9.8935406566825752e-05 0 0.0022690723736530798 -0.00065444042375087494 0 0.0026127234700410147 -0.00036415415588375143 0 0.0054537675651136382 0.0078061446880611732 0 0.0059411707246411483 0.0050965080189044132 0 0.0029480068477871933 -0.00020920699557110933 0 0.0026127234700410147 -0.00036415415588375143 0 0.0029804173514585411 -0.00081632160603081641 0 0.0022690723736530798 -0.00065444042375087494 0 0.0026127234700410147 -0.00036415415588375143 0 0.0029804173514585411 -0.00081632160603081641 0 0.0029480068477871933 -0.00020920699557110933 0 0.0029804173514585411 -0.00081632160603081641 0 0.0034913029064103404 -0.00026277249574132948 0 0.0042510021885986777 -0.0014965889904448445 0 0.0043822675399201065 -0.00086933031696701608 0 0.0038457469910902096 -0.0011475993611699022 0 0.0042510021885986777 -0.0014965889904448445 0 0.0043822675399201065 -0.00086933031696701608 0 0.0054280048336878411 -0.000996066969899482 0 0.0059411707246411483 0.0050965080189044132 0 0.003149045566001442 -0.0020292725578931773 0 0.0043822675399201065 -0.00086933031696701608 0 0.0049644573073977733 -0.00041484247304686574 0 0.0054280048336878411 -0.000996066969899482 0 0.0043822675399201065 -0.00086933031696701608 0 0.0043632639012703379 -0.00035221255455439662 0 0.0037105918825951711 -0.0010435603733980757 0 0.0043822675399201065 -0.00086933031696701608 0 0.0037105918825951711 -0.0010435603733980757 0 0.0038457469910902096 -0.0011475993611699022 0 0.0049827099767975128 0.00040227000534226275 0 0.0039724872291796521 0.00033273040161521233 0 0.0043632639012703379 -0.00035221255455439662 0 0.0039724872291796521 0.00033273040161521233 0 0.0043632639012703379 -0.00035221255455439662 0 0.0037105918825951711 -0.0010435603733980757 0 0.0049827099767975128 0.00040227000534226275 0 0.0043632639012703379 -0.00035221255455439662 0 0.0049644573073977733 -0.00041484247304686574 0 0.0043822675399201065 -0.00086933031696701608 0 0.0043632639012703379 -0.00035221255455439662 0 0.0049644573073977733 -0.00041484247304686574 0 0.0059070498612247531 0.0047356804187803445 0 0.0059262398267097881 0.0067495426266660019 0 0.005082400231756129 0.0056921914453402778 0 0.0052986452208808443 -0.0005190465815537431 0 0.0060199011278247285 0.0027181136470281675 0 0.0049827099767975128 0.00040227000534226275 0 0.0049644573073977733 -0.00041484247304686574 0 0.0055072096937713675 -0.00041870152325629132 0 0.0058939651664107525 0.0028998714378338716 0 0.0060199011278247285 0.0027181136470281675 0 0.0059640618868075281 0.0009111059376920934 0 0.0049827099767975128 0.00040227000534226275 0 0.0059434127387207603 -0.00049233974336503918 0 0.0059262398267097881 0.0067495426266660019 0 0.0047258971203157293 0.0064524248731051698 0 0.0045760994256060401 0.0071411444178328849 0 0.0041559896046980196 0.0056892889537714089 0 0.005082400231756129 0.0056921914453402778 0 0.0047258971203157293 0.0064524248731051698 0 0.0037272531949799621 0.0066709801275913628 0 0.0047258971203157293 0.0064524248731051698 0 0.0045760994256060401 0.0071411444178328849 0 0.0041559896046980196 0.0056892889537714089 0 0.0037272531949799621 0.0066709801275913628 0 0.0047258971203157293 0.0064524248731051698 0 0.0059262398267097881 0.0067495426266660019 0 0.005082400231756129 0.0056921914453402778 0 0.0047258971203157293 0.0064524248731051698 0 0.0071968640816328271 0.0037455495206173564 0 0.0053092213071637487 0.0057162740597664248 0 0.0072245813612892423 0.0056465879993960752 0 0.0060199011278247285 0.0027181136470281675 0 0.0047873695619680429 0.0069160459799448969 0 0.0059262398267097881 0.0067495426266660019 0 0.0045760994256060401 0.0071411444178328849 0 0.0045499229264454443 0.0081181371572080895 0 0.0039773506491213801 0.0076793882685646173 0 0.0045760994256060401 0.0071411444178328849 0 0.0045499229264454443 0.0081181371572080895 0 0.0060199011278247285 0.0027181136470281675 0 0.006302960162460956 0.0018482246452842836 0 0.0049644573073977733 -0.00041484247304686574 0 0.0055072096937713675 -0.00041870152325629132 0 0.0054280048336878411 -0.000996066969899482 0 0.003916639745014854 -0.0014329800671154629 0 0.0038144343137922563 -0.0016684447151395947 0 0.003862888979303166 -0.0015008142045035699 0 0.003916639745014854 -0.0014329800671154629 0 0.003862888979303166 -0.0015008142045035699 0 0.0037819098632212297 -0.0012681278558322846 0 0.0038775233059915324 -0.0016938655235696129 0 0.0038891990409256855 -0.001389926842451035 0 0.003916639745014854 -0.0014329800671154629 0 0.0038144343137922563 -0.0016684447151395947 0 0.0038786583179575306 -0.0015200328571634252 0 0.0036096588875723637 -0.001925635206239507 0 0.0038144343137922563 -0.0016684447151395947 0 0.0038381884802404886 -0.0019007414841775325 0 0.0036808550522932589 -0.0018114412972102226 0 0.0036583670121287564 -0.0018545963569476895 0 0.0038144343137922563 -0.0016684447151395947 0 0.0036583670121287564 -0.0018545963569476895 0 0.0036096588875723637 -0.001925635206239507 0 0.0038144343137922563 -0.0016684447151395947 0 0.0036808550522932589 -0.0018114412972102226 0 0.0038144343137922563 -0.0016684447151395947 0 0.003806577909464556 -0.0016281119151190706 0 0.0038329389153100532 -0.00150586557827329 0 0.003806577909464556 -0.0016281119151190706 0 0.003862888979303166 -0.0015008142045035699 0 0.0038144343137922563 -0.0016684447151395947 0 0.003806577909464556 -0.0016281119151190706 0 0.003862888979303166 -0.0015008142045035699 0 0.0038329389153100532 -0.00150586557827329 0 0.0037843761142430212 -0.0013902048805715509 0 0.0037819098632212297 -0.0012681278558322846 0 0.0038329389153100532 -0.00150586557827329 0 0.003862888979303166 -0.0015008142045035699 0 0.0037819098632212297 -0.0012681278558322846 0 0.0038407226081466784 -0.00054467380228695635 0 0.0037122875632287782 -0.00096145671904911004 0 0.0036335198438475296 -0.0014522492978317606 0 0.0037843761142430212 -0.0013902048805715509 0 0.0037105918825951711 -0.0010435603733980757 0 0.0037843761142430212 -0.0013902048805715509 0 0.0037105918825951711 -0.0010435603733980757 0 0.0037819098632212297 -0.0012681278558322846 0 0.0037105918825951711 -0.0010435603733980757 0 0.0037819098632212297 -0.0012681278558322846 0 0.0038457469910902096 -0.0011475993611699022 0 0.0037819098632212297 -0.0012681278558322846 0 0.0037949090984884179 -0.0012327992557231294 0 0.0038457469910902096 -0.0011475993611699022 0 0.003916639745014854 -0.0014329800671154629 0 0.0037819098632212297 -0.0012681278558322846 0 0.0037949090984884179 -0.0012327992557231294 0 0.003916639745014854 -0.0014329800671154629 0 0.0037949090984884179 -0.0012327992557231294 0 0.0039577294102407018 -0.0010791598280066889 0 0.0037949090984884179 -0.0012327992557231294 0 0.0037180494873791212 -0.0010695054204466232 0 0.0039577294102407018 -0.0010791598280066889 0 0.0042510021885986777 -0.0014965889904448445 0 0.0037180494873791212 -0.0010695054204466232 0 0.0038457469910902096 -0.0011475993611699022 0 0.003149045566001442 -0.0020292725578931773 0 0.0039536854662267111 -0.0008441705900806999 0 0.0037949090984884179 -0.0012327992557231294 0 0.0037180494873791212 -0.0010695054204466232 0 0.0038457469910902096 -0.0011475993611699022 0 0.0029804173514585411 -0.00081632160603081641 0 0.0037180494873791212 -0.0010695054204466232 0 0.0034913029064103404 -0.00026277249574132948 0 0.0037180494873791212 -0.0010695054204466232 0 0.0034913029064103404 -0.00026277249574132948 0 0.0038169235000806725 -0.00031926324448770539 0 0.0037180494873791212 -0.0010695054204466232 0 0.004131682053209732 -0.00065505623506415857 0 0.0038169235000806725 -0.00031926324448770539 0 0.0037180494873791212 -0.0010695054204466232 0 0.004131682053209732 -0.00065505623506415857 0 0.0039577294102407018 -0.0010791598280066889 0 0.0038641361810409277 -0.00091690692629318245 0 0.0039070831266846346 -0.0010398194826285721 0 0.0039477342466127828 -0.0008988260648790774 0 0.004131682053209732 -0.00065505623506415857 0 0.0039577294102407018 -0.0010791598280066889 0 0.0041896678929828407 -0.0012687529312058522 0 0.0039675465492161003 -0.00087788905455613562 0 0.0038891990409256855 -0.001389926842451035 0 0.0039417763375600131 -0.0013975889549373561 0 0.0038891990409256855 -0.001389926842451035 0 0.003916639745014854 -0.0014329800671154629 0 0.0039577294102407018 -0.0010791598280066889 0 0.0041896678929828407 -0.0012687529312058522 0 0.0036096588875723637 -0.001925635206239507 0 0.0035218285443959735 -0.0019890512479518647 0 0.0038381884802404886 -0.0019007414841775325 0 0.003770946659299054 -0.0014960448037675061 0 0.0038891990409256855 -0.001389926842451035 0 0.0040199225623444744 -0.00093991963272929203 0 0.0039070831266846346 -0.0010398194826285721 0 0.0039477342466127828 -0.0008988260648790774 0 0.0040286571454941486 -0.00083471669466426556 0 0.0039477342466127828 -0.0008988260648790774 0 0.0039289696175887276 -0.00081243156784125705 0 0.0042302622716324945 -0.00060844975781971838 0 0.0040573836892690016 -0.00066962711791432566 0 0.0038641361810409277 -0.00091690692629318245 0 0.0039477342466127828 -0.0008988260648790774 0 0.0039289696175887276 -0.00081243156784125705 0 0.0038641361810409277 -0.00091690692629318245 0 0.0039289696175887276 -0.00081243156784125705 0 0.0038231606203776112 -0.000788766117766164 0 0.0040573836892690016 -0.00066962711791432566 0 0.0044251731971648774 0.00043399726853816971 0 0.0043264568944020865 -0.00039399531956982293 0 0.0043061606057788245 -0.00039630795831872975 0 0.0043528947512442946 -0.00036063356572985095 0 0.0043264568944020865 -0.00039399531956982293 0 0.0042967929014938403 -0.00042209862999519586 0 0.0043061606057788245 -0.00039630795831872975 0 0.0042774826400177601 -0.00043746070145640747 0 0.0042967929014938403 -0.00042209862999519586 0 0.0043061606057788245 -0.00039630795831872975 0 0.0031020868083376225 -0.00080088056909579644 0 0.0044281382771495228 0.0022425440701828326 0 0.0034913029064103404 -0.00026277249574132948 0 0.0038169235000806725 -0.00031926324448770539 0 0.0037679707558611708 4.7746247303749941e-05 0 0.0039675465492161003 -0.00087788905455613562 0 0.0044251731971648774 0.00043399726853816971 0 0.004131682053209732 -0.00065505623506415857 0 0.0038169235000806725 -0.00031926324448770539 0 0.0039668488166858243 2.4691177355787826e-05 0 0.0038169235000806725 -0.00031926324448770539 0 0.0039668488166858243 2.4691177355787826e-05 0 0.0037679707558611708 4.7746247303749941e-05 0 0.0050487566250810465 0.0077750152255685349 0 0.0050550120486102853 0.0077813132134409877 0 0.0050881265376993348 0.0077809742727069737 0 0.0044251731971648774 0.00043399726853816971 0 0.0045927381289772341 0.0044154895030890789 0 0.0043264568944020865 -0.00039399531956982293 0 0.0043528947512442946 -0.00036063356572985095 0 0.0043604628597305149 -0.00036788405555543662 0 0.0045927381289772341 0.0044154895030890789 0 0.0044281382771495228 0.0022425440701828326 0 0.0045270611404700026 0.0020336784116847411 0 0.0043660200097940961 0.0024647914759052475 0 0.0040734298558394765 0.0020941951101727768 0 0.0044251731971648774 0.00043399726853816971 0 0.0044281382771495228 0.0022425440701828326 0 0.0036227121651028057 0.0033103359144801402 0 0.0044281382771495228 0.0022425440701828326 0 0.0030311990579586228 0.00035047974344490666 0 0.0034913029064103404 -0.00026277249574132948 0 0.0038531706558386121 0.00019626655588816006 0 0.0051304260967989564 0.007836007358836725 0 0.0050550120486102853 0.0077813132134409877 0 0.0050881265376993348 0.0077809742727069737 0 0.0050487566250810465 0.0077750152255685349 0 0.0050881265376993348 0.0077809742727069737 0 0.0050935054543082029 0.0077328916056179963 0 0.0050879747823350573 0.0077654020539684046 0 0.0050881265376993348 0.0077809742727069737 0 0.0050935054543082029 0.0077328916056179963 0 0.0051250960446364664 0.0077941114033221849 0 0.0050879747823350573 0.0077654020539684046 0 0.0050881265376993348 0.0077809742727069737 0 0.0051878227431001837 0.0073464007629276389 0 0.0052533163157204221 0.0075980190110098529 0 0.0050935054543082029 0.0077328916056179963 0 0.0045927381289772341 0.0044154895030890789 0 0.0050818065214458669 0.009008736060754665 0 0.0053401182148197076 0.0077237391155770361 0 0.0053309452381048303 0.0077324275242899873 0 0.0053485576826717797 0.0076629960879199188 0 0.0050935054543082029 0.0077328916056179963 0 0.0050594590857131801 0.0077591940491180374 0 0.0053485576826717797 0.0076629960879199188 0 0.0052533163157204221 0.0075980190110098529 0 0.0050935054543082029 0.0077328916056179963 0 0.0053485576826717797 0.0076629960879199188 0 0.0053453957606451313 0.0077201688849343727 0 0.0053401182148197076 0.0077237391155770361 0 0.0053485576826717797 0.0076629960879199188 0 0.0049789214324275138 0.0070868790257603131 0 0.0054193341841558343 0.007854011678197579 0 0.0053453957606451313 0.0077201688849343727 0 0.0053401182148197076 0.0077237391155770361 0 0.0053347347086238877 0.007769735112968721 0 0.0053401182148197076 0.0077237391155770361 0 0.0053321564155264841 0.0077501885063411824 0 0.0053347347086238877 0.007769735112968721 0 0.0051250960446364664 0.0077941114033221849 0 0.0050879747823350573 0.0077654020539684046 0 0.0050594590857131801 0.0077591940491180374 0 0.0050879747823350573 0.0077654020539684046 0 0.0050935054543082029 0.0077328916056179963 0 0.0050594590857131801 0.0077591940491180374 0 0.0053401182148197076 0.0077237391155770361 0 0.0053309452381048303 0.0077324275242899873 0 0.0053321564155264841 0.0077501885063411824 0 0.0053321564155264841 0.0077501885063411824 0 0.0051406456996501218 0.007902411637446656 0 0.0053347347086238877 0.007769735112968721 0 0.0053309452381048303 0.0077324275242899873 0 0.0053321564155264841 0.0077501885063411824 0 0.0051406456996501218 0.007902411637446656 0 0.0042699482758431278 -0.00045813032332646321 0 0.0042967929014938403 -0.00042209862999519586 0 0.0043180112025578126 -0.00042382593571977121 0 0.0043264568944020865 -0.00039399531956982293 0 0.0043604628597305149 -0.00036788405555543662 0 0.0043180112025578126 -0.00042382593571977121 0 0.0043264568944020865 -0.00039399531956982293 0 0.0042967929014938403 -0.00042209862999519586 0 0.0043180112025578126 -0.00042382593571977121 0 0.0051878227431001837 0.0073464007629276389 0 0.0052533163157204221 0.0075980190110098529 0 0.0053730642090897224 0.0076514809718100339 0 0.0045927381289772341 0.0044154895030890789 0 0.0048814742926255733 0.0034444855281596468 0 0.0053730642090897224 0.0076514809718100339 0 0.0053590655066525477 0.0076850971565888253 0 0.0053549829019727746 0.0076920478949683733 0 0.0052533163157204221 0.0075980190110098529 0 0.0053730642090897224 0.0076514809718100339 0 0.0053485576826717797 0.0076629960879199188 0 0.0053730642090897224 0.0076514809718100339 0 0.0053485576826717797 0.0076629960879199188 0 0.0053493959101309427 0.0076899850729777054 0 0.0053453957606451313 0.0077201688849343727 0 0.0053485576826717797 0.0076629960879199188 0 0.0053493959101309427 0.0076899850729777054 0 0.0053453957606451313 0.0077201688849343727 0 0.0053493959101309427 0.0076899850729777054 0 0.0053495635343470804 0.0077093090415374776 0 0.0053730642090897224 0.0076514809718100339 0 0.0053493959101309427 0.0076899850729777054 0 0.0053549829019727746 0.0076920478949683733 0 0.0048814742926255733 0.0034444855281596468 0 0.004539865270918657 0.003660463134786884 0 0.0042699482758431278 -0.00045813032332646321 0 0.0042637691177623577 -0.00046001668799567854 0 0.0043180112025578126 -0.00042382593571977121 0 0.0042637691177623577 -0.00046001668799567854 0 0.0043180112025578126 -0.00042382593571977121 0 0.0042736595095506048 -0.00046496740500300422 0 0.0053730642090897224 0.0076514809718100339 0 0.0053605530075150672 0.0076716005087263985 0 0.0053590655066525477 0.0076850971565888253 0 0.004539865270918657 0.003660463134786884 0 0.0045350659100933831 0.0035102614763231274 0 0.0039921475106152165 0.0011723462863995815 0 0.0045350659100933831 0.0035102614763231274 0 0.0046591284569093994 0.0023320320669506407 0 0.0048427909887171217 0.0025555444170211826 0 0.0040511037989446885 0.0029234413522829369 0 0.004539865270918657 0.003660463134786884 0 0.0039921475106152165 0.0011723462863995815 0 0.0053605530075150672 0.0076716005087263985 0 0.0053590655066525477 0.0076850971565888253 0 0.0053576517709465034 0.0076869984760289459 0 0.0053590655066525477 0.0076850971565888253 0 0.0053549829019727746 0.0076920478949683733 0 0.0053520673551427653 0.0077046677662509656 0 0.0053493959101309427 0.0076899850729777054 0 0.0053549829019727746 0.0076920478949683733 0 0.0053495635343470804 0.0077093090415374776 0 0.0053549829019727746 0.0076920478949683733 0 0.0053495635343470804 0.0077093090415374776 0 0.0053520673551427653 0.0077046677662509656 0 0.0053495635343470804 0.0077093090415374776 0 0.0053520673551427653 0.0077046677662509656 0 0.0053478722363663302 0.0077288058225321535 0 0.0053590655066525477 0.0076850971565888253 0 0.0053520673551427653 0.0077046677662509656 0 0.0053576517709465034 0.0076869984760289459 0 0.0053520673551427653 0.0077046677662509656 0 0.0053576517709465034 0.0076869984760289459 0 0.00534694002286431 0.0077128348653913307 0 0.0049260292718217216 0.0043675132497627651 0 0.003939774346855043 0.0048361656186464361 0 0.0042059627436502791 0.0050757805912639668 0 0.0045350659100933831 0.0035102614763231274 0 0.0049694270394177349 0.006940732753237938 0 0.0053520673551427653 0.0077046677662509656 0 0.0053478722363663302 0.0077288058225321535 0 0.00534694002286431 0.0077128348653913307 0 0.0049694270394177349 0.006940732753237938 0 0.003726848395014996 0.0035406323109203192 0 0.0045350659100933831 0.0035102614763231274 0 0.003726848395014996 0.0035406323109203192 0 0.003827991104431962 -0.00012778417248228668 0 0.003708280928098591 -0.00028615498457843099 0 0.0034194314426127742 1.4587742566585403e-05 0 0.0039206185997874001 -0.00038916018929145495 0 0.0038727656125818856 -0.00027228815307704218 0 0.003708280928098591 -0.00028615498457843099 0 0.003827991104431962 -0.00012778417248228668 0 0.0038727656125818856 -0.00027228815307704218 0 0.0040141019311546785 -0.0002875493158460718 0 0.003827991104431962 -0.00012778417248228668 0 0.0038727656125818856 -0.00027228815307704218 0 0.003708280928098591 -0.00028615498457843099 0 0.0051406456996501218 0.007902411637446656 0 0.0052588401770468866 0.0083275045664522682 0 0.0056845879979318765 0.0084141860737668647 0 0.0051406456996501218 0.007902411637446656 0 0.0053347347086238877 0.007769735112968721 0 0.0053498827245552069 0.0077669472477018718 0 0.0050945418485538177 0.0078137339854597882 0 0.0057019368732693382 0.0083098249895491878 0 0.0052588401770468866 0.0083275045664522682 0 0.0056845879979318765 0.0084141860737668647 0 0.0052966325489112497 0.008611956636297281 0 0.0053347347086238877 0.007769735112968721 0 0.0053498827245552069 0.0077669472477018718 0 0.0053478722363663302 0.0077288058225321535 0 0.0053453957606451313 0.0077201688849343727 0 0.0053495635343470804 0.0077093090415374776 0 0.0053478722363663302 0.0077288058225321535 0 0.0053453957606451313 0.0077201688849343727 0 0.0053347347086238877 0.007769735112968721 0 0.0053478722363663302 0.0077288058225321535 0 0.0061970618916653121 0.008887462369976706 0 0.0054347968278451392 0.0088566560775041377 0 0.0053898496707476869 0.0092809228378307757 0 0.0056845879979318765 0.0084141860737668647 0 0.0061970618916653121 0.008887462369976706 0 0.0054347968278451392 0.0088566560775041377 0 0.0053498827245552069 0.0077669472477018718 0 0.0053478722363663302 0.0077288058225321535 0 0.00534694002286431 0.0077128348653913307 0 0.0057019368732693382 0.0083098249895491878 0 0.0049694270394177349 0.006940732753237938 0 0.0056845879979318765 0.0084141860737668647 0 0.0054347968278451392 0.0088566560775041377 0 0.0052966325489112497 0.008611956636297281 0 0.0054347968278451392 0.0088566560775041377 0 0.0052155129364966886 0.0090645935065445018 0 0.0053898496707476869 0.0092809228378307757 0 0.0054347968278451392 0.0088566560775041377 0 0.0052155129364966886 0.0090645935065445018 0 0.0052173559736557419 0.0088578021732238152 0 0.0052155129364966886 0.0090645935065445018 0 0.0052173559736557419 0.0088578021732238152 0 0.0050440093281244264 0.0090221387718920978 0 0.0052588401770468866 0.0083275045664522682 0 0.0052966325489112497 0.008611956636297281 0 0.0050436978442656806 0.008688171417785032 0 0.0052173559736557419 0.0088578021732238152 0 0.0052966325489112497 0.008611956636297281 0 0.0050436978442656806 0.008688171417785032 0 0.0054347968278451392 0.0088566560775041377 0 0.0052173559736557419 0.0088578021732238152 0 0.0052966325489112497 0.008611956636297281 0 0.0052155129364966886 0.0090645935065445018 0 0.0053898496707476869 0.0092809228378307757 0 0.0049377744783751952 0.0092030392700171368 0 0.0038109768069195583 0.0057488951200027668 0 0.003589943274230986 0.0058680232284261166 0 0.0036983166654748273 0.0059451443033368906 0 0.0049694270394177349 0.006940732753237938 0 0.0044799862370009588 0.0076228755833983126 0 0.00359053434004235 0.0061357202197993175 0 0.003726848395014996 0.0035406323109203192 0 0.0038109768069195583 0.0057488951200027668 0 0.0036983166654748273 0.0059451443033368906 0 0.0038642037520175308 0.0057926341363210791 0 0.0037182743585200398 0.0057390291776109039 0 0.0039374502536845355 0.0057038422694997018 0 0.0038637155005527041 0.0058659335090402885 0 0.0037191129679084961 0.0059347440699232482 0 0.0037182743585200398 0.0057390291776109039 0 0.0038637155005527041 0.0058659335090402885 0 0.003589943274230986 0.0058680232284261166 0 0.0036983166654748273 0.0059451443033368906 0 0.0035545303888102398 0.0060498169745592965 0 0.00359053434004235 0.0061357202197993175 0 0.0036364151183113807 0.0059297059849955933 0 0.0037191129679084961 0.0059347440699232482 0 0.0037182743585200398 0.0057390291776109039 0 0.0035545303888102398 0.0060498169745592965 0 0.003827991104431962 -0.00012778417248228668 0 0.0034194314426127742 1.4587742566585403e-05 0 0.0037606474299715616 0.00031047393665113547 0 0.003827991104431962 -0.00012778417248228668 0 0.0037606474299715616 0.00031047393665113547 0 0.0040362528099988637 -0.00010598156983867518 0 0.0039374502536845355 0.0057038422694997018 0 0.0039042941745664971 0.0055172326103726972 0 0.0041141871400518313 0.0057120560528355294 0 0.0037182743585200398 0.0057390291776109039 0 0.0039374502536845355 0.0057038422694997018 0 0.0039042941745664971 0.0055172326103726972 0 0.003726848395014996 0.0035406323109203192 0 0.003893758384584816 0.0042216091584821556 0 0.0038637155005527041 0.0058659335090402885 0 0.0041834991212178416 0.0057422096506834002 0 0.0042886050819830246 0.0053620359924330058 0 0.0039374502536845355 0.0057038422694997018 0 0.0038637155005527041 0.0058659335090402885 0 0.0041141871400518313 0.0057120560528355294 0 0.003878072930532551 0.0061259462605711273 0 0.003893758384584816 0.0042216091584821556 0 0.0038637155005527041 0.0058659335090402885 0 0.0041834991212178416 0.0057422096506834002 0 0.0039972072846106545 0.0059773032738663105 0 0.0041849914887619128 0.0052077483644624731 0 0.0044348612400181711 0.0054380009564466165 0 0.0050930874320518184 0.0052172272643370423 0 0.0041834991212178416 0.0057422096506834002 0 0.0044013213998382412 0.0057279154404956062 0 0.0042646628465925112 0.0059387956950659121 0 0.0041834991212178416 0.0057422096506834002 0 0.0042886050819830246 0.0053620359924330058 0 0.0044348612400181711 0.0054380009564466165 0 0.003893758384584816 0.0042216091584821556 0 0.0044422859833044559 0.0049603371409501522 0 0.0041834991212178416 0.0057422096506834002 0 0.0044348612400181711 0.0054380009564466165 0 0.0044013213998382412 0.0057279154404956062 0 0.0044348612400181711 0.0054380009564466165 0 0.0044013213998382412 0.0057279154404956062 0 0.0047508624952258185 0.0058701369408845428 0 0.0044013213998382412 0.0057279154404956062 0 0.0042646628465925112 0.0059387956950659121 0 0.0047508624952258185 0.0058701369408845428 0 0.00424511766959987 0.0060058896108227252 0 0.0042647695025024007 0.0062206143437702989 0 0.0044211632802826223 0.0058783607966631886 0 0.0042646628465925112 0.0059387956950659121 0 0.00424511766959987 0.0060058896108227252 0 0.0044211632802826223 0.0058783607966631886 0 0.0039751765050177771 0.0054316693909191825 0 0.0045568925656881247 0.0028619793538818355 0 0.0043860996423724695 0.0052505199859929057 0 0.0045568925656881247 0.0028619793538818355 0 0.0041834991212178416 0.0057422096506834002 0 0.0042646628465925112 0.0059387956950659121 0 0.0041490290209208937 0.0059669394550063704 0 0.0042646628465925112 0.0059387956950659121 0 0.0041490290209208937 0.0059669394550063704 0 0.00424511766959987 0.0060058896108227252 0 0.00424511766959987 0.0060058896108227252 0 0.0041012565661760134 0.0061715720236896823 0 0.0040960653073213726 0.0060463553887647719 0 0.0041490290209208937 0.0059669394550063704 0 0.00424511766959987 0.0060058896108227252 0 0.0040960653073213726 0.0060463553887647719 0 0.0042637389350780337 0.0063621420404695655 0 0.0043860996423724695 0.0052505199859929057 0 0.00424511766959987 0.0060058896108227252 0 0.0041012565661760134 0.0061715720236896823 0 0.0041973378591951879 0.006286554742978399 0 0.0042495811211660031 0.0025759060877110921 0 0.0043088426660179962 0.0031195890488096519 0 0.0051808082174266083 0.0018989752950414676 0 0.0041012565661760134 0.0061715720236896823 0 0.0041973378591951879 0.006286554742978399 0 0.0040148087185447497 0.0062492149999512107 0 0.0040148087185447497 0.0062492149999512107 0 0.0038822901619286593 0.0061968672587289159 0 0.0038592586889554673 0.0063224993262878297 0 0.0040148087185447497 0.0062492149999512107 0 0.0038592586889554673 0.0063224993262878297 0 0.0040017310265612659 0.0063597676104049476 0 0.0041973378591951879 0.006286554742978399 0 0.0040148087185447497 0.0062492149999512107 0 0.0040017310265612659 0.0063597676104049476 0 0.0041012565661760134 0.0061715720236896823 0 0.0040148087185447497 0.0062492149999512107 0 0.0039780282061119398 0.0061157911643513717 0 0.0040148087185447497 0.0062492149999512107 0 0.0038822901619286593 0.0061968672587289159 0 0.0039780282061119398 0.0061157911643513717 0 0.0038637155005527041 0.0058659335090402885 0 0.0039972072846106545 0.0059773032738663105 0 0.0037648440414888625 0.00608450738454631 0 0.0039780282061119398 0.0061157911643513717 0 0.0039972072846106545 0.0059773032738663105 0 0.0037648440414888625 0.00608450738454631 0 0.0038822901619286593 0.0061968672587289159 0 0.0039780282061119398 0.0061157911643513717 0 0.0037648440414888625 0.00608450738454631 0 0.0039780282061119398 0.0061157911643513717 0 0.0040960653073213726 0.0060463553887647719 0 0.0039972072846106545 0.0059773032738663105 0 0.0041012565661760134 0.0061715720236896823 0 0.0039780282061119398 0.0061157911643513717 0 0.0040960653073213726 0.0060463553887647719 0 0.0041834991212178416 0.0057422096506834002 0 0.0041490290209208937 0.0059669394550063704 0 0.0039972072846106545 0.0059773032738663105 0 0.0041490290209208937 0.0059669394550063704 0 0.0040960653073213726 0.0060463553887647719 0 0.0039972072846106545 0.0059773032738663105 0 0.0037191129679084961 0.0059347440699232482 0 0.0035545303888102398 0.0060498169745592965 0 0.0037648440414888625 0.00608450738454631 0 0.0037191129679084961 0.0059347440699232482 0 0.0038637155005527041 0.0058659335090402885 0 0.0037648440414888625 0.00608450738454631 0 0.0037648440414888625 0.00608450738454631 0 0.0035662171920101049 0.0062024813586715336 0 0.0036723871035044516 0.0062658371595727151 0 0.0035545303888102398 0.0060498169745592965 0 0.0037648440414888625 0.00608450738454631 0 0.0035662171920101049 0.0062024813586715336 0 0.0035545303888102398 0.0060498169745592965 0 0.0035662171920101049 0.0062024813586715336 0 0.0034487113221530895 0.0061622878596215014 0 0.0035662171920101049 0.0062024813586715336 0 0.003571742557691669 0.0063524372650552632 0 0.0034415504976090553 0.0063072029613834135 0 0.0035662171920101049 0.0062024813586715336 0 0.0036723871035044516 0.0062658371595727151 0 0.003571742557691669 0.0063524372650552632 0 0.0036723871035044516 0.0062658371595727151 0 0.003571742557691669 0.0063524372650552632 0 0.0037030845123496034 0.0063786643216814732 0 0.0038822901619286593 0.0061968672587289159 0 0.0037648440414888625 0.00608450738454631 0 0.0037819001370294641 0.0062371739772989331 0 0.0038822901619286593 0.0061968672587289159 0 0.0037819001370294641 0.0062371739772989331 0 0.0038592586889554673 0.0063224993262878297 0 0.0037648440414888625 0.00608450738454631 0 0.0036723871035044516 0.0062658371595727151 0 0.0037819001370294641 0.0062371739772989331 0 0.0036723871035044516 0.0062658371595727151 0 0.0037819001370294641 0.0062371739772989331 0 0.0037030845123496034 0.0063786643216814732 0 0.0037819001370294641 0.0062371739772989331 0 0.0038592586889554673 0.0063224993262878297 0 0.0037030845123496034 0.0063786643216814732 0 0.0038592586889554673 0.0063224993262878297 0 0.0038056521148251993 0.0064391438002871677 0 0.0039016430534740527 0.0064038510166838942 0 0.0038592586889554673 0.0063224993262878297 0 0.0038056521148251993 0.0064391438002871677 0 0.0037030845123496034 0.0063786643216814732 0 0.0038056521148251993 0.0064391438002871677 0 0.0037030845123496034 0.0063786643216814732 0 0.0036872498168325678 0.0065348222143133483 0 0.0038056521148251993 0.0064391438002871677 0 0.0038086026876057266 0.0065323247176263871 0 0.0036872498168325678 0.0065348222143133483 0 0.0038056521148251993 0.0064391438002871677 0 0.0038086026876057266 0.0065323247176263871 0 0.0039320348277252599 0.0064814240642873128 0 0.003571742557691669 0.0063524372650552632 0 0.0035674221648972918 0.0064843253529851515 0 0.0034544972302374267 0.006440617367105321 0 0.003571742557691669 0.0063524372650552632 0 0.0037030845123496034 0.0063786643216814732 0 0.0035674221648972918 0.0064843253529851515 0 0.0037030845123496034 0.0063786643216814732 0 0.0035674221648972918 0.0064843253529851515 0 0.0036872498168325678 0.0065348222143133483 0 0.0036549887502591027 0.0066456170568593934 0 0.0035654686990403001 0.0066186757755298028 0 0.0036872498168325678 0.0065348222143133483 0 0.0035674221648972918 0.0064843253529851515 0 0.0035654686990403001 0.0066186757755298028 0 0.0036872498168325678 0.0065348222143133483 0 0.0036549887502591027 0.0066456170568593934 0 0.0035654686990403001 0.0066186757755298028 0 0.003586724470238496 0.0067303552788952458 0 0.0038086026876057266 0.0065323247176263871 0 0.0037620772326913596 0.006618720178090347 0 0.0038729790719482164 0.0065806935730192721 0 0.0038086026876057266 0.0065323247176263871 0 0.0036872498168325678 0.0065348222143133483 0 0.0037620772326913596 0.006618720178090347 0 0.0036549887502591027 0.0066456170568593934 0 0.0036872498168325678 0.0065348222143133483 0 0.0037620772326913596 0.006618720178090347 0 0.0036549887502591027 0.0066456170568593934 0 0.0037620772326913596 0.006618720178090347 0 0.003687272229230073 0.0067076953408266513 0 0.0037620772326913596 0.006618720178090347 0 0.0038292195168744166 0.0066517163820054882 0 0.0038729790719482164 0.0065806935730192721 0 0.0037620772326913596 0.006618720178090347 0 0.0037646193118121923 0.0066824561602781751 0 0.003687272229230073 0.0067076953408266513 0 0.0037620772326913596 0.006618720178090347 0 0.0038292195168744166 0.0066517163820054882 0 0.0037646193118121923 0.0066824561602781751 0 0.0038292195168744166 0.0066517163820054882 0 0.0038729790719482164 0.0065806935730192721 0 0.0039800897046356129 0.006617120337018406 0 0.0038292195168744166 0.0066517163820054882 0 0.0039800897046356129 0.006617120337018406 0 0.0037701972265256709 0.0067477557124150378 0 0.0044309602781835867 0.0049745959501064129 0 0.004652865622354097 0.0053579188310066079 0 0.0041085639704672976 0.0060346161314171346 0 0.0038086026876057266 0.0065323247176263871 0 0.0038729790719482164 0.0065806935730192721 0 0.0039320348277252599 0.0064814240642873128 0 0.0038729790719482164 0.0065806935730192721 0 0.0039800897046356129 0.006617120337018406 0 0.0039320348277252599 0.0064814240642873128 0 0.004652865622354097 0.0053579188310066079 0 0.0048301747940416402 0.0050014434968634605 0 0.0051449084932834611 0.0051699772170638496 0 0.0057612285753111175 -0.0026264101372693673 0 0.0058642299645333424 -0.0024620955934804038 0 0.005695614498378492 -0.002580937157827866 0 0.0055080059670149758 0.00094748056759486673 0 0.0048939969064494514 0.0023664521311325512 0 0.0044309602781835867 0.0049745959501064129 0 0.0048301747940416402 0.0050014434968634605 0 0.0050758047635401258 0.0040865254151129012 0 0.0048301747940416402 0.0050014434968634605 0 0.0051449084932834611 0.0051699772170638496 0 0.0050758047635401258 0.0040865254151129012 0 0.0044309602781835867 0.0049745959501064129 0 0.004652865622354097 0.0053579188310066079 0 0.0048301747940416402 0.0050014434968634605 0 0.0039800897046356129 0.006617120337018406 0 0.0040988064876991146 0.0064220196909241288 0 0.0042151793057153301 0.0063524120075880005 0 0.0040030191574332036 0.0062638569563445981 0 0.0048939969064494514 0.0023664521311325512 0 0.0043860996423724695 0.0052505199859929057 0 0.0048939969064494514 0.0023664521311325512 0 0.0041994656076156742 0.0061652276434045663 0 0.0040988064876991146 0.0064220196909241288 0 0.0042151793057153301 0.0063524120075880005 0 0.0043860996423724695 0.0052505199859929057 0 0.0039952152181468806 0.0066303972966913014 0 0.0041973378591951879 0.006286554742978399 0 0.0040988064876991146 0.0064220196909241288 0 0.0040017310265612659 0.0063597676104049476 0 0.0040017310265612659 0.0063597676104049476 0 0.0039016430534740527 0.0064038510166838942 0 0.0039320348277252599 0.0064814240642873128 0 0.0038592586889554673 0.0063224993262878297 0 0.0040017310265612659 0.0063597676104049476 0 0.0039016430534740527 0.0064038510166838942 0 0.0038056521148251993 0.0064391438002871677 0 0.0039016430534740527 0.0064038510166838942 0 0.0039320348277252599 0.0064814240642873128 0 0.0039800897046356129 0.006617120337018406 0 0.0040988064876991146 0.0064220196909241288 0 0.0039320348277252599 0.0064814240642873128 0 0.0040988064876991146 0.0064220196909241288 0 0.0040017310265612659 0.0063597676104049476 0 0.0039320348277252599 0.0064814240642873128 0 0.0031340199973338332 0.0066212514451602983 0 0.0032667879663125484 0.0065792412629653851 0 0.0031624090832301503 0.0064912428562586225 0 0.0032667879663125484 0.0065792412629653851 0 0.0033016897511878242 0.006435683411733434 0 0.0031624090832301503 0.0064912428562586225 0 0.0031340199973338332 0.0066212514451602983 0 0.0031624090832301503 0.0064912428562586225 0 0.0029933303155865731 0.0065349268773086475 0 0.0031340199973338332 0.0066212514451602983 0 0.0029933303155865731 0.0065349268773086475 0 0.0030097128758581823 0.0066477957747928451 0 0.0031340199973338332 0.0066212514451602983 0 0.0030097128758581823 0.0066477957747928451 0 0.0030926417526185176 0.0067702133483497611 0 0.0031340199973338332 0.0066212514451602983 0 0.0032667858993753384 0.0067293139289368135 0 0.0030926417526185176 0.0067702133483497611 0 0.0031340199973338332 0.0066212514451602983 0 0.0032667879663125484 0.0065792412629653851 0 0.0032667858993753384 0.0067293139289368135 0 0.003395823033717757 0.006580446276788692 0 0.0032667879663125484 0.0065792412629653851 0 0.0032667858993753384 0.0067293139289368135 0 0.003395823033717757 0.006580446276788692 0 0.0034307556023371291 0.006734105010641667 0 0.0032667858993753384 0.0067293139289368135 0 0.0035674221648972918 0.0064843253529851515 0 0.0035654686990403001 0.0066186757755298028 0 0.003395823033717757 0.006580446276788692 0 0.0035654686990403001 0.0066186757755298028 0 0.003395823033717757 0.006580446276788692 0 0.0034307556023371291 0.006734105010641667 0 0.0035674221648972918 0.0064843253529851515 0 0.003395823033717757 0.006580446276788692 0 0.0034544972302374267 0.006440617367105321 0 0.003395823033717757 0.006580446276788692 0 0.0032667879663125484 0.0065792412629653851 0 0.0033016897511878242 0.006435683411733434 0 0.003395823033717757 0.006580446276788692 0 0.0034544972302374267 0.006440617367105321 0 0.0033016897511878242 0.006435683411733434 0 0.0033016897511878242 0.006435683411733434 0 0.0033225655760008429 0.00622587603954279 0 0.003151538981517512 0.0063530222315884228 0 0.0033016897511878242 0.006435683411733434 0 0.0034415504976090553 0.0063072029613834135 0 0.0033225655760008429 0.00622587603954279 0 0.0034544972302374267 0.006440617367105321 0 0.0033016897511878242 0.006435683411733434 0 0.0034415504976090553 0.0063072029613834135 0 0.003571742557691669 0.0063524372650552632 0 0.0034544972302374267 0.006440617367105321 0 0.0034415504976090553 0.0063072029613834135 0 0.0035662171920101049 0.0062024813586715336 0 0.0034415504976090553 0.0063072029613834135 0 0.0034487113221530895 0.0061622878596215014 0 0.0034415504976090553 0.0063072029613834135 0 0.0034487113221530895 0.0061622878596215014 0 0.0033225655760008429 0.00622587603954279 0 0.0034487113221530895 0.0061622878596215014 0 0.0033225655760008429 0.00622587603954279 0 0.0034021848475911153 0.00597421458890044 0 0.0033225655760008429 0.00622587603954279 0 0.003151538981517512 0.0063530222315884228 0 0.0031886957203569287 0.0061239955566437434 0 0.0033016897511878242 0.006435683411733434 0 0.003151538981517512 0.0063530222315884228 0 0.0031624090832301503 0.0064912428562586225 0 0.003151538981517512 0.0063530222315884228 0 0.0029933303155865731 0.0065349268773086475 0 0.0029749579527605647 0.0062858937124845773 0 0.003151538981517512 0.0063530222315884228 0 0.0031624090832301503 0.0064912428562586225 0 0.0029933303155865731 0.0065349268773086475 0 0.003151538981517512 0.0063530222315884228 0 0.0029749579527605647 0.0062858937124845773 0 0.0031886957203569287 0.0061239955566437434 0 0.0032840081829091866 0.0078045588555732221 0 0.0035744297301772386 0.0081345368859700607 0 0.0060510960824992485 0.015400094181637305 0 0.0060581256785539675 0.015429420646265931 0 0.0060655501794781904 0.015441273836822171 0 0.0049047915290541732 0.01262649301378756 0 0.0046948710581328481 0.012406184468985936 0 0.0034109830925766575 0.010380986189540743 0 0.004043824380158976 0.0099959076465528408 0 0.0038221901524285299 0.0097586438413175599 0 0.0034109830925766575 0.010380986189540743 0 0.0038221901524285299 0.0097586438413175599 0 0.0032587051456069035 0.010202751417936704 0 0.004043824380158976 0.0099959076465528408 0 0.0038221901524285299 0.0097586438413175599 0 0.004366913308452223 0.0093242150948840488 0 0.0049047915290541732 0.01262649301378756 0 0.005261446272721116 0.012415965478755706 0 0.0060510960824992485 0.015400094181637305 0 0.0060378624020316065 0.015369365200317496 0 0.0060564486304508303 0.015416378402079413 0 0.0060510960824992485 0.015400094181637305 0 0.0060564486304508303 0.015416378402079413 0 0.0060655501794781904 0.015441273836822171 0 0.0035545303888102398 0.0060498169745592965 0 0.0034487113221530895 0.0061622878596215014 0 0.0034021848475911153 0.00597421458890044 0 0.003589943274230986 0.0058680232284261166 0 0.0035545303888102398 0.0060498169745592965 0 0.0034021848475911153 0.00597421458890044 0 0.0035744297301772386 0.0081345368859700607 0 0.0040543965068096325 0.0077927269880223547 0 0.004043824380158976 0.0099959076465528408 0 0.0046758785786233468 0.0096406296407851484 0 0.004366913308452223 0.0093242150948840488 0 0.0033225655760008429 0.00622587603954279 0 0.0031886957203569287 0.0061239955566437434 0 0.0034021848475911153 0.00597421458890044 0 0.0046758785786233468 0.0096406296407851484 0 0.004366913308452223 0.0093242150948840488 0 0.0049377744783751952 0.0092030392700171368 0 0.0044799862370009588 0.0076228755833983126 0 0.0040543965068096325 0.0077927269880223547 0 0.0053898496707476869 0.0092809228378307757 0 0.0046758785786233468 0.0096406296407851484 0 0.0049377744783751952 0.0092030392700171368 0 0.004366913308452223 0.0093242150948840488 0 0.0049377744783751952 0.0092030392700171368 0 0.0049486883017243743 0.0088691316830025908 0 0.0049612246539549225 0.011295827243984731 0 0.00536506396270488 0.010614836775321735 0 0.0049377744783751952 0.0092030392700171368 0 0.0049486883017243743 0.0088691316830025908 0 0.0050440093281244264 0.0090221387718920978 0 0.0048973820920699676 0.008789814005313706 0 0.0050436978442656806 0.008688171417785032 0 0.0050440093281244264 0.0090221387718920978 0 0.0052155129364966886 0.0090645935065445018 0 0.0049377744783751952 0.0092030392700171368 0 0.0050440093281244264 0.0090221387718920978 0 0.0052173559736557419 0.0088578021732238152 0 0.0050436978442656806 0.008688171417785032 0 0.0050440093281244264 0.0090221387718920978 0 0.0049612246539549225 0.011295827243984731 0 0.0045055207319767837 0.0097146681015076349 0 0.005261446272721116 0.012415965478755706 0 0.0049612246539549225 0.011295827243984731 0 0.0060378624020316065 0.015369365200317496 0 0.0060136091924709026 0.015342747346415969 0 0.0060414820233767839 0.015386880403587056 0 0.0060306058098228265 0.015378950222501965 0 0.0060136091924709026 0.015342747346415969 0 0.0060414820233767839 0.015386880403587056 0 0.0045322920740016297 0.0079447328032275135 0 0.0049283814719044425 0.0087700526879458587 0 0.0050436978442656806 0.008688171417785032 0 0.0060867630876175732 0.012411105644576472 0 0.0049612246539549225 0.011295827243984731 0 0.0045322920740016297 0.0079447328032275135 0 0.0051406456996501218 0.007902411637446656 0 0.0052588401770468866 0.0083275045664522682 0 0.0045322920740016297 0.0079447328032275135 0 0.0052588401770468866 0.0083275045664522682 0 0.0050436978442656806 0.008688171417785032 0 0.0060378624020316065 0.015369365200317496 0 0.0060414820233767839 0.015386880403587056 0 0.0060564486304508303 0.015416378402079413 0 0.0060414820233767839 0.015386880403587056 0 0.0060564486304508303 0.015416378402079413 0 0.0060602303688664719 0.015422779339089159 0 0.0060867630876175732 0.012411105644576472 0 0.007474128886920125 0.017760660785120778 0 0.0060306058098228265 0.015378950222501965 0 0.0060414820233767839 0.015386880403587056 0 0.0060602303688664719 0.015422779339089159 0 0.007474128886920125 0.017760660785120778 0 0.0065038622094494179 0.017197950520549791 0 0.0060564486304508303 0.015416378402079413 0 0.0060602303688664719 0.015422779339089159 0 0.0060722576938520923 0.015466050435874146 0 0.0077648460072614299 0.018232781320839764 0 0.0083138326501250876 0.018865093647081228 0 0.0071265208765649742 0.019285738922515599 0 0.0060564486304508303 0.015416378402079413 0 0.0060722576938520923 0.015466050435874146 0 0.0060655501794781904 0.015441273836822171 0 0.0060722576938520923 0.015466050435874146 0 0.0060851452492963155 0.015476419945674259 0 0.0060655501794781904 0.015441273836822171 0 0.0060722576938520923 0.015466050435874146 0 0.0060931493994405552 0.015502169665991593 0 0.0060851452492963155 0.015476419945674259 0 0.0065038622094494179 0.017197950520549791 0 0.0061924134655945949 0.018406570859160785 0 0.0071265208765649742 0.019285738922515599 0 0.0062263162558459538 0.019056316121229471 0 0.0058712593555830016 0.019754471665121998 0 0.0058390298919065399 0.019636357037571057 0 0.0058802204146320624 0.019780104961120232 0 0.0051190037637820597 0.020106972052018109 0 0.0057624005615300967 0.018856795170754493 0 0.0062263162558459538 0.019056316121229471 0 0.0058130386850365695 0.019233192480728925 0 0.0058130386850365695 0.019233192480728925 0 0.0058390298919065399 0.019636357037571057 0 0.0054162592471919601 0.019380394302551743 0 0.0057624005615300967 0.018856795170754493 0 0.0058130386850365695 0.019233192480728925 0 0.0054162592471919601 0.019380394302551743 0 0.0062263162558459538 0.019056316121229471 0 0.0058130386850365695 0.019233192480728925 0 0.0058390298919065399 0.019636357037571057 0 0.0062243855577419731 0.018710787236787926 0 0.0061924134655945949 0.018406570859160785 0 0.0062263162558459538 0.019056316121229471 0 0.0058390298919065399 0.019636357037571057 0 0.0058712593555830016 0.019754471665121998 0 0.005072268632929703 0.018866279051372468 0 0.0054162592471919601 0.019380394302551743 0 0.0045905569606014395 0.019599691787971798 0 0.0054162592471919601 0.019380394302551743 0 0.0051190037637820597 0.020106972052018109 0 0.0045905569606014395 0.019599691787971798 0 0.0058390298919065399 0.019636357037571057 0 0.0054162592471919601 0.019380394302551743 0 0.0051190037637820597 0.020106972052018109 0 0.0061924134655945949 0.018406570859160785 0 0.004970046626720636 0.020238870198633008 0 0.0055580024198834798 0.020986411863755976 0 0.0051081752522431356 0.020392768303123053 0 0.0049050595089868117 0.021446400298790066 0 0.0058851070994142846 0.020257021172124915 0 0.0055580024198834798 0.020986411863755976 0 0.0051081752522431356 0.020392768303123053 0 0.0061924134655945949 0.018406570859160785 0 0.0060367297076572351 0.018157005757768744 0 0.0058851070994142846 0.020257021172124915 0 0.0055580024198834798 0.020986411863755976 0 0.0061237124805185884 0.021267609472611408 0 0.0061237124805185884 0.021267609472611408 0 0.0055713563563150109 0.021970845862446034 0 0.0063082767284984211 0.022197646095368739 0 0.0060367297076572351 0.018157005757768744 0 0.0063690369742891769 0.019385455522974968 0 0.0055580024198834798 0.020986411863755976 0 0.0061237124805185884 0.021267609472611408 0 0.0055713563563150109 0.021970845862446034 0 0.0055580024198834798 0.020986411863755976 0 0.0049050595089868117 0.021446400298790066 0 0.0055713563563150109 0.021970845862446034 0 0.0049050595089868117 0.021446400298790066 0 0.0055713563563150109 0.021970845862446034 0 0.0047945317442466637 0.022455410629583911 0 0.0055713563563150109 0.021970845862446034 0 0.0047945317442466637 0.022455410629583911 0 0.0056777726739795217 0.022734927528140304 0 0.0055713563563150109 0.021970845862446034 0 0.005904110765230077 0.022359263152194872 0 0.0056777726739795217 0.022734927528140304 0 0.0055713563563150109 0.021970845862446034 0 0.005904110765230077 0.022359263152194872 0 0.0063082767284984211 0.022197646095368739 0 0.005904110765230077 0.022359263152194872 0 0.0063082767284984211 0.022197646095368739 0 0.0061592208122742565 0.022651520905668503 0 0.0060718835150553856 0.015462750291579751 0 0.0060581256785539675 0.015429420646265931 0 0.0060655501794781904 0.015441273836822171 0 0.0060851452492963155 0.015476419945674259 0 0.0060718835150553856 0.015462750291579751 0 0.0060655501794781904 0.015441273836822171 0 0.0020525291074007046 0.020879684407409605 0 0.0032242901792787848 0.0211037297286529 0 0.0021679060184712569 0.021761023648536947 0 0.0020525291074007046 0.020879684407409605 0 0.0020967717054890768 0.019764429697075203 0 0.0029194270511947581 0.019955165296134586 0 0.0020525291074007046 0.020879684407409605 0 0.0016770138261217303 0.020071450994053566 0 0.0020967717054890768 0.019764429697075203 0 0.0013432510525969877 0.019378646977838983 0 0.0016770138261217303 0.020071450994053566 0 0.0020967717054890768 0.019764429697075203 0 0.0025410284718607426 0.018981107615318845 0 0.0020967717054890768 0.019764429697075203 0 0.0029194270511947581 0.019955165296134586 0 0.0020525291074007046 0.020879684407409605 0 0.0029472206307595266 0.019870790528781986 0 0.0032242901792787848 0.0211037297286529 0 0.0020895958780018219 0.020799127485829346 0 0.0029309516918997261 0.019925079829747009 0 0.0032242901792787848 0.0211037297286529 0 0.0043087228984956217 0.020496879546269012 0 0.0040875025004152203 0.021330869434966426 0 0.0032242901792787848 0.0211037297286529 0 0.0037748658619299312 0.019852543678411837 0 0.0043087228984956217 0.020496879546269012 0 0.0029472206307595266 0.019870790528781986 0 0.0032242901792787848 0.0211037297286529 0 0.0037748658619299312 0.019852543678411837 0 0.0039470212626898137 0.018811650590600471 0 0.0029472206307595266 0.019870790528781986 0 0.0037748658619299312 0.019852543678411837 0 0.003926058449508843 0.018913367905307132 0 0.0029309516918997261 0.019925079829747009 0 0.0051190037637820597 0.020106972052018109 0 0.0045905569606014395 0.019599691787971798 0 0.0043087228984956217 0.020496879546269012 0 0.0037748658619299312 0.019852543678411837 0 0.0045905569606014395 0.019599691787971798 0 0.0043087228984956217 0.020496879546269012 0 0.0039470212626898137 0.018811650590600471 0 0.0037748658619299312 0.019852543678411837 0 0.0045905569606014395 0.019599691787971798 0 0.004970046626720636 0.020238870198633008 0 0.0044205363754617356 0.020439253532464393 0 0.0051081752522431356 0.020392768303123053 0 0.0049050595089868117 0.021446400298790066 0 0.0043087228984956217 0.020496879546269012 0 0.0049050595089868117 0.021446400298790066 0 0.0040875025004152203 0.021330869434966426 0 0.0037916187866678429 0.022174280070880969 0 0.0049050595089868117 0.021446400298790066 0 0.0043087228984956217 0.020496879546269012 0 0.0040875025004152203 0.021330869434966426 0 0.0044211541409641848 0.022486412598040639 0 0.0038657261388909819 0.022218261485855619 0 0.0042853419660352143 0.022673382001629581 0 0.0037916187866678429 0.022174280070880969 0 0.0037692961224330538 0.022984503083564142 0 0.0049050595089868117 0.021446400298790066 0 0.0047945317442466637 0.022455410629583911 0 0.0037916187866678429 0.022174280070880969 0 0.0037916187866678429 0.022174280070880969 0 0.0031952879771266021 0.022830709167843338 0 0.0037692961224330538 0.022984503083564142 0 0.0032242901792787848 0.0211037297286529 0 0.0040875025004152203 0.021330869434966426 0 0.0037916187866678429 0.022174280070880969 0 0.0032242901792787848 0.0211037297286529 0 0.0027468437186021306 0.022297172758575633 0 0.0021679060184712569 0.021761023648536947 0 0.0032242901792787848 0.0211037297286529 0 0.0037916187866678429 0.022174280070880969 0 0.0027468437186021306 0.022297172758575633 0 0.0031952879771266021 0.022830709167843338 0 0.0027468437186021306 0.022297172758575633 0 0.0023495597255623313 0.023481561197583767 0 0.0037916187866678429 0.022174280070880969 0 0.0031952879771266021 0.022830709167843338 0 0.0027468437186021306 0.022297172758575633 0 0.0027468437186021306 0.022297172758575633 0 0.0023495597255623313 0.023481561197583767 0 0.001550263147808105 0.02244965621718218 0 0.0027468437186021306 0.022297172758575633 0 0.0021679060184712569 0.021761023648536947 0 0.001550263147808105 0.02244965621718218 0 0.0020525291074007046 0.020879684407409605 0 0.0021679060184712569 0.021761023648536947 0 0.0014709887414461689 0.021572789264933567 0 0.0027140808037311118 0.025092850878524871 0 0.0023495597255623313 0.023481561197583767 0 0.0012959963936211665 0.024626795613431667 0 0.0026892136305238404 0.024467716805371215 0 0.0023815902586819624 0.023524258292536786 0 0.0031952879771266021 0.022830709167843338 0 0.0023495597255623313 0.023481561197583767 0 0.0031655592887943375 0.023418799004788105 0 0.0027025351099071093 0.023865904283877065 0 0.0023495597255623313 0.023481561197583767 0 0.0031655592887943375 0.023418799004788105 0 0.0027025351099071093 0.023865904283877065 0 0.0031655592887943375 0.023418799004788105 0 0.0032061572261842179 0.023794251714702872 0 0.0032061572261842179 0.023794251714702872 0 0.0036842568105806594 0.023528175650963278 0 0.0036359188560273069 0.024055003826000256 0 0.0031655592887943375 0.023418799004788105 0 0.0032061572261842179 0.023794251714702872 0 0.0036842568105806594 0.023528175650963278 0 0.0031655592887943375 0.023418799004788105 0 0.0036842568105806594 0.023528175650963278 0 0.0037692961224330538 0.022984503083564142 0 0.0031952879771266021 0.022830709167843338 0 0.0031655592887943375 0.023418799004788105 0 0.0037692961224330538 0.022984503083564142 0 0.0042853419660352143 0.022673382001629581 0 0.0037692961224330538 0.022984503083564142 0 0.0041879151267095131 0.023254275770228174 0 0.0036842568105806594 0.023528175650963278 0 0.0037692961224330538 0.022984503083564142 0 0.0041879151267095131 0.023254275770228174 0 0.0036842568105806594 0.023528175650963278 0 0.0040656539481176172 0.023690324863634822 0 0.0036359188560273069 0.024055003826000256 0 0.0036842568105806594 0.023528175650963278 0 0.0041879151267095131 0.023254275770228174 0 0.0040656539481176172 0.023690324863634822 0 0.0040322871602611939 0.024048182224509718 0 0.0040146890390754678 0.024557140780909138 0 0.0044233543604516902 0.023898514680498945 0 0.0040322871602611939 0.024048182224509718 0 0.0040146890390754678 0.024557140780909138 0 0.0036359188560273069 0.024055003826000256 0 0.0040656539481176172 0.023690324863634822 0 0.0040322871602611939 0.024048182224509718 0 0.0044233543604516902 0.023898514680498945 0 0.0040656539481176172 0.023690324863634822 0 0.0040322871602611939 0.024048182224509718 0 0.0036359188560273069 0.024055003826000256 0 0.0040146890390754678 0.024557140780909138 0 0.0034677099174589923 0.024661384814362513 0 0.0036359188560273069 0.024055003826000256 0 0.0034677099174589923 0.024661384814362513 0 0.0036359188560273069 0.024055003826000256 0 0.0029256616650581925 0.024459841976381604 0 0.0032061572261842179 0.023794251714702872 0 0.0036359188560273069 0.024055003826000256 0 0.0029256616650581925 0.024459841976381604 0 0.0026892136305238404 0.024467716805371215 0 0.0028823345011699305 0.025233948256842848 0 0.0027025351099071093 0.023865904283877065 0 0.0032061572261842179 0.023794251714702872 0 0.0029256616650581925 0.024459841976381604 0 0.002873813746800861 0.026191582409776908 0 0.0016301317078902201 0.025795474875812449 0 0.001986741782094638 0.026830850271517284 0 0.0027140808037311118 0.025092850878524871 0 0.002873813746800861 0.026191582409776908 0 0.0016301317078902201 0.025795474875812449 0 0.0028275547672081476 0.014717464602139024 0 0.0025219644299614074 0.014895542636157831 0 0.002893468891493116 0.01501403223037311 0 0.0031170505107750413 0.012913333938966548 0 0.0028174172071371889 0.010324904367046937 0 0.0045303520181343947 0.022950421345585614 0 0.0045592299680266195 0.022961859298949418 0 0.004547212321607417 0.022956760603671147 0 0.0023983788861709158 0.004794740390963159 0 0.0031170505107750413 0.012913333938966548 0 0.0029933303155865731 0.0065349268773086475 0 0.0029480967663245115 0.0066388863951464035 0 0.0029343396107215122 0.0066312937153850064 0 0.0029933303155865731 0.0065349268773086475 0 0.0029749579527605647 0.0062858937124845773 0 0.002723307543954221 0.0064639804771901071 0 0.0046948710581328481 0.012406184468985936 0 0.0051864639169994699 0.016538475562296893 0 0.0034109830925766575 0.010380986189540743 0 0.0032587051456069035 0.010202751417936704 0 0.0026936195950772015 0.010820756771959006 0 0.0032840081829091866 0.0078045588555732221 0 0.0031170505107750413 0.012913333938966548 0 0.0063690369742891769 0.019385455522974968 0 0.0051864639169994699 0.016538475562296893 0 0.0060718835150553856 0.015462750291579751 0 0.0060581256785539675 0.015429420646265931 0 0.0060590755990722021 0.015457350909823248 0 0.0032587051456069035 0.010202751417936704 0 0.0026936195950772015 0.010820756771959006 0 0.0026259206421370297 0.010711954472543667 0 0.0063082767284984211 0.022197646095368739 0 0.0064792536725798763 0.022946328946232313 0 0.0061592208122742565 0.022651520905668503 0 0.0031170505107750413 0.012913333938966548 0 0.0051864639169994699 0.016538475562296893 0 0.0064075386334292456 0.022994395625652645 0 0.0064792536725798763 0.022946328946232313 0 0.0061592208122742565 0.022651520905668503 0 0.0043041740406528925 0.01919409040774786 0 0.0051612537553799671 0.018023343529182376 0 0.004170863741420363 0.015593388603647168 0 0.0054019694277052336 0.016209735440097808 0 0.004789197935435599 0.016608885298638517 0 0.0031170505107750413 0.012913333938966548 0 0.0051612537553799671 0.018023343529182376 0 0.0051612537553799671 0.018023343529182376 0 0.0051864639169994699 0.016538475562296893 0 0.0064075386334292456 0.022994395625652645 0 0.0061592208122742565 0.022651520905668503 0 0.0056777726739795217 0.022734927528140304 0 0.0045592299680266195 0.022961859298949418 0 0.0045492356182407195 0.022963377362033386 0 0.0046272574170477948 0.022988831926866432 0 0.0051612537553799671 0.018023343529182376 0 0.0054662404700377221 0.023288128065364695 0 0.005904110765230077 0.022359263152194872 0 0.0061592208122742565 0.022651520905668503 0 0.0056777726739795217 0.022734927528140304 0 0.0045592299680266195 0.022961859298949418 0 0.0046272574170477948 0.022988831926866432 0 0.0046221818188538011 0.023058089280032168 0 0.0042853419660352143 0.022673382001629581 0 0.0046272574170477948 0.022988831926866432 0 0.0044509993833864838 0.02308597974303981 0 0.0042853419660352143 0.022673382001629581 0 0.0041879151267095131 0.023254275770228174 0 0.0044509993833864838 0.02308597974303981 0 0.0044211541409641848 0.022486412598040639 0 0.0054662404700377221 0.023288128065364695 0 0.0044509993833864838 0.02308597974303981 0 0.0044562042155026254 0.023205202657298529 0 0.0046221818188538011 0.023058089280032168 0 0.0046272574170477948 0.022988831926866432 0 0.0044509993833864838 0.02308597974303981 0 0.0046221818188538011 0.023058089280032168 0 0.0041879151267095131 0.023254275770228174 0 0.0044509993833864838 0.02308597974303981 0 0.0044562042155026254 0.023205202657298529 0 0.0045952067401728415 0.023098668292333938 0 0.0045309029125741185 0.023165579522536974 0 0.0044245501611738028 0.023419852142936421 0 0.0046221818188538011 0.023058089280032168 0 0.0044233543604516902 0.023898514680498945 0 0.0046221818188538011 0.023058089280032168 0 0.004604118129119073 0.022913443037999404 0 0.0046506467547116626 0.022436679295874552 0 0.0041879151267095131 0.023254275770228174 0 0.0044562042155026254 0.023205202657298529 0 0.0044245501611738028 0.023419852142936421 0 0.0041879151267095131 0.023254275770228174 0 0.0040656539481176172 0.023690324863634822 0 0.0044245501611738028 0.023419852142936421 0 0.0044562042155026254 0.023205202657298529 0 0.0044245501611738028 0.023419852142936421 0 0.0046221818188538011 0.023058089280032168 0 0.0045623520252663311 0.022683486260187128 0 0.004604118129119073 0.022913443037999404 0 0.0046506467547116626 0.022436679295874552 0 0.0040656539481176172 0.023690324863634822 0 0.0044245501611738028 0.023419852142936421 0 0.0044233543604516902 0.023898514680498945 0 0.0045303520181343947 0.022950421345585614 0 0.0045592299680266195 0.022961859298949418 0 0.0046029987221584308 0.022886974337277041 0 0.0045592299680266195 0.022961859298949418 0 0.004604118129119073 0.022913443037999404 0 0.0046029987221584308 0.022886974337277041 0 0.0045592299680266195 0.022961859298949418 0 0.0046221818188538011 0.023058089280032168 0 0.004604118129119073 0.022913443037999404 0 0.0031170505107750413 0.012913333938966548 0 0.0041649579549111393 0.02032849229820937 0 0.0045623520252663311 0.022683486260187128 0 0.004604118129119073 0.022913443037999404 0 0.0045077961916247678 0.022741008389709931 0 0.0044650857007448898 0.022034636212533171 0 0.0041649579549111393 0.02032849229820937 0 0.0040426988173300048 0.020759090904133175 0 0.0041649579549111393 0.02032849229820937 0 0.0045623520252663311 0.022683486260187128 0 0.0044594567334345567 0.022725269201931079 0 0.0042728367568385306 0.022130993428322657 0 0.0025219644299614074 0.014895542636157831 0 0.002561438714800792 0.015184671183941777 0 0.002893468891493116 0.01501403223037311 0 0.0041649579549111393 0.02032849229820937 0 0.0033213651701218326 0.018292908219375417 0 0.0045623520252663311 0.022683486260187128 0 0.0046506467547116626 0.022436679295874552 0 0.0042728367568385306 0.022130993428322657 0 0.0046506467547116626 0.022436679295874552 0 0.0045468289977140044 0.022068809595588827 0 0.0042728367568385306 0.022130993428322657 0 0.0047612566243763633 0.021971455873762067 0 0.0046506467547116626 0.022436679295874552 0 0.0045468289977140044 0.022068809595588827 0 0.0045468289977140044 0.022068809595588827 0 0.0042728367568385306 0.022130993428322657 0 0.0044929212993136871 0.021779931672079499 0 0.0043525314213904587 0.023326494470707573 0 0.0045309029125741185 0.023165579522536974 0 0.0047612566243763633 0.021971455873762067 0 0.0045468289977140044 0.022068809595588827 0 0.0044929212993136871 0.021779931672079499 0 0.002561438714800792 0.015184671183941777 0 0.002753426033690342 0.015293339946189224 0 0.0025878926183921383 0.015523982947443161 0 0.0033213651701218326 0.018292908219375417 0 0.0034656215362699212 0.018915792383653096 0 0.002753426033690342 0.015293339946189224 0 0.002893468891493116 0.01501403223037311 0 0.0030049278307783334 0.015327353562100307 0 0.002561438714800792 0.015184671183941777 0 0.002753426033690342 0.015293339946189224 0 0.002893468891493116 0.01501403223037311 0 0.0029933303155865731 0.0065349268773086475 0 0.0029343396107215122 0.0066312937153850064 0 0.0030097128758581823 0.0066477957747928451 0 0.0030097128758581823 0.0066477957747928451 0 0.0029424283070238334 0.0067812303764338902 0 0.0030926417526185176 0.0067702133483497611 0 0.0029343396107215122 0.0066312937153850064 0 0.0030097128758581823 0.0066477957747928451 0 0.0029424283070238334 0.0067812303764338902 0 0.0028174172071371889 0.010324904367046937 0 0.0030144668452508926 0.011204468241732869 0 0.0030049278307783334 0.015327353562100307 0 0.0031625825769093022 0.015721933187081778 0 0.0028350990836242904 0.015707649148565064 0 0.0030144668452508926 0.011204468241732869 0 0.0030121983718232005 0.011114092547523933 0 0.0029424283070238334 0.0067812303764338902 0 0.0029842771788272898 0.0069618620031884617 0 0.0030926417526185176 0.0067702133483497611 0 0.0031625825769093022 0.015721933187081778 0 0.0028350990836242904 0.015707649148565064 0 0.0028449780258066357 0.016045059474979535 0 0.0028350990836242904 0.015707649148565064 0 0.0025878926183921383 0.015523982947443161 0 0.0026385863679648093 0.015888330815347084 0 0.0028350990836242904 0.015707649148565064 0 0.0024863850697416567 0.015960976241085157 0 0.0028449780258066357 0.016045059474979535 0 0.0030087224101881427 0.015654967507750001 0 0.0029773788291106752 0.017548555518547258 0 0.002753426033690342 0.015293339946189224 0 0.0030049278307783334 0.015327353562100307 0 0.0028350990836242904 0.015707649148565064 0 0.002753426033690342 0.015293339946189224 0 0.0028350990836242904 0.015707649148565064 0 0.0025878926183921383 0.015523982947443161 0 0.0041948584386817768 0.021719668075803687 0 0.0044929212993136871 0.021779931672079499 0 0.0043513015528486455 0.021496088906292125 0 0.0042728367568385306 0.022130993428322657 0 0.0041948584386817768 0.021719668075803687 0 0.0044929212993136871 0.021779931672079499 0 0.0044929212993136871 0.021779931672079499 0 0.0045680167880280519 0.021497972401471877 0 0.0046880306342366495 0.021673106855538575 0 0.0044929212993136871 0.021779931672079499 0 0.0045680167880280519 0.021497972401471877 0 0.0043513015528486455 0.021496088906292125 0 0.0045680167880280519 0.021497972401471877 0 0.0043513015528486455 0.021496088906292125 0 0.0044502819064480585 0.02131186296293798 0 0.0034656215362699212 0.018915792383653096 0 0.0029773788291106752 0.017548555518547258 0 0.0043513015528486455 0.021496088906292125 0 0.0041388690837191157 0.021364767995252439 0 0.0044502819064480585 0.02131186296293798 0 0.0041948584386817768 0.021719668075803687 0 0.0043513015528486455 0.021496088906292125 0 0.0041388690837191157 0.021364767995252439 0 0.0024727055263293204 0.01595572106366594 0 0.0018153744017083821 0.016526786482468764 0 0.0025335346563505122 0.016286642956280465 0 0.0018153744017083821 0.016526786482468764 0 0.0026400410354909115 0.016391329997521187 0 0.0025335346563505122 0.016286642956280465 0 0.0029773788291106752 0.017548555518547258 0 0.0025180816731492244 0.015892970083223368 0 0.0029773788291106752 0.017548555518547258 0 0.0018616879684975496 0.019612495318273339 0 0.0041388690837191157 0.021364767995252439 0 0.0044502819064480585 0.02131186296293798 0 0.0044810122846664115 0.02113699273219612 0 0.0045680167880280519 0.021497972401471877 0 0.0044502819064480585 0.02131186296293798 0 0.0046633755737870985 0.021335745431286045 0 0.0044502819064480585 0.02131186296293798 0 0.0045464521080942006 0.021137837669801485 0 0.0044810122846664115 0.02113699273219612 0 0.0044502819064480585 0.02131186296293798 0 0.0045464521080942006 0.021137837669801485 0 0.0046633755737870985 0.021335745431286045 0 0.0006470655815377606 0.020532558839003495 0 0.00091938356710613643 0.020511716065868681 0 5.5271819372659816e-05 0.02118711821820601 0 0.0023873628906038251 0.021060351179693359 0 0.0018616879684975496 0.019612495318273339 0 0.0018616879684975496 0.019612495318273339 0 0.0012560135342880999 0.020126097360391781 0 0.00080745803410414067 0.020358970925539725 0 0.00095645254285300126 0.020836027016294407 0 0.0013347863989724951 0.020553747900582842 0 0.00095645254285300126 0.020836027016294407 0 0.0013347863989724951 0.020553747900582842 0 0.0014497891739042104 0.021108067610594309 0 0.00095645254285300126 0.020836027016294407 0 0.0014497891739042104 0.021108067610594309 0 0.00088769092670065155 0.021256483870498152 0 0.00080745803410414067 0.020358970925539725 0 0.00095645254285300126 0.020836027016294407 0 0.00058077545739382199 0.021024363589930026 0 0.00080745803410414067 0.020358970925539725 0 0.00058077545739382199 0.021024363589930026 0 1.4915712914352803e-05 0.021031129151421597 0 0.00095645254285300126 0.020836027016294407 0 0.00058077545739382199 0.021024363589930026 0 0.00088769092670065155 0.021256483870498152 0 0.00084329436490134077 0.020376983458347955 0 0.0013347863989724951 0.020553747900582842 0 0.0022628591505953256 0.020215321951432972 0 0.0013347863989724951 0.020553747900582842 0 0.0018040333533744625 0.020737949667901837 0 0.0022628591505953256 0.020215321951432972 0 0.0018616879684975496 0.019612495318273339 0 0.0023191552998322058 0.01888536610478362 0 0.0013347863989724951 0.020553747900582842 0 0.0018040333533744625 0.020737949667901837 0 0.0014497891739042104 0.021108067610594309 0 0.0018040333533744625 0.020737949667901837 0 0.002164879956546325 0.021040569345053071 0 0.0014497891739042104 0.021108067610594309 0 0.0018040333533744625 0.020737949667901837 0 0.0022628591505953256 0.020215321951432972 0 0.002164879956546325 0.021040569345053071 0 0.0029409216601256226 0.020799710987610211 0 0.0022628591505953256 0.020215321951432972 0 0.002164879956546325 0.021040569345053071 0 0.0029409216601256226 0.020799710987610211 0 0.003642607940751628 0.020019671122626623 0 0.0038475766588141921 0.020786829855927461 0 0.0029409216601256226 0.020799710987610211 0 0.0022628591505953256 0.020215321951432972 0 0.003642607940751628 0.020019671122626623 0 0.0028449780258066357 0.016045059474979535 0 0.0026400410354909115 0.016391329997521187 0 0.0033380869929488903 0.016245503003485883 0 0.0030121983718232005 0.011114092547523933 0 0.0034323120665243709 0.012714903164964507 0 0.0031625825769093022 0.015721933187081778 0 0.0028449780258066357 0.016045059474979535 0 0.0033380869929488903 0.016245503003485883 0 0.0023191552998322058 0.01888536610478362 0 0.0034323120665243709 0.012714903164964507 0 0.0024863850697416567 0.015960976241085157 0 0.0028449780258066357 0.016045059474979535 0 0.0025335346563505122 0.016286642956280465 0 0.0028449780258066357 0.016045059474979535 0 0.0026400410354909115 0.016391329997521187 0 0.0025335346563505122 0.016286642956280465 0 0.0024923604153714988 0.027136172377981885 0 0.0027615732960296364 0.027567302428680877 0 0.002251368523837987 0.027730965866058898 0 0.0013912225369143401 0.02767477153798209 0 0.0020728220719558352 0.027140218142488643 0 0.0024923604153714988 0.027136172377981885 0 0.002251368523837987 0.027730965866058898 0 0.001986741782094638 0.026830850271517284 0 0.002873813746800861 0.026191582409776908 0 0.0024923604153714988 0.027136172377981885 0 0.001986741782094638 0.026830850271517284 0 0.0028823345011699305 0.025233948256842848 0 0.0031355758417373576 0.026441784010455958 0 0.002873813746800861 0.026191582409776908 0 0.0024923604153714988 0.027136172377981885 0 0.0030172191776857192 0.027015861459338493 0 0.0034677099174589923 0.024661384814362513 0 0.0029256616650581925 0.024459841976381604 0 0.0031340876855256877 0.025074716697231662 0 0.0031355758417373576 0.026441784010455958 0 0.0032606501004333486 0.024722457522058188 0 0.0030172191776857192 0.027015861459338493 0 0.0027615732960296364 0.027567302428680877 0 0.0031913290620756637 0.027756927745474051 0 0.0024923604153714988 0.027136172377981885 0 0.0030172191776857192 0.027015861459338493 0 0.0027615732960296364 0.027567302428680877 0 0.0048695776076309238 0.021639028771499872 0 0.0047340456955527839 0.021498398451593362 0 0.0048612280829440514 0.021360007240815264 0 0.0031340876855256877 0.025074716697231662 0 0.0036429854201336571 0.02512331731269777 0 0.0033087504607011496 0.025657258615165664 0 0.0048695776076309238 0.021639028771499872 0 0.0048612280829440514 0.021360007240815264 0 0.0049958630072409133 0.021369059090390597 0 0.00443398171332288 0.023117427089782389 0 0.0032606501004333486 0.024722457522058188 0 0.0034677099174589923 0.024661384814362513 0 0.0031340876855256877 0.025074716697231662 0 0.0036429854201336571 0.02512331731269777 0 0.0040146890390754678 0.024557140780909138 0 0.0034677099174589923 0.024661384814362513 0 0.0036429854201336571 0.02512331731269777 0 0.0043525314213904587 0.023326494470707573 0 0.00443398171332288 0.023117427089782389 0 0.0047612566243763633 0.021971455873762067 0 0.0048695776076309238 0.021639028771499872 0 0.0046880306342366495 0.021673106855538575 0 0.0047612566243763633 0.021971455873762067 0 0.0044929212993136871 0.021779931672079499 0 0.0046880306342366495 0.021673106855538575 0 0.0045680167880280519 0.021497972401471877 0 0.0046880306342366495 0.021673106855538575 0 0.0047340456955527839 0.021498398451593362 0 0.0048695776076309238 0.021639028771499872 0 0.0046880306342366495 0.021673106855538575 0 0.0047340456955527839 0.021498398451593362 0 0.0045680167880280519 0.021497972401471877 0 0.0047340456955527839 0.021498398451593362 0 0.0046633755737870985 0.021335745431286045 0 0.0045464521080942006 0.021137837669801485 0 0.0046633755737870985 0.021335745431286045 0 0.0047754568443506892 0.021221606590067249 0 0.0047340456955527839 0.021498398451593362 0 0.0046633755737870985 0.021335745431286045 0 0.0048612280829440514 0.021360007240815264 0 0.0046633755737870985 0.021335745431286045 0 0.0047754568443506892 0.021221606590067249 0 0.0048612280829440514 0.021360007240815264 0 0.0023873628906038251 0.021060351179693359 0 0.00029518044117332718 0.021663397633567963 0 0.0018616879684975496 0.019612495318273339 0 -0.00016552749315466243 0.021275625292544724 0 0.0024621938901498741 0.022697333130025137 0 0.0018947166153580935 0.022599900310231898 0 0.0016918901701887304 0.022803296136063182 0 0.0006470655815377606 0.020532558839003495 0 5.5271819372659816e-05 0.02118711821820601 0 -0.00061094335737494785 0.02064785193716466 0 0.0023873628906038251 0.021060351179693359 0 0.0035747644430291566 0.021990385531508762 0 -0.00061094335737494785 0.02064785193716466 0 -0.0011062049654619128 0.021188928230658131 0 -0.0018442592590959335 0.020759250177039553 0 5.5271819372659816e-05 0.02118711821820601 0 -0.00061094335737494785 0.02064785193716466 0 -0.0011062049654619128 0.021188928230658131 0 0.0016918901701887304 0.022803296136063182 0 0.0013554035313528593 0.022611682601719727 0 0.00090969524358312749 0.022887077597939485 0 0.00029518044117332718 0.021663397633567963 0 1.7652349256602984e-05 0.023464859204368398 0 0.0018947166153580935 0.022599900310231898 0 0.0016918901701887304 0.022803296136063182 0 0.0013554035313528593 0.022611682601719727 0 0.0018947166153580935 0.022599900310231898 0 0.0013554035313528593 0.022611682601719727 0 0.0013222777311113314 0.02248883056914127 0 0.0035747644430291566 0.021990385531508762 0 0.0024361231576109669 0.023527294457957957 0 0.0047754568443506892 0.021221606590067249 0 0.0049765690930684107 0.021300866515905018 0 0.0048612280829440514 0.021360007240815264 0 0.0022154878878785761 0.023095359280973161 0 0.0024361231576109669 0.023527294457957957 0 0.0013554035313528593 0.022611682601719727 0 0.0013206699616057742 0.02248922528185163 0 0.0011735914750143025 0.022455909180206398 0 0.0029611272709425978 0.024360633610167538 0 0.0030014677442528424 0.024501108848584741 0 0.0030677937275640447 0.024387434614292856 0 0.0049765690930684107 0.021300866515905018 0 0.0048612280829440514 0.021360007240815264 0 0.0049958630072409133 0.021369059090390597 0 0.0024361231576109669 0.023527294457957957 0 0.0032606501004333486 0.024722457522058188 0 0.00098328913362818147 0.0259360135554619 0 0.0010350590031906115 0.025839680881527341 0 0.0011914651484896015 0.026005710646601204 0 0.0027615732960296364 0.027567302428680877 0 0.0031060285909800542 0.027895785054556935 0 0.002251368523837987 0.027730965866058898 0 0.002247483067820986 0.024938842439519777 0 0.0013912225369143401 0.02767477153798209 0 0.0027615732960296364 0.027567302428680877 0 0.0031913290620756637 0.027756927745474051 0 0.0031060285909800542 0.027895785054556935 0 0.0032606501004333486 0.024722457522058188 0 0.002247483067820986 0.024938842439519777 0 0.0013554035313528593 0.022611682601719727 0 0.0011735914750143025 0.022455909180206398 0 0.00090969524358312749 0.022887077597939485 0 0.002247483067820986 0.024938842439519777 0 1.7652349256602984e-05 0.023464859204368398 0 0.0024361231576109669 0.023527294457957957 0 0.002247483067820986 0.024938842439519777 0 1.7652349256602984e-05 0.023464859204368398 0 -0.0014934500171832497 0.024386103263112083 0 -0.0011062049654619128 0.021188928230658131 0 -0.0018442592590959335 0.020759250177039553 0 -0.0015799136221225725 0.021770657023559178 0 1.7652349256602984e-05 0.023464859204368398 0 -0.00035782905329104008 0.026372626577560419 0 -0.00056101536085085061 0.024582355944934898 0 -0.00075720633355962096 0.024603957214956514 0 -0.00071250291283749705 0.024823379724434172 0 -0.00035782905329104008 0.026372626577560419 0 -0.0014934500171832497 0.024386103263112083 0 -0.0015009944134367964 0.027490932729862649 0 -0.0012672209564687799 0.026372075030438077 0 -0.00080861546993927559 0.026714008370211113 0 -0.0015009944134367964 0.027490932729862649 0 -0.00057204303215324713 0.027430052776311328 0 -0.00080861546993927559 0.026714008370211113 0 -0.00035782905329104008 0.026372626577560419 0 -0.00092400328341894951 0.027176571054431831 0 0.0010350590031906115 0.025839680881527341 0 0.0011501142206365713 0.025838684873671764 0 0.0011914651484896015 0.026005710646601204 0 -0.0010511640966426831 0.027481004255642465 0 -0.00079280288495606514 0.028345558928845462 0 -0.00047801323109909776 0.027940505399695496 0 -0.00035782905329104008 0.026372626577560419 0 0.0013912225369143401 0.02767477153798209 0 -0.0012085411485787739 0.024984973202718835 0 -0.0012437193855808846 0.024131899840098659 0 -0.00063051103944037007 0.02461441152162492 0 -0.0012085411485787739 0.024984973202718835 0 -0.0019339555206206352 0.024980626786933632 0 -0.0012437193855808846 0.024131899840098659 0 -0.0012085411485787739 0.024984973202718835 0 -0.0019339555206206352 0.024980626786933632 0 -0.0015395897633500545 0.025809068004606559 0 -0.0012085411485787739 0.024984973202718835 0 -0.0015395897633500545 0.025809068004606559 0 -0.00072939485462665608 0.025637284304875527 0 -0.0015009944134367964 0.027490932729862649 0 -0.0012672209564687799 0.026372075030438077 0 -0.0017922478972637644 0.026214895290411606 0 -0.0012672209564687799 0.026372075030438077 0 -0.0015395897633500545 0.025809068004606559 0 -0.00072939485462665608 0.025637284304875527 0 -0.0022474781078201883 0.02273431797989112 0 -0.0024794712436912087 0.021809034011929958 0 -0.0020224168726237285 0.022183957895116079 0 -0.0019339555206206352 0.024980626786933632 0 -0.0017826272716821169 0.026192561734711319 0 -0.0015395897633500545 0.025809068004606559 0 -0.0020568423261694644 0.023776840824001107 0 -0.0014934500171832497 0.024386103263112083 0 -0.0014934500171832497 0.024386103263112083 0 -0.0018455082780543517 0.02535012067141771 0 -0.0012672209564687799 0.026372075030438077 0 -0.0017922478972637644 0.026214895290411606 0 -0.0015395897633500545 0.025809068004606559 0 -0.0024794712436912087 0.021809034011929958 0 -0.0020224168726237285 0.022183957895116079 0 -0.0015799136221225725 0.021770657023559178 0 -0.0018442592590959335 0.020759250177039553 0 -0.0024794712436912087 0.021809034011929958 0 -0.0015799136221225725 0.021770657023559178 0 -0.0020224168726237285 0.022183957895116079 0 -0.0015799136221225725 0.021770657023559178 0 -0.0011653884723317647 0.022165036919584796 0 -0.0020224168726237285 0.022183957895116079 0 -0.0015445941233072638 0.022720957465493907 0 -0.0011653884723317647 0.022165036919584796 0 -0.0022474781078201883 0.02273431797989112 0 -0.0020224168726237285 0.022183957895116079 0 -0.0015445941233072638 0.022720957465493907 0 -0.0022474781078201883 0.02273431797989112 0 -0.0015445941233072638 0.022720957465493907 0 -0.0018610462074223741 0.023683981464448965 0 -0.0020568423261694644 0.023776840824001107 0 -0.001941909376137719 0.023760049600003795 0 -0.0014823424958192537 0.022678881704232129 0 -0.00031013600938153106 0.022441554663956382 0 -0.0015445941233072638 0.022720957465493907 0 -0.00059745856756829698 0.022491764166590489 0 -0.0010765724783974224 0.023225654688518359 0 -0.0015445941233072638 0.022720957465493907 0 -0.0011653884723317647 0.022165036919584796 0 1.907009477418856e-05 0.022350916820803708 0 -0.0015799136221225725 0.021770657023559178 0 -0.0011653884723317647 0.022165036919584796 0 -0.00070605655114222901 0.021746648555440746 0 -0.0011653884723317647 0.022165036919584796 0 -0.00070605655114222901 0.021746648555440746 0 1.907009477418856e-05 0.022350916820803708 0 5.5271819372659816e-05 0.02118711821820601 0 -0.0011062049654619128 0.021188928230658131 0 -0.00070605655114222901 0.021746648555440746 0 -0.0011062049654619128 0.021188928230658131 0 -0.0015799136221225725 0.021770657023559178 0 -0.00070605655114222901 0.021746648555440746 0 1.4915712914352803e-05 0.021031129151421597 0 -0.00070605655114222901 0.021746648555440746 0 0.00030072333393241441 0.021589464273279568 0 -0.00070605655114222901 0.021746648555440746 0 0.00030072333393241441 0.021589464273279568 0 1.907009477418856e-05 0.022350916820803708 0 -0.00016552749315466243 0.021275625292544724 0 -0.00054608152775988573 0.021603054978674319 0 0.00058077545739382199 0.021024363589930026 0 1.4915712914352803e-05 0.021031129151421597 0 0.00030072333393241441 0.021589464273279568 0 -0.00059745856756829698 0.022491764166590489 0 -0.00043376671554240179 0.023125492358157213 0 4.9590386529887109e-05 0.022834235732824882 0 -0.00059745856756829698 0.022491764166590489 0 -0.00043376671554240179 0.023125492358157213 0 -0.0010765724783974224 0.023225654688518359 0 -0.00043376671554240179 0.023125492358157213 0 -0.00055617493914951433 0.023849633868258051 0 -0.0010765724783974224 0.023225654688518359 0 -0.000173190515525532 0.025426557716592114 0 -0.00090156244902186663 0.025229236880808071 0 -0.00055617493914951433 0.023849633868258051 0 -0.0010765724783974224 0.023225654688518359 0 -0.0016268417379293684 0.023758150216160699 0 -0.0010765724783974224 0.023225654688518359 0 -0.0015100698526699069 0.023363061264097335 0 -0.0016268417379293684 0.023758150216160699 0 -0.0015445941233072638 0.022720957465493907 0 -0.0010765724783974224 0.023225654688518359 0 -0.0015100698526699069 0.023363061264097335 0 -0.0015100698526699069 0.023363061264097335 0 -0.0018610462074223741 0.023683981464448965 0 -0.0016268417379293684 0.023758150216160699 0 -0.0015445941233072638 0.022720957465493907 0 -0.0015100698526699069 0.023363061264097335 0 -0.0018610462074223741 0.023683981464448965 0 -0.00090156244902186663 0.025229236880808071 0 -0.0010810554197829541 0.024736597479431553 0 -0.0018610462074223741 0.023683981464448965 0 -0.0016268417379293684 0.023758150216160699 0 -0.0013695871177116781 0.023328400555325656 0 -0.0013695871177116781 0.023328400555325656 0 -0.0012437193855808846 0.024131899840098659 0 -0.00052404775568663049 0.023837268257676389 0 -0.0018610462074223741 0.023683981464448965 0 -0.0013695871177116781 0.023328400555325656 0 -0.0012437193855808846 0.024131899840098659 0 -0.0019339555206206352 0.024980626786933632 0 -0.0018610462074223741 0.023683981464448965 0 -0.0012437193855808846 0.024131899840098659 0 0.0011085680608181366 0.022074245540175765 0 0.0010209029897192993 0.022203492238412396 0 0.00088977582900175687 0.022297070731705136 0 0.0011085680608181366 0.022074245540175765 0 0.00060342012488519715 0.022223979097120643 0 0.00088977582900175687 0.022297070731705136 0 0.001854231364260353 0.022814005310652207 0 0.0010462843296831978 0.022011388787978901 0 0.0010209029897192993 0.022203492238412396 0 0.00088977582900175687 0.022297070731705136 0 0.00094209027996504195 0.022255172284133776 0 0.0011085680608181366 0.022074245540175765 0 0.0011386561937107493 0.022090754087407113 0 0.0012236848482111977 0.021966506339504574 0 0.0010209029897192993 0.022203492238412396 0 0.0011386561937107493 0.022090754087407113 0 0.0010904209815554326 0.022177410285295227 0 0.0011386561937107493 0.022090754087407113 0 0.0010904209815554326 0.022177410285295227 0 0.0011900709089363111 0.022067142876058217 0 0.0011085680608181366 0.022074245540175765 0 0.0010209029897192993 0.022203492238412396 0 0.0011386561937107493 0.022090754087407113 0 0.0029409216601256226 0.020799710987610211 0 0.0027756491316762249 0.021742603621214548 0 0.0038475766588141921 0.020786829855927461 0 0.001854231364260353 0.022814005310652207 0 0.0027269308412750776 0.014583156260109248 0 0.0027756491316762249 0.021742603621214548 0 0.002164879956546325 0.021040569345053071 0 0.0017742110281595983 0.021512896304370671 0 0.0029409216601256226 0.020799710987610211 0 0.0027756491316762249 0.021742603621214548 0 0.002164879956546325 0.021040569345053071 0 0.0027756491316762249 0.021742603621214548 0 0.0017742110281595983 0.021512896304370671 0 0.0014537719746580365 0.022019332988118697 0 0.002164879956546325 0.021040569345053071 0 0.0014497891739042104 0.021108067610594309 0 0.0017742110281595983 0.021512896304370671 0 0.0014497891739042104 0.021108067610594309 0 0.0017742110281595983 0.021512896304370671 0 0.00097824164131153505 0.021642352529939575 0 0.0017742110281595983 0.021512896304370671 0 0.00097824164131153505 0.021642352529939575 0 0.0014537719746580365 0.022019332988118697 0 0.00030072333393241441 0.021589464273279568 0 1.907009477418856e-05 0.022350916820803708 0 0.00097824164131153505 0.021642352529939575 0 0.00030072333393241441 0.021589464273279568 0 0.00088769092670065155 0.021256483870498152 0 0.00097824164131153505 0.021642352529939575 0 0.00058077545739382199 0.021024363589930026 0 0.00030072333393241441 0.021589464273279568 0 0.00088769092670065155 0.021256483870498152 0 0.0014497891739042104 0.021108067610594309 0 0.00088769092670065155 0.021256483870498152 0 0.00097824164131153505 0.021642352529939575 0 -0.00059745856756829698 0.022491764166590489 0 4.9590386529887109e-05 0.022834235732824882 0 0.00060342012488519715 0.022223979097120643 0 1.907009477418856e-05 0.022350916820803708 0 0.00097824164131153505 0.021642352529939575 0 0.0014537719746580365 0.022019332988118697 0 -0.00031013600938153106 0.022441554663956382 0 0.0010462843296831978 0.022011388787978901 0 4.9590386529887109e-05 0.022834235732824882 0 0.00060342012488519715 0.022223979097120643 0 0.00058901404127603696 0.022674042385658465 0 0.00058901404127603696 0.022674042385658465 0 0.00088977582900175687 0.022297070731705136 0 0.00080534363321365971 0.023138696151699525 0 0.00060342012488519715 0.022223979097120643 0 0.00058901404127603696 0.022674042385658465 0 0.00088977582900175687 0.022297070731705136 0 0.00093072766993590819 0.022256256598870837 0 0.00089976448095547136 0.022324130608472513 0 0.00097472597661316888 0.022254793457459062 0 0.00089526264008999584 0.022402212665994358 0 0.00088920371726379575 0.022598964322853621 0 0.00088977582900175687 0.022297070731705136 0 0.00093072766993590819 0.022256256598870837 0 0.00094209027996504195 0.022255172284133776 0 0.00058901404127603696 0.022674042385658465 0 0.00080534363321365971 0.023138696151699525 0 0.00015740777083746944 0.023254517869882873 0 0.00080534363321365971 0.023138696151699525 0 0.00015740777083746944 0.023254517869882873 0 0.00055380932235037973 0.023856855860388035 0 0.00088920371726379575 0.022598964322853621 0 0.00083144886731085729 0.023776382114919805 0 -0.00043376671554240179 0.023125492358157213 0 -0.00055617493914951433 0.023849633868258051 0 0.00015740777083746944 0.023254517869882873 0 -0.00043376671554240179 0.023125492358157213 0 4.9590386529887109e-05 0.022834235732824882 0 0.00015740777083746944 0.023254517869882873 0 4.9590386529887109e-05 0.022834235732824882 0 0.00058901404127603696 0.022674042385658465 0 0.00015740777083746944 0.023254517869882873 0 0.00027064151363420398 0.026681943166127806 0 0.00083266150260755481 0.026661916512741145 0 0.00064371702676464468 0.027190060919225805 0 -0.000173190515525532 0.025426557716592114 0 0.00083144886731085729 0.023776382114919805 0 -0.00055617493914951433 0.023849633868258051 0 0.00015740777083746944 0.023254517869882873 0 0.00055380932235037973 0.023856855860388035 0 0.00047976181633201928 0.022334200717855978 0 0.00098106431097041719 0.02232467459217604 0 0.00072895372094253414 0.022512041337116706 0 0.00083144886731085729 0.023776382114919805 0 0.00089946560986618122 0.022076908390859372 0 0.00089976448095547136 0.022324130608472513 0 0.00098106431097041719 0.02232467459217604 0 0.00097472597661316888 0.022254793457459062 0 0.00098106431097041719 0.02232467459217604 0 0.0010975171095932545 0.022431956701665763 0 0.00072895372094253414 0.022512041337116706 0 0.00098106431097041719 0.02232467459217604 0 0.00097472597661316888 0.022254793457459062 0 0.00103710510414198 0.02224766156900003 0 0.00097472597661316888 0.022254793457459062 0 0.0010904209815554326 0.022177410285295227 0 0.00103710510414198 0.02224766156900003 0 0.0010209029897192993 0.022203492238412396 0 0.00097472597661316888 0.022254793457459062 0 0.0010904209815554326 0.022177410285295227 0 0.0010209029897192993 0.022203492238412396 0 0.00097472597661316888 0.022254793457459062 0 0.00094209027996504195 0.022255172284133776 0 0.00093072766993590819 0.022256256598870837 0 0.00097472597661316888 0.022254793457459062 0 0.00094209027996504195 0.022255172284133776 0 0.0010904209815554326 0.022177410285295227 0 0.0011648389805029814 0.022143195170893391 0 0.0011900709089363111 0.022067142876058217 0 0.0010904209815554326 0.022177410285295227 0 0.00103710510414198 0.02224766156900003 0 0.0011007350853014229 0.022241410774397802 0 0.0010904209815554326 0.022177410285295227 0 0.0011007350853014229 0.022241410774397802 0 0.0011648389805029814 0.022143195170893391 0 0.00085138335335201371 0.022214023534319356 0 0.001195480853042225 0.022139026165470223 0 0.0010302805715146517 0.022279216772756884 0 0.0011007350853014229 0.022241410774397802 0 0.0010975171095932545 0.022431956701665763 0 0.001195480853042225 0.022139026165470223 0 0.0009400423943309148 0.022288817586648517 0 0.0011750131719988773 0.022171369511595679 0 0.00098106431097041719 0.02232467459217604 0 0.00103710510414198 0.02224766156900003 0 0.0011007350853014229 0.022241410774397802 0 0.00098106431097041719 0.02232467459217604 0 0.0011007350853014229 0.022241410774397802 0 0.0010975171095932545 0.022431956701665763 0 0.0012496328972885211 0.022168220662594541 0 0.001195480853042225 0.022139026165470223 0 0.001163349077745744 0.022282469416286758 0 0.001195480853042225 0.022139026165470223 0 0.001163349077745744 0.022282469416286758 0 0.0010302805715146517 0.022279216772756884 0 0.0012496328972885211 0.022168220662594541 0 0.001195480853042225 0.022139026165470223 0 0.0012499255980595433 0.022065062580844053 0 0.0012496328972885211 0.022168220662594541 0 0.0013750590931401758 0.022214548043691777 0 0.001163349077745744 0.022282469416286758 0 0.002998269606244529 0.0076131084530807079 0 0.0032192974422323257 0.0076643266738427186 0 0.0029840151728467075 0.0079655039319005711 0 0.0020286184243745809 0.014760277180267152 0 0.0022581774322549507 0.015516277481268636 0 0.0012496328972885211 0.022168220662594541 0 0.0012499255980595433 0.022065062580844053 0 0.0013750590931401758 0.022214548043691777 0 0.002998269606244529 0.0076131084530807079 0 0.0032015538486325121 0.0074527339258419981 0 0.0032192974422323257 0.0076643266738427186 0 0.0012499255980595433 0.022065062580844053 0 0.0011648389805029814 0.022143195170893391 0 0.0011900709089363111 0.022067142876058217 0 0.001195480853042225 0.022139026165470223 0 0.0012499255980595433 0.022065062580844053 0 0.0011648389805029814 0.022143195170893391 0 0.0011007350853014229 0.022241410774397802 0 0.001195480853042225 0.022139026165470223 0 0.0011648389805029814 0.022143195170893391 0 0.0011386561937107493 0.022090754087407113 0 0.0011900709089363111 0.022067142876058217 0 0.0012236848482111977 0.021966506339504574 0 0.0012499255980595433 0.022065062580844053 0 0.0011900709089363111 0.022067142876058217 0 0.0012236848482111977 0.021966506339504574 0 0.0020286184243745809 0.014760277180267152 0 0.0027269308412750776 0.014583156260109248 0 0.0029652140384439428 0.0073657065537725804 0 0.0032366231034521046 0.0072814164715882031 0 0.0032015538486325121 0.0074527339258419981 0 0.002998269606244529 0.0076131084530807079 0 0.0029652140384439428 0.0073657065537725804 0 0.0032015538486325121 0.0074527339258419981 0 0.0031222503904525687 0.0073687152670063498 0 0.0032366231034521046 0.0072814164715882031 0 0.0031931236474909974 0.0072355383996506257 0 0.0027269308412750776 0.014583156260109248 0 0.0034979642724358349 0.00616005479937266 0 0.0027756491316762249 0.021742603621214548 0 0.0040452270663614417 0.021517105770393063 0 0.0038475766588141921 0.020786829855927461 0 0.0027269308412750776 0.014583156260109248 0 0.0035007780220840039 0.014169169490478441 0 0.0031222503904525687 0.0073687152670063498 0 0.003095397951073664 0.0072674708406639307 0 0.0031931236474909974 0.0072355383996506257 0 0.0033849332196068428 0.0072810806270868604 0 0.0033046247682467955 0.0071546791049126391 0 0.0034668185343945134 0.0071018324937322363 0 0.0033849332196068428 0.0072810806270868604 0 0.0036001812090837191 0.0071946642124396569 0 0.0034668185343945134 0.0071018324937322363 0 0.0032366231034521046 0.0072814164715882031 0 0.0033849332196068428 0.0072810806270868604 0 0.0033046247682467955 0.0071546791049126391 0 0.0032366231034521046 0.0072814164715882031 0 0.0031931236474909974 0.0072355383996506257 0 0.0033046247682467955 0.0071546791049126391 0 0.0032366231034521046 0.0072814164715882031 0 0.0032015538486325121 0.0074527339258419981 0 0.0033849332196068428 0.0072810806270868604 0 0.0032015538486325121 0.0074527339258419981 0 0.0033849332196068428 0.0072810806270868604 0 0.0033827842152770009 0.0074549723819361778 0 0.0033849332196068428 0.0072810806270868604 0 0.0033827842152770009 0.0074549723819361778 0 0.0036001812090837191 0.0071946642124396569 0 0.0033827842152770009 0.0074549723819361778 0 0.0032192974422323257 0.0076643266738427186 0 0.0034362607025838401 0.0076567613664829141 0 0.0033827842152770009 0.0074549723819361778 0 0.0034362607025838401 0.0076567613664829141 0 0.0035749496754353127 0.0073601466477988273 0 0.0032015538486325121 0.0074527339258419981 0 0.0033827842152770009 0.0074549723819361778 0 0.0032192974422323257 0.0076643266738427186 0 0.0032192974422323257 0.0076643266738427186 0 0.0033356048204849684 0.0079354714175204535 0 0.0029840151728467075 0.0079655039319005711 0 0.0032192974422323257 0.0076643266738427186 0 0.0034362607025838401 0.0076567613664829141 0 0.0033356048204849684 0.0079354714175204535 0 0.0036496815374584871 0.00766753327678419 0 0.0038128392551025347 0.0074842908187370827 0 0.0035749496754353127 0.0073601466477988273 0 0.0034362607025838401 0.0076567613664829141 0 0.0036496815374584871 0.00766753327678419 0 0.0035604111223792286 0.007949958842859043 0 0.0034362607025838401 0.0076567613664829141 0 0.0036496815374584871 0.00766753327678419 0 0.0035749496754353127 0.0073601466477988273 0 0.0040452351849709391 0.0076429580970365767 0 0.0038128392551025347 0.0074842908187370827 0 0.003871784718798467 0.0078623677724320822 0 0.0036496815374584871 0.00766753327678419 0 0.0038128392551025347 0.0074842908187370827 0 0.003871784718798467 0.0078623677724320822 0 0.0040452351849709391 0.0076429580970365767 0 0.0038128392551025347 0.0074842908187370827 0 0.0042524661606867563 0.0073487717621608644 0 0.0038128392551025347 0.0074842908187370827 0 0.0037186741803929804 0.0070570352035325473 0 0.0035749496754353127 0.0073601466477988273 0 0.0038128392551025347 0.0074842908187370827 0 0.0037186741803929804 0.0070570352035325473 0 0.0042524661606867563 0.0073487717621608644 0 -0.00041336618826973051 -0.0025967037439008191 0 -0.00069884481641657487 -0.0022693268454888251 0 -0.00019582431923495988 -0.002320869091636639 0 0.0020966547542909278 0.0033696986619825313 0 0.00084040393623787085 0.0010541954923147388 0 0.0050392447753875502 0.0074204906335442623 0 0.0042524661606867563 0.0073487717621608644 0 0.0041998197593493113 0.007935536258658657 0 0.0040452351849709391 0.0076429580970365767 0 0.0042524661606867563 0.0073487717621608644 0 0.0041998197593493113 0.007935536258658657 0 0.0037186741803929804 0.0070570352035325473 0 0.0042524661606867563 0.0073487717621608644 0 0.0045913529376020419 0.0065051131789488703 0 0.0050392447753875502 0.0074204906335442623 0 0.0042524661606867563 0.0073487717621608644 0 0.0045913529376020419 0.0065051131789488703 0 0.0050392447753875502 0.0074204906335442623 0 0.0053110754299422018 0.0063213078205850374 0 0.0045913529376020419 0.0065051131789488703 0 0.0050392447753875502 0.0074204906335442623 0 0.0053110754299422018 0.0063213078205850374 0 0.006151469791083118 0.0063996383643627995 0 0.0053110754299422018 0.0063213078205850374 0 0.0045913529376020419 0.0065051131789488703 0 0.0049826778591662334 0.0054256669046772212 0 0.0053110754299422018 0.0063213078205850374 0 0.0049826778591662334 0.0054256669046772212 0 0.0056691236958323673 0.0055523133906158831 0 0.0037186741803929804 0.0070570352035325473 0 0.0045913529376020419 0.0065051131789488703 0 0.0038263812653567312 0.0050928371737129132 0 0.0038263812653567312 0.0050928371737129132 0 0.0049826778591662334 0.0054256669046772212 0 0.0048029009367370574 0.0042615357637084709 0 0.0045913529376020419 0.0065051131789488703 0 0.0038263812653567312 0.0050928371737129132 0 0.0049826778591662334 0.0054256669046772212 0 0.0049826778591662334 0.0054256669046772212 0 0.0048029009367370574 0.0042615357637084709 0 0.0055581980263033487 0.004673147420406744 0 0.0049826778591662334 0.0054256669046772212 0 0.0055581980263033487 0.004673147420406744 0 0.0056691236958323673 0.0055523133906158831 0 0.0033827842152770009 0.0074549723819361778 0 0.0035749496754353127 0.0073601466477988273 0 0.0036001812090837191 0.0071946642124396569 0 0.0037186741803929804 0.0070570352035325473 0 0.0035749496754353127 0.0073601466477988273 0 0.0036001812090837191 0.0071946642124396569 0 0.0037064426040223312 0.0069737003502974414 0 0.0038008769065000763 0.0061671240812241988 0 0.0037186741803929804 0.0070570352035325473 0 0.0037326277135662986 0.0071499136906888186 0 0.0036001812090837191 0.0071946642124396569 0 0.0037326277135662986 0.0071499136906888186 0 0.0036001812090837191 0.0071946642124396569 0 0.0036390281274550299 0.0070480935390161807 0 0.0036001812090837191 0.0071946642124396569 0 0.0036390281274550299 0.0070480935390161807 0 0.0034668185343945134 0.0071018324937322363 0 0.0036390281274550299 0.0070480935390161807 0 0.0034668185343945134 0.0071018324937322363 0 0.0034958875332632843 0.0069375267091161576 0 0.0037326277135662986 0.0071499136906888186 0 0.0036390281274550299 0.0070480935390161807 0 0.0039362895001808246 0.0069451375729566453 0 0.0036390281274550299 0.0070480935390161807 0 0.0039362895001808246 0.0069451375729566453 0 0.003626277300365321 0.0067950253480471897 0 0.0036390281274550299 0.0070480935390161807 0 0.003626277300365321 0.0067950253480471897 0 0.0034958875332632843 0.0069375267091161576 0 0.0048029009367370574 0.0042615357637084709 0 0.0055581980263033487 0.004673147420406744 0 0.0054936358385536252 0.0037293913526419528 0 0.0038263812653567312 0.0050928371737129132 0 0.0048029009367370574 0.0042615357637084709 0 0.0041835637568696455 0.0033930147724867692 0 0.0038008769065000763 0.0061671240812241988 0 0.0040233918686475717 0.0049709406958461915 0 0.0048029009367370574 0.0042615357637084709 0 0.0041835637568696455 0.0033930147724867692 0 0.0050108898593569616 0.003257377984382491 0 0.0041835637568696455 0.0033930147724867692 0 0.0050108898593569616 0.003257377984382491 0 0.0048669348453027322 0.0025362683508630395 0 0.0048029009367370574 0.0042615357637084709 0 0.0050108898593569616 0.003257377984382491 0 0.0054936358385536252 0.0037293913526419528 0 0.0050108898593569616 0.003257377984382491 0 0.0054922141091587832 0.0030118768227707926 0 0.0054936358385536252 0.0037293913526419528 0 0.0050108898593569616 0.003257377984382491 0 0.0054922141091587832 0.0030118768227707926 0 0.0052026734691647397 0.0026871230009166314 0 0.0054563316988997775 0.002164667347374442 0 0.0048669348453027322 0.0025362683508630395 0 0.0045524081612452203 0.0018463720768580889 0 0.0054563316988997775 0.002164667347374442 0 0.0052026734691647397 0.0026871230009166314 0 0.0048669348453027322 0.0025362683508630395 0 0.0054563316988997775 0.002164667347374442 0 0.0052026734691647397 0.0026871230009166314 0 0.0054943435759286794 0.0024932022925863227 0 0.0049401579043577629 0.0018092923460857602 0 0.0051369055426525962 0.0022684249846835693 0 0.0054922141091587832 0.0030118768227707926 0 0.0052026734691647397 0.0026871230009166314 0 0.0054943435759286794 0.0024932022925863227 0 0.0050108898593569616 0.003257377984382491 0 0.0052026734691647397 0.0026871230009166314 0 0.0048669348453027322 0.0025362683508630395 0 0.0039362895001808246 0.0069451375729566453 0 0.0039155101370708656 0.0066109973276856733 0 0.0043107729578945528 0.0061985764745794945 0 0.0041835637568696455 0.0033930147724867692 0 0.0048669348453027322 0.0025362683508630395 0 0.0045524081612452203 0.0018463720768580889 0 0.0040233918686475717 0.0049709406958461915 0 0.0048275834300515472 0.0048687605847557384 0 0.0039155101370708656 0.0066109973276856733 0 0.0039556339333347654 0.0063627396838259812 0 0.0043107729578945528 0.0061985764745794945 0 0.0044309602781835867 0.0049745959501064129 0 0.0041085639704672976 0.0060346161314171346 0 0.0037858364889465953 0.0061074411744963019 0 0.0040030191574332036 0.0062638569563445981 0 0.0038579049705729719 0.0063202501400844288 0 0.0039556339333347654 0.0063627396838259812 0 0.0041085639704672976 0.0060346161314171346 0 0.0043107729578945528 0.0061985764745794945 0 0.0039556339333347654 0.0063627396838259812 0 0.0041085639704672976 0.0060346161314171346 0 0.0037858364889465953 0.0061074411744963019 0 0.0045984613066696661 0.0057168977438231188 0 0.0048275834300515472 0.0048687605847557384 0 0.004652865622354097 0.0053579188310066079 0 0.0041085639704672976 0.0060346161314171346 0 0.0045234361466385655 0.006177459506024028 0 0.0045046723475198119 0.0053078463016569318 0 0.0048275834300515472 0.0048687605847557384 0 0.0049401579043577629 0.0018092923460857602 0 0.0048275834300515472 0.0048687605847557384 0 0.0055080059670149758 0.00094748056759486673 0 0.0049401579043577629 0.0018092923460857602 0 0.0051592848430252573 0.0059537680787874565 0 0.0045940375061269455 0.0057428828115325273 0 0.0048798346901000825 0.0055624345037998532 0 0.0051449084932834611 0.0051699772170638496 0 0.0051592848430252573 0.0059537680787874565 0 0.0048798346901000825 0.0055624345037998532 0 0.004652865622354097 0.0053579188310066079 0 0.0051449084932834611 0.0051699772170638496 0 0.0048798346901000825 0.0055624345037998532 0 0.004652865622354097 0.0053579188310066079 0 0.0045940375061269455 0.0057428828115325273 0 0.0048798346901000825 0.0055624345037998532 0 0.003626277300365321 0.0067950253480471897 0 0.003586724470238496 0.0067303552788952458 0 0.0035177514077798775 0.0068167982039258092 0 0.003626277300365321 0.0067950253480471897 0 0.0035177514077798775 0.0068167982039258092 0 0.0034958875332632843 0.0069375267091161576 0 0.0039556339333347654 0.0063627396838259812 0 0.003626277300365321 0.0067950253480471897 0 0.0037858364889465953 0.0061074411744963019 0 0.0036108996068426819 0.0067784435570103626 0 0.0038579049705729719 0.0063202501400844288 0 0.0039155101370708656 0.0066109973276856733 0 0.0039556339333347654 0.0063627396838259812 0 0.003626277300365321 0.0067950253480471897 0 0.0039362895001808246 0.0069451375729566453 0 0.0039155101370708656 0.0066109973276856733 0 0.003626277300365321 0.0067950253480471897 0 0.003626277300365321 0.0067950253480471897 0 0.0037701972265256709 0.0067477557124150378 0 0.003687272229230073 0.0067076953408266513 0 0.0038292195168744166 0.0066517163820054882 0 0.0037701972265256709 0.0067477557124150378 0 0.0037646193118121923 0.0066824561602781751 0 0.0037701972265256709 0.0067477557124150378 0 0.0037646193118121923 0.0066824561602781751 0 0.003687272229230073 0.0067076953408266513 0 0.0036549887502591027 0.0066456170568593934 0 0.003687272229230073 0.0067076953408266513 0 0.003586724470238496 0.0067303552788952458 0 0.0035654686990403001 0.0066186757755298028 0 0.003586724470238496 0.0067303552788952458 0 0.0034307556023371291 0.006734105010641667 0 0.003626277300365321 0.0067950253480471897 0 0.003687272229230073 0.0067076953408266513 0 0.003586724470238496 0.0067303552788952458 0 0.003586724470238496 0.0067303552788952458 0 0.0034307556023371291 0.006734105010641667 0 0.0035177514077798775 0.0068167982039258092 0 0.0034307556023371291 0.006734105010641667 0 0.0034071186742576911 0.00687706786805005 0 0.0035177514077798775 0.0068167982039258092 0 0.0034071186742576911 0.00687706786805005 0 0.0035177514077798775 0.0068167982039258092 0 0.0034958875332632843 0.0069375267091161576 0 0.0034307556023371291 0.006734105010641667 0 0.0034071186742576911 0.00687706786805005 0 0.0032988720460899335 0.0068727175868745216 0 0.0034071186742576911 0.00687706786805005 0 0.0032988720460899335 0.0068727175868745216 0 0.0033456889158087178 0.0070119295535599263 0 0.0034307556023371291 0.006734105010641667 0 0.0032988720460899335 0.0068727175868745216 0 0.0032667858993753384 0.0067293139289368135 0 0.0032667858993753384 0.0067293139289368135 0 0.0030926417526185176 0.0067702133483497611 0 0.0031666711174027137 0.0069055314788722998 0 0.0032988720460899335 0.0068727175868745216 0 0.0032667858993753384 0.0067293139289368135 0 0.0031666711174027137 0.0069055314788722998 0 0.0029842771788272898 0.0069618620031884617 0 0.0030926417526185176 0.0067702133483497611 0 0.0031666711174027137 0.0069055314788722998 0 0.0029842771788272898 0.0069618620031884617 0 0.0031666711174027137 0.0069055314788722998 0 0.003110202545382061 0.0070333170730580265 0 0.0032988720460899335 0.0068727175868745216 0 0.0031666711174027137 0.0069055314788722998 0 0.0032131215124951156 0.0070889737232148614 0 0.0031666711174027137 0.0069055314788722998 0 0.0032131215124951156 0.0070889737232148614 0 0.003110202545382061 0.0070333170730580265 0 0.0032131215124951156 0.0070889737232148614 0 0.0030352723641227544 0.0071579801033438504 0 0.003110202545382061 0.0070333170730580265 0 0.0031561731024524306 0.0062328724617167659 0 0.0034323120665243709 0.012714903164964507 0 0.0029842771788272898 0.0069618620031884617 0 0.0030352723641227544 0.0071579801033438504 0 0.003110202545382061 0.0070333170730580265 0 0.0034323120665243709 0.012714903164964507 0 0.0035007780220840039 0.014169169490478441 0 0.0032131215124951156 0.0070889737232148614 0 0.0030711799414331175 0.0071748278525357355 0 0.003095397951073664 0.0072674708406639307 0 0.0032131215124951156 0.0070889737232148614 0 0.0031931236474909974 0.0072355383996506257 0 0.0033046247682467955 0.0071546791049126391 0 0.0032131215124951156 0.0070889737232148614 0 0.003095397951073664 0.0072674708406639307 0 0.0031931236474909974 0.0072355383996506257 0 0.0033046247682467955 0.0071546791049126391 0 0.0034668185343945134 0.0071018324937322363 0 0.0033456889158087178 0.0070119295535599263 0 0.0034071186742576911 0.00687706786805005 0 0.0034958875332632843 0.0069375267091161576 0 0.0033456889158087178 0.0070119295535599263 0 0.0034668185343945134 0.0071018324937322363 0 0.0034958875332632843 0.0069375267091161576 0 0.0033456889158087178 0.0070119295535599263 0 0.0032988720460899335 0.0068727175868745216 0 0.0032131215124951156 0.0070889737232148614 0 0.0033456889158087178 0.0070119295535599263 0 0.0032131215124951156 0.0070889737232148614 0 0.0033046247682467955 0.0071546791049126391 0 0.0033456889158087178 0.0070119295535599263 0 -5.8444798481486186e-07 0.034990304482949063 0 4.5790817690825257e-06 0.034995952380732581 0 5.749506134889161e-07 0.034995513162031235 0 3.4465555672987568e-07 0.034986813623413771 0 1.0818029455780804e-05 0.034968255405206067 0 -5.8444798481486186e-07 0.034990304482949063 0 1.6502455304926023e-05 0.034960514092023172 0 1.4462942725078585e-05 0.034939783199186482 0 -5.8444798481486186e-07 0.034990304482949063 0 1.6993092700850486e-05 0.034971291403098549 0 1.6502455304926023e-05 0.034960514092023172 0 -5.8444798481486186e-07 0.034990304482949063 0 -3.2524644043389456e-09 0.034999970372213425 0 6.2293520623696618e-09 0.035000006268972615 0 -5.8444798481486186e-07 0.034990304482949063 0 5.749506134889161e-07 0.034995513162031235 0 6.2293520623696618e-09 0.035000006268972615 0 -5.8444798481486186e-07 0.034990304482949063 0 -3.2524644043389456e-09 0.034999970372213425 0 1.5313892680341635e-06 0.034994146305066622 0 7.2527533970841549e-06 0.034985795877778655 0 1.6993092700850486e-05 0.034971291403098549 0 1.4653369321127681e-05 0.034989873253290456 0 -5.8444798481486186e-07 0.034990304482949063 0 7.2527533970841549e-06 0.034985795877778655 0 1.5313892680341635e-06 0.034994146305066622 0 -5.8444798481486186e-07 0.034990304482949063 0 7.2527533970841549e-06 0.034985795877778655 0 1.6993092700850486e-05 0.034971291403098549 0 -0.00027101452517923878 0.033402497889985609 0 -0.00017343961725487859 0.034217478544794296 0 1.6993092700850486e-05 0.034971291403098549 0 3.1446747490550458e-05 0.03495910170522195 0 3.6919983475099587e-05 0.034960209238507373 0 1.6993092700850486e-05 0.034971291403098549 0 3.6919983475099587e-05 0.034960209238507373 0 1.4653369321127681e-05 0.034989873253290456 0 -0.00027101452517923878 0.033402497889985609 0 -0.00037774888401035164 0.034024176918202552 0 -0.00027101452517923878 0.033402497889985609 0 -0.00021236250335532905 0.032168242630894038 0 3.6919983475099587e-05 0.034960209238507373 0 3.6943964303456206e-05 0.03494030820821744 0 4.0623593283078861e-05 0.034929662717271159 0 -0.00072530453567220491 0.032944760146421864 0 -0.00073331440565607708 0.032933134705582623 0 -0.00073174982867617647 0.032931418682025586 0 3.6919983475099587e-05 0.034960209238507373 0 3.4358263119917495e-05 0.034952767106395333 0 3.6943964303456206e-05 0.03494030820821744 0 3.4358263119917495e-05 0.034952767106395333 0 3.1654055885424996e-05 0.034951734560638673 0 3.6943964303456206e-05 0.03494030820821744 0 3.1446747490550458e-05 0.03495910170522195 0 3.4358263119917495e-05 0.034952767106395333 0 3.1654055885424996e-05 0.034951734560638673 0 3.1446747490550458e-05 0.03495910170522195 0 3.6919983475099587e-05 0.034960209238507373 0 3.4358263119917495e-05 0.034952767106395333 0 3.1654055885424996e-05 0.034951734560638673 0 3.6943964303456206e-05 0.03494030820821744 0 2.7888442837515231e-05 0.034946942636215131 0 3.6943964303456206e-05 0.03494030820821744 0 2.7888442837515231e-05 0.034946942636215131 0 3.3726533622316434e-05 0.034933099046874014 0 1.6993092700850486e-05 0.034971291403098549 0 1.6502455304926023e-05 0.034960514092023172 0 2.5275548269732004e-05 0.034957526954948435 0 1.6502455304926023e-05 0.034960514092023172 0 2.5275548269732004e-05 0.034957526954948435 0 2.7888442837515231e-05 0.034946942636215131 0 1.6993092700850486e-05 0.034971291403098549 0 3.1446747490550458e-05 0.03495910170522195 0 2.5275548269732004e-05 0.034957526954948435 0 3.1446747490550458e-05 0.03495910170522195 0 3.1654055885424996e-05 0.034951734560638673 0 2.5275548269732004e-05 0.034957526954948435 0 3.1654055885424996e-05 0.034951734560638673 0 2.5275548269732004e-05 0.034957526954948435 0 2.7888442837515231e-05 0.034946942636215131 0 1.6502455304926023e-05 0.034960514092023172 0 2.7888442837515231e-05 0.034946942636215131 0 1.4462942725078585e-05 0.034939783199186482 0 1.0818029455780804e-05 0.034968255405206067 0 2.6847256263741786e-05 0.034950317426808146 0 2.7888442837515231e-05 0.034946942636215131 0 1.4462942725078585e-05 0.034939783199186482 0 3.3726533622316434e-05 0.034933099046874014 0 1.4462942725078585e-05 0.034939783199186482 0 3.3726533622316434e-05 0.034933099046874014 0 3.5964478166345328e-05 0.034922455645435037 0 3.3726533622316434e-05 0.034933099046874014 0 3.6227177427603368e-05 0.034925805042328055 0 3.5964478166345328e-05 0.034922455645435037 0 3.6943964303456206e-05 0.03494030820821744 0 3.3726533622316434e-05 0.034933099046874014 0 4.0623593283078861e-05 0.034929662717271159 0 3.3726533622316434e-05 0.034933099046874014 0 3.6227177427603368e-05 0.034925805042328055 0 4.0623593283078861e-05 0.034929662717271159 0 3.6227177427603368e-05 0.034925805042328055 0 3.5964478166345328e-05 0.034922455645435037 0 3.0091197166362695e-05 0.034921259598551871 0 4.5790817690825257e-06 0.034995952380732581 0 2.0957304731230287e-05 0.034977968756317389 0 1.7517020267265034e-06 0.034987126888590937 0 2.0957304731230287e-05 0.034977968756317389 0 1.7517020267265034e-06 0.034987126888590937 0 1.9905649464088158e-05 0.034954757021754664 0 4.5790817690825257e-06 0.034995952380732581 0 1.7517020267265034e-06 0.034987126888590937 0 5.749506134889161e-07 0.034995513162031235 0 1.7517020267265034e-06 0.034987126888590937 0 5.749506134889161e-07 0.034995513162031235 0 6.2293520623696618e-09 0.035000006268972615 0 1.7517020267265034e-06 0.034987126888590937 0 6.2293520623696618e-09 0.035000006268972615 0 -1.8386204031764714e-08 0.034999946115476958 0 6.1415473439627563e-08 0.034999922436355843 0 -1.4586513948725203e-05 0.035052968065016933 0 1.7517020267265034e-06 0.034987126888590937 0 -1.8386204031764714e-08 0.034999946115476958 0 2.0209969171498879e-06 0.034964226194110354 0 4.1941638295609816e-07 0.034997875214518831 0 -5.3024255712488609e-10 0.034999996998739347 0 3.3203813430737529e-07 0.034996351265359715 0 2.6222487817187064e-10 0.035000000961412495 0 4.1941638295609816e-07 0.034997875214518831 0 -5.3024255712488609e-10 0.034999996998739347 0 3.2062472088210929e-05 0.034873816655710051 0 4.9681053010552342e-09 0.035000041085399052 0 -5.3024255712488609e-10 0.034999996998739347 0 3.3203813430737529e-07 0.034996351265359715 0 5.5612059425372034e-10 0.034999996733404017 0 -2.7415166259896002e-05 0.034862505582532462 0 -1.7028836297241114e-05 0.034923557695282235 0 6.5250592742330017e-06 0.03497553754159282 0 -2.7415166259896002e-05 0.034862505582532462 0 -1.7028836297241114e-05 0.034923557695282235 0 -4.8672719190134493e-05 0.034871705856003063 0 -2.8586347579591764e-05 0.034916658539171995 0 -1.7028836297241114e-05 0.034923557695282235 0 -4.8672719190134493e-05 0.034871705856003063 0 4.1979486762204348e-05 0.034986305576789042 0 -1.3573135966311444e-08 0.034999874673901837 0 6.5250592742330017e-06 0.03497553754159282 0 3.1481307822289057e-09 0.034999922725450779 0 -1.3573135966311444e-08 0.034999874673901837 0 6.5250592742330017e-06 0.03497553754159282 0 3.2062472088210929e-05 0.034873816655710051 0 2.8559693960904553e-06 0.034964825361950225 0 -8.1519005526253307e-06 0.034956517732166272 0 -1.7028836297241114e-05 0.034923557695282235 0 6.5250592742330017e-06 0.03497553754159282 0 -9.3928396185664448e-05 0.034814691560759212 0 -7.2745222107161922e-05 0.034841101819552259 0 -7.8180917881757648e-05 0.034825884834687119 0 -0.00011338261097601499 0.03474779538542614 0 -9.3928396185664448e-05 0.034814691560759212 0 -7.2745222107161922e-05 0.034841101819552259 0 -2.7415166259896002e-05 0.034862505582532462 0 -4.8672719190134493e-05 0.034871705856003063 0 -7.8180917881757648e-05 0.034825884834687119 0 -7.2745222107161922e-05 0.034841101819552259 0 -4.8672719190134493e-05 0.034871705856003063 0 -7.8180917881757648e-05 0.034825884834687119 0 -2.8586347579591764e-05 0.034916658539171995 0 -7.2745222107161922e-05 0.034841101819552259 0 -4.8672719190134493e-05 0.034871705856003063 0 0.00010755050896273738 0.034575988775795756 0 2.0077695044962917e-05 0.034556165747740474 0 -1.0316967564686645e-05 0.034506357462765452 0 3.2062472088210929e-05 0.034873816655710051 0 -1.7804711267364611e-05 0.034703704531213464 0 3.2062472088210929e-05 0.034873816655710051 0 6.935371761048956e-06 0.034484012600531369 0 4.1941638295609816e-07 0.034997875214518831 0 3.3203813430737529e-07 0.034996351265359715 0 1.8319267555790471e-06 0.034992284361111133 0 2.0077695044962917e-05 0.034556165747740474 0 -1.0316967564686645e-05 0.034506357462765452 0 -4.0937104636186608e-05 0.034522828130345788 0 2.0077695044962917e-05 0.034556165747740474 0 -6.7079443036319924e-05 0.03453634074054053 0 -4.0937104636186608e-05 0.034522828130345788 0 -9.3928396185664448e-05 0.034814691560759212 0 -7.8180917881757648e-05 0.034825884834687119 0 -8.4092441711732085e-05 0.034826493362656766 0 -1.7804711267364611e-05 0.034703704531213464 0 -8.407074865837546e-05 0.034192493612616184 0 6.935371761048956e-06 0.034484012600531369 0 4.5365016290425745e-05 0.034024963258431129 0 -8.407074865837546e-05 0.034192493612616184 0 4.5365016290425745e-05 0.034024963258431129 0 6.935371761048956e-06 0.034484012600531369 0 -1.4932948539489867e-06 0.034118624964331712 0 0.00030558866708665623 0.033482906796729703 0 0.00012335780127828633 0.033583294165120493 0 -0.00018240867951712565 0.033218608978281473 0 1.8177806014999256e-05 0.034937109624617664 0 1.9905649464088158e-05 0.034954757021754664 0 2.9093252280491488e-05 0.034938226657931892 0 -1.4586513948725203e-05 0.035052968065016933 0 6.935371761048956e-06 0.034484012600531369 0 2.0209969171498879e-06 0.034964226194110354 0 1.8177806014999256e-05 0.034937109624617664 0 1.9905649464088158e-05 0.034954757021754664 0 1.7517020267265034e-06 0.034987126888590937 0 2.0209969171498879e-06 0.034964226194110354 0 1.9905649464088158e-05 0.034954757021754664 0 2.6847256263741786e-05 0.034950317426808146 0 3.0149540069433492e-05 0.034940021956084588 0 1.9905649464088158e-05 0.034954757021754664 0 3.0445407658284354e-05 0.034937516778906212 0 2.9093252280491488e-05 0.034938226657931892 0 2.0957304731230287e-05 0.034977968756317389 0 1.9905649464088158e-05 0.034954757021754664 0 3.0445407658284354e-05 0.034937516778906212 0 3.0445407658284354e-05 0.034937516778906212 0 2.038163422304668e-05 0.034932028559918872 0 3.0091197166362695e-05 0.034921259598551871 0 3.0445407658284354e-05 0.034937516778906212 0 2.038163422304668e-05 0.034932028559918872 0 2.9093252280491488e-05 0.034938226657931892 0 -0.0007480705852944173 0.032915696632773432 0 -0.00074688632889723257 0.032915897673879091 0 -0.00074334528484803206 0.032922479629899616 0 -0.00058397107797719964 0.033437281397082221 0 -0.00034468920081919761 0.033982915462139829 0 -0.00074957212550551277 0.032911592804686411 0 -0.0007480705852944173 0.032915696632773432 0 -0.00075342558573450273 0.03290997476607968 0 -0.00074957212550551277 0.032911592804686411 0 -0.0007480705852944173 0.032915696632773432 0 -0.00074688632889723257 0.032915897673879091 0 -0.0017793147480076757 0.029679377244685341 0 -0.0017354243985636777 0.029698144080976388 0 -0.0017354494518781233 0.029757243288790536 0 -0.0010752112829446716 0.03152357937877899 0 -0.001270906945218713 0.031779727939504045 0 -0.00058397107797719964 0.033437281397082221 0 -0.001270906945218713 0.031779727939504045 0 -0.00086361330432826674 0.032265330263611385 0 -0.0009446508764148399 0.032428818848474587 0 -0.001122868711343321 0.032129803592237445 0 -0.0017793147480076757 0.029679377244685341 0 -0.001724939379976632 0.029649672249110998 0 -0.0017354243985636777 0.029698144080976388 0 -0.00067677066941217439 0.03295353465814807 0 -0.00078366518785067296 0.033168848971305953 0 -0.00049671250245611422 0.033323436099069167 0 -0.00058397107797719964 0.033437281397082221 0 -0.0010752112829446716 0.03152357937877899 0 -0.00078366518785067296 0.033168848971305953 0 -0.00049671250245611422 0.033323436099069167 0 -0.00054524499935649443 0.033576387559784218 0 -0.0010752112829446716 0.03152357937877899 0 -0.00048384702214464818 0.032916646176573874 0 -0.0010815446391026521 0.031291096672417924 0 -0.00072705585374468692 0.031896580332727444 0 -0.0013265230387638669 0.031790800037776158 0 -0.0010752112829446716 0.03152357937877899 0 -0.001529216213708054 0.03049980506166846 0 -0.0017793147480076757 0.029679377244685341 0 -0.0017483409421157311 0.029608740345346322 0 -0.001724939379976632 0.029649672249110998 0 -0.00058397107797719964 0.033437281397082221 0 -1.4932948539489867e-06 0.034118624964331712 0 -0.00067677066941217439 0.03295353465814807 0 -0.00018240867951712565 0.033218608978281473 0 -0.00049671250245611422 0.033323436099069167 0 -0.00018240867951712565 0.033218608978281473 0 -0.00049671250245611422 0.033323436099069167 0 -0.00026319430659264587 0.03342643120988139 0 -0.00049671250245611422 0.033323436099069167 0 -0.00026319430659264587 0.03342643120988139 0 -0.00049481234472149849 0.033585389881415663 0 0.00012335780127828633 0.033583294165120493 0 -0.00018240867951712565 0.033218608978281473 0 -0.00026319430659264587 0.03342643120988139 0 0.00012335780127828633 0.033583294165120493 0 -0.00026319430659264587 0.03342643120988139 0 -0.00049481234472149849 0.033585389881415663 0 -6.5463497748292405e-05 0.033761816309526294 0 -0.00031677703619360033 0.033902634033957921 0 -0.00040052887784393517 0.033701460672810803 0 4.5365016290425745e-05 0.034024963258431129 0 -0.00039916888433336677 0.033224664565941538 0 -9.3928396185664448e-05 0.034814691560759212 0 -8.4092441711732085e-05 0.034826493362656766 0 -5.5021254399305448e-05 0.034820994542791722 0 -9.8475903546012581e-05 0.033753597181809959 0 -5.4540378788648899e-07 0.033700423976212333 0 -0.00038704760312443978 0.033697834387238251 0 -8.407074865837546e-05 0.034192493612616184 0 -0.00039916888433336677 0.033224664565941538 0 -8.407074865837546e-05 0.034192493612616184 0 -0.00030335613947269073 0.034269283701170411 0 -0.00030335613947269073 0.034269283701170411 0 -0.00048384702214464818 0.032916646176573874 0 -0.00049671250245611422 0.033323436099069167 0 -0.00049481234472149849 0.033585389881415663 0 -0.00054524499935649443 0.033576387559784218 0 -0.00031677703619360033 0.033902634033957921 0 -0.00040052887784393517 0.033701460672810803 0 -0.0004368640349120448 0.033694893910546489 0 -0.00039916888433336677 0.033224664565941538 0 -0.00048384702214464818 0.032916646176573874 0 -0.00057963982733201069 0.031724145425044953 0 -0.0014306767141948019 0.031567802588498159 0 -0.0015233716916527313 0.031756255486000751 0 -0.00048384702214464818 0.032916646176573874 0 -0.0016952464427523475 0.030889341144484241 0 -0.00053767043753543905 0.033675944003582786 0 -0.0006981557859954933 0.033925417743357528 0 -0.0010039883628148855 0.033697000903231314 0 -0.00048384702214464818 0.032916646176573874 0 -0.001529216213708054 0.03049980506166846 0 -0.001529216213708054 0.03049980506166846 0 -0.0016952464427523475 0.030889341144484241 0 -0.0006981557859954933 0.033925417743357528 0 -0.00089365879859711311 0.034073897035948174 0 -0.0010039883628148855 0.033697000903231314 0 -0.00035571016007466096 0.033985185425169692 0 -0.00053767043753543905 0.033675944003582786 0 -0.0006981557859954933 0.033925417743357528 0 -0.00035571016007466096 0.033985185425169692 0 -0.0006981557859954933 0.033925417743357528 0 -0.00066022085663659238 0.034159985992467147 0 -0.0006981557859954933 0.033925417743357528 0 -0.00066022085663659238 0.034159985992467147 0 -0.00089365879859711311 0.034073897035948174 0 -0.00066022085663659238 0.034159985992467147 0 -0.00089365879859711311 0.034073897035948174 0 -0.00080492149637405351 0.034368946308219669 0 -0.00089365879859711311 0.034073897035948174 0 -0.00080492149637405351 0.034368946308219669 0 -0.0011805794100656739 0.03409890304987697 0 -0.00066022085663659238 0.034159985992467147 0 -0.00080492149637405351 0.034368946308219669 0 -0.00051218216944137372 0.034426938200949095 0 -0.00011338261097601499 0.03474779538542614 0 -0.00040297366058787042 0.03402440224322411 0 -0.00051218216944137372 0.034426938200949095 0 -0.00011338261097601499 0.03474779538542614 0 -9.3928396185664448e-05 0.034814691560759212 0 -5.5021254399305448e-05 0.034820994542791722 0 -8.1936514931324437e-05 0.034785842540587433 0 -0.00030335613947269073 0.034269283701170411 0 -0.00040297366058787042 0.03402440224322411 0 -0.00066022085663659238 0.034159985992467147 0 -0.00051218216944137372 0.034426938200949095 0 -0.00030335613947269073 0.034269283701170411 0 -0.00054371388191900313 0.034196272260170718 0 -0.0025938726106766257 0.02509914132231256 0 -0.0032930162162587897 0.025368008136136943 0 -0.0028662493957103017 0.025497528347675533 0 -0.0029161444149264433 0.0245573308593444 0 -0.0025938726106766257 0.02509914132231256 0 -0.0032930162162587897 0.025368008136136943 0 -0.0025938726106766257 0.02509914132231256 0 -0.0028662493957103017 0.025497528347675533 0 -0.0025654730715890727 0.025490030710646167 0 -0.0010122998038074348 0.034669987098436147 0 -0.00080492149637405351 0.034368946308219669 0 -0.0011805794100656739 0.03409890304987697 0 -0.0014999503449685634 0.032446944895436779 0 -0.0019827863594745468 0.029714482891310588 0 -0.0019827863594745468 0.029714482891310588 0 -0.0024600105369648149 0.027353620046720213 0 -0.0032930162162587897 0.025368008136136943 0 -0.0031997476802589505 0.025781903084134576 0 -0.0028662493957103017 0.025497528347675533 0 -0.0018936298329944895 0.02953826488962813 0 -0.0017894582988213022 0.02932378681144359 0 -0.0019414382783719212 0.029322540455456278 0 -0.00089365879859711311 0.034073897035948174 0 -0.0011805794100656739 0.03409890304987697 0 -0.0010039883628148855 0.033697000903231314 0 -0.0019827863594745468 0.029714482891310588 0 -0.0016952464427523475 0.030889341144484241 0 -0.0016952464427523475 0.030889341144484241 0 -0.0024600105369648149 0.027353620046720213 0 -0.001529216213708054 0.03049980506166846 0 -0.002170395606117806 0.027735431343008106 0 -0.0018931308403844313 0.029092302756664527 0 -0.00234412691035154 0.02909730523838161 0 -0.0023995026570289867 0.028838532851416153 0 -0.0018203976624093106 0.02894500450629928 0 -0.0018931308403844313 0.029092302756664527 0 -0.0023995026570289867 0.028838532851416153 0 -0.0024600105369648149 0.027353620046720213 0 -0.002170395606117806 0.027735431343008106 0 -0.0024624771502076933 0.025519536556168062 0 -0.0023271580014656529 0.025487314955819403 0 -0.0025220158729019958 0.025429450989975285 0 -0.0024600105369648149 0.027353620046720213 0 -0.0026275001539240762 0.025404674652444777 0 -0.0023170034217973407 0.02553651843538492 0 -0.0024624771502076933 0.025519536556168062 0 -0.0023271580014656529 0.025487314955819403 0 -0.0031997476802589505 0.025781903084134576 0 -0.0028662493957103017 0.025497528347675533 0 -0.0026778953142740786 0.025744987355810905 0 -0.0025654730715890727 0.025490030710646167 0 -0.0026778953142740786 0.025744987355810905 0 -0.0024298730534484609 0.025728256640777603 0 -0.0028662493957103017 0.025497528347675533 0 -0.0025654730715890727 0.025490030710646167 0 -0.0026778953142740786 0.025744987355810905 0 -0.0026275001539240762 0.025404674652444777 0 -0.002615279637233564 0.024750609423480178 0 -0.0023839083854900064 0.026075670463802464 0 -0.0021141347949867446 0.026390215899233418 0 -0.0025989295069358625 0.026289541401413943 0 -0.002170395606117806 0.027735431343008106 0 -0.0027722700089443924 0.024082770238797506 0 -0.0023839083854900064 0.026075670463802464 0 -0.0021141347949867446 0.026390215899233418 0 -0.0021712261302781212 0.026121051015687988 0 -0.0026859981073219293 0.025438493625343183 0 -0.0020204047336102133 0.027857450606670154 0 -0.0026859981073219293 0.025438493625343183 0 -0.0027722700089443924 0.024082770238797506 0 -0.0017483409421157311 0.029608740345346322 0 -0.001724939379976632 0.029649672249110998 0 -0.0016840253206406254 0.029611817198225594 0 -0.0016956775550070018 0.029652013411071508 0 -0.0016840253206406254 0.029611817198225594 0 -0.0016697415607159801 0.029677119193532497 0 -0.002170395606117806 0.027735431343008106 0 -0.0020204047336102133 0.027857450606670154 0 -0.001724939379976632 0.029649672249110998 0 -0.0016956775550070018 0.029652013411071508 0 -0.0016840253206406254 0.029611817198225594 0 -0.0020204047336102133 0.027857450606670154 0 -0.001766112971672293 0.028171034224637202 0 -0.0016643087863246375 0.029678884218270491 0 -0.0016895993184690545 0.029677006775102193 0 -0.0016814013439216226 0.029707423633795482 0 -0.0016895993184690545 0.029677006775102193 0 -0.0017085718573704241 0.029708519603984625 0 -0.0016814013439216226 0.029707423633795482 0 -0.0016956775550070018 0.029652013411071508 0 -0.0016895993184690545 0.029677006775102193 0 -0.0017107897450593457 0.029675898552512188 0 -0.0016956775550070018 0.029652013411071508 0 -0.0016697415607159801 0.029677119193532497 0 -0.0016895993184690545 0.029677006775102193 0 -0.001724939379976632 0.029649672249110998 0 -0.0017107897450593457 0.029675898552512188 0 -0.0017354243985636777 0.029698144080976388 0 -0.001724939379976632 0.029649672249110998 0 -0.0016956775550070018 0.029652013411071508 0 -0.0017107897450593457 0.029675898552512188 0 -0.0016895993184690545 0.029677006775102193 0 -0.0017107897450593457 0.029675898552512188 0 -0.0017085718573704241 0.029708519603984625 0 -0.0017107897450593457 0.029675898552512188 0 -0.0017354243985636777 0.029698144080976388 0 -0.0017085718573704241 0.029708519603984625 0 -0.0017354243985636777 0.029698144080976388 0 -0.0017085718573704241 0.029708519603984625 0 -0.0017354494518781233 0.029757243288790536 0 -0.0017085718573704241 0.029708519603984625 0 -0.0016925669999433947 0.029737486356969683 0 -0.0017354494518781233 0.029757243288790536 0 -0.0016643087863246375 0.029678884218270491 0 -0.0016814013439216226 0.029707423633795482 0 -0.0016511914849920864 0.02974109484235361 0 -0.0020204047336102133 0.027857450606670154 0 -0.0021276895212356357 0.028124255325652197 0 -0.0017085718573704241 0.029708519603984625 0 -0.0016925669999433947 0.029737486356969683 0 -0.0016814013439216226 0.029707423633795482 0 -0.0016925669999433947 0.029737486356969683 0 -0.0016814013439216226 0.029707423633795482 0 -0.0016511914849920864 0.02974109484235361 0 -0.0016896696051746491 0.031239287421109169 0 -0.002436068580037067 0.028705652351048622 0 -0.0021114388334049425 0.029501658639006459 0 -0.0020975610406310939 0.029482316750132846 0 -0.0020948245018698789 0.029507834570788424 0 -0.0016896696051746491 0.031239287421109169 0 -0.0021276895212356357 0.028124255325652197 0 -0.0016925669999433947 0.029737486356969683 0 -0.0016849487511039283 0.029782890550417239 0 -0.0016511914849920864 0.02974109484235361 0 -0.0016925669999433947 0.029737486356969683 0 -0.0016849487511039283 0.029782890550417239 0 -0.0017354494518781233 0.029757243288790536 0 -0.00074957212550551277 0.032911592804686411 0 -0.00075544029876315475 0.032903867927247012 0 -0.00075342558573450273 0.03290997476607968 0 -0.0016896696051746491 0.031239287421109169 0 -0.001270906945218713 0.031779727939504045 0 -0.00075630331376895553 0.032900404684244947 0 -0.00075544029876315475 0.032903867927247012 0 -0.00075768717890019907 0.032895983821396177 0 -0.00088032277867560198 0.032508614608157925 0 -0.001270906945218713 0.031779727939504045 0 -0.0027976311686354347 0.025888181458985464 0 -0.0027152439223766534 0.025972918468206836 0 -0.0027880327170996329 0.026011223579696784 0 -0.0027976311686354347 0.025888181458985464 0 -0.0028922176010889159 0.025996301720471023 0 -0.0027880327170996329 0.026011223579696784 0 -0.0026859981073219293 0.025438493625343183 0 -0.0021276895212356357 0.028124255325652197 0 -0.0021914128954208609 0.02698950823391133 0 -0.0024214548559182239 0.026952849471291496 0 -0.0023723425149682468 0.027185718396730344 0 -0.0021276895212356357 0.028124255325652197 0 -0.002436068580037067 0.028705652351048622 0 -0.0028922176010889159 0.025996301720471023 0 -0.0027880327170996329 0.026011223579696784 0 -0.0028678077315657754 0.026119534112729392 0 -0.0027880327170996329 0.026011223579696784 0 -0.0028678077315657754 0.026119534112729392 0 -0.0026793391287523046 0.026078878366439222 0 -0.0027152439223766534 0.025972918468206836 0 -0.0027880327170996329 0.026011223579696784 0 -0.0026793391287523046 0.026078878366439222 0 -0.002436068580037067 0.028705652351048622 0 -0.0029225252594590519 0.02544895601224538 0 -0.002436068580037067 0.028705652351048622 0 -0.002582204378581917 0.029429855835165615 0 -0.0029351595351920332 0.026121114852873037 0 -0.0027589024361297752 0.026321865632930003 0 -0.0028881457543604885 0.026471978071538317 0 -0.0029351595351920332 0.026121114852873037 0 -0.0027589024361297752 0.026321865632930003 0 -0.0025475919666701455 0.026275445652490459 0 -0.001980421507671238 0.033258656732847711 0 -0.0023025925624540512 0.03195238716719119 0 -0.0014780390898706556 0.03271480161029984 0 -0.0027589024361297752 0.026321865632930003 0 -0.0028881457543604885 0.026471978071538317 0 -0.0026625772628309785 0.026428227672151226 0 -0.0023025925624540512 0.03195238716719119 0 -0.001362262157473481 0.031877186478782862 0 -0.0014780390898706556 0.03271480161029984 0 -0.001362262157473481 0.031877186478782862 0 -0.0014780390898706556 0.03271480161029984 0 -0.00067554677659178042 0.032593311893151504 0 -0.0016896696051746491 0.031239287421109169 0 -0.0007380498897498342 0.033060180811206416 0 -0.00075630331376895553 0.032900404684244947 0 -0.00075544029876315475 0.032903867927247012 0 -0.00074407504537745881 0.032919066475877799 0 -0.0015840870283145348 0.033465167558611585 0 -0.0014780390898706556 0.03271480161029984 0 -0.00067554677659178042 0.032593311893151504 0 -0.0015840870283145348 0.033465167558611585 0 -0.001980421507671238 0.033258656732847711 0 -0.0014780390898706556 0.03271480161029984 0 -0.00074957212550551277 0.032911592804686411 0 -0.00075544029876315475 0.032903867927247012 0 -0.00074407504537745881 0.032919066475877799 0 -0.00074957212550551277 0.032911592804686411 0 -0.00074688632889723257 0.032915897673879091 0 -0.00074407504537745881 0.032919066475877799 0 -0.00074688632889723257 0.032915897673879091 0 -0.00074407504537745881 0.032919066475877799 0 -0.00074334528484803206 0.032922479629899616 0 3.5964478166345328e-05 0.034922455645435037 0 3.0445407658284354e-05 0.034937516778906212 0 3.0091197166362695e-05 0.034921259598551871 0 -0.00074407504537745881 0.032919066475877799 0 -0.00074334528484803206 0.032922479629899616 0 -0.00073816182779520042 0.032926390528295019 0 3.6227177427603368e-05 0.034925805042328055 0 3.0091197166362695e-05 0.034921259598551871 0 4.0623593283078861e-05 0.034929662717271159 0 -0.00074334528484803206 0.032922479629899616 0 -0.00073816182779520042 0.032926390528295019 0 -0.00073331440565607708 0.032933134705582623 0 -0.00074407504537745881 0.032919066475877799 0 -0.00073816182779520042 0.032926390528295019 0 -0.00073174982867617647 0.032931418682025586 0 -0.00034468920081919761 0.033982915462139829 0 -0.00037774888401035164 0.034024176918202552 0 -0.00073816182779520042 0.032926390528295019 0 -0.00073331440565607708 0.032933134705582623 0 -0.00073174982867617647 0.032931418682025586 0 -0.0007380498897498342 0.033060180811206416 0 -0.00021236250335532905 0.032168242630894038 0 -0.00067554677659178042 0.032593311893151504 0 -0.00047312909690227085 0.031528408387969727 0 0.00025667293520304559 0.031686345268950859 0 -0.001362262157473481 0.031877186478782862 0 -0.00067554677659178042 0.032593311893151504 0 -0.00047312909690227085 0.031528408387969727 0 -0.001362262157473481 0.031877186478782862 0 -0.00047312909690227085 0.031528408387969727 0 -0.0012211885325318886 0.031094130277599257 0 -0.00047312909690227085 0.031528408387969727 0 0.00031320160208158976 0.031732399287111981 0 -0.00082868427405825395 0.03070669163261288 0 -0.00047312909690227085 0.031528408387969727 0 -0.00082868427405825395 0.03070669163261288 0 -0.0012211885325318886 0.031094130277599257 0 -0.00047312909690227085 0.031528408387969727 0 0.00031320160208158976 0.031732399287111981 0 0.00025667293520304559 0.031686345268950859 0 -0.00011077986060993858 0.032213188421984493 0 0.00031320160208158976 0.031732399287111981 0 0.00025667293520304559 0.031686345268950859 0 0.00032441871438296385 0.031709493826916811 0 0.00025093469439935065 0.031515709367091374 0 0.00031320160208158976 0.031732399287111981 0 -0.00082868427405825395 0.03070669163261288 0 -0.00018968123792628463 0.029946192485515926 0 -0.00011077986060993858 0.032213188421984493 0 0.00031320160208158976 0.031732399287111981 0 0.00076932218628085036 0.033058304142742322 0 -0.00082868427405825395 0.03070669163261288 0 -0.001616639818755893 0.03054649062749127 0 -0.0015208658480643789 0.029580602908650947 0 -0.00082868427405825395 0.03070669163261288 0 -0.001616639818755893 0.03054649062749127 0 -0.0012211885325318886 0.031094130277599257 0 -0.001616639818755893 0.03054649062749127 0 -0.0025738029225251609 0.03042724291885 0 -0.0015208658480643789 0.029580602908650947 0 -0.001616639818755893 0.03054649062749127 0 -0.0025738029225251609 0.03042724291885 0 -0.0018238409737742079 0.031153406470675625 0 -0.0023025925624540512 0.03195238716719119 0 -0.0025738029225251609 0.03042724291885 0 -0.0018238409737742079 0.031153406470675625 0 -0.002582204378581917 0.029429855835165615 0 -0.0027199989867631143 0.028715998987764977 0 -0.0028881457543604885 0.026471978071538317 0 -0.0029257871671093372 0.027069206048527073 0 -0.0026510722353400525 0.02665483616690096 0 -0.001362262157473481 0.031877186478782862 0 -0.0012211885325318886 0.031094130277599257 0 -0.0018238409737742079 0.031153406470675625 0 -0.0023025925624540512 0.03195238716719119 0 -0.001362262157473481 0.031877186478782862 0 -0.0018238409737742079 0.031153406470675625 0 -0.001616639818755893 0.03054649062749127 0 -0.0012211885325318886 0.031094130277599257 0 -0.0018238409737742079 0.031153406470675625 0 -0.0022178249044612036 0.026790836267515557 0 -0.0025202105607443287 0.025991973820950597 0 -0.0021638186479152875 0.026839112091714037 0 -0.0017864911149615872 0.02557700645269706 0 -0.0026587108090173075 0.025545208955497428 0 -0.0026510722353400525 0.02665483616690096 0 -0.0021638186479152875 0.026839112091714037 0 -0.0024157673186139808 0.026473581954970682 0 -0.0029257871671093372 0.027069206048527073 0 -0.0026510722353400525 0.02665483616690096 0 -0.0021638186479152875 0.026839112091714037 0 -0.0029257871671093372 0.027069206048527073 0 -0.0021638186479152875 0.026839112091714037 0 -0.0023198394596104636 0.027620011047240049 0 -0.0021638186479152875 0.026839112091714037 0 -0.0014184828204635294 0.026393055369266921 0 -0.0013360271942025896 0.027253721238902909 0 -0.00083689350350043591 0.026504188591769416 0 -0.0014184828204635294 0.026393055369266921 0 -0.0013360271942025896 0.027253721238902909 0 -0.00083689350350043591 0.026504188591769416 0 -0.00074704840727465079 0.027461205848768815 0 -0.0013360271942025896 0.027253721238902909 0 -0.00083689350350043591 0.026504188591769416 0 -0.0014184828204635294 0.026393055369266921 0 -0.0010229964463345724 0.025535420930137585 0 -0.00083689350350043591 0.026504188591769416 0 -0.0010229964463345724 0.025535420930137585 0 -0.00033043922853415679 0.025827559005865714 0 -0.0014184828204635294 0.026393055369266921 0 -0.0017864911149615872 0.02557700645269706 0 -0.0010229964463345724 0.025535420930137585 0 -0.0021638186479152875 0.026839112091714037 0 -0.0014184828204635294 0.026393055369266921 0 -0.0017864911149615872 0.02557700645269706 0 -0.0017864911149615872 0.02557700645269706 0 -0.0014069046896533312 0.025142919041713924 0 -0.0010229964463345724 0.025535420930137585 0 -0.0017864911149615872 0.02557700645269706 0 -0.0017309521649958688 0.024726123085859003 0 -0.0022579391768922786 0.024936753534688025 0 -0.0017864911149615872 0.02557700645269706 0 -0.0014069046896533312 0.025142919041713924 0 -0.0017309521649958688 0.024726123085859003 0 -0.0014069046896533312 0.025142919041713924 0 -0.0010531933156674221 0.024735724021616383 0 -0.0017309521649958688 0.024726123085859003 0 -0.0010229964463345724 0.025535420930137585 0 -0.0010531933156674221 0.024735724021616383 0 -0.0003350421938885225 0.024757188814300803 0 -0.0014069046896533312 0.025142919041713924 0 -0.0010229964463345724 0.025535420930137585 0 -0.0010531933156674221 0.024735724021616383 0 -0.0010531933156674221 0.024735724021616383 0 -0.0012136831879109662 0.024290657987285386 0 -0.0017309521649958688 0.024726123085859003 0 -0.0010531933156674221 0.024735724021616383 0 -0.0012136831879109662 0.024290657987285386 0 -0.00075047276241543154 0.024301931292425416 0 -0.0012136831879109662 0.024290657987285386 0 -0.00075047276241543154 0.024301931292425416 0 -0.001034540101889808 0.02387865637862565 0 -0.0012136831879109662 0.024290657987285386 0 -0.0017309521649958688 0.024726123085859003 0 -0.0016589839781755867 0.024177651890278515 0 -0.0017309521649958688 0.024726123085859003 0 -0.0016589839781755867 0.024177651890278515 0 -0.0022420320206202608 0.024324477347471292 0 -0.0022420320206202608 0.024324477347471292 0 -0.0029066659424165364 0.024479716916679224 0 -0.0026184742562188447 0.023973556841233905 0 -0.0022420320206202608 0.024324477347471292 0 -0.0022579391768922786 0.024936753534688025 0 -0.0029066659424165364 0.024479716916679224 0 -0.0017309521649958688 0.024726123085859003 0 -0.0022420320206202608 0.024324477347471292 0 -0.0022579391768922786 0.024936753534688025 0 -0.0025202105607443287 0.025991973820950597 0 -0.0027023395705609203 0.025498092287894857 0 -0.0017864911149615872 0.02557700645269706 0 -0.0022579391768922786 0.024936753534688025 0 -0.0026587108090173075 0.025545208955497428 0 -0.0022579391768922786 0.024936753534688025 0 -0.0026587108090173075 0.025545208955497428 0 -0.0029066659424165364 0.024479716916679224 0 -0.0024157673186139808 0.026473581954970682 0 -0.0025475919666701455 0.026275445652490459 0 -0.0025505596213692004 0.026172472277777414 0 -0.0028881457543604885 0.026471978071538317 0 -0.0026510722353400525 0.02665483616690096 0 -0.0026625772628309785 0.026428227672151226 0 -0.0026510722353400525 0.02665483616690096 0 -0.0024157673186139808 0.026473581954970682 0 -0.0026625772628309785 0.026428227672151226 0 -0.0024157673186139808 0.026473581954970682 0 -0.0026625772628309785 0.026428227672151226 0 -0.0025475919666701455 0.026275445652490459 0 -0.0027589024361297752 0.026321865632930003 0 -0.0026625772628309785 0.026428227672151226 0 -0.0025475919666701455 0.026275445652490459 0 -0.0025475919666701455 0.026275445652490459 0 -0.0025505596213692004 0.026172472277777414 0 -0.0026793391287523046 0.026078878366439222 0 -0.0028678077315657754 0.026119534112729392 0 -0.0025475919666701455 0.026275445652490459 0 -0.0026793391287523046 0.026078878366439222 0 -0.0025505596213692004 0.026172472277777414 0 -0.0026793391287523046 0.026078878366439222 0 -0.0026164860135802701 0.025912899211921005 0 -0.0027023395705609203 0.025498092287894857 0 -0.0028444283362065084 0.023827665407393922 0 -0.0029066659424165364 0.024479716916679224 0 -0.0031431211875486238 0.023492719991222596 0 -0.0026184742562188447 0.023973556841233905 0 -0.0026859981073219293 0.025438493625343183 0 -0.0028444283362065084 0.023827665407393922 0 -0.0027152439223766534 0.025972918468206836 0 -0.0026793391287523046 0.026078878366439222 0 -0.0026164860135802701 0.025912899211921005 0 -0.0027976311686354347 0.025888181458985464 0 -0.0027152439223766534 0.025972918468206836 0 -0.0026164860135802701 0.025912899211921005 0 -0.0028444283362065084 0.023827665407393922 0 -0.0023725141942491359 0.023124026223227546 0 -0.0031431211875486238 0.023492719991222596 0 -0.0026184742562188447 0.023973556841233905 0 -0.0020544811168160034 0.023690417845880808 0 -0.0022420320206202608 0.024324477347471292 0 -0.0026184742562188447 0.023973556841233905 0 -0.0020544811168160034 0.023690417845880808 0 -0.0029700709605998028 0.022649900768383597 0 -0.0026421400359109624 0.022459925788715383 0 -0.0025697483822906581 0.022705128769695705 0 -0.0028575224669185463 0.022105922148311738 0 -0.0027722700089443924 0.024082770238797506 0 -0.0026421400359109624 0.022459925788715383 0 -0.0031459364125744687 0.022395107039684194 0 -0.0029435811317584464 0.022174100440200958 0 -0.0026421400359109624 0.022459925788715383 0 -0.0030548633376592956 0.02244495300296119 0 -0.0030112832592184536 0.022493921542379027 0 -0.0029700709605998028 0.022649900768383597 0 -0.0026421400359109624 0.022459925788715383 0 -0.0030112832592184536 0.022493921542379027 0 -0.0028444283362065084 0.023827665407393922 0 -0.0030889024960307418 0.022424141429506377 0 -0.003306863450205969 0.022700242301005306 0 -0.0030548633376592956 0.02244495300296119 0 -0.0030112832592184536 0.022493921542379027 0 -0.003306863450205969 0.022700242301005306 0 -0.0029403448297829868 0.022763747271520633 0 -0.0030112832592184536 0.022493921542379027 0 -0.0024624771502076933 0.025519536556168062 0 -0.0025220158729019958 0.025429450989975285 0 -0.0025291032198216804 0.025509667257496309 0 -0.0027722700089443924 0.024082770238797506 0 -0.0027426785080247726 0.023507979244497965 0 -0.0025220158729019958 0.025429450989975285 0 -0.0025291032198216804 0.025509667257496309 0 -0.0025989818525086008 0.025502460453457689 0 -0.0025654730715890727 0.025490030710646167 0 -0.0024298730534484609 0.025728256640777603 0 -0.0023188560069271947 0.025360819315630993 0 -0.002615279637233564 0.024750609423480178 0 -0.0027146341434955944 0.023435434989952087 0 -0.0028012228144096625 0.024038528571228776 0 -0.0026130072469588463 0.02402878272418181 0 -0.0025045282147155763 0.023911731002991529 0 -0.0024298730534484609 0.025728256640777603 0 -0.0019956535160867359 0.025538976259426253 0 -0.0023188560069271947 0.025360819315630993 0 -0.0027426785080247726 0.023507979244497965 0 -0.0027146341434955944 0.023435434989952087 0 -0.002615279637233564 0.024750609423480178 0 -0.0027426785080247726 0.023507979244497965 0 -0.0027426785080247726 0.023507979244497965 0 -0.0025040728348499713 0.022009608676570012 0 -0.0026421400359109624 0.022459925788715383 0 -0.0029435811317584464 0.022174100440200958 0 -0.0024412796314143216 0.022132707944311453 0 -0.0030192488658172035 0.022182148728944865 0 -0.002906089670926764 0.022057948236302725 0 -0.0024831127201829692 0.022145204710828311 0 -0.0027146341434955944 0.023435434989952087 0 -0.0025291075046008403 0.021778432120933961 0 -0.0027146341434955944 0.023435434989952087 0 -0.0021169890792062103 0.02341470423999854 0 -0.0019956535160867359 0.025538976259426253 0 -0.0020564825737964189 0.025010911587322993 0 -0.001436667479023877 0.02492568733734404 0 -0.0025938726106766257 0.02509914132231256 0 -0.0020564825737964189 0.025010911587322993 0 -0.0023188560069271947 0.025360819315630993 0 -0.0019956535160867359 0.025538976259426253 0 -0.0020564825737964189 0.025010911587322993 0 -0.0023188560069271947 0.025360819315630993 0 -0.0025938726106766257 0.02509914132231256 0 -0.0025654730715890727 0.025490030710646167 0 -0.0023188560069271947 0.025360819315630993 0 -0.0025291075046008403 0.021778432120933961 0 -0.0019197102615819755 0.021692462906543784 0 -0.0019841046503546599 0.021871427875540386 0 -0.0023759347807445815 0.021832333361695797 0 -0.0019509710199071804 0.022109140762692204 0 -0.0023764834808922535 0.021670439100295286 0 -0.002618806642503481 0.02201290063545842 0 -0.0019787927052688685 0.021729402466557184 0 -0.0019841046503546599 0.021871427875540386 0 -0.0023759347807445815 0.021832333361695797 0 -0.0018571899346492714 0.021619143054210463 0 -0.0023764834808922535 0.021670439100295286 0 -0.002779093946391367 0.021750771194415014 0 -0.002618806642503481 0.02201290063545842 0 -0.0032716379497927045 0.022298243525827339 0 -0.002779093946391367 0.021750771194415014 0 -0.002618806642503481 0.02201290063545842 0 -0.002906089670926764 0.022057948236302725 0 -0.0023759347807445815 0.021832333361695797 0 -0.0024831127201829692 0.022145204710828311 0 -0.0023759347807445815 0.021832333361695797 0 -0.0024831127201829692 0.022145204710828311 0 -0.0019509710199071804 0.022109140762692204 0 -0.0024412796314143216 0.022132707944311453 0 -0.0021877142123458227 0.022309148978841471 0 -0.0024060006869696606 0.022360383261069837 0 -0.0024412796314143216 0.022132707944311453 0 -0.0019509710199071804 0.022109140762692204 0 -0.0021877142123458227 0.022309148978841471 0 -0.0025040728348499713 0.022009608676570012 0 -0.0019663515253677804 0.022137824645971971 0 -0.0019509710199071804 0.022109140762692204 0 -0.0020086643411158121 0.022275874062600506 0 -0.0018798033715179991 0.022213136879760134 0 -0.0019509710199071804 0.022109140762692204 0 -0.0020086643411158121 0.022275874062600506 0 -0.0021877142123458227 0.022309148978841471 0 -0.0019399594239498795 0.022341497855230093 0 -0.0020086643411158121 0.022275874062600506 0 -0.0018798033715179991 0.022213136879760134 0 -0.001931194872753583 0.022513563324356008 0 -0.0020647421449247324 0.022566187532404223 0 -0.0013528867078908193 0.021662525366396283 0 -0.0019399594239498795 0.022341497855230093 0 -0.0020086643411158121 0.022275874062600506 0 -0.0020851339554490548 0.022401574625265656 0 -0.0020086643411158121 0.022275874062600506 0 -0.0021877142123458227 0.022309148978841471 0 -0.0020851339554490548 0.022401574625265656 0 -0.0021877142123458227 0.022309148978841471 0 -0.0020851339554490548 0.022401574625265656 0 -0.002195352388243442 0.02250029020599981 0 -0.0020851339554490548 0.022401574625265656 0 -0.002195352388243442 0.02250029020599981 0 -0.0020647421449247324 0.022566187532404223 0 -0.0019399594239498795 0.022341497855230093 0 -0.0020851339554490548 0.022401574625265656 0 -0.0020647421449247324 0.022566187532404223 0 -0.0026421400359109624 0.022459925788715383 0 -0.0024412796314143216 0.022132707944311453 0 -0.0024060006869696606 0.022360383261069837 0 -0.0021877142123458227 0.022309148978841471 0 -0.0024060006869696606 0.022360383261069837 0 -0.0023505673371600573 0.022532757609008459 0 -0.0021877142123458227 0.022309148978841471 0 -0.002195352388243442 0.02250029020599981 0 -0.0023505673371600573 0.022532757609008459 0 -0.0026421400359109624 0.022459925788715383 0 -0.0023505673371600573 0.022532757609008459 0 -0.0025697483822906581 0.022705128769695705 0 -0.0026421400359109624 0.022459925788715383 0 -0.0024060006869696606 0.022360383261069837 0 -0.0023505673371600573 0.022532757609008459 0 -0.0023725141942491359 0.023124026223227546 0 -0.0015247437308267961 0.023385000213913459 0 -0.0016589839781755867 0.024177651890278515 0 -0.0020544811168160034 0.023690417845880808 0 -0.001034540101889808 0.02387865637862565 0 -0.0023505673371600573 0.022532757609008459 0 -0.0025697483822906581 0.022705128769695705 0 -0.0020674699933004347 0.02287816872433698 0 -0.0016589839781755867 0.024177651890278515 0 -0.0022420320206202608 0.024324477347471292 0 -0.0020544811168160034 0.023690417845880808 0 -0.001931194872753583 0.022513563324356008 0 -0.0020647421449247324 0.022566187532404223 0 -0.0020674699933004347 0.02287816872433698 0 -0.002195352388243442 0.02250029020599981 0 -0.0020647421449247324 0.022566187532404223 0 -0.0020674699933004347 0.02287816872433698 0 -0.002195352388243442 0.02250029020599981 0 -0.0023505673371600573 0.022532757609008459 0 -0.0020674699933004347 0.02287816872433698 0 -0.0012136831879109662 0.024290657987285386 0 -0.0016589839781755867 0.024177651890278515 0 -0.001034540101889808 0.02387865637862565 0 -0.00075047276241543154 0.024301931292425416 0 -0.001034540101889808 0.02387865637862565 0 -0.00014666555662623789 0.023901422855754306 0 -0.001931194872753583 0.022513563324356008 0 -0.00087187339674837548 0.023200397845002663 0 -0.0010822849284302858 0.022328201714062353 0 -0.001931194872753583 0.022513563324356008 0 -0.0020674699933004347 0.02287816872433698 0 -0.00087187339674837548 0.023200397845002663 0 -0.0015247437308267961 0.023385000213913459 0 -0.00046781656750253912 0.023537464417059385 0 -0.00087187339674837548 0.023200397845002663 0 -0.00028758711776296833 0.022087728337535029 0 -0.0010822849284302858 0.022328201714062353 0 -0.00087187339674837548 0.023200397845002663 0 0.00038012311862134366 0.022625650413240377 0 0.00070909193643799021 0.02359229367002149 0 -0.00087187339674837548 0.023200397845002663 0 -0.00028758711776296833 0.022087728337535029 0 0.00038012311862134366 0.022625650413240377 0 -0.00028758711776296833 0.022087728337535029 0 -0.00084350207928630733 0.021379903660123892 0 0.00014814280339358051 0.021313299161347686 0 -0.00028758711776296833 0.022087728337535029 0 -0.0010822849284302858 0.022328201714062353 0 -0.00084350207928630733 0.021379903660123892 0 -0.0018852076744394165 0.02244509250493219 0 -0.001012681791427162 0.021597594843636395 0 -0.0020353413889135671 0.022523728835477177 0 -0.0015214771795813038 0.021943670688870511 0 -0.001931194872753583 0.022513563324356008 0 -0.0010822849284302858 0.022328201714062353 0 -0.00084350207928630733 0.021379903660123892 0 -0.001931194872753583 0.022513563324356008 0 -0.0013528867078908193 0.021662525366396283 0 -0.0011706961946518037 0.021778903185932074 0 -0.0019399594239498795 0.022341497855230093 0 -0.0020647421449247324 0.022566187532404223 0 -0.0016822126848153375 0.02219696755825765 0 -0.0018798033715179991 0.022213136879760134 0 -0.0017985886416774586 0.022126262486970617 0 -0.0016822126848153375 0.02219696755825765 0 -0.001765504312074398 0.021995328115752791 0 -0.0016822126848153375 0.02219696755825765 0 -0.001570696101693339 0.021796073414951992 0 -0.0019399594239498795 0.022341497855230093 0 -0.0018798033715179991 0.022213136879760134 0 -0.0016822126848153375 0.02219696755825765 0 -0.0019509710199071804 0.022109140762692204 0 -0.0018798033715179991 0.022213136879760134 0 -0.0017985886416774586 0.022126262486970617 0 -0.0019841046503546599 0.021871427875540386 0 -0.0019509710199071804 0.022109140762692204 0 -0.001765504312074398 0.021995328115752791 0 -0.0019509710199071804 0.022109140762692204 0 -0.0017985886416774586 0.022126262486970617 0 -0.001765504312074398 0.021995328115752791 0 -0.0017985886416774586 0.022126262486970617 0 -0.001765504312074398 0.021995328115752791 0 -0.0016822126848153375 0.02219696755825765 0 -0.0011706961946518037 0.021778903185932074 0 -0.00058745781147735807 0.020825215442066898 0 -0.00036977894067412477 0.021081679156001953 0 -0.0013528867078908193 0.021662525366396283 0 -0.0011706961946518037 0.021778903185932074 0 -0.00058745781147735807 0.020825215442066898 0 -0.001012681791427162 0.021597594843636395 0 -1.4822990518386643e-05 0.020693000254606124 0 -0.0015214771795813038 0.021943670688870511 0 -0.00089382866015246844 0.021248836368011136 0 -0.00084350207928630733 0.021379903660123892 0 0.00031748992144578953 0.020330126462065671 0 0.00014814280339358051 0.021313299161347686 0 -0.0013207406430311018 0.021402374066924214 0 -0.001570696101693339 0.021796073414951992 0 -0.0012265841932861134 0.021751455308919376 0 -0.0016822126848153375 0.02219696755825765 0 -0.001570696101693339 0.021796073414951992 0 -0.0012265841932861134 0.021751455308919376 0 -0.001765504312074398 0.021995328115752791 0 -0.001570696101693339 0.021796073414951992 0 -0.0018571899346492714 0.021619143054210463 0 -0.0019841046503546599 0.021871427875540386 0 -0.001765504312074398 0.021995328115752791 0 -0.0018571899346492714 0.021619143054210463 0 -0.0013207406430311018 0.021402374066924214 0 -0.001570696101693339 0.021796073414951992 0 -0.0018571899346492714 0.021619143054210463 0 0.0013432510525969877 0.019378646977838983 0 0.0012307378208033738 0.020288111376752405 0 0.00031748992144578953 0.020330126462065671 0 0.0013432510525969877 0.019378646977838983 0 0.0016770138261217303 0.020071450994053566 0 0.0012307378208033738 0.020288111376752405 0 0.0020525291074007046 0.020879684407409605 0 0.0016770138261217303 0.020071450994053566 0 0.0012307378208033738 0.020288111376752405 0 0.00045388837536475697 0.020374506731989456 0 -8.920023241487951e-05 0.020633762685717507 0 -0.00036977894067412477 0.021081679156001953 0 0.00085995148081711428 0.019921075228996367 0 -1.4822990518386643e-05 0.020693000254606124 0 7.3104546800057446e-05 0.020370069273181909 0 -0.00058745781147735807 0.020825215442066898 0 -8.920023241487951e-05 0.020633762685717507 0 -0.00058745781147735807 0.020825215442066898 0 -8.920023241487951e-05 0.020633762685717507 0 -0.00036977894067412477 0.021081679156001953 0 0.00031748992144578953 0.020330126462065671 0 0.00014814280339358051 0.021313299161347686 0 0.00083813182969733372 0.020986832863434834 0 0.0012307378208033738 0.020288111376752405 0 0.00031748992144578953 0.020330126462065671 0 0.00083813182969733372 0.020986832863434834 0 0.0020525291074007046 0.020879684407409605 0 0.0012307378208033738 0.020288111376752405 0 0.00083813182969733372 0.020986832863434834 0 0.0020525291074007046 0.020879684407409605 0 0.00083813182969733372 0.020986832863434834 0 0.0014709887414461689 0.021572789264933567 0 0.00083813182969733372 0.020986832863434834 0 0.0014709887414461689 0.021572789264933567 0 0.00069435707805546893 0.021806989103368781 0 0.0014709887414461689 0.021572789264933567 0 0.00069435707805546893 0.021806989103368781 0 0.001550263147808105 0.02244965621718218 0 0.0021679060184712569 0.021761023648536947 0 0.0014709887414461689 0.021572789264933567 0 0.001550263147808105 0.02244965621718218 0 -0.00028758711776296833 0.022087728337535029 0 0.00014814280339358051 0.021313299161347686 0 0.00069435707805546893 0.021806989103368781 0 -0.00028758711776296833 0.022087728337535029 0 0.00069435707805546893 0.021806989103368781 0 0.00038012311862134366 0.022625650413240377 0 0.00014814280339358051 0.021313299161347686 0 0.00083813182969733372 0.020986832863434834 0 0.00069435707805546893 0.021806989103368781 0 0.00038012311862134366 0.022625650413240377 0 0.001550263147808105 0.02244965621718218 0 0.00070909193643799021 0.02359229367002149 0 0.00069435707805546893 0.021806989103368781 0 0.00038012311862134366 0.022625650413240377 0 0.001550263147808105 0.02244965621718218 0 0.0023495597255623313 0.023481561197583767 0 0.001550263147808105 0.02244965621718218 0 0.00070909193643799021 0.02359229367002149 0 0.0023495597255623313 0.023481561197583767 0 0.0012959963936211665 0.024626795613431667 0 0.00070909193643799021 0.02359229367002149 0 0.0012959963936211665 0.024626795613431667 0 0.00031672288760784006 0.024430162496419095 0 0.0004197970763765312 0.025255898716715103 0 0.0012959963936211665 0.024626795613431667 0 0.00070909193643799021 0.02359229367002149 0 0.00031672288760784006 0.024430162496419095 0 -0.00014666555662623789 0.023901422855754306 0 0.00031672288760784006 0.024430162496419095 0 -0.0003350421938885225 0.024757188814300803 0 -0.00046781656750253912 0.023537464417059385 0 0.00065437197614510046 0.023623228623352529 0 -0.00014666555662623789 0.023901422855754306 0 0.00070909193643799021 0.02359229367002149 0 0.00031672288760784006 0.024430162496419095 0 -0.00075047276241543154 0.024301931292425416 0 -0.00014666555662623789 0.023901422855754306 0 -0.0003350421938885225 0.024757188814300803 0 -0.0010531933156674221 0.024735724021616383 0 -0.00075047276241543154 0.024301931292425416 0 -0.0003350421938885225 0.024757188814300803 0 -0.0010229964463345724 0.025535420930137585 0 -0.0003350421938885225 0.024757188814300803 0 -0.00033043922853415679 0.025827559005865714 0 0.00031672288760784006 0.024430162496419095 0 -0.0003350421938885225 0.024757188814300803 0 0.0004197970763765312 0.025255898716715103 0 -0.0003350421938885225 0.024757188814300803 0 0.0004197970763765312 0.025255898716715103 0 -0.00033043922853415679 0.025827559005865714 0 0.0004197970763765312 0.025255898716715103 0 -0.00033043922853415679 0.025827559005865714 0 0.00031738577429076594 0.026229949380563739 0 -0.00033043922853415679 0.025827559005865714 0 -0.00028986187472904878 0.02693840450626421 0 0.00031738577429076594 0.026229949380563739 0 -0.00083689350350043591 0.026504188591769416 0 -0.00028986187472904878 0.02693840450626421 0 -0.00074704840727465079 0.027461205848768815 0 -0.00083689350350043591 0.026504188591769416 0 -0.00033043922853415679 0.025827559005865714 0 -0.00028986187472904878 0.02693840450626421 0 -0.00028986187472904878 0.02693840450626421 0 0.00031738577429076594 0.026229949380563739 0 0.00073677255831379061 0.026978105082653192 0 0.00031738577429076594 0.026229949380563739 0 0.0016301317078902201 0.025795474875812449 0 0.00073677255831379061 0.026978105082653192 0 0.0016301317078902201 0.025795474875812449 0 0.001925526998015299 0.027234544245787261 0 0.00073677255831379061 0.026978105082653192 0 0.0016138197203380486 0.025792833240480924 0 0.0020728220719558352 0.027140218142488643 0 0.0027140808037311118 0.025092850878524871 0 0.0012959963936211665 0.024626795613431667 0 0.0016301317078902201 0.025795474875812449 0 0.0004197970763765312 0.025255898716715103 0 0.00031738577429076594 0.026229949380563739 0 0.0016301317078902201 0.025795474875812449 0 0.0012959963936211665 0.024626795613431667 0 0.0004197970763765312 0.025255898716715103 0 0.0016301317078902201 0.025795474875812449 0 0.00053100617191795089 0.028187210408507982 0 0.0013896168493323195 0.028387286870662304 0 0.0011424830267080001 0.027623444752819585 0 0.00053100617191795089 0.028187210408507982 0 0.0011424830267080001 0.027623444752819585 0 0.00021755903267356913 0.02754894506071922 0 0.00055123161297313222 0.02824932943027695 0 0.00060789437702531775 0.028348578303216378 0 0.0022030016316688058 0.028573415560074551 0 0.0013896168493323195 0.028387286870662304 0 0.001925526998015299 0.027234544245787261 0 0.0013896168493323195 0.028387286870662304 0 0.001925526998015299 0.027234544245787261 0 0.0011424830267080001 0.027623444752819585 0 0.00073677255831379061 0.026978105082653192 0 0.0011424830267080001 0.027623444752819585 0 0.00021755903267356913 0.02754894506071922 0 0.001925526998015299 0.027234544245787261 0 0.00073677255831379061 0.026978105082653192 0 0.0011424830267080001 0.027623444752819585 0 -0.00028986187472904878 0.02693840450626421 0 0.00073677255831379061 0.026978105082653192 0 0.00021755903267356913 0.02754894506071922 0 -0.00028986187472904878 0.02693840450626421 0 0.00021755903267356913 0.02754894506071922 0 -0.00027020335023050226 0.027902148306630348 0 -0.00028986187472904878 0.02693840450626421 0 -0.00027020335023050226 0.027902148306630348 0 -0.00074704840727465079 0.027461205848768815 0 0.00053100617191795089 0.028187210408507982 0 0.00021755903267356913 0.02754894506071922 0 -0.00027020335023050226 0.027902148306630348 0 0.00053100617191795089 0.028187210408507982 0 -0.00027020335023050226 0.027902148306630348 0 6.0644116316769956e-06 0.028407420573512303 0 0.00053100617191795089 0.028187210408507982 0 6.0644116316769956e-06 0.028407420573512303 0 0.00059437979032701306 0.028271207510507299 0 6.0644116316769956e-06 0.028407420573512303 0 7.2605409945652186e-05 0.028941245755323062 0 0.00059437979032701306 0.028271207510507299 0 6.0644116316769956e-06 0.028407420573512303 0 -0.00051536565950459866 0.029087342679140638 0 -0.00061163728058330285 0.02844668018854191 0 -0.00027020335023050226 0.027902148306630348 0 6.0644116316769956e-06 0.028407420573512303 0 -0.00061163728058330285 0.02844668018854191 0 6.0644116316769956e-06 0.028407420573512303 0 -0.00051536565950459866 0.029087342679140638 0 7.2605409945652186e-05 0.028941245755323062 0 -0.00051536565950459866 0.029087342679140638 0 7.2605409945652186e-05 0.028941245755323062 0 -0.00016421114452942618 0.029547387395298632 0 7.2605409945652186e-05 0.028941245755323062 0 0.00059437979032701306 0.028271207510507299 0 0.00060382643866198479 0.029392885995909855 0 0.00059437979032701306 0.028271207510507299 0 -2.6096330260073252e-05 0.027923836268032184 0 -5.459220218187953e-05 0.027032655237335192 0 0.00059437979032701306 0.028271207510507299 0 -5.459220218187953e-05 0.027032655237335192 0 0.00082961381456879229 0.026508708889577477 0 0.00062667270211972715 0.028201508822600505 0 0.00068068298571813662 0.027959639801261666 0 0.00053100617191795089 0.028187210408507982 0 5.1568339322639165e-05 0.028413004637968212 0 0.00059437979032701306 0.028271207510507299 0 5.1568339322639165e-05 0.028413004637968212 0 0.00059437979032701306 0.028271207510507299 0 -2.6096330260073252e-05 0.027923836268032184 0 -0.00079280288495606514 0.028345558928845462 0 5.1568339322639165e-05 0.028413004637968212 0 -0.00047801323109909776 0.027940505399695496 0 0.0013912225369143401 0.02767477153798209 0 0.00060789437702531775 0.028348578303216378 0 5.1568339322639165e-05 0.028413004637968212 0 -2.6096330260073252e-05 0.027923836268032184 0 -0.00047801323109909776 0.027940505399695496 0 -2.6096330260073252e-05 0.027923836268032184 0 -0.00047801323109909776 0.027940505399695496 0 -0.00057204303215324713 0.027430052776311328 0 -0.0010511640966426831 0.027481004255642465 0 -0.00047801323109909776 0.027940505399695496 0 -0.00057204303215324713 0.027430052776311328 0 -2.6096330260073252e-05 0.027923836268032184 0 -0.00057204303215324713 0.027430052776311328 0 -5.459220218187953e-05 0.027032655237335192 0 -0.00057204303215324713 0.027430052776311328 0 -5.459220218187953e-05 0.027032655237335192 0 -0.00080861546993927559 0.026714008370211113 0 -0.0012672209564687799 0.026372075030438077 0 -0.00080861546993927559 0.026714008370211113 0 -0.00072939485462665608 0.025637284304875527 0 -5.459220218187953e-05 0.027032655237335192 0 -0.00080861546993927559 0.026714008370211113 0 -0.00072939485462665608 0.025637284304875527 0 -5.459220218187953e-05 0.027032655237335192 0 0.00082961381456879229 0.026508708889577477 0 -0.00072939485462665608 0.025637284304875527 0 0.00068068298571813662 0.027959639801261666 0 0.00062177669064272453 0.027263424963802126 0 0.00082961381456879229 0.026508708889577477 0 0.00061091375231574143 0.024741231107836364 0 -0.00072939485462665608 0.025637284304875527 0 0.00060382643866198479 0.029392885995909855 0 0.00051342318804169468 0.030080647124023557 0 0.00013531793069533447 0.029916669079911744 0 0.00061091375231574143 0.024741231107836364 0 -0.00072939485462665608 0.025637284304875527 0 -0.00063051103944037007 0.02461441152162492 0 -0.0012085411485787739 0.024984973202718835 0 -0.00072939485462665608 0.025637284304875527 0 -0.00063051103944037007 0.02461441152162492 0 0.00061091375231574143 0.024741231107836364 0 -0.00063051103944037007 0.02461441152162492 0 -0.00052404775568663049 0.023837268257676389 0 -0.0012437193855808846 0.024131899840098659 0 -0.00063051103944037007 0.02461441152162492 0 -0.00052404775568663049 0.023837268257676389 0 0.00051342318804169468 0.030080647124023557 0 0.00048308095946805925 0.030676170081439035 0 0.00017848090406114296 0.030680355998468772 0 0.00061091375231574143 0.024741231107836364 0 -0.00052404775568663049 0.023837268257676389 0 0.00031276028716724938 0.023220484907254174 0 0.00062177669064272453 0.027263424963802126 0 -0.00034449590618556235 0.027703666383996736 0 -0.00034449590618556235 0.027703666383996736 0 -0.00058016990092018129 0.029011514525386476 0 -0.00034449590618556235 0.027703666383996736 0 0.00033184640461030176 0.029677009523234359 0 0.00016843582194510145 0.030704476461154956 0 0.00017848090406114296 0.030680355998468772 0 8.9289974281750768e-05 0.030822986785832611 0 -0.0013695871177116781 0.023328400555325656 0 -0.00052404775568663049 0.023837268257676389 0 0.00031276028716724938 0.023220484907254174 0 -0.0010810554197829541 0.024736597479431553 0 -0.00034449590618556235 0.027703666383996736 0 -0.00078325894637213257 0.026721733307109995 0 -0.001290910846216917 0.02673596386245122 0 -0.0012508940475970324 0.027075559999226437 0 -0.0002271366500802992 0.030620615443555477 0 2.3196098926689942e-05 0.03076516034812719 0 -0.00033353663974813115 0.030941202046772032 0 -0.0002271366500802992 0.030620615443555477 0 -0.0006726495316940371 0.030636710843089679 0 -0.00033353663974813115 0.030941202046772032 0 -0.0002271366500802992 0.030620615443555477 0 2.3196098926689942e-05 0.03076516034812719 0 5.2897557448607762e-06 0.030437875006514823 0 2.3196098926689942e-05 0.03076516034812719 0 0.00017848090406114296 0.030680355998468772 0 5.2897557448607762e-06 0.030437875006514823 0 2.3196098926689942e-05 0.03076516034812719 0 0.00017848090406114296 0.030680355998468772 0 8.9289974281750768e-05 0.030822986785832611 0 5.2897557448607762e-06 0.030437875006514823 0 -0.0002466804576562653 0.030204214834269355 0 0.00013531793069533447 0.029916669079911744 0 0.00051342318804169468 0.030080647124023557 0 0.00017848090406114296 0.030680355998468772 0 5.2897557448607762e-06 0.030437875006514823 0 -0.0002271366500802992 0.030620615443555477 0 -0.0002466804576562653 0.030204214834269355 0 -0.00048108288230400587 0.030425502493733665 0 -0.0002271366500802992 0.030620615443555477 0 5.2897557448607762e-06 0.030437875006514823 0 -0.0002466804576562653 0.030204214834269355 0 -0.0002466804576562653 0.030204214834269355 0 0.00013531793069533447 0.029916669079911744 0 -0.00016421114452942618 0.029547387395298632 0 -0.0002466804576562653 0.030204214834269355 0 -0.00016421114452942618 0.029547387395298632 0 -0.0005901936154452574 0.029824827415137711 0 0.00051342318804169468 0.030080647124023557 0 5.2897557448607762e-06 0.030437875006514823 0 0.00013531793069533447 0.029916669079911744 0 0.00060382643866198479 0.029392885995909855 0 0.00013531793069533447 0.029916669079911744 0 -0.00016421114452942618 0.029547387395298632 0 7.2605409945652186e-05 0.028941245755323062 0 0.00060382643866198479 0.029392885995909855 0 -0.00016421114452942618 0.029547387395298632 0 -0.00051536565950459866 0.029087342679140638 0 -0.00016421114452942618 0.029547387395298632 0 -0.0005901936154452574 0.029824827415137711 0 -0.00051536565950459866 0.029087342679140638 0 -0.0010635465834501296 0.029709419832187774 0 -0.0005901936154452574 0.029824827415137711 0 -0.0010635465834501296 0.029709419832187774 0 -0.001075118792910377 0.030179734735119899 0 -0.000998937598414375 0.03046368775792822 0 -0.0010635465834501296 0.029709419832187774 0 -0.0018899172013375372 0.029220751487873318 0 -0.0016590065666581882 0.029000770874965012 0 -0.0010476004887416534 0.029736197135851735 0 -0.0013227521781293511 0.029851626872386589 0 -0.0010635465834501296 0.029709419832187774 0 -0.001075118792910377 0.030179734735119899 0 -0.00076161130728489364 0.030230318607574247 0 -0.0002466804576562653 0.030204214834269355 0 -0.0005901936154452574 0.029824827415137711 0 -0.00076161130728489364 0.030230318607574247 0 -0.0010635465834501296 0.029709419832187774 0 -0.0005901936154452574 0.029824827415137711 0 -0.00076161130728489364 0.030230318607574247 0 -0.0002466804576562653 0.030204214834269355 0 -0.00048108288230400587 0.030425502493733665 0 -0.00076161130728489364 0.030230318607574247 0 -0.00048108288230400587 0.030425502493733665 0 -0.00076161130728489364 0.030230318607574247 0 -0.0006726495316940371 0.030636710843089679 0 -0.001075118792910377 0.030179734735119899 0 -0.00076161130728489364 0.030230318607574247 0 -0.0010233805817416351 0.030375134338049965 0 -0.00076161130728489364 0.030230318607574247 0 -0.0010233805817416351 0.030375134338049965 0 -0.0006726495316940371 0.030636710843089679 0 -0.0010878404648786526 0.030406593742369554 0 -0.00072405312454668265 0.030605880918702442 0 -0.0012772908075497494 0.030381836453402984 0 -0.0006726495316940371 0.030636710843089679 0 -0.0013696633302473769 0.031023000601436607 0 -0.0002271366500802992 0.030620615443555477 0 -0.00048108288230400587 0.030425502493733665 0 -0.0006726495316940371 0.030636710843089679 0 -0.0023717756511280647 0.030781461281167096 0 -0.0018396282661677318 0.030613437276801179 0 -0.0022996840272231853 0.030399146115604989 0 -0.0023717756511280647 0.030781461281167096 0 -0.0018396282661677318 0.030613437276801179 0 -0.0020383515843067665 0.031033895243996086 0 -0.0023717756511280647 0.030781461281167096 0 -0.0026096789854637547 0.031205033657905498 0 -0.0020383515843067665 0.031033895243996086 0 -0.0018396282661677318 0.030613437276801179 0 -0.0013696633302473769 0.031023000601436607 0 -0.0020383515843067665 0.031033895243996086 0 -0.0012772908075497494 0.030381836453402984 0 -0.0018396282661677318 0.030613437276801179 0 -0.0013696633302473769 0.031023000601436607 0 -0.001075118792910377 0.030179734735119899 0 -0.0010233805817416351 0.030375134338049965 0 -0.00096583524604070513 0.030257723421060589 0 -0.0012772908075497494 0.030381836453402984 0 -0.0018396282661677318 0.030613437276801179 0 -0.0018818868710700255 0.030118514092270465 0 -0.0010878404648786526 0.030406593742369554 0 -0.0015895881004420712 0.030084668557417274 0 -0.0022996840272231853 0.030399146115604989 0 -0.0018818868710700255 0.030118514092270465 0 -0.0024701456418949868 0.029840707263271822 0 -0.0018396282661677318 0.030613437276801179 0 -0.0022996840272231853 0.030399146115604989 0 -0.0018818868710700255 0.030118514092270465 0 -0.00096583524604070513 0.030257723421060589 0 -0.00056032472523439485 0.030652280380459668 0 -0.00053615717079876185 0.030603378603589648 0 -0.00096583524604070513 0.030257723421060589 0 -0.000998937598414375 0.03046368775792822 0 -0.00056032472523439485 0.030652280380459668 0 -0.0015895881004420712 0.030084668557417274 0 -0.00085644561211482178 0.031229809009464773 0 -0.001075118792910377 0.030179734735119899 0 -0.00096583524604070513 0.030257723421060589 0 -0.000998937598414375 0.03046368775792822 0 -0.000998937598414375 0.03046368775792822 0 -0.00042423253933092972 0.030913443211804854 0 -0.00056032472523439485 0.030652280380459668 0 -0.0018899172013375372 0.029220751487873318 0 -0.0020529217729093213 0.028822805261543908 0 -0.0020009335857165745 0.028753664887534645 0 -0.0013227521781293511 0.029851626872386589 0 -0.001353577463856837 0.029574760242366088 0 -0.0020529217729093213 0.028822805261543908 0 -0.002179324128020538 0.028618495380849127 0 -0.0020186333291139437 0.028669609449206285 0 -0.0020529217729093213 0.028822805261543908 0 -0.002179324128020538 0.028618495380849127 0 -0.0017714758566788472 0.028624995381849906 0 -0.0020529217729093213 0.028822805261543908 0 -0.0017714758566788472 0.028624995381849906 0 -0.0016590065666581882 0.029000770874965012 0 -0.0018899172013375372 0.029220751487873318 0 -0.0020529217729093213 0.028822805261543908 0 -0.0016590065666581882 0.029000770874965012 0 -0.0010635465834501296 0.029709419832187774 0 -0.0016590065666581882 0.029000770874965012 0 -0.0011374881242182157 0.028778765854896731 0 -0.0017714758566788472 0.028624995381849906 0 -0.0016590065666581882 0.029000770874965012 0 -0.0011374881242182157 0.028778765854896731 0 -0.00051536565950459866 0.029087342679140638 0 -0.0011374881242182157 0.028778765854896731 0 -0.00061163728058330285 0.02844668018854191 0 -0.00051536565950459866 0.029087342679140638 0 -0.0010635465834501296 0.029709419832187774 0 -0.0011374881242182157 0.028778765854896731 0 -0.0011374881242182157 0.028778765854896731 0 -0.00061163728058330285 0.02844668018854191 0 -0.0011064105849366798 0.02811445903090011 0 -0.0017714758566788472 0.028624995381849906 0 -0.0011374881242182157 0.028778765854896731 0 -0.0011064105849366798 0.02811445903090011 0 -0.0017714758566788472 0.028624995381849906 0 -0.0011064105849366798 0.02811445903090011 0 -0.0018652787457980283 0.027996075869932472 0 -0.00027020335023050226 0.027902148306630348 0 -0.00061163728058330285 0.02844668018854191 0 -0.0011064105849366798 0.02811445903090011 0 -0.00027020335023050226 0.027902148306630348 0 -0.0011064105849366798 0.02811445903090011 0 -0.00074704840727465079 0.027461205848768815 0 -0.0011064105849366798 0.02811445903090011 0 -0.00074704840727465079 0.027461205848768815 0 -0.0013360271942025896 0.027253721238902909 0 -0.0011064105849366798 0.02811445903090011 0 -0.0013360271942025896 0.027253721238902909 0 -0.0018652787457980283 0.027996075869932472 0 -0.0021638186479152875 0.026839112091714037 0 -0.0013360271942025896 0.027253721238902909 0 -0.0018652787457980283 0.027996075869932472 0 -0.0021638186479152875 0.026839112091714037 0 -0.0018652787457980283 0.027996075869932472 0 -0.0023198394596104636 0.027620011047240049 0 -0.0029257871671093372 0.027069206048527073 0 -0.0023198394596104636 0.027620011047240049 0 -0.0025355876607475038 0.028591902084479121 0 -0.0027199989867631143 0.028715998987764977 0 -0.0025770014768437253 0.028642222248601027 0 -0.0018652787457980283 0.027996075869932472 0 -0.0023198394596104636 0.027620011047240049 0 -0.0025355876607475038 0.028591902084479121 0 -0.002179324128020538 0.028618495380849127 0 -0.0018652787457980283 0.027996075869932472 0 -0.0025355876607475038 0.028591902084479121 0 -0.002179324128020538 0.028618495380849127 0 -0.0025355876607475038 0.028591902084479121 0 -0.0020186333291139437 0.028669609449206285 0 -0.002179324128020538 0.028618495380849127 0 -0.0017714758566788472 0.028624995381849906 0 -0.0018652787457980283 0.027996075869932472 0 -0.0016777411650570112 0.028834013060751451 0 -0.0015208658480643789 0.029580602908650947 0 -0.0008964438896535466 0.028936682569614011 0 -0.0025355876607475038 0.028591902084479121 0 -0.0016777411650570112 0.028834013060751451 0 -0.0020186333291139437 0.028669609449206285 0 -0.0025355876607475038 0.028591902084479121 0 -0.0016777411650570112 0.028834013060751451 0 -0.0015208658480643789 0.029580602908650947 0 -0.0025738029225251609 0.03042724291885 0 -0.0025355876607475038 0.028591902084479121 0 -0.0015208658480643789 0.029580602908650947 0 0.00025093469439935065 0.031515709367091374 0 -6.28311815717108e-05 0.031468770124191824 0 -0.0015208658480643789 0.029580602908650947 0 -0.00018968123792628463 0.029946192485515926 0 -0.0008964438896535466 0.028936682569614011 0 -0.00082868427405825395 0.03070669163261288 0 -0.0015208658480643789 0.029580602908650947 0 -0.00018968123792628463 0.029946192485515926 0 0.00076932218628085036 0.033058304142742322 0 0.00076099470946806727 0.033940670644131622 0 0.00017108782308338839 0.033806939493137581 0 0.00076099470946806727 0.033940670644131622 0 0.00034846788575049561 0.034365194347912416 0 0.00017108782308338839 0.033806939493137581 0 -0.0016777411650570112 0.028834013060751451 0 -0.0008964438896535466 0.028936682569614011 0 -0.0015061893678959544 0.028599678451739122 0 -6.28311815717108e-05 0.031468770124191824 0 -0.00039218300402639537 0.031412029526033412 0 0.00076099470946806727 0.033940670644131622 0 0.00034846788575049561 0.034365194347912416 0 0.00066428997143232465 0.034391072198738146 0 0.00034846788575049561 0.034365194347912416 0 0.00066428997143232465 0.034391072198738146 0 0.00015354130678895089 0.034738242339136249 0 -0.00039218300402639537 0.031412029526033412 0 -0.00069564078920604196 0.032170131708410085 0 -0.0015061893678959544 0.028599678451739122 0 -0.0018940628278333923 0.028649189493662786 0 -0.0017627403641115378 0.028553447493919328 0 -0.0015061893678959544 0.028599678451739122 0 -0.0018940628278333923 0.028649189493662786 0 -0.0020186333291139437 0.028669609449206285 0 -0.0016777411650570112 0.028834013060751451 0 -0.0015061893678959544 0.028599678451739122 0 -0.0020186333291139437 0.028669609449206285 0 -0.0020529217729093213 0.028822805261543908 0 -0.0018940628278333923 0.028649189493662786 0 -0.0020009335857165745 0.028753664887534645 0 -0.0020529217729093213 0.028822805261543908 0 -0.0018940628278333923 0.028649189493662786 0 -0.0020186333291139437 0.028669609449206285 0 -0.0018940628278333923 0.028649189493662786 0 -0.0020009335857165745 0.028753664887534645 0 -0.0017627403641115378 0.028553447493919328 0 -0.00042423253933092972 0.030913443211804854 0 -0.00097337385510357273 0.030837116148878733 0 -0.00045428963806669326 0.031261112035779075 0 -0.001353577463856837 0.029574760242366088 0 -0.00069564078920604196 0.032170131708410085 0 -0.00069564078920604196 0.032170131708410085 0 -0.00059099566071026295 0.033237475012757929 0 -0.0010547970912247885 0.031704948814458983 0 -0.00045428963806669326 0.031261112035779075 0 -0.00042415929481308477 0.032431860582884893 0 -0.00097337385510357273 0.030837116148878733 0 -0.0010547970912247885 0.031704948814458983 0 -0.00045428963806669326 0.031261112035779075 0 -0.0010547970912247885 0.031704948814458983 0 -0.00042415929481308477 0.032431860582884893 0 -0.00033562840524404847 0.033835173363493246 0 -0.00059099566071026295 0.033237475012757929 0 -0.00041697881171991305 0.033711042808977153 0 -0.00045428963806669326 0.031261112035779075 0 -0.00042415929481308477 0.032431860582884893 0 0.00015475746336586808 0.032872894120256339 0 -0.00042423253933092972 0.030913443211804854 0 -0.00045428963806669326 0.031261112035779075 0 -0.00056032472523439485 0.030652280380459668 0 -0.00045428963806669326 0.031261112035779075 0 -0.00056032472523439485 0.030652280380459668 0 -0.0005461710479754085 0.030627005120231025 0 -0.00010572251398254611 0.031418074760614499 0 -0.00085644561211482178 0.031229809009464773 0 -0.00045428963806669326 0.031261112035779075 0 0.00015475746336586808 0.032872894120256339 0 0.0012443009708391396 0.032487749722657951 0 -0.00081207407072660749 0.03114120608309234 0 -0.00085644561211482178 0.031229809009464773 0 0.00015475746336586808 0.032872894120256339 0 0.0012443009708391396 0.032487749722657951 0 -0.00011548239429842613 0.034598154591619031 0 -0.0022996840272231853 0.030399146115604989 0 -0.0024701456418949868 0.029840707263271822 0 -0.0028896535394830345 0.030654063895838714 0 -0.00085644561211482178 0.031229809009464773 0 -0.0014970825966580459 0.032503687935657076 0 -0.00042415929481308477 0.032431860582884893 0 0.00015475746336586808 0.032872894120256339 0 -0.00033562840524404847 0.033835173363493246 0 -0.00033562840524404847 0.033835173363493246 0 -0.00011548239429842613 0.034598154591619031 0 -0.00026278657376599922 0.034461166523361585 0 -0.00033562840524404847 0.033835173363493246 0 -0.00026278657376599922 0.034461166523361585 0 -0.00019331351048862733 0.034297041987174343 0 0.00015475746336586808 0.032872894120256339 0 -0.00033562840524404847 0.033835173363493246 0 -0.00011548239429842613 0.034598154591619031 0 -0.00034060117306702263 0.03446671466897791 0 -0.00033562840524404847 0.033835173363493246 0 -0.00019331351048862733 0.034297041987174343 0 -0.00011548239429842613 0.034598154591619031 0 -0.00026278657376599922 0.034461166523361585 0 -0.00023063318849685522 0.034533681681048797 0 -0.0023717756511280647 0.030781461281167096 0 -0.0022996840272231853 0.030399146115604989 0 -0.0028896535394830345 0.030654063895838714 0 -0.0023717756511280647 0.030781461281167096 0 -0.0028896535394830345 0.030654063895838714 0 -0.0026096789854637547 0.031205033657905498 0 -0.00013063020098708184 0.034539857111167957 0 -6.181988189176377e-05 0.034801937396887105 0 -0.00017683705800911924 0.034516110932598904 0 -0.00026278657376599922 0.034461166523361585 0 -0.00013063020098708184 0.034539857111167957 0 -0.00017683705800911924 0.034516110932598904 0 -0.00026278657376599922 0.034461166523361585 0 -0.00019331351048862733 0.034297041987174343 0 -0.00013063020098708184 0.034539857111167957 0 -0.00019331351048862733 0.034297041987174343 0 -0.00013063020098708184 0.034539857111167957 0 -6.5539134361787969e-05 0.034555506813390084 0 -0.00013063020098708184 0.034539857111167957 0 -6.5539134361787969e-05 0.034555506813390084 0 -6.092156884438031e-07 0.034739441171624245 0 -6.5539134361787969e-05 0.034555506813390084 0 0.00015354130678895089 0.034738242339136249 0 -6.092156884438031e-07 0.034739441171624245 0 -0.00034060117306702263 0.03446671466897791 0 -0.00019331351048862733 0.034297041987174343 0 -6.5539134361787969e-05 0.034555506813390084 0 -0.00026352415688549652 0.034722344876253544 0 -0.00034060117306702263 0.03446671466897791 0 -6.5539134361787969e-05 0.034555506813390084 0 -0.00026352415688549652 0.034722344876253544 0 -6.5539134361787969e-05 0.034555506813390084 0 0.00015354130678895089 0.034738242339136249 0 0.00066428997143232465 0.034391072198738146 0 0.00073977806435006799 0.034764587909334427 0 0.00015354130678895089 0.034738242339136249 0 -0.00069564078920604196 0.032170131708410085 0 0.00056741059424263184 0.035391984431521618 0 0.00015354130678895089 0.034738242339136249 0 -6.092156884438031e-07 0.034739441171624245 0 1.52416086631647e-05 0.034718494934213959 0 -3.06405961236096e-05 0.034829188075968263 0 -0.00013820159102200132 0.034782516181920964 0 1.52416086631647e-05 0.034718494934213959 0 -3.06405961236096e-05 0.034829188075968263 0 -6.092156884438031e-07 0.034739441171624245 0 -2.8810328962378585e-05 0.034890874503818177 0 -3.06405961236096e-05 0.034829188075968263 0 -6.092156884438031e-07 0.034739441171624245 0 1.52416086631647e-05 0.034718494934213959 0 -0.00013063020098708184 0.034539857111167957 0 -6.092156884438031e-07 0.034739441171624245 0 -6.181988189176377e-05 0.034801937396887105 0 -6.092156884438031e-07 0.034739441171624245 0 -6.181988189176377e-05 0.034801937396887105 0 -2.8810328962378585e-05 0.034890874503818177 0 -6.181988189176377e-05 0.034801937396887105 0 -2.8810328962378585e-05 0.034890874503818177 0 -1.0768599820013505e-05 0.034847884281445134 0 -0.00019413552439809324 0.034718717052401885 0 -0.00013242328483965067 0.034921086779384651 0 -2.8810328962378585e-05 0.034890874503818177 0 6.325478470982211e-08 0.0349998662081887 0 -1.0768599820013505e-05 0.034847884281445134 0 -2.8810328962378585e-05 0.034890874503818177 0 -9.4725562249663659e-08 0.034999835785847505 0 6.325478470982211e-08 0.0349998662081887 0 -2.8810328962378585e-05 0.034890874503818177 0 -9.4725562249663659e-08 0.034999835785847505 0 -3.2490255317503619e-05 0.034928420840595907 0 -3.2490255317503619e-05 0.034928420840595907 0 1.4324843172182969e-07 0.034999980313854359 0 -0.00013820159102200132 0.034782516181920964 0 -3.06405961236096e-05 0.034829188075968263 0 -3.2490255317503619e-05 0.034928420840595907 0 -0.00013820159102200132 0.034782516181920964 0 -9.4725562249663659e-08 0.034999835785847505 0 -3.2490255317503619e-05 0.034928420840595907 0 1.4324843172182969e-07 0.034999980313854359 0 -3.06405961236096e-05 0.034829188075968263 0 -2.8810328962378585e-05 0.034890874503818177 0 -3.2490255317503619e-05 0.034928420840595907 0 1.4324843172182969e-07 0.034999980313854359 0 -8.8073627186928742e-07 0.034998970380863768 0 -0.00013820159102200132 0.034782516181920964 0 -1.0549189919036132e-08 0.03499981667174612 0 -0.00014781024292809825 0.034651598877321756 0 -8.8073627186928742e-07 0.034998970380863768 0 -0.00013820159102200132 0.034782516181920964 0 -0.00035329291654547212 0.034377936522897029 0 -0.00013820159102200132 0.034782516181920964 0 -0.00023130354778698283 0.034162158926819022 0 -0.00035329291654547212 0.034377936522897029 0 -0.00013820159102200132 0.034782516181920964 0 1.52416086631647e-05 0.034718494934213959 0 2.9153353914416518e-05 0.03436147799661679 0 0.00034846788575049561 0.034365194347912416 0 0.00015354130678895089 0.034738242339136249 0 1.52416086631647e-05 0.034718494934213959 0 0.00034846788575049561 0.034365194347912416 0 1.52416086631647e-05 0.034718494934213959 0 2.9153353914416518e-05 0.03436147799661679 0 0.00034846788575049561 0.034365194347912416 0 2.9153353914416518e-05 0.03436147799661679 0 0.00017108782308338839 0.033806939493137581 0 -0.00013820159102200132 0.034782516181920964 0 2.9153353914416518e-05 0.03436147799661679 0 -0.00023130354778698283 0.034162158926819022 0 -0.00023130354778698283 0.034162158926819022 0 0.00017108782308338839 0.033806939493137581 0 -0.00047700340171499383 0.033460099959082501 0 2.9153353914416518e-05 0.03436147799661679 0 -0.00023130354778698283 0.034162158926819022 0 0.00017108782308338839 0.033806939493137581 0 -0.00011077986060993858 0.032213188421984493 0 0.00076932218628085036 0.033058304142742322 0 0.00017108782308338839 0.033806939493137581 0 -0.00011077986060993858 0.032213188421984493 0 0.00017108782308338839 0.033806939493137581 0 -0.00047700340171499383 0.033460099959082501 0 1.4653369321127681e-05 0.034989873253290456 0 1.5313892680341635e-06 0.034994146305066622 0 2.8495478773564822e-06 0.034999352531131282 0 7.2527533970841549e-06 0.034985795877778655 0 1.4653369321127681e-05 0.034989873253290456 0 1.5313892680341635e-06 0.034994146305066622 0 1.5313892680341635e-06 0.034994146305066622 0 1.4452717924830029e-09 0.034999998044769512 0 2.8495478773564822e-06 0.034999352531131282 0 -3.2524644043389456e-09 0.034999970372213425 0 1.5313892680341635e-06 0.034994146305066622 0 1.4452717924830029e-09 0.034999998044769512 0 1.488569412903884e-10 0.03500000129205056 0 1.4452717924830029e-09 0.034999998044769512 0 2.8495478773564822e-06 0.034999352531131282 0 -0.00017343961725487859 0.034217478544794296 0 -0.00014781024292809825 0.034651598877321756 0 -0.00023130354778698283 0.034162158926819022 0 -0.00047700340171499383 0.033460099959082501 0 -0.00035329291654547212 0.034377936522897029 0 -4.5723338546526068e-05 0.035049421335167308 0 0.00025850662793143339 0.033778930004622329 0 -0.00019898270140803796 0.034995246037005996 0 -0.00011795127906910444 0.035049089038498599 0 -0.00026292750723157725 0.035052900321346329 0 -0.00019898270140803796 0.034995246037005996 0 -7.8517293397275205e-05 0.034975361857609445 0 -0.0002164175432866334 0.034924000017899311 0 -0.00019898270140803796 0.034995246037005996 0 -0.00011795127906910444 0.035049089038498599 0 -7.8517293397275205e-05 0.034975361857609445 0 -1.4250499164811259e-07 0.035000343213434405 0 -7.8517293397275205e-05 0.034975361857609445 0 2.030139575749058e-07 0.034999502502149761 0 -4.5723338546526068e-05 0.035049421335167308 0 4.8147841879606831e-08 0.035000030481539213 0 -0.00011795127906910444 0.035049089038498599 0 -1.4250499164811259e-07 0.035000343213434405 0 -7.8517293397275205e-05 0.034975361857609445 0 2.030139575749058e-07 0.034999502502149761 0 -8.8058938812879612e-05 0.034860708030222863 0 4.7616801506044592e-05 0.034600649741944316 0 -7.8517293397275205e-05 0.034975361857609445 0 2.030139575749058e-07 0.034999502502149761 0 -8.8058938812879612e-05 0.034860708030222863 0 -0.0002164175432866334 0.034924000017899311 0 -0.00042152084278131104 0.034787127534958467 0 -0.00019884538527351848 0.034703270196270931 0 -8.8058938812879612e-05 0.034860708030222863 0 -0.0002164175432866334 0.034924000017899311 0 -0.00019884538527351848 0.034703270196270931 0 -7.8517293397275205e-05 0.034975361857609445 0 -8.8058938812879612e-05 0.034860708030222863 0 -0.0002164175432866334 0.034924000017899311 0 -0.00019898270140803796 0.034995246037005996 0 -0.0002164175432866334 0.034924000017899311 0 -0.00028405459295982735 0.034913589603168385 0 0.00147569350591916 0.030767226476252026 0 0.001546354761245446 0.030892897602558415 0 0.00093337702311569164 0.03090577069288418 0 0.00090702486434995964 0.032070597971732881 0 0.00052950607953894196 0.032995946098606031 0 0.001507855605610025 0.030648217367409209 0 0.00147569350591916 0.030767226476252026 0 0.001546354761245446 0.030892897602558415 0 0.0015159635066451513 0.030630468397954941 0 0.00147569350591916 0.030767226476252026 0 0.0011999767981625128 0.030515812938667886 0 0.00090702486434995964 0.032070597971732881 0 0.001180163411409074 0.031272360465210924 0 -0.0002164175432866334 0.034924000017899311 0 -0.00042152084278131104 0.034787127534958467 0 -0.00039329460574325301 0.034923105210104874 0 -0.0003962692329558003 0.03431949712138211 0 0.00052950607953894196 0.032995946098606031 0 0.00147569350591916 0.030767226476252026 0 0.00093337702311569164 0.03090577069288418 0 0.0011999767981625128 0.030515812938667886 0 0.00052950607953894196 0.032995946098606031 0 0.00052229695113781901 0.031277928701156414 0 0.00054498363238169581 0.031915409241361783 0 -0.00010762490306104433 0.031909939965064027 0 0.00027956542666568175 0.032178848923514053 0 -0.00010762490306104433 0.031909939965064027 0 6.3217427112678451e-05 0.032454625495156306 0 0.00027956542666568175 0.032178848923514053 0 -0.00010762490306104433 0.031909939965064027 0 6.3217427112678451e-05 0.032454625495156306 0 -0.00050985291034207048 0.032470509599042761 0 0.00054498363238169581 0.031915409241361783 0 0.00027956542666568175 0.032178848923514053 0 0.00061674619191599681 0.032435502074742294 0 -3.0626517950994481e-06 0.032497593017068456 0 0.00025850662793143339 0.033778930004622329 0 -0.00019898270140803796 0.034995246037005996 0 -0.00028405459295982735 0.034913589603168385 0 -0.00026292750723157725 0.035052900321346329 0 0.00052950607953894196 0.032995946098606031 0 0.00025850662793143339 0.033778930004622329 0 6.3217427112678451e-05 0.032454625495156306 0 0.00027956542666568175 0.032178848923514053 0 0.00061674619191599681 0.032435502074742294 0 9.9265448126666003e-05 0.032984941191937851 0 -0.00021881550347519488 0.033241299152358302 0 0.00042984521243772506 0.033372631594880964 0 -0.00016136973154763209 0.032656535794672238 0 0.00038372013134542498 0.032664443881846125 0 9.9265448126666003e-05 0.032984941191937851 0 0.00038372013134542498 0.032664443881846125 0 9.9265448126666003e-05 0.032984941191937851 0 0.00042984521243772506 0.033372631594880964 0 0.00025850662793143339 0.033778930004622329 0 0.00035782983312361235 0.034138646349135125 0 -0.00016136973154763209 0.032656535794672238 0 -0.00021881550347519488 0.033241299152358302 0 -0.00050985291034207048 0.032470509599042761 0 -0.00016136973154763209 0.032656535794672238 0 9.9265448126666003e-05 0.032984941191937851 0 -0.00021881550347519488 0.033241299152358302 0 -0.00021881550347519488 0.033241299152358302 0 -0.00016156465753038583 0.034178125391401484 0 -0.00062764512811674174 0.033333974359363125 0 -0.00021881550347519488 0.033241299152358302 0 0.00042984521243772506 0.033372631594880964 0 0.00026679405962858738 0.034452086536515554 0 0.00035782983312361235 0.034138646349135125 0 0.00030063653891232992 0.034387432155062188 0 0.00031532107499086684 0.034873376743267633 0 0.000101576813783683 0.03495142747282759 0 0.00026679405962858738 0.034452086536515554 0 0.00012052949967905552 0.035064049912969776 0 0.00031532107499086684 0.034873376743267633 0 0.000101576813783683 0.03495142747282759 0 0.00012052949967905552 0.035064049912969776 0 0.00031709161035553042 0.035057637611839811 0 0.00031532107499086684 0.034873376743267633 0 0.00012052949967905552 0.035064049912969776 0 8.2887349190575903e-08 0.035000330600653641 0 0.000101576813783683 0.03495142747282759 0 8.2887349190575903e-08 0.035000330600653641 0 0.000101576813783683 0.03495142747282759 0 -3.3070593074329111e-08 0.03499960508695487 0 0.000101576813783683 0.03495142747282759 0 -3.3070593074329111e-08 0.03499960508695487 0 0.00026679405962858738 0.034452086536515554 0 -3.3070593074329111e-08 0.03499960508695487 0 0.00026679405962858738 0.034452086536515554 0 1.8189151952965764e-07 0.034999514678320132 0 0.00026679405962858738 0.034452086536515554 0 9.705115134303724e-05 0.034751465732477019 0 6.2074558976627642e-05 0.034521156247417889 0 0.00026679405962858738 0.034452086536515554 0 9.705115134303724e-05 0.034751465732477019 0 1.8189151952965764e-07 0.034999514678320132 0 9.705115134303724e-05 0.034751465732477019 0 1.8189151952965764e-07 0.034999514678320132 0 6.325478470982211e-08 0.0349998662081887 0 9.705115134303724e-05 0.034751465732477019 0 6.325478470982211e-08 0.0349998662081887 0 -1.0768599820013505e-05 0.034847884281445134 0 -6.181988189176377e-05 0.034801937396887105 0 -0.00016329362680280756 0.034797233531267367 0 -0.00046292291357719317 0.034923113781474578 0 -0.00016329362680280756 0.034797233531267367 0 -1.0768599820013505e-05 0.034847884281445134 0 -4.7974772476485595e-05 0.034664943133957044 0 -6.181988189176377e-05 0.034801937396887105 0 -0.00016329362680280756 0.034797233531267367 0 -1.0768599820013505e-05 0.034847884281445134 0 9.705115134303724e-05 0.034751465732477019 0 -1.0768599820013505e-05 0.034847884281445134 0 -4.7974772476485595e-05 0.034664943133957044 0 -0.00016329362680280756 0.034797233531267367 0 -4.7974772476485595e-05 0.034664943133957044 0 -0.00043116737512107861 0.034627776559153042 0 -4.7974772476485595e-05 0.034664943133957044 0 -0.00016156465753038583 0.034178125391401484 0 -0.00043116737512107861 0.034627776559153042 0 -4.7974772476485595e-05 0.034664943133957044 0 6.2074558976627642e-05 0.034521156247417889 0 -0.00016156465753038583 0.034178125391401484 0 9.705115134303724e-05 0.034751465732477019 0 -4.7974772476485595e-05 0.034664943133957044 0 6.2074558976627642e-05 0.034521156247417889 0 -0.00021881550347519488 0.033241299152358302 0 0.00026679405962858738 0.034452086536515554 0 -0.00016156465753038583 0.034178125391401484 0 0.00026679405962858738 0.034452086536515554 0 6.2074558976627642e-05 0.034521156247417889 0 -0.00016156465753038583 0.034178125391401484 0 -0.00016156465753038583 0.034178125391401484 0 -0.00083124351460311225 0.034288184787061589 0 -0.00062764512811674174 0.033333974359363125 0 -0.00085474273639965103 0.03322425761535968 0 -0.00094870962027541127 0.033007024808330364 0 -0.00062764512811674174 0.033333974359363125 0 -0.00081338764368594227 0.033870120410665679 0 -0.0006250995383419196 0.033280881647220206 0 -0.00016156465753038583 0.034178125391401484 0 -0.00083124351460311225 0.034288184787061589 0 -0.00043116737512107861 0.034627776559153042 0 -0.00081338764368594227 0.033870120410665679 0 -0.0012691167601359635 0.033428847592561504 0 -0.00083124351460311225 0.034288184787061589 0 -0.00043116737512107861 0.034627776559153042 0 -0.00096382543392996929 0.034759790779412554 0 -0.00026278657376599922 0.034461166523361585 0 -0.00017683705800911924 0.034516110932598904 0 -0.00023063318849685522 0.034533681681048797 0 -0.00043116737512107861 0.034627776559153042 0 -0.00046292291357719317 0.034923113781474578 0 -0.00096382543392996929 0.034759790779412554 0 -0.00013242328483965067 0.034921086779384651 0 -0.0012691167601359635 0.033428847592561504 0 -0.00016329362680280756 0.034797233531267367 0 -0.00043116737512107861 0.034627776559153042 0 -0.00046292291357719317 0.034923113781474578 0 -0.0026096789854637547 0.031205033657905498 0 -0.0032874512051306731 0.031481530840608979 0 -0.0026461240877955644 0.03180249611594245 0 -0.0028896535394830345 0.030654063895838714 0 -0.0026096789854637547 0.031205033657905498 0 -0.0032874512051306731 0.031481530840608979 0 -0.0014970825966580459 0.032503687935657076 0 -0.0012691167601359635 0.033428847592561504 0 -0.00085474273639965103 0.03322425761535968 0 -0.0010112723095760676 0.033416401444110115 0 -0.0011079646396619728 0.033152602161143387 0 -0.0010112723095760676 0.033416401444110115 0 -0.0012253112096000023 0.033279151206443952 0 -0.0011079646396619728 0.033152602161143387 0 -0.0012691167601359635 0.033428847592561504 0 -0.0021435870874667411 0.032388411022389263 0 -0.0012253112096000023 0.033279151206443952 0 -0.0011079646396619728 0.033152602161143387 0 -0.0013064532034946081 0.033057477495686091 0 -0.0011079646396619728 0.033152602161143387 0 -0.0012838912826507285 0.032964995034461986 0 -0.00094870962027541127 0.033007024808330364 0 -0.00085474273639965103 0.03322425761535968 0 -0.0011079646396619728 0.033152602161143387 0 -0.00094870962027541127 0.033007024808330364 0 -0.0011079646396619728 0.033152602161143387 0 -0.0012838912826507285 0.032964995034461986 0 -0.0013064532034946081 0.033057477495686091 0 -0.0012838912826507285 0.032964995034461986 0 -0.0012653347750220716 0.032556111131137024 0 -0.00094870962027541127 0.033007024808330364 0 -0.0012838912826507285 0.032964995034461986 0 -0.0012653347750220716 0.032556111131137024 0 -0.0017105258764856328 0.032768899506777062 0 -0.0012653347750220716 0.032556111131137024 0 -0.0014004535480341424 0.031880331199130807 0 -0.0010960625095172507 0.032163822747160238 0 -0.0012653347750220716 0.032556111131137024 0 -0.0010960625095172507 0.032163822747160238 0 -0.0009620445995489102 0.032591772244464794 0 -0.0010960625095172507 0.032163822747160238 0 -0.0009620445995489102 0.032591772244464794 0 -0.00084599856011689887 0.032221659420628747 0 -0.0012653347750220716 0.032556111131137024 0 -0.0009620445995489102 0.032591772244464794 0 -0.00094870962027541127 0.033007024808330364 0 -0.0009620445995489102 0.032591772244464794 0 -0.00094870962027541127 0.033007024808330364 0 -0.00072138966985073793 0.032827184764998227 0 -0.00094870962027541127 0.033007024808330364 0 -0.00062764512811674174 0.033333974359363125 0 -0.00072138966985073793 0.032827184764998227 0 -0.00021881550347519488 0.033241299152358302 0 -0.00062764512811674174 0.033333974359363125 0 -0.00072138966985073793 0.032827184764998227 0 -0.00021881550347519488 0.033241299152358302 0 -0.00050985291034207048 0.032470509599042761 0 -0.00072138966985073793 0.032827184764998227 0 -0.0009620445995489102 0.032591772244464794 0 -0.00072138966985073793 0.032827184764998227 0 -0.00084599856011689887 0.032221659420628747 0 -0.00050985291034207048 0.032470509599042761 0 -0.00072138966985073793 0.032827184764998227 0 -0.00084599856011689887 0.032221659420628747 0 -0.00084599856011689887 0.032221659420628747 0 -0.00069139886917107037 0.031892756498385855 0 -0.0010556701967497294 0.031696142825442718 0 -0.00050985291034207048 0.032470509599042761 0 -0.00084599856011689887 0.032221659420628747 0 -0.00069139886917107037 0.031892756498385855 0 -3.0626517950994481e-06 0.032497593017068456 0 -0.00050080595663748635 0.032505348696115585 0 -0.00010762490306104433 0.031909939965064027 0 -0.00050985291034207048 0.032470509599042761 0 -0.00069139886917107037 0.031892756498385855 0 0.00093337702311569164 0.03090577069288418 0 0.00031391735703045255 0.030964366611736086 0 0.00043773385170534524 0.030467346695018802 0 0.00052229695113781901 0.031277928701156414 0 -0.00021717818041155481 0.031435397104356722 0 0.00031391735703045255 0.030964366611736086 0 -2.9983708836452829e-07 0.030612391992508904 0 0.00043773385170534524 0.030467346695018802 0 -0.00038568656495865488 0.031105786240795789 0 -0.00052974628157781748 0.030291077982868776 0 -2.9983708836452829e-07 0.030612391992508904 0 -0.00021717818041155481 0.031435397104356722 0 -0.00075590856292778654 0.031387672242424204 0 0.00031391735703045255 0.030964366611736086 0 -0.00038568656495865488 0.031105786240795789 0 -2.9983708836452829e-07 0.030612391992508904 0 -0.00038568656495865488 0.031105786240795789 0 -0.0013533069269392167 0.031279082394465453 0 -0.0010633188287094463 0.030642994430118132 0 -0.00075590856292778654 0.031387672242424204 0 -0.0013406792905230826 0.031311010747364934 0 -0.00038568656495865488 0.031105786240795789 0 -0.00052974628157781748 0.030291077982868776 0 -0.0010633188287094463 0.030642994430118132 0 -0.0014004535480341424 0.031880331199130807 0 -0.0010960625095172507 0.032163822747160238 0 -0.0010556701967497294 0.031696142825442718 0 -0.0014004535480341424 0.031880331199130807 0 -0.0010556701967497294 0.031696142825442718 0 -0.0013533069269392167 0.031279082394465453 0 -0.0010960625095172507 0.032163822747160238 0 -0.00084599856011689887 0.032221659420628747 0 -0.0010556701967497294 0.031696142825442718 0 -0.0014004535480341424 0.031880331199130807 0 -0.0018391114703517244 0.031440153492376416 0 -0.0013533069269392167 0.031279082394465453 0 -0.0018391114703517244 0.031440153492376416 0 -0.0013533069269392167 0.031279082394465453 0 -0.0017158192056355354 0.030823765202096863 0 -0.0013533069269392167 0.031279082394465453 0 -0.0017158192056355354 0.030823765202096863 0 -0.0010633188287094463 0.030642994430118132 0 -0.0017158192056355354 0.030823765202096863 0 -0.0022856294656474142 0.030893598513319354 0 -0.0021470448896582189 0.030304883735574169 0 -0.0018391114703517244 0.031440153492376416 0 -0.0017158192056355354 0.030823765202096863 0 -0.0022856294656474142 0.030893598513319354 0 -0.0022856294656474142 0.030893598513319354 0 -0.00270895013509251 0.030617517314386045 0 -0.0021470448896582189 0.030304883735574169 0 -0.0022856294656474142 0.030893598513319354 0 -0.00270895013509251 0.030617517314386045 0 -0.0028170115965553532 0.030988043325851585 0 -0.0022856294656474142 0.030893598513319354 0 -0.0028170115965553532 0.030988043325851585 0 -0.0023485887449975697 0.031298083763364522 0 -0.0028170115965553532 0.030988043325851585 0 -0.0023485887449975697 0.031298083763364522 0 -0.0025819512399009288 0.031413508675332706 0 -0.0018391114703517244 0.031440153492376416 0 -0.0022856294656474142 0.030893598513319354 0 -0.0023485887449975697 0.031298083763364522 0 -0.0023485887449975697 0.031298083763364522 0 -0.0023563706970005549 0.031656517728112621 0 -0.0019933405827281159 0.031751611340125212 0 -0.0023485887449975697 0.031298083763364522 0 -0.0023563706970005549 0.031656517728112621 0 -0.0025819512399009288 0.031413508675332706 0 -0.0028170115965553532 0.030988043325851585 0 -0.0025819512399009288 0.031413508675332706 0 -0.0028873691039481546 0.031385619511234079 0 -0.0023563706970005549 0.031656517728112621 0 -0.0025819512399009288 0.031413508675332706 0 -0.0026459937661523387 0.031641382330812276 0 -0.0025819512399009288 0.031413508675332706 0 -0.0026459937661523387 0.031641382330812276 0 -0.0028873691039481546 0.031385619511234079 0 -0.0023563706970005549 0.031656517728112621 0 -0.0026459937661523387 0.031641382330812276 0 -0.002552662347402816 0.031971124177184583 0 -0.0026459937661523387 0.031641382330812276 0 -0.002552662347402816 0.031971124177184583 0 -0.0029118841997421399 0.031715103507463344 0 -0.002552662347402816 0.031971124177184583 0 -0.0022260794886037514 0.031838514634090209 0 -0.0020186127258195715 0.031993128119299948 0 -0.0023563706970005549 0.031656517728112621 0 -0.002552662347402816 0.031971124177184583 0 -0.0022260794886037514 0.031838514634090209 0 -0.0023563706970005549 0.031656517728112621 0 -0.0022260794886037514 0.031838514634090209 0 -0.0019933405827281159 0.031751611340125212 0 -0.0022608434439320723 0.032129920068361038 0 -0.0020073834265864924 0.031952609786408112 0 -0.0022260794886037514 0.031838514634090209 0 -0.0020186127258195715 0.031993128119299948 0 -0.0019933405827281159 0.031751611340125212 0 -0.0020120242711864347 0.032000259012195713 0 -0.0020186127258195715 0.031993128119299948 0 -0.0019933405827281159 0.031751611340125212 0 -0.0021948023337097972 0.032837603821886066 0 -0.0018526852391201208 0.032443852212947349 0 -0.0017105258764856328 0.032768899506777062 0 -0.0020120242711864347 0.032000259012195713 0 -0.0019933405827281159 0.031751611340125212 0 -0.0017060757105362848 0.031841795939291796 0 -0.002147142205671511 0.032442631035728538 0 -0.001749658236722421 0.032124775125492083 0 -0.0018391114703517244 0.031440153492376416 0 -0.0023485887449975697 0.031298083763364522 0 -0.0019933405827281159 0.031751611340125212 0 -0.0018391114703517244 0.031440153492376416 0 -0.0019933405827281159 0.031751611340125212 0 -0.0017060757105362848 0.031841795939291796 0 -0.0012653347750220716 0.032556111131137024 0 -0.0014004535480341424 0.031880331199130807 0 -0.0018526852391201208 0.032443852212947349 0 -0.0014004535480341424 0.031880331199130807 0 -0.0018391114703517244 0.031440153492376416 0 -0.0017060757105362848 0.031841795939291796 0 -0.0014325483967473672 0.031880446337914752 0 -0.001749658236722421 0.032124775125492083 0 -0.0012653347750220716 0.032556111131137024 0 -0.0018526852391201208 0.032443852212947349 0 -0.0017105258764856328 0.032768899506777062 0 -0.0013101878154253449 0.032953395894051031 0 -0.0016740795385607136 0.033067273912658512 0 -0.0012838912826507285 0.032964995034461986 0 -0.0014097733669198853 0.032948190338746755 0 -0.0013064532034946081 0.033057477495686091 0 -0.0012838912826507285 0.032964995034461986 0 -0.0017105258764856328 0.032768899506777062 0 -0.0019534917437892753 0.033082247153315966 0 -0.0021948023337097972 0.032837603821886066 0 -0.0019534917437892753 0.033082247153315966 0 -0.0025291376178776291 0.033177720496893152 0 -0.0016740795385607136 0.033067273912658512 0 -0.0018030113283544814 0.032540926933007919 0 -0.0021948023337097972 0.032837603821886066 0 -0.0017105258764856328 0.032768899506777062 0 -0.0019534917437892753 0.033082247153315966 0 -0.0014097733669198853 0.032948190338746755 0 -0.0013922943704978126 0.033025378623194199 0 -0.0012399450530278654 0.032737283769323423 0 -0.0020169104584923988 0.032180887136597003 0 -0.0012150161233629279 0.032206319750708756 0 -0.0012399450530278654 0.032737283769323423 0 -0.0016213070252392894 0.032641762363524555 0 -0.0012764470744947819 0.032740310589841094 0 -0.0012253112096000023 0.033279151206443952 0 -0.0013064532034946081 0.033057477495686091 0 -0.0013922943704978126 0.033025378623194199 0 -0.0014097733669198853 0.032948190338746755 0 -0.0013064532034946081 0.033057477495686091 0 -0.0013922943704978126 0.033025378623194199 0 -0.0026461240877955644 0.03180249611594245 0 -0.0020169104584923988 0.032180887136597003 0 -0.0019076944280789305 0.031576901895041122 0 -0.0021435870874667411 0.032388411022389263 0 -0.0016213070252392894 0.032641762363524555 0 -0.0020169104584923988 0.032180887136597003 0 -0.0013529508788440185 0.031751435421523852 0 -0.0012150161233629279 0.032206319750708756 0 -0.0020169104584923988 0.032180887136597003 0 -0.0019076944280789305 0.031576901895041122 0 -0.0013529508788440185 0.031751435421523852 0 -0.0019076944280789305 0.031576901895041122 0 -0.0013696633302473769 0.031023000601436607 0 -0.0020383515843067665 0.031033895243996086 0 -0.0019076944280789305 0.031576901895041122 0 -0.0013696633302473769 0.031023000601436607 0 -0.0013529508788440185 0.031751435421523852 0 -0.0026096789854637547 0.031205033657905498 0 -0.0026461240877955644 0.03180249611594245 0 -0.0019076944280789305 0.031576901895041122 0 -0.0026096789854637547 0.031205033657905498 0 -0.0019076944280789305 0.031576901895041122 0 -0.0020383515843067665 0.031033895243996086 0 -0.0006726495316940371 0.030636710843089679 0 -0.00063756204530650404 0.031307549352935372 0 -0.00033353663974813115 0.030941202046772032 0 -0.0006726495316940371 0.030636710843089679 0 -0.0013696633302473769 0.031023000601436607 0 -0.00063756204530650404 0.031307549352935372 0 -0.0013696633302473769 0.031023000601436607 0 -0.00063756204530650404 0.031307549352935372 0 -0.0013529508788440185 0.031751435421523852 0 -0.00063756204530650404 0.031307549352935372 0 -0.0013529508788440185 0.031751435421523852 0 -0.0008512312830761125 0.032238115125369532 0 -0.0013529508788440185 0.031751435421523852 0 -0.0012150161233629279 0.032206319750708756 0 -0.0008512312830761125 0.032238115125369532 0 -0.00053702011799106205 0.031487444897123795 0 -0.00032024871069160222 0.03139503886078332 0 -0.00063756204530650404 0.031307549352935372 0 -0.00017401205240430117 0.03207094110134056 0 -0.0008512312830761125 0.032238115125369532 0 -0.00063756204530650404 0.031307549352935372 0 -0.00041182453735845838 0.031628352010688532 0 -0.00033353663974813115 0.030941202046772032 0 -0.00032024871069160222 0.03139503886078332 0 -0.0018030113283544814 0.032540926933007919 0 -0.0018030113283544814 0.032540926933007919 0 -0.00064667300530186578 0.031364685441958452 0 -0.00017401205240430117 0.03207094110134056 0 -0.0008512312830761125 0.032238115125369532 0 -0.0010400159302871965 0.032869563172157404 0 -0.00078198289302041442 0.031304019176491872 0 -0.001635198914089574 0.032161824991261655 0 -0.00043593694705604963 0.03191497918887836 0 -0.0012150161233629279 0.032206319750708756 0 -0.0008512312830761125 0.032238115125369532 0 -0.0012399450530278654 0.032737283769323423 0 -0.0008512312830761125 0.032238115125369532 0 -0.0012399450530278654 0.032737283769323423 0 -0.0010400159302871965 0.032869563172157404 0 -0.001885003455816489 0.031970381247253613 0 -0.0020186127258195715 0.031993128119299948 0 -0.0019506590699769483 0.03190183634099493 0 -0.0014097733669198853 0.032948190338746755 0 -0.0012399450530278654 0.032737283769323423 0 -0.0010400159302871965 0.032869563172157404 0 -0.002147142205671511 0.032442631035728538 0 -0.0018030113283544814 0.032540926933007919 0 -0.0020120242711864347 0.032000259012195713 0 -0.0020186127258195715 0.031993128119299948 0 -0.0019506590699769483 0.03190183634099493 0 -0.001885003455816489 0.031970381247253613 0 -0.0019506590699769483 0.03190183634099493 0 -0.0017943674873078749 0.031855395596769122 0 -0.001885003455816489 0.031970381247253613 0 -0.0017463571783489257 0.031943671818468237 0 -0.0017943674873078749 0.031855395596769122 0 -0.0022608434439320723 0.032129920068361038 0 -0.0023075591381904411 0.030492688724572514 0 -0.0023075591381904411 0.030492688724572514 0 -0.00064667300530186578 0.031364685441958452 0 7.6967312549148777e-05 0.030391260230801524 0 5.9991817820989378e-05 0.030476091916901295 0 0.00018430973095051966 0.030532423338476156 0 7.6967312549148777e-05 0.030391260230801524 0 5.9991817820989378e-05 0.030476091916901295 0 -0.00011379875118470744 0.030423022974539068 0 -0.0023075591381904411 0.030492688724572514 0 -0.0016003387871905484 0.028625107137344372 0 5.9991817820989378e-05 0.030476091916901295 0 4.8134012269329484e-05 0.030593510712298367 0 -3.0083532758460387e-05 0.030524312585819949 0 5.9991817820989378e-05 0.030476091916901295 0 9.8644345762589024e-05 0.030564854442113175 0 0.00014659792513439072 0.030539478150895239 0 5.9991817820989378e-05 0.030476091916901295 0 9.8644345762589024e-05 0.030564854442113175 0 4.8134012269329484e-05 0.030593510712298367 0 9.8644345762589024e-05 0.030564854442113175 0 4.8134012269329484e-05 0.030593510712298367 0 0.00013054183055850109 0.030638758036173223 0 4.8134012269329484e-05 0.030593510712298367 0 0.00013054183055850109 0.030638758036173223 0 4.7254078408869978e-05 0.030725091617912776 0 4.8134012269329484e-05 0.030593510712298367 0 4.7254078408869978e-05 0.030725091617912776 0 -1.433490060119439e-05 0.030641060953960839 0 4.8134012269329484e-05 0.030593510712298367 0 -1.433490060119439e-05 0.030641060953960839 0 -3.0083532758460387e-05 0.030524312585819949 0 5.9991817820989378e-05 0.030476091916901295 0 0.00018430973095051966 0.030532423338476156 0 0.00014659792513439072 0.030539478150895239 0 9.8644345762589024e-05 0.030564854442113175 0 0.00014659792513439072 0.030539478150895239 0 0.00013054183055850109 0.030638758036173223 0 -0.00064667300530186578 0.031364685441958452 0 -0.00013866550146408629 0.031130217482301138 0 0.00020622811465386849 0.03052755836268483 0 0.00014659792513439072 0.030539478150895239 0 0.00013054183055850109 0.030638758036173223 0 -0.00032024871069160222 0.03139503886078332 0 -0.00064667300530186578 0.031364685441958452 0 0.00032152921894616304 0.030694833247206097 0 0.00020622811465386849 0.03052755836268483 0 0.00013054183055850109 0.030638758036173223 0 0.00032152921894616304 0.030694833247206097 0 0.00013054183055850109 0.030638758036173223 0 3.4700423710773922e-05 0.030965557672585794 0 -0.00032024871069160222 0.03139503886078332 0 0.00014441951910768467 0.030885681913033643 0 0.00013054183055850109 0.030638758036173223 0 4.7254078408869978e-05 0.030725091617912776 0 3.4700423710773922e-05 0.030965557672585794 0 4.7254078408869978e-05 0.030725091617912776 0 2.2059006185395407e-05 0.030805682765715017 0 3.4700423710773922e-05 0.030965557672585794 0 4.7254078408869978e-05 0.030725091617912776 0 2.2059006185395407e-05 0.030805682765715017 0 -1.433490060119439e-05 0.030641060953960839 0 2.2059006185395407e-05 0.030805682765715017 0 3.4700423710773922e-05 0.030965557672585794 0 8.9289974281750768e-05 0.030822986785832611 0 2.3196098926689942e-05 0.03076516034812719 0 3.4700423710773922e-05 0.030965557672585794 0 8.9289974281750768e-05 0.030822986785832611 0 2.3196098926689942e-05 0.03076516034812719 0 3.4700423710773922e-05 0.030965557672585794 0 -0.00033353663974813115 0.030941202046772032 0 -0.00041182453735845838 0.031628352010688532 0 3.4700423710773922e-05 0.030965557672585794 0 -0.00033353663974813115 0.030941202046772032 0 -0.0012508940475970324 0.027075559999226437 0 -0.001206204947078809 0.027422493859129097 0 -0.00060744443793568918 0.027344770461872676 0 -0.00078325894637213257 0.026721733307109995 0 -0.0012508940475970324 0.027075559999226437 0 -0.00060744443793568918 0.027344770461872676 0 6.328447143341539e-05 0.030799250547683735 0 2.3153100821563385e-05 0.030781695098647695 0 -4.7362114130845723e-05 0.030727276886913124 0 -0.00058016990092018129 0.029011514525386476 0 -0.00068639802607885388 0.029510556090912909 0 0.00016843582194510145 0.030704476461154956 0 8.9289974281750768e-05 0.030822986785832611 0 6.328447143341539e-05 0.030799250547683735 0 2.2059006185395407e-05 0.030805682765715017 0 8.9289974281750768e-05 0.030822986785832611 0 2.3153100821563385e-05 0.030781695098647695 0 8.9289974281750768e-05 0.030822986785832611 0 6.328447143341539e-05 0.030799250547683735 0 2.3153100821563385e-05 0.030781695098647695 0 2.3153100821563385e-05 0.030781695098647695 0 -4.7362114130845723e-05 0.030727276886913124 0 -2.7352471294637673e-05 0.030706739105768252 0 2.2059006185395407e-05 0.030805682765715017 0 2.3153100821563385e-05 0.030781695098647695 0 -2.7352471294637673e-05 0.030706739105768252 0 2.2059006185395407e-05 0.030805682765715017 0 -2.7352471294637673e-05 0.030706739105768252 0 -1.433490060119439e-05 0.030641060953960839 0 -2.7352471294637673e-05 0.030706739105768252 0 -1.433490060119439e-05 0.030641060953960839 0 -8.1335970691719814e-05 0.030604072921006482 0 -0.00012744914702731601 0.030625480075792196 0 -2.7352471294637673e-05 0.030706739105768252 0 -8.1335970691719814e-05 0.030604072921006482 0 -0.00068639802607885388 0.029510556090912909 0 -0.00012315671789402724 0.030012490677599517 0 -0.00012744914702731601 0.030625480075792196 0 -0.00012959360015673874 0.030567739169153688 0 -8.1335970691719814e-05 0.030604072921006482 0 -0.00068639802607885388 0.029510556090912909 0 -0.00059872491713902415 0.029869946880869223 0 -0.00012959360015673874 0.030567739169153688 0 -8.1335970691719814e-05 0.030604072921006482 0 -0.00010976646975365288 0.030563589895672125 0 -0.00013099231453868429 0.030561131567347754 0 -0.00012959360015673874 0.030567739169153688 0 -0.00013352192406351662 0.03037665252428761 0 -0.00012959360015673874 0.030567739169153688 0 -0.00013241905935573245 0.030526790811791431 0 -0.00013352192406351662 0.03037665252428761 0 -0.00068639802607885388 0.029510556090912909 0 -0.00035283773193570643 0.028739553858804539 0 -0.00013241905935573245 0.030526790811791431 0 -0.0001446872202661545 0.03047645658709728 0 -0.00013352192406351662 0.03037665252428761 0 -0.00013241905935573245 0.030526790811791431 0 -0.0001446872202661545 0.03047645658709728 0 -0.00010717634572195655 0.030495575191765878 0 -1.433490060119439e-05 0.030641060953960839 0 -8.3767704629829527e-05 0.030555611628736719 0 -3.0083532758460387e-05 0.030524312585819949 0 -1.433490060119439e-05 0.030641060953960839 0 -8.1335970691719814e-05 0.030604072921006482 0 -8.3767704629829527e-05 0.030555611628736719 0 -0.00013241905935573245 0.030526790811791431 0 -8.3767704629829527e-05 0.030555611628736719 0 -0.00010717634572195655 0.030495575191765878 0 -0.00012959360015673874 0.030567739169153688 0 -0.00013241905935573245 0.030526790811791431 0 -0.00010976646975365288 0.030563589895672125 0 -0.00013241905935573245 0.030526790811791431 0 -8.3767704629829527e-05 0.030555611628736719 0 -0.00010976646975365288 0.030563589895672125 0 -8.1335970691719814e-05 0.030604072921006482 0 -8.3767704629829527e-05 0.030555611628736719 0 -0.00010976646975365288 0.030563589895672125 0 -8.3767704629829527e-05 0.030555611628736719 0 -0.00010717634572195655 0.030495575191765878 0 -3.0083532758460387e-05 0.030524312585819949 0 -0.00010717634572195655 0.030495575191765878 0 -3.0083532758460387e-05 0.030524312585819949 0 -0.00011379875118470744 0.030423022974539068 0 5.9991817820989378e-05 0.030476091916901295 0 -3.0083532758460387e-05 0.030524312585819949 0 -0.00011379875118470744 0.030423022974539068 0 -0.0001446872202661545 0.03047645658709728 0 -0.00010717634572195655 0.030495575191765878 0 -0.00011379875118470744 0.030423022974539068 0 -0.0001446872202661545 0.03047645658709728 0 -0.00011379875118470744 0.030423022974539068 0 -0.00014739066646805756 0.030454139761136641 0 -0.0016003387871905484 0.028625107137344372 0 -0.0004806248370261729 0.028777746662997598 0 -0.0029903084210690105 0.027197266336352076 0 -0.00076814091095105152 0.027086782916127577 0 -0.00129644545324095 0.028579161379071783 0 -0.0029903084210690105 0.027197266336352076 0 -0.0026555868047963204 0.028827930426868598 0 -0.00129644545324095 0.028579161379071783 0 -0.0026555868047963204 0.028827930426868598 0 -0.0018865087899224725 0.02956777013909271 0 -0.00129644545324095 0.028579161379071783 0 -0.0026555868047963204 0.028827930426868598 0 -0.002620307852454457 0.02979124328303202 0 -0.0018865087899224725 0.02956777013909271 0 -0.002620307852454457 0.02979124328303202 0 -0.0018865087899224725 0.02956777013909271 0 -0.0021947720513112398 0.030327303901280748 0 -0.0018865087899224725 0.02956777013909271 0 -0.0021947720513112398 0.030327303901280748 0 -0.0010781454767650313 0.030040567224026652 0 -0.0018865087899224725 0.02956777013909271 0 -0.0010781454767650313 0.030040567224026652 0 -0.00129644545324095 0.028579161379071783 0 -0.0033657455367286692 0.029446527111512705 0 -0.0045107426336364704 0.028869400159057108 0 -0.003572505843948292 0.030649039879885091 0 -0.00318724622789231 0.030115283783715044 0 -0.0033657455367286692 0.029446527111512705 0 -0.003572505843948292 0.030649039879885091 0 -0.002620307852454457 0.02979124328303202 0 -0.00318724622789231 0.030115283783715044 0 -0.0033657455367286692 0.029446527111512705 0 -0.002620307852454457 0.02979124328303202 0 -0.00318724622789231 0.030115283783715044 0 -0.0031897107012601933 0.030647761587354896 0 -0.0026555868047963204 0.028827930426868598 0 -0.002620307852454457 0.02979124328303202 0 -0.0033657455367286692 0.029446527111512705 0 -0.0026555868047963204 0.028827930426868598 0 -0.0033657455367286692 0.029446527111512705 0 -0.0035469148290088715 0.028358129021149221 0 -0.0033657455367286692 0.029446527111512705 0 -0.0035469148290088715 0.028358129021149221 0 -0.0045107426336364704 0.028869400159057108 0 -0.0029903084210690105 0.027197266336352076 0 -0.0026555868047963204 0.028827930426868598 0 -0.0035469148290088715 0.028358129021149221 0 -0.0053108413905793321 0.027378717740726373 0 -0.0029903084210690105 0.027197266336352076 0 -0.0035469148290088715 0.028358129021149221 0 -0.0023075591381904411 0.030492688724572514 0 -0.0041452250540148202 0.029919534668378482 0 -0.0053108413905793321 0.027378717740726373 0 -0.0035469148290088715 0.028358129021149221 0 -0.0045107426336364704 0.028869400159057108 0 -0.0031644311676000689 0.03196547433460635 0 -0.0029118841997421399 0.031715103507463344 0 -0.0034118357729159654 0.031460366639839046 0 -0.002552662347402816 0.031971124177184583 0 -0.0031644311676000689 0.03196547433460635 0 -0.0029118841997421399 0.031715103507463344 0 -0.0026459937661523387 0.031641382330812276 0 -0.0029118841997421399 0.031715103507463344 0 -0.0028873691039481546 0.031385619511234079 0 -0.0029118841997421399 0.031715103507463344 0 -0.0028873691039481546 0.031385619511234079 0 -0.0034118357729159654 0.031460366639839046 0 -0.0028873691039481546 0.031385619511234079 0 -0.0034118357729159654 0.031460366639839046 0 -0.0031812437185566593 0.031003618042117809 0 -0.0041452250540148202 0.029919534668378482 0 -0.0035507251317840188 0.030736319310687966 0 -0.0034118357729159654 0.031460366639839046 0 -0.003394000171711712 0.030936113360642326 0 -0.0031812437185566593 0.031003618042117809 0 -0.0034118357729159654 0.031460366639839046 0 -0.003394000171711712 0.030936113360642326 0 -0.003572505843948292 0.030649039879885091 0 -0.003394000171711712 0.030936113360642326 0 -0.0031812437185566593 0.031003618042117809 0 -0.0034045106168465039 0.030783509512786019 0 -0.003394000171711712 0.030936113360642326 0 -0.0034045106168465039 0.030783509512786019 0 -0.003572505843948292 0.030649039879885091 0 -0.0031812437185566593 0.031003618042117809 0 -0.0034045106168465039 0.030783509512786019 0 -0.0032388333307695164 0.030717827613561264 0 -0.0034045106168465039 0.030783509512786019 0 -0.0032388333307695164 0.030717827613561264 0 -0.003393692954148546 0.030701769272931365 0 -0.0028170115965553532 0.030988043325851585 0 -0.0028873691039481546 0.031385619511234079 0 -0.0031812437185566593 0.031003618042117809 0 -0.0028170115965553532 0.030988043325851585 0 -0.0031812437185566593 0.031003618042117809 0 -0.0032388333307695164 0.030717827613561264 0 -0.00270895013509251 0.030617517314386045 0 -0.0028170115965553532 0.030988043325851585 0 -0.0030884666120342946 0.030462442917877527 0 -0.0028170115965553532 0.030988043325851585 0 -0.0032388333307695164 0.030717827613561264 0 -0.0030884666120342946 0.030462442917877527 0 -0.0032388333307695164 0.030717827613561264 0 -0.0034012177026561331 0.03036426743409822 0 -0.0030884666120342946 0.030462442917877527 0 -0.0032388333307695164 0.030717827613561264 0 -0.003393692954148546 0.030701769272931365 0 -0.0034012177026561331 0.03036426743409822 0 -0.003393692954148546 0.030701769272931365 0 -0.0034375551530717217 0.030702736298978378 0 -0.0034012177026561331 0.03036426743409822 0 -0.0021736032083706858 0.029654988482766164 0 -0.0025223256094028734 0.029244459466006102 0 -0.0017684555161403533 0.028405689147191854 0 -0.0018183260574383708 0.02828789722514604 0 -0.0015214791208718701 0.028116554932308767 0 -0.003393692954148546 0.030701769272931365 0 -0.0033817502069234447 0.030742988496410228 0 -0.0034375551530717217 0.030702736298978378 0 -0.0033817502069234447 0.030742988496410228 0 -0.0033408054742473272 0.03077789762611844 0 -0.0033137143399502764 0.030730672991714759 0 -0.0023542979729218295 0.030043981940650628 0 -0.0021736032083706858 0.029654988482766164 0 -0.00086000678740492682 0.029461450894706944 0 -0.0006710010704046532 0.029141358426294655 0 -0.00054044765446641606 0.029829295541434691 0 0.00038514876580397268 0.02774846532539851 0 -5.4649819607781971e-06 0.028396983906787021 0 -0.00064795152715326637 0.027626049869063644 0 -0.00048810373810799387 0.02779470401469927 0 -0.00083688692214791988 0.029333724928715096 0 -0.0021736032083706858 0.029654988482766164 0 -0.00048810373810799387 0.02779470401469927 0 -0.00083688692214791988 0.029333724928715096 0 0.00026546570446535789 0.027498547098088636 0 -0.00094735159851918205 0.029201161812032628 0 -0.0011811851105205139 0.028680395004401407 0 -0.0016034125337004703 0.029382888764986282 0 -0.00094735159851918205 0.029201161812032628 0 -0.0016034125337004703 0.029382888764986282 0 -0.0013682952877142015 0.029663467134252171 0 -0.00083688692214791988 0.029333724928715096 0 -0.0018296910672058575 0.03006209127264764 0 -0.0033408054742473272 0.03077789762611844 0 -0.0032997435705198344 0.030737284279479627 0 -0.0033137143399502764 0.030730672991714759 0 -0.0021736032083706858 0.029654988482766164 0 -0.0018296910672058575 0.03006209127264764 0 -0.0018296910672058575 0.03006209127264764 0 -0.0028870010676504193 0.030571174550361242 0 -0.0032997435705198344 0.030737284279479627 0 -0.0031897107012601933 0.030647761587354896 0 -0.0033137143399502764 0.030730672991714759 0 -0.00083688692214791988 0.029333724928715096 0 -0.00073262855817851516 0.029226419943904448 0 -0.00087833123736501327 0.029493642690077215 0 -0.00099128087856222447 0.029360342125784269 0 -0.0006710010704046532 0.029141358426294655 0 -0.0018296910672058575 0.03006209127264764 0 -0.0008513329497253074 0.029475676103719959 0 -0.0023319738894451336 0.031579083218810158 0 -0.0021947720513112398 0.030327303901280748 0 -0.0010781454767650313 0.030040567224026652 0 -0.00099128087856222447 0.029360342125784269 0 -0.0006710010704046532 0.029141358426294655 0 -0.00056611727446870079 0.028874950719655717 0 -0.0023319738894451336 0.031579083218810158 0 -0.0021947720513112398 0.030327303901280748 0 -0.0031897107012601933 0.030647761587354896 0 -0.002620307852454457 0.02979124328303202 0 -0.0021947720513112398 0.030327303901280748 0 -0.0031897107012601933 0.030647761587354896 0 -0.00318724622789231 0.030115283783715044 0 -0.0031897107012601933 0.030647761587354896 0 -0.003572505843948292 0.030649039879885091 0 -0.0031897107012601933 0.030647761587354896 0 -0.003572505843948292 0.030649039879885091 0 -0.003421960179856574 0.030752895687025734 0 -0.0034045106168465039 0.030783509512786019 0 -0.003572505843948292 0.030649039879885091 0 -0.003421960179856574 0.030752895687025734 0 -0.003393692954148546 0.030701769272931365 0 -0.0033817502069234447 0.030742988496410228 0 -0.003421960179856574 0.030752895687025734 0 -0.0034045106168465039 0.030783509512786019 0 -0.003393692954148546 0.030701769272931365 0 -0.003421960179856574 0.030752895687025734 0 -0.0031897107012601933 0.030647761587354896 0 -0.0033137143399502764 0.030730672991714759 0 -0.0033236825411017356 0.030724684645452069 0 -0.0033817502069234447 0.030742988496410228 0 -0.003421960179856574 0.030752895687025734 0 -0.0033236825411017356 0.030724684645452069 0 -0.0033817502069234447 0.030742988496410228 0 -0.0033137143399502764 0.030730672991714759 0 -0.0033236825411017356 0.030724684645452069 0 -0.0031897107012601933 0.030647761587354896 0 -0.003421960179856574 0.030752895687025734 0 -0.0033236825411017356 0.030724684645452069 0 0.00096585846368255762 0.025992294951801956 0 0.0010210785159035971 0.025861151525956191 0 0.00092846621854474163 0.02588919119741373 0 0.00096585846368255762 0.025992294951801956 0 0.00089002252898450634 0.025951624641994974 0 0.00092846621854474163 0.02588919119741373 0 0.00083584706402618184 0.025918931033439171 0 0.00089002252898450634 0.025951624641994974 0 0.00092846621854474163 0.02588919119741373 0 0.00054004600633575871 0.026185020733302637 0 0.00090105318792336065 0.025827151207465395 0 0.00083584706402618184 0.025918931033439171 0 0.00082123861911916377 0.026027178892759226 0 0.00079262544715858569 0.025846965604767791 0 0.00096585846368255762 0.025992294951801956 0 0.00089002252898450634 0.025951624641994974 0 0.00082123861911916377 0.026027178892759226 0 0.00083584706402618184 0.025918931033439171 0 0.00089002252898450634 0.025951624641994974 0 0.00082123861911916377 0.026027178892759226 0 0.00038514876580397268 0.02774846532539851 0 -5.965621660342534e-05 0.026756959772635563 0 -0.00064795152715326637 0.027626049869063644 0 0.00086722761692547515 0.026175239311706424 0 0.00096585846368255762 0.025992294951801956 0 0.00082123861911916377 0.026027178892759226 0 -0.00048810373810799387 0.02779470401469927 0 0.00054004600633575871 0.026185020733302637 0 0.00054004600633575871 0.026185020733302637 0 0.00026546570446535789 0.027498547098088636 0 -0.0018183260574383708 0.02828789722514604 0 -0.0016442294909978887 0.027986854742823749 0 -0.0015214791208718701 0.028116554932308767 0 -0.00048810373810799387 0.02779470401469927 0 -0.000288446322745205 0.026882714590292858 0 -0.0034012177026561331 0.03036426743409822 0 -0.0030884666120342946 0.030462442917877527 0 -0.0031480773368461608 0.029826970282197898 0 -0.0030884666120342946 0.030462442917877527 0 -0.0031480773368461608 0.029826970282197898 0 -0.0027008835848720942 0.030026369700318693 0 -0.0016442294909978887 0.027986854742823749 0 -0.0015214791208718701 0.028116554932308767 0 -0.0014651280214228563 0.027862057172808673 0 -0.000288446322745205 0.026882714590292858 0 -0.00041148873627056963 0.026795753419973391 0 -0.0025223256094028734 0.029244459466006102 0 -0.0021686876194803952 0.028785407315912222 0 -0.0015214791208718701 0.028116554932308767 0 -0.0012895486462178296 0.027841573629617512 0 -0.0014651280214228563 0.027862057172808673 0 -0.0016442294909978887 0.027986854742823749 0 -0.0014651280214228563 0.027862057172808673 0 -0.0014769052255190125 0.027704008109442988 0 -0.0012895486462178296 0.027841573629617512 0 -0.0014651280214228563 0.027862057172808673 0 -0.0013795147776660334 0.027772199088904385 0 -0.00039161590416746469 0.026113452937831929 0 -0.00065041136224268479 0.026538931971901273 0 2.089808626429134e-05 0.026293266165939674 0 -0.0014769052255190125 0.027704008109442988 0 -0.0013795147776660334 0.027772199088904385 0 -0.0013047109162259048 0.027673887715397479 0 -0.0014651280214228563 0.027862057172808673 0 -0.0014769052255190125 0.027704008109442988 0 -0.0013795147776660334 0.027772199088904385 0 -0.00041148873627056963 0.026795753419973391 0 -0.00082337166623069121 0.026432387735693053 0 -0.0014769052255190125 0.027704008109442988 0 -0.0013047109162259048 0.027673887715397479 0 -0.001366398676851724 0.027520558524690281 0 -0.0021686876194803952 0.028785407315912222 0 -0.0020614800958785461 0.028550851692063648 0 -0.0012895486462178296 0.027841573629617512 0 -0.0013047109162259048 0.027673887715397479 0 -0.0010623378575861547 0.027580569964107616 0 -0.0013047109162259048 0.027673887715397479 0 -0.001366398676851724 0.027520558524690281 0 -0.0010623378575861547 0.027580569964107616 0 -0.0012895486462178296 0.027841573629617512 0 -0.0013795147776660334 0.027772199088904385 0 -0.0013047109162259048 0.027673887715397479 0 -0.00082337166623069121 0.026432387735693053 0 -0.00059800321382667658 0.026494457031710845 0 -0.001366398676851724 0.027520558524690281 0 -0.0011001220522554136 0.027421789033018958 0 -0.0010623378575861547 0.027580569964107616 0 -0.00037453747861768106 0.02560274554811718 0 -0.00041923875627972244 0.025670590623455187 0 -0.00026468882726674308 0.025655564179304636 0 -0.00031093594756955275 0.025522206187681824 0 -0.00082337166623069121 0.026432387735693053 0 -0.00037453747861768106 0.02560274554811718 0 -0.00032904097554819556 0.025573495379273219 0 -0.00026468882726674308 0.025655564179304636 0 -0.00082337166623069121 0.026432387735693053 0 0.00026179292745481087 0.025889550046519376 0 -0.00048031150296160826 0.025590184533274954 0 -0.00041258290188267882 0.02562372025489084 0 -0.00054221015374146531 0.025652637949928499 0 -0.00037453747861768106 0.02560274554811718 0 -0.00043146812348897698 0.025575771137197476 0 -0.00041377941560372951 0.025520830982811944 0 -0.00037453747861768106 0.02560274554811718 0 -0.00041258290188267882 0.02562372025489084 0 -0.00043146812348897698 0.025575771137197476 0 -0.00048031150296160826 0.025590184533274954 0 -0.00041258290188267882 0.02562372025489084 0 -0.00043146812348897698 0.025575771137197476 0 -0.00048031150296160826 0.025590184533274954 0 -0.00054164113230906045 0.025569872768451199 0 -0.00048066956143969956 0.025524430203639498 0 -0.00048031150296160826 0.025590184533274954 0 -0.00043146812348897698 0.025575771137197476 0 -0.00048066956143969956 0.025524430203639498 0 -0.00054164113230906045 0.025569872768451199 0 -0.00054221015374146531 0.025652637949928499 0 -0.0007041409691929155 0.025538738051860896 0 -0.00048031150296160826 0.025590184533274954 0 -0.00054164113230906045 0.025569872768451199 0 -0.00054221015374146531 0.025652637949928499 0 -0.00041148873627056963 0.026795753419973391 0 0.00026179292745481087 0.025889550046519376 0 0.0010210785159035971 0.025861151525956191 0 0.00095043664728689892 0.025824017531344792 0 0.00092846621854474163 0.02588919119741373 0 0.00026179292745481087 0.025889550046519376 0 0.0010688853445523681 0.02575258315729342 0 0.00095043664728689892 0.025824017531344792 0 0.00092846621854474163 0.02588919119741373 0 0.00087717389368232202 0.025833461877854052 0 0.00095128995320699209 0.025805940506602947 0 0.00087717389368232202 0.025833461877854052 0 0.00083981290347125788 0.025778560363419262 0 0.00083584706402618184 0.025918931033439171 0 0.00087717389368232202 0.025833461877854052 0 0.00079262544715858569 0.025846965604767791 0 0.00087717389368232202 0.025833461877854052 0 0.00083981290347125788 0.025778560363419262 0 0.00079262544715858569 0.025846965604767791 0 0.00083584706402618184 0.025918931033439171 0 0.00092846621854474163 0.02588919119741373 0 0.00087717389368232202 0.025833461877854052 0 -0.00054164113230906045 0.025569872768451199 0 -0.00060302062150415945 0.025496139486630664 0 -0.0007041409691929155 0.025538738051860896 0 0.00026179292745481087 0.025889550046519376 0 9.6357608271447831e-05 0.025996317138014171 0 0.00095128995320699209 0.025805940506602947 0 0.00083981290347125788 0.025778560363419262 0 0.00084049698437202599 0.025706704797914509 0 -0.00060302062150415945 0.025496139486630664 0 -0.0007041409691929155 0.025538738051860896 0 -0.00070361669948672159 0.02541859408479721 0 -0.00060302062150415945 0.025496139486630664 0 -0.00063480886738211486 0.025334364107971359 0 -0.0007935214437284349 0.025294165600673341 0 -0.00060302062150415945 0.025496139486630664 0 -0.00071378899095262717 0.025276083856394894 0 -0.00070361669948672159 0.02541859408479721 0 -0.00053305019441134908 0.026354007654084036 0 -0.00045373584204381925 0.022885235803785861 0 -0.00060302062150415945 0.025496139486630664 0 -0.00054403300352211031 0.025441460499970193 0 -0.00063480886738211486 0.025334364107971359 0 -0.00054164113230906045 0.025569872768451199 0 -0.00060302062150415945 0.025496139486630664 0 -0.00054403300352211031 0.025441460499970193 0 -0.00054164113230906045 0.025569872768451199 0 -0.00054403300352211031 0.025441460499970193 0 -0.00048066956143969956 0.025524430203639498 0 -0.00052622174418952088 0.025274321711366447 0 -0.00063480886738211486 0.025334364107971359 0 -0.00067836427770128513 0.025190104136011957 0 -0.00054403300352211031 0.025441460499970193 0 -0.00052622174418952088 0.025274321711366447 0 -0.00063480886738211486 0.025334364107971359 0 -0.00063480886738211486 0.025334364107971359 0 -0.00067836427770128513 0.025190104136011957 0 -0.0007935214437284349 0.025294165600673341 0 -0.00065200380303847866 0.022894009705388105 0 -0.00045373584204381925 0.022885235803785861 0 -0.00052622174418952088 0.025274321711366447 0 -0.00067836427770128513 0.025190104136011957 0 -0.00056864730796633075 0.025077152872627618 0 -0.00065200380303847866 0.022894009705388105 0 -0.00024777621573118249 0.02099904595965868 0 2.8807310575168192e-07 0.019076582752676249 0 7.8898537874787057e-05 0.018973582904604502 0 -2.8386497269583607e-07 0.020210322200441385 0 2.8807310575168192e-07 0.019076582752676249 0 7.8898537874787057e-05 0.018973582904604502 0 -3.0032184476109558e-07 0.017944333309879709 0 -0.00024777621573118249 0.02099904595965868 0 -0.00031143392763549252 0.018242653302109182 0 7.8898537874787057e-05 0.018973582904604502 0 -3.0032184476109558e-07 0.017944333309879709 0 -0.00017795229380990972 0.018129530658951957 0 -0.0003221860740184258 0.020260439490028755 0 2.4177826023851718e-05 0.019948228669018561 0 -0.00057144570322931133 0.019759685239966723 0 -8.1014401388469942e-07 0.017941042563620814 0 -8.0278181792384524e-05 0.016982539229764105 0 -2.7645335034142452e-05 0.016924642488326046 0 1.3229056266963217e-07 0.017942017926882419 0 -0.00031143392763549252 0.018242653302109182 0 1.3239843197116641e-07 0.021786697610006608 0 0.00018078634678778092 0.020964134526075946 0 -0.00023677111161122283 0.020949933388453804 0 -4.9588318756284586e-07 0.02179014663717721 0 -0.00020751545279442459 0.023834601974066467 0 1.3239843197116641e-07 0.021786697610006608 0 -1.2693719449092654e-07 0.020216062263753214 0 0.00018078634678778092 0.020964134526075946 0 -0.00058319561697865784 0.020749788609055332 0 -1.2693719449092654e-07 0.020216062263753214 0 0.00018078634678778092 0.020964134526075946 0 -0.00024777621573118249 0.02099904595965868 0 5.407135552080997e-07 0.020210590645624013 0 -0.00024777621573118249 0.02099904595965868 0 -0.00015989359569129795 0.023108442618141618 0 -0.00052622174418952088 0.025274321711366447 0 -0.00041231480164678351 0.025140194200287815 0 -0.00036805522242462201 0.025303476288533047 0 -0.00052622174418952088 0.025274321711366447 0 -0.00056864730796633075 0.025077152872627618 0 -0.00041231480164678351 0.025140194200287815 0 -0.00015989359569129795 0.023108442618141618 0 -0.00020751545279442459 0.023834601974066467 0 -0.00041231480164678351 0.025140194200287815 0 -0.00036805522242462201 0.025303476288533047 0 -0.00023532011470082936 0.025193909610541933 0 -0.00036805522242462201 0.025303476288533047 0 -0.00045649287716907269 0.025420727893890528 0 -0.00035006197651285981 0.025479940915123442 0 -0.00036805522242462201 0.025303476288533047 0 -0.00022998333069626124 0.025377644618648335 0 -0.00023532011470082936 0.025193909610541933 0 -0.00036805522242462201 0.025303476288533047 0 -0.00035006197651285981 0.025479940915123442 0 -0.00022998333069626124 0.025377644618648335 0 -0.00054403300352211031 0.025441460499970193 0 -0.00052622174418952088 0.025274321711366447 0 -0.00045649287716907269 0.025420727893890528 0 -0.00052622174418952088 0.025274321711366447 0 -0.00036805522242462201 0.025303476288533047 0 -0.00045649287716907269 0.025420727893890528 0 -0.00054403300352211031 0.025441460499970193 0 -0.00045649287716907269 0.025420727893890528 0 -0.00048066956143969956 0.025524430203639498 0 -0.00045649287716907269 0.025420727893890528 0 -0.00041377941560372951 0.025520830982811944 0 -0.00035006197651285981 0.025479940915123442 0 -0.00045649287716907269 0.025420727893890528 0 -0.00041377941560372951 0.025520830982811944 0 -0.00048066956143969956 0.025524430203639498 0 -0.00043146812348897698 0.025575771137197476 0 -0.00041377941560372951 0.025520830982811944 0 -0.00048066956143969956 0.025524430203639498 0 -0.00035006197651285981 0.025479940915123442 0 -0.00027021986246507964 0.025615348827373027 0 -0.00022998333069626124 0.025377644618648335 0 -0.00041377941560372951 0.025520830982811944 0 -0.00035006197651285981 0.025479940915123442 0 -0.00032904097554819556 0.025573495379273219 0 -0.00037453747861768106 0.02560274554811718 0 -0.00041377941560372951 0.025520830982811944 0 -0.00032904097554819556 0.025573495379273219 0 -0.00035006197651285981 0.025479940915123442 0 -0.00032904097554819556 0.025573495379273219 0 -0.00027021986246507964 0.025615348827373027 0 -0.00027021986246507964 0.025615348827373027 0 -0.00021102642943705174 0.025617218121603762 0 -0.00044453018010273665 0.025506424966550621 0 -0.00027021986246507964 0.025615348827373027 0 -0.00012680861208106214 0.025675165591675781 0 -0.00026468882726674308 0.025655564179304636 0 -0.00027021986246507964 0.025615348827373027 0 -0.00021102642943705174 0.025617218121603762 0 -0.00012680861208106214 0.025675165591675781 0 -0.00032904097554819556 0.025573495379273219 0 -0.00027021986246507964 0.025615348827373027 0 -0.00026468882726674308 0.025655564179304636 0 -0.00029628296105319919 0.025508986034404869 0 -0.00031780393515938674 0.025641746738309316 0 -0.00021102642943705174 0.025617218121603762 0 -0.00012680861208106214 0.025675165591675781 0 -6.2911789807114371e-05 0.02567015798954396 0 -6.2911789807114371e-05 0.02567015798954396 0 5.0765610842193473e-06 0.025313669065969775 0 7.0361690637397341e-05 0.026044134131851238 0 -0.00012680861208106214 0.025675165591675781 0 -6.2911789807114371e-05 0.02567015798954396 0 7.0361690637397341e-05 0.026044134131851238 0 -0.00021102642943705174 0.025617218121603762 0 -6.2911789807114371e-05 0.02567015798954396 0 -0.00021416328241642249 0.025470894189052275 0 -0.00021416328241642249 0.025470894189052275 0 -0.00027399492231259989 0.02508741407879652 0 5.0765610842193473e-06 0.025313669065969775 0 -6.2911789807114371e-05 0.02567015798954396 0 -0.00021416328241642249 0.025470894189052275 0 5.0765610842193473e-06 0.025313669065969775 0 -0.00031780393515938674 0.025641746738309316 0 -0.00020751545279442459 0.023834601974066467 0 -0.00044453018010273665 0.025506424966550621 0 -0.00054650655916182111 0.025021551589034983 0 -0.00027399492231259989 0.02508741407879652 0 -0.00021102642943705174 0.025617218121603762 0 -0.00044453018010273665 0.025506424966550621 0 -0.00021416328241642249 0.025470894189052275 0 -0.00044453018010273665 0.025506424966550621 0 -0.00021416328241642249 0.025470894189052275 0 -0.00027399492231259989 0.02508741407879652 0 -0.00020751545279442459 0.023834601974066467 0 -0.00033112982418693489 0.0247761404542092 0 -0.0010115162499490025 0.024688384322005048 0 -0.00027399492231259989 0.02508741407879652 0 -4.0268876845441234e-05 0.024071051768870557 0 5.0765610842193473e-06 0.025313669065969775 0 -4.0268876845441234e-05 0.024071051768870557 0 0.00011459200155406951 0.025151840412675572 0 -0.00027399492231259989 0.02508741407879652 0 5.0765610842193473e-06 0.025313669065969775 0 -4.0268876845441234e-05 0.024071051768870557 0 9.7902530489739516e-07 0.023799359143064136 0 -4.0268876845441234e-05 0.024071051768870557 0 0.00011459200155406951 0.025151840412675572 0 -2.8975923134656784e-06 0.021794632713949297 0 -0.0010115162499490025 0.024688384322005048 0 -4.0268876845441234e-05 0.024071051768870557 0 -2.8975923134656784e-06 0.021794632713949297 0 9.7902530489739516e-07 0.023799359143064136 0 -4.0268876845441234e-05 0.024071051768870557 0 1.606760322470697e-07 0.025807793360427784 0 5.4934648585916426e-05 0.026113138022183707 0 0.00010992842260757045 0.027224951982475053 0 1.606760322470697e-07 0.025807793360427784 0 0.00011459200155406951 0.025151840412675572 0 5.4934648585916426e-05 0.026113138022183707 0 9.7902530489739516e-07 0.023799359143064136 0 1.606760322470697e-07 0.025807793360427784 0 0.00011459200155406951 0.025151840412675572 0 5.0765610842193473e-06 0.025313669065969775 0 0.00011459200155406951 0.025151840412675572 0 7.0361690637397341e-05 0.026044134131851238 0 0.00011459200155406951 0.025151840412675572 0 5.4934648585916426e-05 0.026113138022183707 0 7.0361690637397341e-05 0.026044134131851238 0 -0.00070672885054223766 0.027220790672095686 0 -5.5722627853194835e-05 0.027276155136961574 0 3.0486614925083302e-05 0.02671755151630428 0 0.00011768494355845338 0.026276056544653176 0 -0.00010321216891456039 0.027407120675163418 0 5.4934648585916426e-05 0.026113138022183707 0 3.0486614925083302e-05 0.02671755151630428 0 7.0361690637397341e-05 0.026044134131851238 0 3.0486614925083302e-05 0.02671755151630428 0 7.0361690637397341e-05 0.026044134131851238 0 0.00011768494355845338 0.026276056544653176 0 -0.0022840503574028648 0.028419278655832343 0 -0.0014116865650816606 0.027922059386066216 0 -0.0017426336866102885 0.028600163140630117 0 -0.0009154123379854286 0.027008722025014892 0 -0.00070672885054223766 0.027220790672095686 0 -0.00034161065741604478 0.026456380334344682 0 7.0361690637397341e-05 0.026044134131851238 0 0.00011768494355845338 0.026276056544653176 0 -0.0009154123379854286 0.027008722025014892 0 0.00036410559862388336 0.025621386070571076 0 -0.0014116865650816606 0.027922059386066216 0 -0.0012136202432437237 0.028523367668002293 0 -0.00010321216891456039 0.027407120675163418 0 -0.0014116865650816606 0.027922059386066216 0 -0.0012136202432437237 0.028523367668002293 0 -0.0017426336866102885 0.028600163140630117 0 -0.0012136202432437237 0.028523367668002293 0 -0.0010031629856275955 0.029150773051250627 0 -0.00065944628449390776 0.028647463709929745 0 -0.0012136202432437237 0.028523367668002293 0 -0.0010031629856275955 0.029150773051250627 0 -0.001636381720191759 0.029090366864250632 0 -0.0010031629856275955 0.029150773051250627 0 -0.001636381720191759 0.029090366864250632 0 -0.0015646196123819491 0.029692618142007562 0 -0.0010031629856275955 0.029150773051250627 0 -0.0015646196123819491 0.029692618142007562 0 -0.00071865180472728064 0.02958512689797068 0 -0.001636381720191759 0.029090366864250632 0 -0.0021887548503900143 0.029578924406294133 0 -0.0015646196123819491 0.029692618142007562 0 -0.001636381720191759 0.029090366864250632 0 -0.0021223083157338027 0.028979948911407819 0 -0.0021887548503900143 0.029578924406294133 0 -0.001636381720191759 0.029090366864250632 0 -0.0017426336866102885 0.028600163140630117 0 -0.0021223083157338027 0.028979948911407819 0 -0.0012136202432437237 0.028523367668002293 0 -0.001636381720191759 0.029090366864250632 0 -0.0017426336866102885 0.028600163140630117 0 -0.0022840503574028648 0.028419278655832343 0 -0.0021223083157338027 0.028979948911407819 0 -0.0027732639189484436 0.029170144919567275 0 -0.0022840503574028648 0.028419278655832343 0 -0.0017426336866102885 0.028600163140630117 0 -0.0021223083157338027 0.028979948911407819 0 -0.0009154123379854286 0.027008722025014892 0 -0.00059800321382667658 0.026494457031710845 0 -0.0009154123379854286 0.027008722025014892 0 -0.0020614800958785461 0.028550851692063648 0 -0.00083150393975958128 0.027316617472126617 0 -0.0011001220522554136 0.027421789033018958 0 -0.0010623378575861547 0.027580569964107616 0 -0.0027732639189484436 0.029170144919567275 0 -0.0021887548503900143 0.029578924406294133 0 -0.0027008835848720942 0.030026369700318693 0 -0.0031480773368461608 0.029826970282197898 0 -0.0027732639189484436 0.029170144919567275 0 -0.0027008835848720942 0.030026369700318693 0 -0.0021223083157338027 0.028979948911407819 0 -0.0027732639189484436 0.029170144919567275 0 -0.0021887548503900143 0.029578924406294133 0 -0.0021887548503900143 0.029578924406294133 0 -0.0027008835848720942 0.030026369700318693 0 -0.0021470448896582189 0.030304883735574169 0 -0.00270895013509251 0.030617517314386045 0 -0.0030884666120342946 0.030462442917877527 0 -0.0027008835848720942 0.030026369700318693 0 -0.00270895013509251 0.030617517314386045 0 -0.0027008835848720942 0.030026369700318693 0 -0.0021470448896582189 0.030304883735574169 0 -0.0017158192056355354 0.030823765202096863 0 -0.0021470448896582189 0.030304883735574169 0 -0.0013668910275911751 0.030235067749012252 0 -0.0017158192056355354 0.030823765202096863 0 -0.0013668910275911751 0.030235067749012252 0 -0.0010633188287094463 0.030642994430118132 0 -0.0013668910275911751 0.030235067749012252 0 -0.0015646196123819491 0.029692618142007562 0 -0.00071865180472728064 0.02958512689797068 0 -0.0021470448896582189 0.030304883735574169 0 -0.0013668910275911751 0.030235067749012252 0 -0.0015646196123819491 0.029692618142007562 0 -0.0021887548503900143 0.029578924406294133 0 -0.0021470448896582189 0.030304883735574169 0 -0.0015646196123819491 0.029692618142007562 0 -0.00024762644178698376 0.029768323061207615 0 4.2438745461130687e-05 0.030115596475212343 0 0.0001956659584103155 0.029591009501711306 0 -0.00024762644178698376 0.029768323061207615 0 -0.00052974628157781748 0.030291077982868776 0 4.2438745461130687e-05 0.030115596475212343 0 -0.00024762644178698376 0.029768323061207615 0 -0.00052974628157781748 0.030291077982868776 0 -0.00071865180472728064 0.02958512689797068 0 -0.0013668910275911751 0.030235067749012252 0 -0.00052974628157781748 0.030291077982868776 0 -0.00071865180472728064 0.02958512689797068 0 -0.0013668910275911751 0.030235067749012252 0 -0.00052974628157781748 0.030291077982868776 0 -0.0010633188287094463 0.030642994430118132 0 -0.00052974628157781748 0.030291077982868776 0 -2.9983708836452829e-07 0.030612391992508904 0 4.2438745461130687e-05 0.030115596475212343 0 0.00043773385170534524 0.030467346695018802 0 4.2438745461130687e-05 0.030115596475212343 0 0.00049011921527695578 0.029873205664979873 0 -2.9983708836452829e-07 0.030612391992508904 0 0.00043773385170534524 0.030467346695018802 0 4.2438745461130687e-05 0.030115596475212343 0 0.00043773385170534524 0.030467346695018802 0 0.0008371090631275795 0.030197821291496924 0 0.00049011921527695578 0.029873205664979873 0 0.00093337702311569164 0.03090577069288418 0 0.00043773385170534524 0.030467346695018802 0 0.0008371090631275795 0.030197821291496924 0 0.0008371090631275795 0.030197821291496924 0 0.00049011921527695578 0.029873205664979873 0 0.00082246907159360283 0.029535095029166087 0 4.2438745461130687e-05 0.030115596475212343 0 0.00049011921527695578 0.029873205664979873 0 0.0001956659584103155 0.029591009501711306 0 0.00049011921527695578 0.029873205664979873 0 0.0001956659584103155 0.029591009501711306 0 0.00051424269527162005 0.029376999514430343 0 0.0001956659584103155 0.029591009501711306 0 0.00051424269527162005 0.029376999514430343 0 0.00036374686673936704 0.029013053675287333 0 0.0001956659584103155 0.029591009501711306 0 0.00036374686673936704 0.029013053675287333 0 -1.0243028944057495e-05 0.029259633627515744 0 0.00082246907159360283 0.029535095029166087 0 0.00051424269527162005 0.029376999514430343 0 0.00067608496434184583 0.028919831006984104 0 0.00049011921527695578 0.029873205664979873 0 0.00082246907159360283 0.029535095029166087 0 0.00051424269527162005 0.029376999514430343 0 0.00067608496434184583 0.028919831006984104 0 0.00036374686673936704 0.029013053675287333 0 0.00046249506238870363 0.028503401403947328 0 0.00051424269527162005 0.029376999514430343 0 0.00067608496434184583 0.028919831006984104 0 0.00036374686673936704 0.029013053675287333 0 0.00036374686673936704 0.029013053675287333 0 0.00024538681361330872 0.028570298941513493 0 0.00046249506238870363 0.028503401403947328 0 0.00036374686673936704 0.029013053675287333 0 -1.0243028944057495e-05 0.029259633627515744 0 0.00024538681361330872 0.028570298941513493 0 -0.00015327990836251697 0.028795728963513966 0 -1.0243028944057495e-05 0.029259633627515744 0 0.00024538681361330872 0.028570298941513493 0 -0.00024762644178698376 0.029768323061207615 0 -1.0243028944057495e-05 0.029259633627515744 0 -0.00071865180472728064 0.02958512689797068 0 -0.00015327990836251697 0.028795728963513966 0 -1.0243028944057495e-05 0.029259633627515744 0 -0.00071865180472728064 0.02958512689797068 0 -0.00024762644178698376 0.029768323061207615 0 0.0001956659584103155 0.029591009501711306 0 -1.0243028944057495e-05 0.029259633627515744 0 -0.0010031629856275955 0.029150773051250627 0 -0.00015327990836251697 0.028795728963513966 0 -0.00071865180472728064 0.02958512689797068 0 -0.0010031629856275955 0.029150773051250627 0 -0.00015327990836251697 0.028795728963513966 0 -0.00065944628449390776 0.028647463709929745 0 -0.0012136202432437237 0.028523367668002293 0 -0.00065944628449390776 0.028647463709929745 0 -0.00010321216891456039 0.027407120675163418 0 -0.00015327990836251697 0.028795728963513966 0 -0.00065944628449390776 0.028647463709929745 0 -0.00010321216891456039 0.027407120675163418 0 -0.00010321216891456039 0.027407120675163418 0 0.00030883955775144728 0.028030185034158623 0 0.00024538681361330872 0.028570298941513493 0 -0.00015327990836251697 0.028795728963513966 0 -0.00010321216891456039 0.027407120675163418 0 0.00024538681361330872 0.028570298941513493 0 -0.00010321216891456039 0.027407120675163418 0 0.00010992842260757045 0.027224951982475053 0 0.00030883955775144728 0.028030185034158623 0 3.0486614925083302e-05 0.02671755151630428 0 -0.00010321216891456039 0.027407120675163418 0 0.00010992842260757045 0.027224951982475053 0 5.4934648585916426e-05 0.026113138022183707 0 3.0486614925083302e-05 0.02671755151630428 0 0.00010992842260757045 0.027224951982475053 0 0.00010992842260757045 0.027224951982475053 0 0.00030560696138168676 0.028547896530928738 0 0.00030883955775144728 0.028030185034158623 0 0.00010992842260757045 0.027224951982475053 0 2.4909875321665891e-07 0.027814711417698125 0 0.00030560696138168676 0.028547896530928738 0 1.606760322470697e-07 0.025807793360427784 0 0.00010992842260757045 0.027224951982475053 0 2.4909875321665891e-07 0.027814711417698125 0 1.3891980741271727e-06 0.029823184972944412 0 0.00018383145963043513 0.029638983044993194 0 0.00030560696138168676 0.028547896530928738 0 2.4909875321665891e-07 0.027814711417698125 0 1.3891980741271727e-06 0.029823184972944412 0 0.00030560696138168676 0.028547896530928738 0 0.00030560696138168676 0.028547896530928738 0 0.00032369029718173307 0.028731093423664741 0 0.000420016704149708 0.028345808108613917 0 0.00018383145963043513 0.029638983044993194 0 0.00030560696138168676 0.028547896530928738 0 0.00032369029718173307 0.028731093423664741 0 0.00032369029718173307 0.028731093423664741 0 0.000420016704149708 0.028345808108613917 0 0.00039727567988929568 0.02855010616322751 0 0.000420016704149708 0.028345808108613917 0 0.00056801942258148555 0.028421137883467552 0 0.00039727567988929568 0.02855010616322751 0 0.000420016704149708 0.028345808108613917 0 0.00030883955775144728 0.028030185034158623 0 0.00046249506238870363 0.028503401403947328 0 0.00030560696138168676 0.028547896530928738 0 0.000420016704149708 0.028345808108613917 0 0.00030883955775144728 0.028030185034158623 0 0.00030883955775144728 0.028030185034158623 0 0.00024538681361330872 0.028570298941513493 0 0.00046249506238870363 0.028503401403947328 0 0.000420016704149708 0.028345808108613917 0 0.00046249506238870363 0.028503401403947328 0 0.00056801942258148555 0.028421137883467552 0 0.00067608496434184583 0.028919831006984104 0 0.00046249506238870363 0.028503401403947328 0 0.00056801942258148555 0.028421137883467552 0 0.00056801942258148555 0.028421137883467552 0 0.00029450756397567351 0.028420879455826279 0 0.00031948329881222037 0.028555448696280353 0 0.00056801942258148555 0.028421137883467552 0 0.0012698328688027219 0.028532534755399349 0 0.0010367525035720109 0.028871494643337877 0 0.00067608496434184583 0.028919831006984104 0 0.00056801942258148555 0.028421137883467552 0 0.0010367525035720109 0.028871494643337877 0 0.00062766768715093928 0.02844440690974856 0 0.00073612901958328137 0.028359888065891792 0 0.00029450756397567351 0.028420879455826279 0 0.00019326870516900703 0.028534742340254712 0 0.0001650828853621228 0.028429893975357348 0 0.0012698328688027219 0.028532534755399349 0 0.0018272240907379804 0.028725956012411548 0 0.0014598185778975858 0.028989943874049694 0 0.00073612901958328137 0.028359888065891792 0 0.00059491566849717472 0.031320120537129612 0 0.00031948329881222037 0.028555448696280353 0 0.00023171513855914754 0.028663565223436726 0 0.00019326870516900703 0.028534742340254712 0 0.00029450756397567351 0.028420879455826279 0 0.00031948329881222037 0.028555448696280353 0 0.00019326870516900703 0.028534742340254712 0 -0.00045333560697722984 0.031741555782897515 0 0.00010776047760581366 0.031810873042921697 0 0.00031948329881222037 0.028555448696280353 0 0.00033629178621886108 0.028643237157387841 0 0.00023171513855914754 0.028663565223436726 0 0.00056801942258148555 0.028421137883467552 0 0.00031948329881222037 0.028555448696280353 0 0.00039727567988929568 0.02855010616322751 0 0.00031948329881222037 0.028555448696280353 0 0.00039727567988929568 0.02855010616322751 0 0.00033629178621886108 0.028643237157387841 0 0.00032369029718173307 0.028731093423664741 0 0.00039727567988929568 0.02855010616322751 0 0.00033629178621886108 0.028643237157387841 0 0.00033744756841473596 0.028773194939110104 0 -2.4463359478513355e-05 0.028918192158694518 0 0.00018383145963043513 0.029638983044993194 0 0.00032369029718173307 0.028731093423664741 0 -0.00026954933000502765 0.02898621090434193 0 -0.00026954933000502765 0.02898621090434193 0 -0.0016414291035662988 0.029003688390852215 0 -2.7942444620542478e-06 0.031827569031027445 0 -0.00034543202950114692 0.03401153625406441 0 -1.2974846667968506e-06 0.031836191831554762 0 0.00015931982991139145 0.03441097883216878 0 -2.4463359478513355e-05 0.028918192158694518 0 -0.00045333560697722984 0.031741555782897515 0 -0.00045333560697722984 0.031741555782897515 0 -7.6750676701948392e-07 0.031830708785929807 0 1.3891980741271727e-06 0.029823184972944412 0 0.00018383145963043513 0.029638983044993194 0 -2.7942444620542478e-06 0.031827569031027445 0 0.00018383145963043513 0.029638983044993194 0 -0.00026954933000502765 0.02898621090434193 0 -2.7942444620542478e-06 0.031827569031027445 0 -1.2974846667968506e-06 0.031836191831554762 0 7.3410255967084835e-07 0.034997659337805943 0 0.00015931982991139145 0.03441097883216878 0 -0.00045333560697722984 0.031741555782897515 0 0.00014979135832791552 0.034733137373196242 0 7.3410255967084835e-07 0.034997659337805943 0 0.00015931982991139145 0.03441097883216878 0 -1.7688348424841353e-07 0.034999663929191335 0 0.00014979135832791552 0.034733137373196242 0 8.9293190691463784e-08 0.034999822948957295 0 2.247713342772986e-09 0.034999949730041779 0 -5.7625523095286428e-06 0.034981272990638738 0 -8.3608703740002373e-09 0.034999964694397534 0 -1.0494229525151813e-05 0.034958337963833998 0 2.247713342772986e-09 0.034999949730041779 0 -5.7625523095286428e-06 0.034981272990638738 0 -3.7509203451538388e-05 0.034925285383688727 0 -1.0494229525151813e-05 0.034958337963833998 0 -2.3571711601829794e-05 0.034957089101006533 0 -1.0494229525151813e-05 0.034958337963833998 0 -2.3571711601829794e-05 0.034957089101006533 0 -1.3909719634271063e-05 0.034970917787276151 0 -1.0494229525151813e-05 0.034958337963833998 0 -5.7625523095286428e-06 0.034981272990638738 0 -1.3909719634271063e-05 0.034970917787276151 0 -2.3571711601829794e-05 0.034957089101006533 0 -1.3909719634271063e-05 0.034970917787276151 0 -1.0712634436053391e-05 0.034959211321747924 0 0.00010776047760581366 0.031810873042921697 0 0.00059491566849717472 0.031320120537129612 0 -5.7625523095286428e-06 0.034981272990638738 0 -1.3909719634271063e-05 0.034970917787276151 0 -1.1589564459561932e-05 0.034976049208315825 0 -1.3909719634271063e-05 0.034970917787276151 0 -1.1589564459561932e-05 0.034976049208315825 0 -1.0712634436053391e-05 0.034959211321747924 0 -0.0001146642332741307 0.034928084463150551 0 0.00011613418193962604 0.033773379466332736 0 -1.1589564459561932e-05 0.034976049208315825 0 -1.44019552135303e-05 0.034957026295635948 0 -1.0712634436053391e-05 0.034959211321747924 0 0.00011613418193962604 0.033773379466332736 0 0.00059491566849717472 0.031320120537129612 0 -1.1589564459561932e-05 0.034976049208315825 0 -8.3608703740002373e-09 0.034999964694397534 0 2.7561406365044455e-09 0.035000003275182719 0 -1.1589564459561932e-05 0.034976049208315825 0 -1.4553634792619441e-05 0.034982677293776764 0 2.7561406365044455e-09 0.035000003275182719 0 -5.7625523095286428e-06 0.034981272990638738 0 -1.1589564459561932e-05 0.034976049208315825 0 -8.3608703740002373e-09 0.034999964694397534 0 -5.6497895579509171e-06 0.034972838785654506 0 3.6854677043052304e-09 0.034999955511500716 0 -1.5132195048519637e-06 0.034991169732835226 0 0.00011613418193962604 0.033773379466332736 0 1.7535553327240069e-07 0.035000264763920257 0 3.6854677043052304e-09 0.034999955511500716 0 -1.5132195048519637e-06 0.034991169732835226 0 -4.8807787974135671e-11 0.035000001587111154 0 -1.5132195048519637e-06 0.034991169732835226 0 -2.2471854937504234e-06 0.034997684559025723 0 -4.8807787974135671e-11 0.035000001587111154 0 -1.5132195048519637e-06 0.034991169732835226 0 -2.2471854937504234e-06 0.034997684559025723 0 -7.5030316773152e-06 0.034978025959995794 0 -3.5712425726650567e-05 0.034173275560950629 0 -0.0001746627582994646 0.033709351710759887 0 -0.00033157421638736414 0.034314787460818952 0 0.0005820813239111926 0.032407675535556547 0 0.00069456618580150502 0.031971915137378369 0 -9.3079537078398988e-06 0.034933204365921393 0 0.0005820813239111926 0.032407675535556547 0 0.0019180339341189642 0.029004072182155966 0 0.0014637182431751364 0.029452798752417627 0 0.0017205562632372515 0.02980076806519702 0 0.0018272240907379804 0.028725956012411548 0 0.0019180339341189642 0.029004072182155966 0 0.0014598185778975858 0.028989943874049694 0 0.0007811335177645059 0.032408709385468769 0 0.00064163325271248827 0.032363944652039872 0 0.00072436988874335852 0.03260530962867722 0 0.00059491566849717472 0.031320120537129612 0 0.0005820813239111926 0.032407675535556547 0 -5.6497895579509171e-06 0.034972838785654506 0 -1.5132195048519637e-06 0.034991169732835226 0 -7.5030316773152e-06 0.034978025959995794 0 0.00011613418193962604 0.033773379466332736 0 0.0005820813239111926 0.032407675535556547 0 0.0019180339341189642 0.029004072182155966 0 0.0014598185778975858 0.028989943874049694 0 0.0014637182431751364 0.029452798752417627 0 0.0012698328688027219 0.028532534755399349 0 0.0014598185778975858 0.028989943874049694 0 0.0010367525035720109 0.028871494643337877 0 0.0014598185778975858 0.028989943874049694 0 0.0010367525035720109 0.028871494643337877 0 0.0011084333925810797 0.029239617622465804 0 0.00067608496434184583 0.028919831006984104 0 0.0010367525035720109 0.028871494643337877 0 0.0011084333925810797 0.029239617622465804 0 0.00082246907159360283 0.029535095029166087 0 0.0011084333925810797 0.029239617622465804 0 0.0011474154378160514 0.029767780272109676 0 0.00082246907159360283 0.029535095029166087 0 0.00067608496434184583 0.028919831006984104 0 0.0011084333925810797 0.029239617622465804 0 0.0011084333925810797 0.029239617622465804 0 0.0014637182431751364 0.029452798752417627 0 0.0011474154378160514 0.029767780272109676 0 0.0014598185778975858 0.028989943874049694 0 0.0011084333925810797 0.029239617622465804 0 0.0014637182431751364 0.029452798752417627 0 0.0014637182431751364 0.029452798752417627 0 0.0014197193634478643 0.029907054669827779 0 0.0017205562632372515 0.02980076806519702 0 0.0014637182431751364 0.029452798752417627 0 0.0014197193634478643 0.029907054669827779 0 0.0011474154378160514 0.029767780272109676 0 0.0014197193634478643 0.029907054669827779 0 0.0014566114264790379 0.0302605878905257 0 0.0017205562632372515 0.02980076806519702 0 0.0014197193634478643 0.029907054669827779 0 0.0011707033312704004 0.030156624617218873 0 0.0014566114264790379 0.0302605878905257 0 0.0008371090631275795 0.030197821291496924 0 0.00082246907159360283 0.029535095029166087 0 0.0011474154378160514 0.029767780272109676 0 0.0014197193634478643 0.029907054669827779 0 0.0011474154378160514 0.029767780272109676 0 0.0011707033312704004 0.030156624617218873 0 0.0008371090631275795 0.030197821291496924 0 0.0011474154378160514 0.029767780272109676 0 0.0011707033312704004 0.030156624617218873 0 0.00093337702311569164 0.03090577069288418 0 0.0008371090631275795 0.030197821291496924 0 0.0011999767981625128 0.030515812938667886 0 0.0008371090631275795 0.030197821291496924 0 0.0011707033312704004 0.030156624617218873 0 0.0011999767981625128 0.030515812938667886 0 0.0011707033312704004 0.030156624617218873 0 0.0011999767981625128 0.030515812938667886 0 0.0014566114264790379 0.0302605878905257 0 0.00090702486434995964 0.032070597971732881 0 0.00069456618580150502 0.031971915137378369 0 0.0015195918144566775 0.030639167596301826 0 0.0014566114264790379 0.0302605878905257 0 0.0017205562632372515 0.02980076806519702 0 0.0015159635066451513 0.030630468397954941 0 0.0011999767981625128 0.030515812938667886 0 0.0014566114264790379 0.0302605878905257 0 0.00090702486434995964 0.032070597971732881 0 0.0012564839359349041 0.030061247979465779 0 -0.00019884538527351848 0.034703270196270931 0 4.7616801506044592e-05 0.034600649741944316 0 -0.00033157421638736414 0.034314787460818952 0 -0.00042152084278131104 0.034787127534958467 0 -0.00019884538527351848 0.034703270196270931 0 -0.00033157421638736414 0.034314787460818952 0 6.2839287292794154e-10 0.035000000105084431 0 -9.3647142964656199e-10 0.034999997616647377 0 -3.4646386595096297e-07 0.034999569559309551 0 -8.8058938812879612e-05 0.034860708030222863 0 -0.00019884538527351848 0.034703270196270931 0 4.7616801506044592e-05 0.034600649741944316 0 4.0283830583524164e-08 0.035000000665682096 0 7.0261782221597817e-07 0.034727385472748548 0 -9.3079537078398988e-06 0.034933204365921393 0 7.0261782221597817e-07 0.034727385472748548 0 -4.8807787974135671e-11 0.035000001587111154 0 -9.3647142964656199e-10 0.034999997616647377 0 -3.4646386595096297e-07 0.034999569559309551 0 -2.2471854937504234e-06 0.034997684559025723 0 -4.8807787974135671e-11 0.035000001587111154 0 -3.4646386595096297e-07 0.034999569559309551 0 -3.5712425726650567e-05 0.034173275560950629 0 4.7616801506044592e-05 0.034600649741944316 0 -0.00033157421638736414 0.034314787460818952 0 0.00033678634597699488 0.0067108624501752492 0 0.0003933726556954791 0.0066214505840906318 0 0.00044369192614239809 0.0067580433981327907 0 -0.00014414435636254862 0.0026681092901243006 0 0.00041720676806223462 0.011060662371788743 0 0.00033678634597699488 0.0067108624501752492 0 0.0003933726556954791 0.0066214505840906318 0 0.00029676140870345556 0.00665018683011243 0 -0.0010991340699961839 -0.00078684415354575085 0 -0.00055510576279004127 -0.00036047841890550974 0 4.1661530989242206e-05 -0.00075564709021213846 0 -0.00014414435636254862 0.0026681092901243006 0 -0.00022937621381468454 0.0034108254263548227 0 -0.00014414435636254862 0.0026681092901243006 0 -0.00019669974170247363 -0.0015468026453351882 0 -0.0010991340699961839 -0.00078684415354575085 0 -0.00055510576279004127 -0.00036047841890550974 0 -0.00082004739576350711 0.00033508915988859109 0 -5.0127649244708257e-06 -0.00073975004041700249 0 4.1661530989242206e-05 -0.00075564709021213846 0 6.4125122647419117e-05 -0.00084141441949767387 0 -5.0127649244708257e-06 -0.00073975004041700249 0 -1.8774056653592957e-05 -0.00079196759867524694 0 6.4125122647419117e-05 -0.00084141441949767387 0 -0.00014414435636254862 0.0026681092901243006 0 0.0015498466192569785 0.0078559784678840713 0 0.0014677187574847067 0.015962329930067919 0 0.00093161363541082939 0.016162539993771024 0 0.0010509143753385686 0.016414145560405855 0 0.00060169688850400635 0.0072561383466975314 0 0.00062497141015577164 0.0073294723109432391 0 0.00067162711204610292 0.0072881836881902255 0 0.0014677187574847067 0.015962329930067919 0 0.00093161363541082939 0.016162539993771024 0 0.0010461297463442612 0.015890978763495631 0 0.0015498466192569785 0.0078559784678840713 0 0.00041720676806223462 0.011060662371788743 0 0.00093161363541082939 0.016162539993771024 0 0.00084962026224825375 0.016010496812226594 0 0.0010461297463442612 0.015890978763495631 0 0.00084962026224825375 0.016010496812226594 0 0.00064992431626113595 0.0161332696358647 0 0.00076827702244954292 0.01584996645126565 0 0.00093161363541082939 0.016162539993771024 0 0.00084962026224825375 0.016010496812226594 0 0.00064992431626113595 0.0161332696358647 0 0.00093161363541082939 0.016162539993771024 0 0.00064992431626113595 0.0161332696358647 0 0.00064390449906004106 0.016409173510548838 0 0.00093161363541082939 0.016162539993771024 0 0.00064390449906004106 0.016409173510548838 0 0.0010509143753385686 0.016414145560405855 0 0.00039725956359457521 0.015972975905761733 0 0.00064992431626113595 0.0161332696358647 0 -0.00011093016069995976 0.016704093177705718 0 0.00064992431626113595 0.0161332696358647 0 0.00062964994028212899 0.01672262708781927 0 -0.00011093016069995976 0.016704093177705718 0 0.00010132166103275074 0.027180924349757364 0 7.4892255939285933e-05 0.027163161920431517 0 9.0762971255085726e-05 0.027201778816692137 0 0.00024191791371538143 0.021577449786826478 0 -9.8920935719795452e-05 0.021574124401432776 0 0.00039725956359457521 0.015972975905761733 0 0.00064992431626113595 0.0161332696358647 0 0.00076827702244954292 0.01584996645126565 0 0.00075239674277174267 0.016258955260495912 0 0.00099727599669803654 0.01644334992872773 0 0.00099727599669803654 0.01644334992872773 0 -9.8920935719795452e-05 0.021574124401432776 0 0.00060272777556242933 0.019213194644505743 0 0.00033127136213059581 0.019509597634307402 0 0.00024911984015399277 0.018947141262901292 0 0.00060272777556242933 0.019213194644505743 0 0.00092855367994204639 0.018961891675776783 0 0.00024911984015399277 0.018947141262901292 0 0.00099727599669803654 0.01644334992872773 0 0.0004111248913019608 0.015237510440112366 0 0.00060272777556242933 0.019213194644505743 0 0.00092855367994204639 0.018961891675776783 0 0.0009020499552883696 0.019433562315587474 0 0.0004111248913019608 0.015237510440112366 0 0.00038671702670586247 0.0107973976516297 0 0.00060272777556242933 0.019213194644505743 0 0.0009020499552883696 0.019433562315587474 0 0.00033127136213059581 0.019509597634307402 0 0.00024646458262273278 0.013453470096650306 0 0.00043722600074213252 0.013368285195792503 0 0.00059508243288637283 0.013054663831756706 0 0.00033678634597699488 0.0067108624501752492 0 0.00029676140870345556 0.00665018683011243 0 0.00021484258042869247 0.0067513272648353486 0 0.00041720676806223462 0.011060662371788743 0 0.00038671702670586247 0.0107973976516297 0 0.00099727599669803654 0.01644334992872773 0 0.00041720676806223462 0.011060662371788743 0 0.00057227723364173069 0.013473962609187538 0 0.00024646458262273278 0.013453470096650306 0 0.00043722600074213252 0.013368285195792503 0 0.00057227723364173069 0.013473962609187538 0 0.00057570079118866272 0.013258306295339781 0 0.00043722600074213252 0.013368285195792503 0 0.00059032628819866552 0.013218257891166121 0 0.00043722600074213252 0.013368285195792503 0 0.00059508243288637283 0.013054663831756706 0 0.0004111248913019608 0.015237510440112366 0 0.00094409872301194598 0.013766035044899753 0 0.00021484258042869247 0.0067513272648353486 0 0.00021041336801629656 0.0068371902140468852 0 0.00032232962187454545 0.006798141787230926 0 0.00033678634597699488 0.0067108624501752492 0 0.00021484258042869247 0.0067513272648353486 0 0.00032232962187454545 0.006798141787230926 0 -0.00042776664001987954 0.010879242832015813 0 3.5736770085084613e-05 0.010380215459261967 0 -0.00039712257573948487 0.010154967408897824 0 0.00038671702670586247 0.0107973976516297 0 -8.6148624531219887e-05 0.008279258451019865 0 0.0004111248913019608 0.015237510440112366 0 9.4431135529916694e-05 0.017563006025385439 0 0.0009020499552883696 0.019433562315587474 0 0.00033127136213059581 0.019509597634307402 0 0.00021730948483621358 0.020071289370820075 0 0.00078606409972357971 0.014085835518785441 0 0.00076994517534215829 0.014348429868590697 0 0.00016442898339360628 0.01465014081217423 0 0.00038671702670586247 0.0107973976516297 0 -4.286731404522397e-05 0.012825141940349508 0 0.00076994517534215829 0.014348429868590697 0 0.00029788624474144648 0.014845762423574696 0 0.00016442898339360628 0.01465014081217423 0 3.5736770085084613e-05 0.010380215459261967 0 -0.00039712257573948487 0.010154967408897824 0 0.00050938907880245974 0.0098805232467732412 0 -0.00039712257573948487 0.010154967408897824 0 0.00050938907880245974 0.0098805232467732412 0 -0.00035866046624396733 0.009420945904283929 0 -8.6148624531219887e-05 0.008279258451019865 0 -0.00010328777484252258 0.0075020810354921776 0 0.00021041336801629656 0.0068371902140468852 0 0.00030143154992630502 0.0068879562669645891 0 0.00032232962187454545 0.006798141787230926 0 0.00021041336801629656 0.0068371902140468852 0 0.00030143154992630502 0.0068879562669645891 0 0.00019574473761978017 0.0069469080053108766 0 0.00030143154992630502 0.0068879562669645891 0 0.00032232962187454545 0.006798141787230926 0 0.00041387974638896048 0.0068743451952525394 0 0.00032232962187454545 0.006798141787230926 0 0.00044369192614239809 0.0067580433981327907 0 0.00041387974638896048 0.0068743451952525394 0 0.00033678634597699488 0.0067108624501752492 0 0.00032232962187454545 0.006798141787230926 0 0.00044369192614239809 0.0067580433981327907 0 -0.00055510576279004127 -0.00036047841890550974 0 -0.00082004739576350711 0.00033508915988859109 0 -6.3874489732069681e-05 -0.0001489986034515861 0 0.00044369192614239809 0.0067580433981327907 0 0.0004775012526177483 0.006874993248735921 0 0.00041387974638896048 0.0068743451952525394 0 -0.00082004739576350711 0.00033508915988859109 0 -0.00028205728328856849 0.00083584338950181401 0 -0.00050320832246680033 0.0015958658335508309 0 -0.00022937621381468454 0.0034108254263548227 0 -1.441222823373221e-05 0.005145425928114779 0 0.00023384714396959772 -0.00098139361086605468 0 0.0002829093581835789 0.0032809445224516844 0 -0.00028205728328856849 0.00083584338950181401 0 0.00031293144781945547 0.00035856913805882391 0 9.0119223301620815e-05 0.001798666476886728 0 0.00012739580492075218 -0.001017877895614515 0 9.644434556425725e-05 -0.00092530413654873332 0 5.4627176057093611e-05 -0.00088185240760479911 0 0.00012739580492075218 -0.001017877895614515 0 0.00012468329971435682 -0.0009783344456690509 0 0.00014920879464193741 -0.0010197646435961723 0 0.00012739580492075218 -0.001017877895614515 0 0.00012468329971435682 -0.0009783344456690509 0 9.644434556425725e-05 -0.00092530413654873332 0 0.00012739580492075218 -0.001017877895614515 0 0.00014920879464193741 -0.0010197646435961723 0 0.00017565239376716885 -0.0010052106449856607 0 -0.00082004739576350711 0.00033508915988859109 0 -0.00028205728328856849 0.00083584338950181401 0 -6.3874489732069681e-05 -0.0001489986034515861 0 -0.00028205728328856849 0.00083584338950181401 0 0.00031293144781945547 0.00035856913805882391 0 -6.3874489732069681e-05 -0.0001489986034515861 0 0.00031293144781945547 0.00035856913805882391 0 -6.3874489732069681e-05 -0.0001489986034515861 0 0.00025705524310357499 -0.0009092092359303522 0 0.00014154261441652155 -0.00097560031194903699 0 0.00019278446941574319 -0.0010961137549529581 0 0.00016994895340067054 -0.0009393263340057858 0 0.00014154261441652155 -0.00097560031194903699 0 0.0001541210960919857 -0.0010364844110991795 0 0.00019278446941574319 -0.0010961137549529581 0 0.00014154261441652155 -0.00097560031194903699 0 0.0001541210960919857 -0.0010364844110991795 0 0.00012398930114827818 -0.00095891659938000871 0 0.00012398930114827818 -0.00095891659938000871 0 0.00012468329971435682 -0.0009783344456690509 0 0.00010389512185147508 -0.00091735953936995362 0 0.0001541210960919857 -0.0010364844110991795 0 0.00012468329971435682 -0.0009783344456690509 0 0.00014920879464193741 -0.0010197646435961723 0 0.0001541210960919857 -0.0010364844110991795 0 0.00012398930114827818 -0.00095891659938000871 0 0.00012468329971435682 -0.0009783344456690509 0 0.0001541210960919857 -0.0010364844110991795 0 0.00017283350351977585 -0.0010382239035379118 0 0.00018603008894398958 -0.0010793834517741454 0 0.0001541210960919857 -0.0010364844110991795 0 0.00014920879464193741 -0.0010197646435961723 0 0.00017283350351977585 -0.0010382239035379118 0 0.00014920879464193741 -0.0010197646435961723 0 0.00017283350351977585 -0.0010382239035379118 0 0.00017565239376716885 -0.0010052106449856607 0 0.0001541210960919857 -0.0010364844110991795 0 0.00019278446941574319 -0.0010961137549529581 0 0.00018603008894398958 -0.0010793834517741454 0 0.00019278446941574319 -0.0010961137549529581 0 0.00018603008894398958 -0.0010793834517741454 0 0.00021993749191093103 -0.0011532559191921464 0 0.00018603008894398958 -0.0010793834517741454 0 0.00019455325891013826 -0.0010108425675739872 0 0.00020122586151289214 -0.0010799160420083517 0 0.00018603008894398958 -0.0010793834517741454 0 0.00020122586151289214 -0.0010799160420083517 0 0.00021993749191093103 -0.0011532559191921464 0 0.00017283350351977585 -0.0010382239035379118 0 0.00018603008894398958 -0.0010793834517741454 0 0.00019455325891013826 -0.0010108425675739872 0 0.00017283350351977585 -0.0010382239035379118 0 0.00019455325891013826 -0.0010108425675739872 0 0.00017565239376716885 -0.0010052106449856607 0 0.00019455325891013826 -0.0010108425675739872 0 0.000216327592423723 -0.00096546375252918942 0 0.00020122586151289214 -0.0010799160420083517 0 0.000216327592423723 -0.00096546375252918942 0 0.00020122586151289214 -0.0010799160420083517 0 0.00020887952749185283 -0.0010287944625390608 0 0.00020122586151289214 -0.0010799160420083517 0 0.00020887952749185283 -0.0010287944625390608 0 0.00020551396468152574 -0.0011602668220013889 0 -6.3874489732069681e-05 -0.0001489986034515861 0 4.1661530989242206e-05 -0.00075564709021213846 0 0.00025705524310357499 -0.0009092092359303522 0 -0.00055510576279004127 -0.00036047841890550974 0 -6.3874489732069681e-05 -0.0001489986034515861 0 4.1661530989242206e-05 -0.00075564709021213846 0 0.00023384714396959772 -0.00098139361086605468 0 0.0002343724544094361 -0.00057566032060466258 0 0.00019455325891013826 -0.0010108425675739872 0 0.00017565239376716885 -0.0010052106449856607 0 0.00025705524310357499 -0.0009092092359303522 0 0.00012739580492075218 -0.001017877895614515 0 0.00017565239376716885 -0.0010052106449856607 0 0.00025705524310357499 -0.0009092092359303522 0 0.00019455325891013826 -0.0010108425675739872 0 0.000216327592423723 -0.00096546375252918942 0 0.00025705524310357499 -0.0009092092359303522 0 0.000216327592423723 -0.00096546375252918942 0 0.00025705524310357499 -0.0009092092359303522 0 0.00014777117030711283 -0.00088791144049537554 0 0.000216327592423723 -0.00096546375252918942 0 0.00014777117030711283 -0.00088791144049537554 0 0.00016238743069376982 -0.00092689537584814705 0 0.00014777117030711283 -0.00088791144049537554 0 6.4125122647419117e-05 -0.00084141441949767387 0 0.00016238743069376982 -0.00092689537584814705 0 4.1661530989242206e-05 -0.00075564709021213846 0 0.00025705524310357499 -0.0009092092359303522 0 0.00014777117030711283 -0.00088791144049537554 0 4.1661530989242206e-05 -0.00075564709021213846 0 0.00014777117030711283 -0.00088791144049537554 0 6.4125122647419117e-05 -0.00084141441949767387 0 6.4125122647419117e-05 -0.00084141441949767387 0 0.00016238743069376982 -0.00092689537584814705 0 9.841791348712812e-05 -0.00093088787315042255 0 0.00016238743069376982 -0.00092689537584814705 0 0.00017509582618735036 -0.00095356596432304153 0 9.841791348712812e-05 -0.00093088787315042255 0 0.000216327592423723 -0.00096546375252918942 0 0.00016238743069376982 -0.00092689537584814705 0 0.00020281569337264604 -0.0009742292549382688 0 0.00016238743069376982 -0.00092689537584814705 0 0.00020281569337264604 -0.0009742292549382688 0 0.00017509582618735036 -0.00095356596432304153 0 0.00017509582618735036 -0.00095356596432304153 0 0.00020393134752226712 -0.0009736464250376998 0 0.00019676655133118534 -0.00095590244877939853 0 0.00020281569337264604 -0.0009742292549382688 0 0.00017509582618735036 -0.00095356596432304153 0 0.00020393134752226712 -0.0009736464250376998 0 0.0020449474231065507 0.0041241109193899689 0 0.0019889503460542362 0.0030116859179358242 0 0.0037749612100359568 0.0081941548294276381 0 0.0033937028842064895 0.0082234355775720122 0 0.0034939987535935616 0.0084654798549104997 0 0.00017509582618735036 -0.00095356596432304153 0 0.00019676655133118534 -0.00095590244877939853 0 9.841791348712812e-05 -0.00093088787315042255 0 0.000216327592423723 -0.00096546375252918942 0 0.00020281569337264604 -0.0009742292549382688 0 0.00020887952749185283 -0.0010287944625390608 0 0.00020281569337264604 -0.0009742292549382688 0 0.00020887952749185283 -0.0010287944625390608 0 0.00020393134752226712 -0.0009736464250376998 0 0.00020887952749185283 -0.0010287944625390608 0 0.00018506695199143155 -0.00097756081947691594 0 0.00017501528706061033 -0.0010549647238541574 0 0.00020887952749185283 -0.0010287944625390608 0 0.00020393134752226712 -0.0009736464250376998 0 0.00018506695199143155 -0.00097756081947691594 0 -0.00042354622616620768 -0.0019492876077484437 0 -0.00069884481641657487 -0.0022693268454888251 0 -0.00019582431923495988 -0.002320869091636639 0 0.00020393134752226712 -0.0009736464250376998 0 0.00018506695199143155 -0.00097756081947691594 0 0.00020572391887104912 -0.00092494120190704293 0 -0.0004322655106453521 -0.0020062294506303954 0 0.00084040393623787085 0.0010541954923147388 0 0.0037749612100359568 0.0081941548294276381 0 0.0035604111223792286 0.007949958842859043 0 0.0033937028842064895 0.0082234355775720122 0 0.00020393134752226712 -0.0009736464250376998 0 0.00020572391887104912 -0.00092494120190704293 0 0.00019676655133118534 -0.00095590244877939853 0 0.0041998197593493113 0.007935536258658657 0 0.0037749612100359568 0.0081941548294276381 0 0.003871784718798467 0.0078623677724320822 0 0.00084040393623787085 0.0010541954923147388 0 0.0020449474231065507 0.0041241109193899689 0 0.0040452351849709391 0.0076429580970365767 0 0.0041998197593493113 0.007935536258658657 0 0.003871784718798467 0.0078623677724320822 0 0.0037749612100359568 0.0081941548294276381 0 0.003871784718798467 0.0078623677724320822 0 0.0035604111223792286 0.007949958842859043 0 0.0036496815374584871 0.00766753327678419 0 0.003871784718798467 0.0078623677724320822 0 0.0035604111223792286 0.007949958842859043 0 0.0034362607025838401 0.0076567613664829141 0 0.0035604111223792286 0.007949958842859043 0 0.0033356048204849684 0.0079354714175204535 0 0.0035604111223792286 0.007949958842859043 0 0.0033356048204849684 0.0079354714175204535 0 0.0033937028842064895 0.0082234355775720122 0 0.0033356048204849684 0.0079354714175204535 0 0.0030713662280396799 0.0085069496336412521 0 0.0029840151728467075 0.0079655039319005711 0 0.0040117697223192904 0.005896274781960067 0 0.002211244772998785 0.013646269697802643 0 0.0033356048204849684 0.0079354714175204535 0 0.0030976136386934756 0.0082857789309018961 0 0.0033937028842064895 0.0082234355775720122 0 0.0033937028842064895 0.0082234355775720122 0 0.0034939987535935616 0.0084654798549104997 0 0.0031625825762163985 0.0085197030955993132 0 0.001181144370608535 0.014890415824806158 0 0.0013231905251783042 0.015446138234398358 0 0.0011209893740918091 0.015373046545485269 0 0.002211244772998785 0.013646269697802643 0 0.0023678936983827226 0.012421845547750651 0 0.0030976136386934756 0.0082857789309018961 0 0.0033937028842064895 0.0082234355775720122 0 0.0031625825762163985 0.0085197030955993132 0 0.0014677187574847067 0.015962329930067919 0 0.0013231905251783042 0.015446138234398358 0 0.0011195087624004123 0.01564612098450046 0 0.0015498466192569785 0.0078559784678840713 0 0.0023678936983827226 0.012421845547750651 0 0.0013231905251783042 0.015446138234398358 0 0.0011195087624004123 0.01564612098450046 0 0.0011209893740918091 0.015373046545485269 0 0.0014677187574847067 0.015962329930067919 0 0.0010461297463442612 0.015890978763495631 0 0.0011195087624004123 0.01564612098450046 0 0.0015498466192569785 0.0078559784678840713 0 0.0019889503460542362 0.0030116859179358242 0 0.0032185751159068796 0.0087474743386087815 0 0.0034939987535935616 0.0084654798549104997 0 0.0031625825762163985 0.0085197030955993132 0 -1.8774056653592957e-05 -0.00079196759867524694 0 6.4125122647419117e-05 -0.00084141441949767387 0 9.841791348712812e-05 -0.00093088787315042255 0 0.00082514614063702667 0.021901027315893037 0 0.00043674456964541176 0.025643755017565498 0 0.00010132166103275074 0.027180924349757364 0 0.00012651300360351213 0.02712379840094498 0 9.5727728098975466e-05 0.027251686067901532 0 0.00024191791371538143 0.021577449786826478 0 0.00082514614063702667 0.021901027315893037 0 0.00039725956359457521 0.015972975905761733 0 0.00076827702244954292 0.01584996645126565 0 0.00076618688693774609 0.015509568696330344 0 0.00084962026224825375 0.016010496812226594 0 0.00076827702244954292 0.01584996645126565 0 0.0010461297463442612 0.015890978763495631 0 0.00076827702244954292 0.01584996645126565 0 0.0010461297463442612 0.015890978763495631 0 0.00091263584708697269 0.01568012515493495 0 0.0010461297463442612 0.015890978763495631 0 0.0011195087624004123 0.01564612098450046 0 0.00091263584708697269 0.01568012515493495 0 0.0011195087624004123 0.01564612098450046 0 0.00091263584708697269 0.01568012515493495 0 0.00086052975684968488 0.015502746093735082 0 0.0011195087624004123 0.01564612098450046 0 0.00086052975684968488 0.015502746093735082 0 0.0011209893740918091 0.015373046545485269 0 0.00076827702244954292 0.01584996645126565 0 0.00091263584708697269 0.01568012515493495 0 0.00076618688693774609 0.015509568696330344 0 0.00091263584708697269 0.01568012515493495 0 0.00086052975684968488 0.015502746093735082 0 0.00076618688693774609 0.015509568696330344 0 0.00092329414190637062 0.021308159606574992 0 0.00082514614063702667 0.021901027315893037 0 0.002211244772998785 0.013646269697802643 0 0.00082514614063702667 0.021901027315893037 0 0.001181144370608535 0.014890415824806158 0 0.00086052975684968488 0.015502746093735082 0 0.00076394248062442078 0.015515144124652642 0 0.0015528722401815108 0.022577676694717077 0 0.0013547736221208575 0.022977982145630467 0 0.0012896152859830686 0.022701992793494434 0 0.001181144370608535 0.014890415824806158 0 0.00086052975684968488 0.015502746093735082 0 0.0011209893740918091 0.015373046545485269 0 0.0013547736221208575 0.022977982145630467 0 0.0011186138914493096 0.022846247771518797 0 0.00087361938796753609 0.023120062451424676 0 0.0013547736221208575 0.022977982145630467 0 0.0012896152859830686 0.022701992793494434 0 0.0011186138914493096 0.022846247771518797 0 0.0012896152859830686 0.022701992793494434 0 0.0011186138914493096 0.022846247771518797 0 0.0011041271198210926 0.022644418746630417 0 0.0011186138914493096 0.022846247771518797 0 0.0011041271198210926 0.022644418746630417 0 0.00093257362021162968 0.022797832448599141 0 0.0012896152859830686 0.022701992793494434 0 0.0011041271198210926 0.022644418746630417 0 0.0012600073331810969 0.022468206317084388 0 0.0011041271198210926 0.022644418746630417 0 0.0012600073331810969 0.022468206317084388 0 0.0010481761142728957 0.022436640774816358 0 0.0015528722401815108 0.022577676694717077 0 0.0012896152859830686 0.022701992793494434 0 0.0012600073331810969 0.022468206317084388 0 0.0015528722401815108 0.022577676694717077 0 0.0012600073331810969 0.022468206317084388 0 0.0013750590931401758 0.022214548043691777 0 0.0012600073331810969 0.022468206317084388 0 0.0013750590931401758 0.022214548043691777 0 0.001163349077745744 0.022282469416286758 0 0.002211244772998785 0.013646269697802643 0 0.0022581774322549507 0.015516277481268636 0 0.0012600073331810969 0.022468206317084388 0 0.0010481761142728957 0.022436640774816358 0 0.001163349077745744 0.022282469416286758 0 0.0010481761142728957 0.022436640774816358 0 0.001163349077745744 0.022282469416286758 0 0.0010302805715146517 0.022279216772756884 0 0.00085138335335201371 0.022214023534319356 0 0.0010302805715146517 0.022279216772756884 0 0.00085992347850559036 0.022430407979489246 0 0.0010481761142728957 0.022436640774816358 0 0.0010302805715146517 0.022279216772756884 0 0.00085992347850559036 0.022430407979489246 0 0.0011041271198210926 0.022644418746630417 0 0.0010481761142728957 0.022436640774816358 0 0.00089497943652151616 0.022617759317575727 0 0.0010481761142728957 0.022436640774816358 0 0.00085992347850559036 0.022430407979489246 0 0.00089497943652151616 0.022617759317575727 0 0.00085992347850559036 0.022430407979489246 0 0.00089497943652151616 0.022617759317575727 0 0.00071619562004912607 0.022593780513284298 0 0.00089497943652151616 0.022617759317575727 0 0.00071619562004912607 0.022593780513284298 0 0.00067381751009169409 0.022827661139184836 0 0.00089497943652151616 0.022617759317575727 0 0.00093257362021162968 0.022797832448599141 0 0.00067381751009169409 0.022827661139184836 0 0.0011041271198210926 0.022644418746630417 0 0.00089497943652151616 0.022617759317575727 0 0.00093257362021162968 0.022797832448599141 0 0.0005182522142549743 0.022668304699576404 0 0.00030860226976294353 0.022839849758176069 0 0.00067381751009169409 0.022827661139184836 0 0.0005182522142549743 0.022668304699576404 0 0.00071619562004912607 0.022593780513284298 0 0.00067381751009169409 0.022827661139184836 0 0.0005182522142549743 0.022668304699576404 0 0.00071619562004912607 0.022593780513284298 0 0.00060896018367010937 0.022433136144139689 0 0.00085992347850559036 0.022430407979489246 0 0.00071619562004912607 0.022593780513284298 0 0.00060896018367010937 0.022433136144139689 0 0.0005182522142549743 0.022668304699576404 0 0.00060896018367010937 0.022433136144139689 0 0.00040322178539628582 0.022444107022389918 0 0.00085138335335201371 0.022214023534319356 0 0.00060896018367010937 0.022433136144139689 0 0.0004303495803193727 0.022440082003343853 0 0.0010975171095932545 0.022431956701665763 0 0.00072895372094253414 0.022512041337116706 0 0.00070171576271379295 0.022809479015920325 0 0.0009400423943309148 0.022288817586648517 0 0.00078695653623242804 0.022999282257735426 0 0.00056148605204559509 0.022704167189408524 0 0.00078695653623242804 0.022999282257735426 0 0.00085138335335201371 0.022214023534319356 0 0.00085992347850559036 0.022430407979489246 0 0.00060896018367010937 0.022433136144139689 0 0.00078695653623242804 0.022999282257735426 0 0.00034240662502268266 0.026494118662627901 0 0.00072895372094253414 0.022512041337116706 0 0.00070171576271379295 0.022809479015920325 0 0.0002843021368935855 0.02287561269028611 0 0.00047976181633201928 0.022334200717855978 0 0.00072895372094253414 0.022512041337116706 0 0.0002843021368935855 0.02287561269028611 0 0.00083144886731085729 0.023776382114919805 0 0.00034240662502268266 0.026494118662627901 0 0.00024048509099162222 0.030112361277680993 0 0.00019744620030585553 0.030248640606803955 0 9.028719439744039e-05 0.030267692244071196 0 0.0013544683802689183 0.024892420272793262 0 -2.2532115858052685e-05 0.025029737290426072 0 -0.00042378991450323913 0.026142994673587966 0 0.00034240662502268266 0.026494118662627901 0 0.00010699231071896344 0.026946904773081801 0 0.00040322178539628582 0.022444107022389918 0 -0.00014006876744577241 0.022830315966443609 0 0.00030860226976294353 0.022839849758176069 0 0.0005182522142549743 0.022668304699576404 0 0.00040322178539628582 0.022444107022389918 0 0.00030860226976294353 0.022839849758176069 0 0.00078695653623242804 0.022999282257735426 0 0.00010699231071896344 0.026946904773081801 0 -0.00014006876744577241 0.022830315966443609 0 0.00030860226976294353 0.022839849758176069 0 0.00030913448657700365 0.023274161579909469 0 0.00030860226976294353 0.022839849758176069 0 0.00030913448657700365 0.023274161579909469 0 0.00067381751009169409 0.022827661139184836 0 -0.00014006876744577241 0.022830315966443609 0 0.00030913448657700365 0.023274161579909469 0 -0.00034021875145259518 0.023387226524758234 0 0.00010699231071896344 0.026946904773081801 0 -5.7943394464581012e-05 0.026950064089832658 0 0.00019232702430348374 0.030249802976510781 0 0.00014864074226163948 0.030286020065924228 0 0.00012280762204624809 0.030414386077084552 0 0.00010699231071896344 0.026946904773081801 0 -0.00060425883314901851 0.028721480660411535 0 0.00034053355472701987 0.025088070466086063 0 -5.7943394464581012e-05 0.026950064089832658 0 0.00044458322543488969 0.027453316257289889 0 0.00024667075473171852 0.027426227514624986 0 0.00035329573279586831 0.027359392994065323 0 0.00044458322543488969 0.027453316257289889 0 0.00024667075473171852 0.027426227514624986 0 0.00054988316637062575 0.027563044431653794 0 0.00034053355472701987 0.025088070466086063 0 0.00043674456964541176 0.025643755017565498 0 0.00024667075473171852 0.027426227514624986 0 9.5727728098975466e-05 0.027251686067901532 0 0.00011671162730572439 0.027233994688885179 0 0.00010132166103275074 0.027180924349757364 0 9.5727728098975466e-05 0.027251686067901532 0 9.0762971255085726e-05 0.027201778816692137 0 9.5727728098975466e-05 0.027251686067901532 0 9.0762971255085726e-05 0.027201778816692137 0 0.00011671162730572439 0.027233994688885179 0 0.0011186138914493096 0.022846247771518797 0 0.00087361938796753609 0.023120062451424676 0 0.00093257362021162968 0.022797832448599141 0 0.00087361938796753609 0.023120062451424676 0 0.00093257362021162968 0.022797832448599141 0 0.00067381751009169409 0.022827661139184836 0 0.00030913448657700365 0.023274161579909469 0 0.00087361938796753609 0.023120062451424676 0 0.00067381751009169409 0.022827661139184836 0 -0.00026746334107256929 0.026704754659483024 0 -0.00078325894637213257 0.026721733307109995 0 -0.00060744443793568918 0.027344770461872676 0 -0.00026746334107256929 0.026704754659483024 0 -0.00060744443793568918 0.027344770461872676 0 1.6482171573626386e-06 0.027269407032205473 0 -0.00013352192406351662 0.03037665252428761 0 1.3548022870935844e-05 0.030217242554433182 0 -4.762166981702688e-05 0.030354633179639268 0 -0.00035283773193570643 0.028739553858804539 0 1.7121051869131505e-05 0.029071630104327152 0 1.3548022870935844e-05 0.030217242554433182 0 9.028719439744039e-05 0.030267692244071196 0 -4.762166981702688e-05 0.030354633179639268 0 0.00027064151363420398 0.026681943166127806 0 -0.00026746334107256929 0.026704754659483024 0 1.6482171573626386e-06 0.027269407032205473 0 0.00027064151363420398 0.026681943166127806 0 0.00064371702676464468 0.027190060919225805 0 1.6482171573626386e-06 0.027269407032205473 0 0.00034240662502268266 0.026494118662627901 0 1.7121051869131505e-05 0.029071630104327152 0 0.00024048509099162222 0.030112361277680993 0 1.3548022870935844e-05 0.030217242554433182 0 9.028719439744039e-05 0.030267692244071196 0 0.00019744620030585553 0.030248640606803955 0 9.028719439744039e-05 0.030267692244071196 0 0.00014864074226163948 0.030286020065924228 0 9.028719439744039e-05 0.030267692244071196 0 0.00014864074226163948 0.030286020065924228 0 2.9806917052709594e-05 0.030364020627070033 0 0.00014864074226163948 0.030286020065924228 0 0.00012280762204624809 0.030414386077084552 0 2.9806917052709594e-05 0.030364020627070033 0 0.00069649284022373374 0.027472988361963411 0 0.00065596848214634644 0.027513137722242252 0 0.00062843733117880164 0.027493736485578891 0 0.00044458322543488969 0.027453316257289889 0 0.00054988316637062575 0.027563044431653794 0 0.00062843733117880164 0.027493736485578891 0 -5.7943394464581012e-05 0.026950064089832658 0 0.00034722013007760074 0.027424844304348415 0 0.00052275382460881628 0.027309265534863326 0 0.00022956290950367899 0.027674080177061092 0 0.00065596848214634644 0.027513137722242252 0 -5.7943394464581012e-05 0.026950064089832658 0 0.00029775661633676883 0.029103801932503393 0 0.00012280762204624809 0.030414386077084552 0 -4.6541375957738473e-05 0.03044676676054877 0 2.9806917052709594e-05 0.030364020627070033 0 0.00069649284022373374 0.027472988361963411 0 0.00052275382460881628 0.027309265534863326 0 0.00065596848214634644 0.027513137722242252 0 -4.6541375957738473e-05 0.03044676676054877 0 -4.762166981702688e-05 0.030354633179639268 0 2.9806917052709594e-05 0.030364020627070033 0 9.028719439744039e-05 0.030267692244071196 0 -4.762166981702688e-05 0.030354633179639268 0 2.9806917052709594e-05 0.030364020627070033 0 -0.00013352192406351662 0.03037665252428761 0 -4.762166981702688e-05 0.030354633179639268 0 -0.00011583029353351872 0.030420649426271356 0 -4.6541375957738473e-05 0.03044676676054877 0 -4.762166981702688e-05 0.030354633179639268 0 -0.00011583029353351872 0.030420649426271356 0 0.00029775661633676883 0.029103801932503393 0 -0.0004806248370261729 0.028777746662997598 0 -4.6541375957738473e-05 0.03044676676054877 0 -0.00011583029353351872 0.030420649426271356 0 -0.00014739066646805756 0.030454139761136641 0 0.00052275382460881628 0.027309265534863326 0 -0.00076814091095105152 0.027086782916127577 0 0.00022956290950367899 0.027674080177061092 0 -0.0001446872202661545 0.03047645658709728 0 -0.00011583029353351872 0.030420649426271356 0 -0.00014739066646805756 0.030454139761136641 0 -0.0001446872202661545 0.03047645658709728 0 -0.00013352192406351662 0.03037665252428761 0 -0.00011583029353351872 0.030420649426271356 0 -0.0010781454767650313 0.030040567224026652 0 -0.00129644545324095 0.028579161379071783 0 -0.00013317692102746625 0.028342204065283972 0 -0.00056611727446870079 0.028874950719655717 0 -0.00013317692102746625 0.028342204065283972 0 5.5722680599931913e-06 0.029097285773945682 0 -0.0008513329497253074 0.029475676103719959 0 -0.00017318864077042566 0.028485736924121853 0 -0.00076814091095105152 0.027086782916127577 0 -0.00129644545324095 0.028579161379071783 0 -0.00013317692102746625 0.028342204065283972 0 0.00022956290950367899 0.027674080177061092 0 -0.00013317692102746625 0.028342204065283972 0 0.00065668066170482535 0.027766102106791087 0 -0.00076814091095105152 0.027086782916127577 0 0.00022956290950367899 0.027674080177061092 0 -0.00013317692102746625 0.028342204065283972 0 -0.00013317692102746625 0.028342204065283972 0 0.00065668066170482535 0.027766102106791087 0 5.5722680599931913e-06 0.029097285773945682 0 0.00066775192645500729 0.027743919367654891 0 0.00054958646020669515 0.028254428552024327 0 0.00062010389262216856 0.02739344426770126 0 0.00065668066170482535 0.027766102106791087 0 0.00073853507500603417 0.027084324322545442 0 0.00065668066170482535 0.027766102106791087 0 0.00073853507500603417 0.027084324322545442 0 0.0011055824786754596 0.027147456818885723 0 0.00062010389262216856 0.02739344426770126 0 0.00065668066170482535 0.027766102106791087 0 0.00063603895236903954 0.027553155605068935 0 0.00022956290950367899 0.027674080177061092 0 0.00065668066170482535 0.027766102106791087 0 0.00065596848214634644 0.027513137722242252 0 0.00065668066170482535 0.027766102106791087 0 0.00065596848214634644 0.027513137722242252 0 0.00063603895236903954 0.027553155605068935 0 0.00063603895236903954 0.027553155605068935 0 0.00062843733117880164 0.027493736485578891 0 0.00055707376999322288 0.027412800929957397 0 0.00065596848214634644 0.027513137722242252 0 0.00063603895236903954 0.027553155605068935 0 0.00062843733117880164 0.027493736485578891 0 0.00062843733117880164 0.027493736485578891 0 0.00055707376999322288 0.027412800929957397 0 0.00049139944745111392 0.027404780808947468 0 0.00055707376999322288 0.027412800929957397 0 0.00055575946010968361 0.027164149642308628 0 0.00041170366941667999 0.027275278084175472 0 0.00062010389262216856 0.02739344426770126 0 0.00055707376999322288 0.027412800929957397 0 0.00055575946010968361 0.027164149642308628 0 0.00062010389262216856 0.02739344426770126 0 0.00063603895236903954 0.027553155605068935 0 0.00055707376999322288 0.027412800929957397 0 0.00055575946010968361 0.027164149642308628 0 0.0008216478328347467 0.026821967510007001 0 0.00042429122469476386 0.026952251320258993 0 0.00064390925243431826 0.027392470356764904 0 0.0005867688170078071 0.026692284697902045 0 0.00062010389262216856 0.02739344426770126 0 0.00055575946010968361 0.027164149642308628 0 0.0008216478328347467 0.026821967510007001 0 0.0008216478328347467 0.026821967510007001 0 0.00045974105344688364 0.026564569701659095 0 0.00060471561956911707 0.026331921090419288 0 0.0005867688170078071 0.026692284697902045 0 0.00064127851467093728 0.026841999068147875 0 0.0008216478328347467 0.026821967510007001 0 0.00060471561956911707 0.026331921090419288 0 0.00086050518227373312 0.026056949222500642 0 0.00041465723234310653 0.026876011743317985 0 0.00071645068305961743 0.02652676200066632 0 0.00029355953896184286 0.026326326164610961 0 0.00073853507500603417 0.027084324322545442 0 0.0010278623973731685 0.026713364341745875 0 0.00071645068305961743 0.02652676200066632 0 0.00041465723234310653 0.026876011743317985 0 0.00073853507500603417 0.027084324322545442 0 0.00071645068305961743 0.02652676200066632 0 0.00062010389262216856 0.02739344426770126 0 0.00041465723234310653 0.026876011743317985 0 0.00073853507500603417 0.027084324322545442 0 0.00073853507500603417 0.027084324322545442 0 0.0011055824786754596 0.027147456818885723 0 0.0010278623973731685 0.026713364341745875 0 0.00054958646020669515 0.028254428552024327 0 0.00026546570446535789 0.027498547098088636 0 0.0011055824786754596 0.027147456818885723 0 0.0010278623973731685 0.026713364341745875 0 0.0014465311340120855 0.026590740243335045 0 -0.0006710010704046532 0.029141358426294655 0 -0.00056611727446870079 0.028874950719655717 0 5.5722680599931913e-06 0.029097285773945682 0 -0.0006710010704046532 0.029141358426294655 0 5.5722680599931913e-06 0.029097285773945682 0 -0.00054044765446641606 0.029829295541434691 0 0.000108541583778305 0.027154687531455841 0 0.00019250263634508805 0.02724126300684318 0 0.00014216836612150727 0.027069846698309571 0 0.000108541583778305 0.027154687531455841 0 0.00014216836612150727 0.027069846698309571 0 7.4633818277238681e-05 0.027066077145594804 0 -9.8920935719795452e-05 0.021574124401432776 0 -0.00021745750688241617 0.023692901443116421 0 6.3962659513748093e-05 0.027160112810870631 0 7.3603746736126797e-05 0.027164815688859544 0 7.4633818277238681e-05 0.027066077145594804 0 0.00033127136213059581 0.019509597634307402 0 0.00024911984015399277 0.018947141262901292 0 -0.00027457185393719053 0.019750806873828648 0 0.000108541583778305 0.027154687531455841 0 7.3603746736126797e-05 0.027164815688859544 0 7.4633818277238681e-05 0.027066077145594804 0 0.000108541583778305 0.027154687531455841 0 7.3603746736126797e-05 0.027164815688859544 0 0.00011671162730572439 0.027233994688885179 0 7.3603746736126797e-05 0.027164815688859544 0 9.0762971255085726e-05 0.027201778816692137 0 0.00011671162730572439 0.027233994688885179 0 7.4892255939285933e-05 0.027163161920431517 0 7.3603746736126797e-05 0.027164815688859544 0 9.0762971255085726e-05 0.027201778816692137 0 -9.8920935719795452e-05 0.021574124401432776 0 -9.1641126993825045e-06 0.021939053657146577 0 0.00024667075473171852 0.027426227514624986 0 0.00011671162730572439 0.027233994688885179 0 0.00019250263634508805 0.02724126300684318 0 0.000108541583778305 0.027154687531455841 0 0.00011671162730572439 0.027233994688885179 0 0.00019250263634508805 0.02724126300684318 0 0.00024667075473171852 0.027426227514624986 0 0.00019250263634508805 0.02724126300684318 0 0.00035329573279586831 0.027359392994065323 0 0.00044458322543488969 0.027453316257289889 0 0.00062843733117880164 0.027493736485578891 0 0.00049139944745111392 0.027404780808947468 0 0.00044458322543488969 0.027453316257289889 0 0.00035329573279586831 0.027359392994065323 0 0.00049139944745111392 0.027404780808947468 0 0.00035329573279586831 0.027359392994065323 0 0.00049139944745111392 0.027404780808947468 0 0.00041170366941667999 0.027275278084175472 0 0.00035329573279586831 0.027359392994065323 0 0.00041170366941667999 0.027275278084175472 0 0.00023405011794453415 0.02716295961825424 0 0.00055707376999322288 0.027412800929957397 0 0.00049139944745111392 0.027404780808947468 0 0.00041170366941667999 0.027275278084175472 0 0.00019250263634508805 0.02724126300684318 0 0.00023405011794453415 0.02716295961825424 0 0.00014216836612150727 0.027069846698309571 0 0.00041170366941667999 0.027275278084175472 0 0.00023405011794453415 0.02716295961825424 0 0.00017967601491423343 0.026978980990392587 0 0.00019250263634508805 0.02724126300684318 0 0.00035329573279586831 0.027359392994065323 0 0.00023405011794453415 0.02716295961825424 0 0.00023405011794453415 0.02716295961825424 0 0.00017967601491423343 0.026978980990392587 0 0.00014216836612150727 0.027069846698309571 0 0.00017967601491423343 0.026978980990392587 0 0.00011895239093723371 0.026949105269783565 0 0.00014216836612150727 0.027069846698309571 0 0.00045554962148051595 0.027494894377953528 0 4.5893652028226485e-05 0.023399815926265475 0 0.00055575946010968361 0.027164149642308628 0 0.00041170366941667999 0.027275278084175472 0 0.00042429122469476386 0.026952251320258993 0 0.00041170366941667999 0.027275278084175472 0 0.00017967601491423343 0.026978980990392587 0 0.00042429122469476386 0.026952251320258993 0 0.00017967601491423343 0.026978980990392587 0 0.00042429122469476386 0.026952251320258993 0 0.00013492863541226472 0.026579907785862458 0 0.0008216478328347467 0.026821967510007001 0 0.00042429122469476386 0.026952251320258993 0 0.00045974105344688364 0.026564569701659095 0 0.00042429122469476386 0.026952251320258993 0 0.00045974105344688364 0.026564569701659095 0 0.00013492863541226472 0.026579907785862458 0 0.00045974105344688364 0.026564569701659095 0 0.00013492863541226472 0.026579907785862458 0 0.00027182665691231195 0.026197828764839077 0 0.00013492863541226472 0.026579907785862458 0 -0.00043122333487593178 0.026683374275097777 0 -0.00018025152403177336 0.026283084933422313 0 0.00013492863541226472 0.026579907785862458 0 -0.00018025152403177336 0.026283084933422313 0 0.00027182665691231195 0.026197828764839077 0 0.00017967601491423343 0.026978980990392587 0 0.00013492863541226472 0.026579907785862458 0 -0.00043122333487593178 0.026683374275097777 0 -0.00010750262171044424 0.020277576979926999 0 -0.00019017850372015515 0.020246894407792853 0 -0.0002500605238891594 0.02040688265893793 0 -0.00019017850372015515 0.020246894407792853 0 -0.0002500605238891594 0.02040688265893793 0 -0.00029212027517392357 0.020390140745629712 0 4.5893652028226485e-05 0.023399815926265475 0 -0.00046531740891322737 0.023621432760838074 0 0.00010072941699809773 0.014607217250645253 0 0.00026298596666034945 0.014678081853714043 0 -0.00018856299484347559 0.014879169499236499 0 -0.00019817430508671773 0.017639546153488922 0 3.1171984609233349e-05 0.017414771691789101 0 -0.00019817430508671773 0.017639546153488922 0 4.5893652028226485e-05 0.023399815926265475 0 -0.00045633959096094153 0.02069385026622745 0 -0.0007885867968247328 0.020538130620294612 0 -0.00027457185393719053 0.019750806873828648 0 0.00011895239093723371 0.026949105269783565 0 0.00014216836612150727 0.027069846698309571 0 7.4633818277238681e-05 0.027066077145594804 0 4.5893652028226485e-05 0.023399815926265475 0 -0.00021745750688241617 0.023692901443116421 0 -0.00045633959096094153 0.02069385026622745 0 -0.00027457185393719053 0.019750806873828648 0 0.00021730948483621358 0.020071289370820075 0 0.00033127136213059581 0.019509597634307402 0 -0.00027457185393719053 0.019750806873828648 0 0.00021730948483621358 0.020071289370820075 0 -4.286731404522397e-05 0.012825141940349508 0 -4.7277102523768414e-05 0.011919396144366309 0 0.00029788624474144648 0.014845762423574696 0 0.00016442898339360628 0.01465014081217423 0 -0.00015698251221774368 0.01533101060288846 0 -0.00043434753539400264 0.015201121060662603 0 0.00016442898339360628 0.01465014081217423 0 -0.00015698251221774368 0.01533101060288846 0 -0.00019817430508671773 0.017639546153488922 0 9.4431135529916694e-05 0.017563006025385439 0 -0.00019817430508671773 0.017639546153488922 0 -4.7277102523768414e-05 0.011919396144366309 0 0.00013496785183402679 0.007193670937416523 0 0.0001636219212209111 0.007244103172468366 0 2.1793999676181315e-05 0.0072518140245660459 0 0.00013496785183402679 0.007193670937416523 0 0.0001636219212209111 0.007244103172468366 0 0.00022809436738374089 0.0072182113294689239 0 0.0001636219212209111 0.007244103172468366 0 0.00014365288525174325 0.0073025957222943652 0 0.00024232695681826387 0.007265586081836339 0 0.0001636219212209111 0.007244103172468366 0 0.00014365288525174325 0.0073025957222943652 0 2.1793999676181315e-05 0.0072518140245660459 0 0.00014365288525174325 0.0073025957222943652 0 2.1793999676181315e-05 0.0072518140245660459 0 6.4481856998220534e-06 0.00736081121697178 0 0.00026298596666034945 0.014678081853714043 0 -0.00013787744874308922 0.01511597677867443 0 -0.00018856299484347559 0.014879169499236499 0 -4.7277102523768414e-05 0.011919396144366309 0 9.3443414181892064e-05 0.011024261308941401 0 -0.00018025152403177336 0.026283084933422313 0 5.0023691353514068e-05 0.025858217554040722 0 0.00027182665691231195 0.026197828764839077 0 -0.0002500605238891594 0.02040688265893793 0 -0.00029212027517392357 0.020390140745629712 0 -0.00039889221151122745 0.020524340529792569 0 -0.00046531740891322737 0.023621432760838074 0 -0.00032253644271547176 0.020582722904463099 0 3.1171984609233349e-05 0.017414771691789101 0 -0.00032253644271547176 0.020582722904463099 0 -0.00013787744874308922 0.01511597677867443 0 -0.00018856299484347559 0.014879169499236499 0 -0.0004754116386469808 0.015154015913469125 0 0.00045974105344688364 0.026564569701659095 0 0.00060471561956911707 0.026331921090419288 0 0.00027182665691231195 0.026197828764839077 0 0.00060471561956911707 0.026331921090419288 0 0.00027182665691231195 0.026197828764839077 0 0.0005424629903123669 0.025929790123331405 0 5.0023691353514068e-05 0.025858217554040722 0 0.00027182665691231195 0.026197828764839077 0 0.0002997038581466976 0.025891430301826484 0 0.00027182665691231195 0.026197828764839077 0 0.0002997038581466976 0.025891430301826484 0 0.0005424629903123669 0.025929790123331405 0 0.0005424629903123669 0.025929790123331405 0 0.00013648064703393698 0.025341495431825942 0 0.00067256792894201814 0.024869862499908975 0 -0.0004446218085751963 0.017843908057740228 0 -0.001286886206310348 0.016655336010038428 0 0.00085930143431873845 0.016664303647730885 0 0.0013896101837869749 0.026385091176684985 0 0.00031224555281857255 0.020866274830089467 0 -0.00032253644271547176 0.020582722904463099 0 0.00031224555281857255 0.020866274830089467 0 0.0002997038581466976 0.025891430301826484 0 0.0005424629903123669 0.025929790123331405 0 0.00032512588109178482 0.025590325418295062 0 5.0023691353514068e-05 0.025858217554040722 0 0.0002997038581466976 0.025891430301826484 0 0.00032512588109178482 0.025590325418295062 0 0.00031224555281857255 0.020866274830089467 0 -0.00082208984397705352 0.011234089237974053 0 0.00031224555281857255 0.020866274830089467 0 0.00055255020320109729 0.022192867397127499 0 2.1793999676181315e-05 0.0072518140245660459 0 -0.00013111120701792288 0.0073654135151072914 0 6.4481856998220534e-06 0.00736081121697178 0 -0.0004754116386469808 0.015154015913469125 0 -0.00068221413130776164 0.015350659809183351 0 -0.00053665103322382286 0.015534938586426046 0 9.3443414181892064e-05 0.011024261308941401 0 -0.00082208984397705352 0.011234089237974053 0 -0.00013787744874308922 0.01511597677867443 0 -0.0004754116386469808 0.015154015913469125 0 -0.00053665103322382286 0.015534938586426046 0 -0.00082208984397705352 0.011234089237974053 0 -0.0001399461664117477 0.0072326521727502282 0 -0.00013111120701792288 0.0073654135151072914 0 -8.7598065017598317e-05 0.0075269253399198573 0 6.4481856998220534e-06 0.00736081121697178 0 -0.00042073153316586929 0.0079459560999896039 0 -0.00067597521074040342 0.0082095220906521285 0 -0.00042769162873889294 0.008311231511239801 0 -0.001286886206310348 0.016655336010038428 0 0.00043478327365030565 0.014821700840205457 0 0.00085930143431873845 0.016664303647730885 0 -0.00082208984397705352 0.011234089237974053 0 -0.00017868557209179805 0.013256303908375516 0 -0.00017868557209179805 0.013256303908375516 0 0.00055255020320109729 0.022192867397127499 0 5.9376572743317766e-06 0.01164671171354272 0 0.00011748892462050636 0.012181289896852314 0 -0.00040224011064722483 0.011116131436444411 0 -0.00017868557209179805 0.013256303908375516 0 -0.00061068111608442556 0.0092121454736963804 0 -0.00067597521074040342 0.0082095220906521285 0 -0.00042769162873889294 0.008311231511239801 0 -0.00068225373723914198 0.0085801026786602799 0 -0.00042073153316586929 0.0079459560999896039 0 -0.00042769162873889294 0.008311231511239801 0 -6.6941390276778527e-05 0.0083251896609347342 0 -0.00042769162873889294 0.008311231511239801 0 -6.6941390276778527e-05 0.0083251896609347342 0 -0.00032457409186767265 0.0085627157505240303 0 -8.7598065017598317e-05 0.0075269253399198573 0 0.00030711178727276276 0.0075216998970183725 0 0.00014824947855947255 0.0073906482748815183 0 0.00030711178727276276 0.0075216998970183725 0 0.00014824947855947255 0.0073906482748815183 0 0.00028801232995099522 0.0072902858889805208 0 0.00014365288525174325 0.0073025957222943652 0 0.00014824947855947255 0.0073906482748815183 0 0.00028801232995099522 0.0072902858889805208 0 0.00014365288525174325 0.0073025957222943652 0 0.00014824947855947255 0.0073906482748815183 0 6.4481856998220534e-06 0.00736081121697178 0 -8.7598065017598317e-05 0.0075269253399198573 0 0.00014824947855947255 0.0073906482748815183 0 6.4481856998220534e-06 0.00736081121697178 0 0.001015956417477987 0.026017896705261941 0 0.00091471537931930109 0.025963719911116394 0 0.00093484182291073993 0.025831552142085358 0 0.00084444571691559545 0.025886559668209831 0 0.00091471537931930109 0.025963719911116394 0 0.00093484182291073993 0.025831552142085358 0 0.00084444571691559545 0.025886559668209831 0 0.00091471537931930109 0.025963719911116394 0 0.00082724622772439892 0.025988750825502789 0 0.00093344399159176708 0.026141653719610886 0 0.00091471537931930109 0.025963719911116394 0 0.00082724622772439892 0.025988750825502789 0 0.001015956417477987 0.026017896705261941 0 0.00093344399159176708 0.026141653719610886 0 0.00091471537931930109 0.025963719911116394 0 0.0010278623973731685 0.026713364341745875 0 0.0014465311340120855 0.026590740243335045 0 0.0011314863520475685 0.026220127286391507 0 0.00026546570446535789 0.027498547098088636 0 0.0010104638369924734 0.026003522379772208 0 0.0011314863520475685 0.026220127286391507 0 0.00076619822417226338 0.026170726621956155 0 0.00071645068305961743 0.02652676200066632 0 0.0010278623973731685 0.026713364341745875 0 0.0011314863520475685 0.026220127286391507 0 0.00071645068305961743 0.02652676200066632 0 0.00084444571691559545 0.025886559668209831 0 0.00082724622772439892 0.025988750825502789 0 0.00075623438427555294 0.0258764317231816 0 0.0010104638369924734 0.026003522379772208 0 0.00078600591393414223 0.025920501031107927 0 0.0011314863520475685 0.026220127286391507 0 0.00076619822417226338 0.026170726621956155 0 0.00075623438427555294 0.0258764317231816 0 0.00076619822417226338 0.026170726621956155 0 0.00050187249292259835 0.0260194236746072 0 0.00075623438427555294 0.0258764317231816 0 0.00076619822417226338 0.026170726621956155 0 0.00058040088582984308 0.026256971516896346 0 0.00050187249292259835 0.0260194236746072 0 0.00071645068305961743 0.02652676200066632 0 0.00058040088582984308 0.026256971516896346 0 0.00029355953896184286 0.026326326164610961 0 0.00076619822417226338 0.026170726621956155 0 0.00071645068305961743 0.02652676200066632 0 0.00058040088582984308 0.026256971516896346 0 0.00060471561956911707 0.026331921090419288 0 0.0005424629903123669 0.025929790123331405 0 0.00086050518227373312 0.026056949222500642 0 0.00064127851467093728 0.026841999068147875 0 0.00055255020320109729 0.022192867397127499 0 0.00029355953896184286 0.026326326164610961 0 0.00050187249292259835 0.0260194236746072 0 0.00024142771192406688 0.025849851720475468 0 0.0005424629903123669 0.025929790123331405 0 0.00086050518227373312 0.026056949222500642 0 0.00067256792894201814 0.024869862499908975 0 0.00058040088582984308 0.026256971516896346 0 0.00029355953896184286 0.026326326164610961 0 0.00050187249292259835 0.0260194236746072 0 0.00055255020320109729 0.022192867397127499 0 0.00031157378937108753 0.02238584857050583 0 0.00050187249292259835 0.0260194236746072 0 0.00024142771192406688 0.025849851720475468 0 0.00056359396129605549 0.025636927439728296 0 0.00030205134914368902 0.019075141585505689 0 0.00027351038288852224 0.018969938917401532 0 0.00010534735489669553 0.019111706676072971 0 -0.00017868557209179805 0.013256303908375516 0 -4.4602355619624261e-05 0.01592506130007338 0 0.00030205134914368902 0.019075141585505689 0 0.00010534735489669553 0.019111706676072971 0 0.00014877231748364143 0.019251258477124493 0 5.9376572743317766e-06 0.01164671171354272 0 0.00011748892462050636 0.012181289896852314 0 -4.6168531134503535e-05 0.011786758698312213 0 0.00056359396129605549 0.025636927439728296 0 0.00074937921297023769 0.025683212461127626 0 0.00075158315025117164 0.025559440238853228 0 0.00010534735489669553 0.019111706676072971 0 -6.7576051272564568e-05 0.019280031740626587 0 3.3692704219950266e-05 0.01930749851483993 0 0.00010534735489669553 0.019111706676072971 0 3.3692704219950266e-05 0.01930749851483993 0 0.00014877231748364143 0.019251258477124493 0 0.00031157378937108753 0.02238584857050583 0 0.00016629309457166723 0.022645500871809766 0 0.00050187249292259835 0.0260194236746072 0 0.00056359396129605549 0.025636927439728296 0 0.00075623438427555294 0.0258764317231816 0 0.00056359396129605549 0.025636927439728296 0 0.00075623438427555294 0.0258764317231816 0 0.00074937921297023769 0.025683212461127626 0 0.00084444571691559545 0.025886559668209831 0 0.00075623438427555294 0.0258764317231816 0 0.0008152904320971934 0.025774064291148566 0 0.00075623438427555294 0.0258764317231816 0 0.0008152904320971934 0.025774064291148566 0 0.00074937921297023769 0.025683212461127626 0 0.00074937921297023769 0.025683212461127626 0 0.00080303208344918308 0.025656935570006246 0 0.00075158315025117164 0.025559440238853228 0 0.0008152904320971934 0.025774064291148566 0 0.00074937921297023769 0.025683212461127626 0 0.00080303208344918308 0.025656935570006246 0 0.00080303208344918308 0.025656935570006246 0 0.00084049698437202599 0.025706704797914509 0 0.00075158315025117164 0.025559440238853228 0 9.6357608271447831e-05 0.025996317138014171 0 0.00016629309457166723 0.022645500871809766 0 0.00083981290347125788 0.025778560363419262 0 0.00080303208344918308 0.025656935570006246 0 0.00084049698437202599 0.025706704797914509 0 0.0008152904320971934 0.025774064291148566 0 0.00080303208344918308 0.025656935570006246 0 0.00093484182291073993 0.025831552142085358 0 0.00080081457473006883 0.025679940343924994 0 0.00090105318792336065 0.025827151207465395 0 0.00083981290347125788 0.025778560363419262 0 0.00080303208344918308 0.025656935570006246 0 0.00079262544715858569 0.025846965604767791 0 0.00084444571691559545 0.025886559668209831 0 0.0008152904320971934 0.025774064291148566 0 0.00093484182291073993 0.025831552142085358 0 -0.00045373584204381925 0.022885235803785861 0 -0.00059216292978989137 0.017155043488862862 0 -0.00024584508793407518 0.01946600784985238 0 -0.00013741392217275479 0.019445052198388563 0 -0.0001523230646795212 0.01954795295704162 0 -0.00045373584204381925 0.022885235803785861 0 -0.00044322381814928754 0.022391458912067338 0 -0.00024584508793407518 0.01946600784985238 0 -0.00016015885611300826 0.019378762602729364 0 -0.00013741392217275479 0.019445052198388563 0 -0.0007041409691929155 0.025538738051860896 0 -0.0007960044130209665 0.025356584444859404 0 -0.00086594040441950021 0.025416099324592 0 -0.00071378899095262717 0.025276083856394894 0 -0.00070361669948672159 0.02541859408479721 0 -0.0007960044130209665 0.025356584444859404 0 -0.0007041409691929155 0.025538738051860896 0 -0.00070361669948672159 0.02541859408479721 0 -0.0007960044130209665 0.025356584444859404 0 -0.00044322381814928754 0.022391458912067338 0 0.00016629309457166723 0.022645500871809766 0 -0.00016015885611300826 0.019378762602729364 0 -6.3422838059718848e-05 0.019286750305726248 0 -7.4346251736373523e-05 0.019367000579317038 0 -6.3422838059718848e-05 0.019286750305726248 0 -7.4346251736373523e-05 0.019367000579317038 0 3.3692704219950266e-05 0.01930749851483993 0 -0.00013741392217275479 0.019445052198388563 0 -1.3536633334904805e-05 0.01941775787859757 0 -0.0001523230646795212 0.01954795295704162 0 -7.4346251736373523e-05 0.019367000579317038 0 -0.00013741392217275479 0.019445052198388563 0 -1.3536633334904805e-05 0.01941775787859757 0 -0.00031978347679259371 0.015809361928537009 0 -0.00059216292978989137 0.017155043488862862 0 -0.00016015885611300826 0.019378762602729364 0 -7.4346251736373523e-05 0.019367000579317038 0 -0.00013741392217275479 0.019445052198388563 0 -0.00072159147563883978 0.012536894970966453 0 -6.6896455757429576e-05 0.012948903025604018 0 -0.00061042244678598658 0.013223134891871229 0 -0.00072159147563883978 0.012536894970966453 0 -6.1362986419837888e-05 0.012333348592875649 0 -6.6896455757429576e-05 0.012948903025604018 0 -7.4346251736373523e-05 0.019367000579317038 0 -1.3536633334904805e-05 0.01941775787859757 0 3.3692704219950266e-05 0.01930749851483993 0 -1.3536633334904805e-05 0.01941775787859757 0 3.3692704219950266e-05 0.01930749851483993 0 0.00014877231748364143 0.019251258477124493 0 -0.00031978347679259371 0.015809361928537009 0 -4.4602355619624261e-05 0.01592506130007338 0 -0.00072159147563883978 0.012536894970966453 0 -4.6168531134503535e-05 0.011786758698312213 0 -6.1362986419837888e-05 0.012333348592875649 0 0.00016629309457166723 0.022645500871809766 0 -0.00058739023034415296 0.019964988331347973 0 -4.6168531134503535e-05 0.011786758698312213 0 6.8605649265851218e-05 0.012030430861677884 0 -6.1362986419837888e-05 0.012333348592875649 0 5.9376572743317766e-06 0.01164671171354272 0 -4.6168531134503535e-05 0.011786758698312213 0 6.8605649265851218e-05 0.012030430861677884 0 -6.1362986419837888e-05 0.012333348592875649 0 -6.6896455757429576e-05 0.012948903025604018 0 0.00044034975254262016 0.012460828155341067 0 -6.6896455757429576e-05 0.012948903025604018 0 0.00044034975254262016 0.012460828155341067 0 0.00033234427266948122 0.013451827370966195 0 6.8605649265851218e-05 0.012030430861677884 0 -6.1362986419837888e-05 0.012333348592875649 0 0.00044034975254262016 0.012460828155341067 0 0.00015067070910931163 0.013644183551471734 0 -4.423426101503301e-05 0.01351228298901991 0 0.00033234427266948122 0.013451827370966195 0 -6.6896455757429576e-05 0.012948903025604018 0 -4.423426101503301e-05 0.01351228298901991 0 0.00033234427266948122 0.013451827370966195 0 0.00015067070910931163 0.013644183551471734 0 -1.4716399474757712e-06 0.014831300076228389 0 1.2663273841803376e-06 0.013003780136981493 0 0.00015067070910931163 0.013644183551471734 0 0.00033234427266948122 0.013451827370966195 0 1.2663273841803376e-06 0.013003780136981493 0 -1.4716399474757712e-06 0.014831300076228389 0 -4.423426101503301e-05 0.01351228298901991 0 -0.00092237396569936573 0.013917546159555476 0 0.00015067070910931163 0.013644183551471734 0 -1.4716399474757712e-06 0.014831300076228389 0 -4.423426101503301e-05 0.01351228298901991 0 1.4487247867709662e-08 0.01483572538361155 0 -0.00058276766011627695 0.014826743765906163 0 -4.423426101503301e-05 0.01351228298901991 0 -0.00061042244678598658 0.013223134891871229 0 -0.00092237396569936573 0.013917546159555476 0 -6.6896455757429576e-05 0.012948903025604018 0 -4.423426101503301e-05 0.01351228298901991 0 -0.00061042244678598658 0.013223134891871229 0 -0.00072159147563883978 0.012536894970966453 0 -0.00061042244678598658 0.013223134891871229 0 -0.001429225804407205 0.013321781362277582 0 -0.00061042244678598658 0.013223134891871229 0 -0.001429225804407205 0.013321781362277582 0 -0.00092237396569936573 0.013917546159555476 0 3.4381626590341572e-05 0.016295021957106939 0 2.0024177655143035e-05 0.016182680527176283 0 2.9756196640799599e-05 0.016522183919836755 0 -0.00059216292978989137 0.017155043488862862 0 -0.00058276766011627695 0.014826743765906163 0 -8.2019637899125194e-07 0.014837081191761359 0 2.0024177655143035e-05 0.016182680527176283 0 8.0373870987934423e-07 0.016388555930996095 0 2.0024177655143035e-05 0.016182680527176283 0 8.0373870987934423e-07 0.016388555930996095 0 2.9756196640799599e-05 0.016522183919836755 0 -6.7268677988321294e-05 0.016889938736227527 0 3.4381626590341572e-05 0.016295021957106939 0 2.9756196640799599e-05 0.016522183919836755 0 -0.00031143392763549252 0.018242653302109182 0 -0.00059216292978989137 0.017155043488862862 0 -8.1014401388469942e-07 0.017941042563620814 0 8.0373870987934423e-07 0.016388555930996095 0 2.67379613685076e-05 0.016697840757930415 0 8.0373870987934423e-07 0.016388555930996095 0 2.9756196640799599e-05 0.016522183919836755 0 2.67379613685076e-05 0.016697840757930415 0 2.9756196640799599e-05 0.016522183919836755 0 2.67379613685076e-05 0.016697840757930415 0 -2.7645335034142452e-05 0.016924642488326046 0 -8.1014401388469942e-07 0.017941042563620814 0 2.67379613685076e-05 0.016697840757930415 0 -2.7645335034142452e-05 0.016924642488326046 0 -0.00031143392763549252 0.018242653302109182 0 -0.00030173521195553122 0.018178735095743307 0 -6.7268677988321294e-05 0.016889938736227527 0 2.9756196640799599e-05 0.016522183919836755 0 -2.7645335034142452e-05 0.016924642488326046 0 -0.0003221860740184258 0.020260439490028755 0 -0.00066988524141816611 0.020579051499706402 0 -0.00098749511214776581 0.020196107586329143 0 -0.0003221860740184258 0.020260439490028755 0 -0.00057144570322931133 0.019759685239966723 0 -0.00098749511214776581 0.020196107586329143 0 0.00020674840054923693 0.0081941213721032982 0 -0.0001053194991098736 0.0087344706098129426 0 0.00013545663984335148 0.0093844908976364379 0 0.00030711178727276276 0.0075216998970183725 0 0.00020674840054923693 0.0081941213721032982 0 0.0004232312392167202 0.0074377584808519052 0 -8.7598065017598317e-05 0.0075269253399198573 0 0.00030711178727276276 0.0075216998970183725 0 0.00020674840054923693 0.0081941213721032982 0 -0.0001399461664117477 0.0072326521727502282 0 0.00027967455745945381 0.0084754952271614385 0 -6.6941390276778527e-05 0.0083251896609347342 0 0.00020674840054923693 0.0081941213721032982 0 -0.0001053194991098736 0.0087344706098129426 0 -6.6941390276778527e-05 0.0083251896609347342 0 -0.00032457409186767265 0.0085627157505240303 0 -0.0001053194991098736 0.0087344706098129426 0 -0.00032457409186767265 0.0085627157505240303 0 -0.00037803720126108165 0.0088633292260923216 0 -0.0001053194991098736 0.0087344706098129426 0 4.7730626876958091e-05 0.01163812201004516 0 7.0545465369222985e-05 0.011390291881187245 0 5.9376572743317766e-06 0.01164671171354272 0 -0.00040224011064722483 0.011116131436444411 0 -0.00015304244830986887 0.010140313745959081 0 5.9376572743317766e-06 0.01164671171354272 0 6.8605649265851218e-05 0.012030430861677884 0 0.00044034975254262016 0.012460828155341067 0 -0.00042769162873889294 0.008311231511239801 0 -0.00032457409186767265 0.0085627157505240303 0 -0.00068225373723914198 0.0085801026786602799 0 -0.00032457409186767265 0.0085627157505240303 0 -0.00037803720126108165 0.0088633292260923216 0 -0.00068225373723914198 0.0085801026786602799 0 -0.00037803720126108165 0.0088633292260923216 0 -0.00068225373723914198 0.0085801026786602799 0 -0.00050286014067107249 0.0096815685235828158 0 -0.00040224011064722483 0.011116131436444411 0 -0.00015304244830986887 0.010140313745959081 0 -0.00050286014067107249 0.0096815685235828158 0 7.0545465369222985e-05 0.011390291881187245 0 -0.00015481008362143282 0.011835923412425555 0 -0.00015304244830986887 0.010140313745959081 0 -0.00050286014067107249 0.0096815685235828158 0 -0.0008121255609255943 0.010258366592116253 0 -0.00061068111608442556 0.0092121454736963804 0 -0.00046734126482850447 0.0099652873375397927 0 -0.00050286014067107249 0.0096815685235828158 0 -0.0001053194991098736 0.0087344706098129426 0 0.00013545663984335148 0.0093844908976364379 0 -0.00037803720126108165 0.0088633292260923216 0 -0.00050286014067107249 0.0096815685235828158 0 -0.0001053194991098736 0.0087344706098129426 0 -0.00050286014067107249 0.0096815685235828158 0 -0.00011880813282664881 0.010579780345773124 0 0.00013545663984335148 0.0093844908976364379 0 -0.00050286014067107249 0.0096815685235828158 0 -0.00011880813282664881 0.010579780345773124 0 -0.0008121255609255943 0.010258366592116253 0 -0.00011880813282664881 0.010579780345773124 0 -0.0008121255609255943 0.010258366592116253 0 -2.8217664022175012e-06 0.012996618926472065 0 -0.00015481008362143282 0.011835923412425555 0 -1.3384582981447444e-07 0.01299954472091364 0 -0.00011880813282664881 0.010579780345773124 0 -2.8217664022175012e-06 0.012996618926472065 0 8.490940251699565e-07 0.011080379390141028 0 -0.00011880813282664881 0.010579780345773124 0 8.490940251699565e-07 0.011080379390141028 0 0.00013545663984335148 0.0093844908976364379 0 8.490940251699565e-07 0.011080379390141028 0 0.00013545663984335148 0.0093844908976364379 0 2.9555256807906912e-07 0.0091610480773185541 0 0.00013545663984335148 0.0093844908976364379 0 2.9555256807906912e-07 0.0091610480773185541 0 0.000266605050266274 0.008175633624914783 0 0.00020674840054923693 0.0081941213721032982 0 0.00013545663984335148 0.0093844908976364379 0 0.000266605050266274 0.008175633624914783 0 2.9555256807906912e-07 0.0091610480773185541 0 4.9721129721252733e-07 0.0072421922083155702 0 0.000266605050266274 0.008175633624914783 0 4.9721129721252733e-07 0.0072421922083155702 0 0.00027395882527839909 0.0069405605443478308 0 0.00014015513351372841 0.0061286704155379557 0 4.9721129721252733e-07 0.0072421922083155702 0 0.00027395882527839909 0.0069405605443478308 0 0.000266605050266274 0.008175633624914783 0 1.9490882297092785e-07 0.0053228213188502797 0 6.7745526976088576e-05 0.0053075976693987342 0 -0.00013376419923937373 0.0040977854135943277 0 4.9721129721252733e-07 0.0072421922083155702 0 1.9490882297092785e-07 0.0053228213188502797 0 0.00014015513351372841 0.0061286704155379557 0 1.9490882297092785e-07 0.0053228213188502797 0 0.00014015513351372841 0.0061286704155379557 0 6.7745526976088576e-05 0.0053075976693987342 0 0.00014015513351372841 0.0061286704155379557 0 0.0002126699571626575 0.0061443603480662865 0 6.7745526976088576e-05 0.0053075976693987342 0 0.00027395882527839909 0.0069405605443478308 0 0.00014015513351372841 0.0061286704155379557 0 0.0002126699571626575 0.0061443603480662865 0 6.7745526976088576e-05 0.0053075976693987342 0 5.7134399665119845e-05 0.0056300734340180682 0 -0.00013376419923937373 0.0040977854135943277 0 0.0002126699571626575 0.0061443603480662865 0 6.7745526976088576e-05 0.0053075976693987342 0 5.7134399665119845e-05 0.0056300734340180682 0 5.7134399665119845e-05 0.0056300734340180682 0 1.2234896409245039e-05 0.0063337521101425182 0 -0.00032664320315855242 0.0052876240594377007 0 5.7134399665119845e-05 0.0056300734340180682 0 0.00015921265122025878 0.0063615275775067348 0 1.2234896409245039e-05 0.0063337521101425182 0 0.00027395882527839909 0.0069405605443478308 0 0.0002126699571626575 0.0061443603480662865 0 0.00032666059757965974 0.0067541438408544327 0 0.0002126699571626575 0.0061443603480662865 0 5.7134399665119845e-05 0.0056300734340180682 0 0.00015921265122025878 0.0063615275775067348 0 0.0002126699571626575 0.0061443603480662865 0 0.00015921265122025878 0.0063615275775067348 0 0.00032666059757965974 0.0067541438408544327 0 0.00015921265122025878 0.0063615275775067348 0 0.00036818474542825317 0.0070654816422645178 0 0.00032666059757965974 0.0067541438408544327 0 0.00036818474542825317 0.0070654816422645178 0 0.0001525443653571448 0.0069065794193001869 0 0.00022282062447218816 0.0071903359123030707 0 0.0001525443653571448 0.0069065794193001869 0 -0.00025779415513141319 0.0068908802471789469 0 0.00022282062447218816 0.0071903359123030707 0 0.00015921265122025878 0.0063615275775067348 0 0.00036818474542825317 0.0070654816422645178 0 0.0001525443653571448 0.0069065794193001869 0 -0.00034526554028879833 0.0047754445605151597 0 -0.0010365725569511566 0.0031460636303900225 0 -0.00026216067210238991 0.0064478683206366351 0 -0.00034526554028879833 0.0047754445605151597 0 0.00015921265122025878 0.0063615275775067348 0 0.0001525443653571448 0.0069065794193001869 0 -0.00025779415513141319 0.0068908802471789469 0 -0.00034526554028879833 0.0047754445605151597 0 0.00055155346939636486 0.0074283334596417887 0 0.00027395882527839909 0.0069405605443478308 0 0.000266605050266274 0.008175633624914783 0 0.0004232312392167202 0.0074377584808519052 0 0.00020674840054923693 0.0081941213721032982 0 0.000266605050266274 0.008175633624914783 0 0.0004232312392167202 0.0074377584808519052 0 0.00027395882527839909 0.0069405605443478308 0 0.0004232312392167202 0.0074377584808519052 0 0.00032666059757965974 0.0067541438408544327 0 0.00036818474542825317 0.0070654816422645178 0 0.0004232312392167202 0.0074377584808519052 0 0.00032666059757965974 0.0067541438408544327 0 0.00036818474542825317 0.0070654816422645178 0 0.0004232312392167202 0.0074377584808519052 0 0.00038459853039057683 0.0073293993475898279 0 0.00030711178727276276 0.0075216998970183725 0 0.0004232312392167202 0.0074377584808519052 0 0.00038459853039057683 0.0073293993475898279 0 0.00030711178727276276 0.0075216998970183725 0 0.00028801232995099522 0.0072902858889805208 0 0.00038459853039057683 0.0073293993475898279 0 0.0002697011756183068 0.0072981850171581373 0 0.00025025669748227384 0.0071159373980694543 0 0.00014365288525174325 0.0073025957222943652 0 0.00028801232995099522 0.0072902858889805208 0 0.00024232695681826387 0.007265586081836339 0 0.00028801232995099522 0.0072902858889805208 0 0.00033475650344498467 0.007172608204948615 0 0.00024144574229323156 0.0071003984787832057 0 0.00028801232995099522 0.0072902858889805208 0 0.00033475650344498467 0.007172608204948615 0 0.00035961761371190639 0.0072753821677684228 0 0.00033475650344498467 0.007172608204948615 0 0.00035961761371190639 0.0072753821677684228 0 0.000409287816952314 0.0071570091782984062 0 0.00036818474542825317 0.0070654816422645178 0 0.00038459853039057683 0.0073293993475898279 0 0.00035961761371190639 0.0072753821677684228 0 0.00028801232995099522 0.0072902858889805208 0 0.00038459853039057683 0.0073293993475898279 0 0.00035961761371190639 0.0072753821677684228 0 0.00035961761371190639 0.0072753821677684228 0 0.00041768498560863581 0.0072719114246373798 0 0.000409287816952314 0.0071570091782984062 0 0.00036818474542825317 0.0070654816422645178 0 0.00035961761371190639 0.0072753821677684228 0 0.00022282062447218816 0.0071903359123030707 0 0.00027764116909143331 0.0071988577185580467 0 0.00055155346939636486 0.0074283334596417887 0 0.00047987173011053116 0.0073057317863558799 0 0.00048876202002895235 0.007243867420466895 0 0.00059049222653084353 0.0072237049705276739 0 0.00048876202002895235 0.007243867420466895 0 0.00047503802652255396 0.00716225233930207 0 0.00059049222653084353 0.0072237049705276739 0 -0.00034526554028879833 0.0047754445605151597 0 -0.00044047813377835429 0.0035102049311119075 0 0.00047987173011053116 0.0073057317863558799 0 0.00041768498560863581 0.0072719114246373798 0 0.00048876202002895235 0.007243867420466895 0 0.00041768498560863581 0.0072719114246373798 0 0.00048876202002895235 0.007243867420466895 0 0.00047503802652255396 0.00716225233930207 0 0.00047503802652255396 0.00716225233930207 0 0.00047338172626753416 0.0070402929376965793 0 0.00057878749655996696 0.0070009860865841043 0 0.00047503802652255396 0.00716225233930207 0 0.000409287816952314 0.0071570091782984062 0 0.00047338172626753416 0.0070402929376965793 0 0.00041768498560863581 0.0072719114246373798 0 0.00047503802652255396 0.00716225233930207 0 0.000409287816952314 0.0071570091782984062 0 0.00035686472860070167 0.0070220953268423083 0 0.00047338172626753416 0.0070402929376965793 0 0.00047042837597467186 0.0069541728542730843 0 0.00033475650344498467 0.007172608204948615 0 0.000409287816952314 0.0071570091782984062 0 0.00035686472860070167 0.0070220953268423083 0 0.000409287816952314 0.0071570091782984062 0 0.00035686472860070167 0.0070220953268423083 0 0.00047338172626753416 0.0070402929376965793 0 0.00047338172626753416 0.0070402929376965793 0 0.00053881516429685021 0.0069788282253832046 0 0.00057878749655996696 0.0070009860865841043 0 0.00047338172626753416 0.0070402929376965793 0 0.00050600355381330998 0.0069728090280094948 0 0.00047042837597467186 0.0069541728542730843 0 0.00047338172626753416 0.0070402929376965793 0 0.00053881516429685021 0.0069788282253832046 0 0.00050600355381330998 0.0069728090280094948 0 0.00053881516429685021 0.0069788282253832046 0 0.00050600355381330998 0.0069728090280094948 0 0.00053578211992704968 0.0069253647410612625 0 0.00047042837597467186 0.0069541728542730843 0 0.00053097202329827455 0.0069028927430674989 0 0.00041387974638896048 0.0068743451952525394 0 -1.441222823373221e-05 0.005145425928114779 0 0.00075590876008571021 0.0070089417746856605 0 0.00050600355381330998 0.0069728090280094948 0 0.00047042837597467186 0.0069541728542730843 0 0.00053578211992704968 0.0069253647410612625 0 0.00047042837597467186 0.0069541728542730843 0 0.00053097202329827455 0.0069028927430674989 0 0.00053578211992704968 0.0069253647410612625 0 -1.441222823373221e-05 0.005145425928114779 0 0.00022305049586465495 0.0059632063371866705 0 0.00035686472860070167 0.0070220953268423083 0 0.00047042837597467186 0.0069541728542730843 0 0.00041387974638896048 0.0068743451952525394 0 0.00030143154992630502 0.0068879562669645891 0 0.00035686472860070167 0.0070220953268423083 0 0.00041387974638896048 0.0068743451952525394 0 0.00041138256200512729 0.0069399771553385172 0 -0.00010328777484252258 0.0075020810354921776 0 0.00035686472860070167 0.0070220953268423083 0 0.00024278864552536035 0.0069938497249194499 0 0.00024144574229323156 0.0071003984787832057 0 0.00030143154992630502 0.0068879562669645891 0 0.00035686472860070167 0.0070220953268423083 0 0.00019574473761978017 0.0069469080053108766 0 -4.7277102523768414e-05 0.011919396144366309 0 -0.00010328777484252258 0.0075020810354921776 0 0.0001636219212209111 0.007244103172468366 0 0.00022809436738374089 0.0072182113294689239 0 0.00024232695681826387 0.007265586081836339 0 -0.00010328777484252258 0.0075020810354921776 0 0.00025025669748227384 0.0071159373980694543 0 0.00033475650344498467 0.007172608204948615 0 0.00035686472860070167 0.0070220953268423083 0 0.00024144574229323156 0.0071003984787832057 0 -0.00033252522602979885 -0.00088642547129298471 0 0.00011689678109218358 -0.00069862284392393516 0 -0.00019406465372152763 -0.00040568908679702534 0 9.5256554010709389e-05 -0.00086190964650421171 0 0.00011119680061969031 -0.00083073538036575569 0 0.00010316301229951112 -0.00087352090820349692 0 9.6557687745525735e-05 -0.00086986907669433329 0 9.5256554010709389e-05 -0.00086190964650421171 0 9.9342704919302047e-05 -0.00087453602742030331 0 9.6557687745525735e-05 -0.00086986907669433329 0 9.5256554010709389e-05 -0.00086190964650421171 0 9.3113931378691349e-05 -0.00087419560801119882 0 0.00011689678109218358 -0.00069862284392393516 0 0.00011119680061969031 -0.00083073538036575569 0 0.00016994895340067054 -0.0009393263340057858 0 0.00039259341838021128 0.0022464069740584128 0 -0.00030892388402211117 -0.001300712611656484 0 9.5256554010709389e-05 -0.00086190964650421171 0 0.00011689678109218358 -0.00069862284392393516 0 0.00011119680061969031 -0.00083073538036575569 0 0.00011119680061969031 -0.00083073538036575569 0 0.00016994895340067054 -0.0009393263340057858 0 0.00012742629844562144 -0.00091307779655828015 0 0.00011119680061969031 -0.00083073538036575569 0 0.00012742629844562144 -0.00091307779655828015 0 0.00010316301229951112 -0.00087352090820349692 0 0.00014154261441652155 -0.00097560031194903699 0 0.00016994895340067054 -0.0009393263340057858 0 0.00012742629844562144 -0.00091307779655828015 0 0.00014154261441652155 -0.00097560031194903699 0 0.00012742629844562144 -0.00091307779655828015 0 0.0001115854440593446 -0.00091125370178098488 0 0.00014154261441652155 -0.00097560031194903699 0 0.00012398930114827818 -0.00095891659938000871 0 0.0001115854440593446 -0.00091125370178098488 0 0.00012742629844562144 -0.00091307779655828015 0 0.0001115854440593446 -0.00091125370178098488 0 0.00010316301229951112 -0.00087352090820349692 0 0.0001115854440593446 -0.00091125370178098488 0 0.00010316301229951112 -0.00087352090820349692 0 0.00010085965752544996 -0.00089126084631556532 0 9.5256554010709389e-05 -0.00086190964650421171 0 0.00010316301229951112 -0.00087352090820349692 0 9.9342704919302047e-05 -0.00087453602742030331 0 0.00010085965752544996 -0.00089126084631556532 0 0.00010389512185147508 -0.00091735953936995362 0 9.1510641648073063e-05 -0.00089838156365912238 0 9.3113931378691349e-05 -0.00087419560801119882 0 0.00010085965752544996 -0.00089126084631556532 0 9.1510641648073063e-05 -0.00089838156365912238 0 9.6557687745525735e-05 -0.00086986907669433329 0 9.3113931378691349e-05 -0.00087419560801119882 0 9.9342704919302047e-05 -0.00087453602742030331 0 9.3113931378691349e-05 -0.00087419560801119882 0 9.9342704919302047e-05 -0.00087453602742030331 0 0.00010085965752544996 -0.00089126084631556532 0 0.00010316301229951112 -0.00087352090820349692 0 9.9342704919302047e-05 -0.00087453602742030331 0 0.00010085965752544996 -0.00089126084631556532 0 0.0001115854440593446 -0.00091125370178098488 0 0.00010085965752544996 -0.00089126084631556532 0 0.00010389512185147508 -0.00091735953936995362 0 0.00012398930114827818 -0.00095891659938000871 0 0.0001115854440593446 -0.00091125370178098488 0 0.00010389512185147508 -0.00091735953936995362 0 9.644434556425725e-05 -0.00092530413654873332 0 9.1510641648073063e-05 -0.00089838156365912238 0 5.4627176057093611e-05 -0.00088185240760479911 0 0.00010389512185147508 -0.00091735953936995362 0 9.644434556425725e-05 -0.00092530413654873332 0 9.1510641648073063e-05 -0.00089838156365912238 0 9.3113931378691349e-05 -0.00087419560801119882 0 9.1510641648073063e-05 -0.00089838156365912238 0 5.4627176057093611e-05 -0.00088185240760479911 0 0.00012468329971435682 -0.0009783344456690509 0 0.00010389512185147508 -0.00091735953936995362 0 9.644434556425725e-05 -0.00092530413654873332 0 0.00039259341838021128 0.0022464069740584128 0 0.0002829093581835789 0.0032809445224516844 0 9.5256554010709389e-05 -0.00086190964650421171 0 9.3113931378691349e-05 -0.00087419560801119882 0 5.4627176057093611e-05 -0.00088185240760479911 0 -0.00028205728328856849 0.00083584338950181401 0 -0.00050320832246680033 0.0015958658335508309 0 9.0119223301620815e-05 0.001798666476886728 0 0.00053881516429685021 0.0069788282253832046 0 0.00057731479157449258 0.0069208708600423897 0 0.00053578211992704968 0.0069253647410612625 0 0.00053010064029942907 0.0069032889653307906 0 0.00057731479157449258 0.0069208708600423897 0 0.00053578211992704968 0.0069253647410612625 0 -1.441222823373221e-05 0.005145425928114779 0 0.0002829093581835789 0.0032809445224516844 0 0.00053881516429685021 0.0069788282253832046 0 0.00057731479157449258 0.0069208708600423897 0 0.00057878749655996696 0.0070009860865841043 0 0.00061030002799943137 0.0063804681831302178 0 0.00073998761434609299 0.0067830982357490414 0 0.00057878749655996696 0.0070009860865841043 0 0.0002829093581835789 0.0032809445224516844 0 0.0004812922989432538 0.0082746417762049242 0 0.00073998761434609299 0.0067830982357490414 0 0.0008549372200808722 0.0070200526016680476 0 0.00057878749655996696 0.0070009860865841043 0 0.0012615901350241437 0.0065893790066107504 0 0.00061030002799943137 0.0063804681831302178 0 0.00088101820400823773 0.0066818748609495182 0 0.00039259341838021128 0.0022464069740584128 0 7.0857875858796735e-06 0.003343573957970556 0 0.0012615901350241437 0.0065893790066107504 0 0.00088101820400823773 0.0066818748609495182 0 0.0008549372200808722 0.0070200526016680476 0 0.00061030002799943137 0.0063804681831302178 0 0.00073998761434609299 0.0067830982357490414 0 0.00088101820400823773 0.0066818748609495182 0 0.00073998761434609299 0.0067830982357490414 0 0.00088101820400823773 0.0066818748609495182 0 0.0008549372200808722 0.0070200526016680476 0 -0.0007653559352002895 -0.00052873479714124841 0 -0.00058941301290356104 -2.4438448752596039e-05 0 -0.00019406465372152763 -0.00040568908679702534 0 0.0008549372200808722 0.0070200526016680476 0 0.00057878749655996696 0.0070009860865841043 0 0.00059049222653084353 0.0072237049705276739 0 7.0857875858796735e-06 0.003343573957970556 0 -0.00044047813377835429 0.0035102049311119075 0 0.00047503802652255396 0.00716225233930207 0 0.00057878749655996696 0.0070009860865841043 0 0.00059049222653084353 0.0072237049705276739 0 -0.0014377186266411783 -2.7369509354403431e-05 0 -0.00058941301290356104 -2.4438448752596039e-05 0 -0.0010506295558239463 0.00059481052334687319 0 -0.0007653559352002895 -0.00052873479714124841 0 -0.0014377186266411783 -2.7369509354403431e-05 0 -0.00058941301290356104 -2.4438448752596039e-05 0 -0.00058941301290356104 -2.4438448752596039e-05 0 -4.939136024083595e-05 5.5022181741759679e-05 0 -0.00033313881137240429 0.0004219580268948963 0 -0.00058941301290356104 -2.4438448752596039e-05 0 -4.939136024083595e-05 5.5022181741759679e-05 0 -0.00019406465372152763 -0.00040568908679702534 0 -0.00033252522602979885 -0.00088642547129298471 0 -0.0007653559352002895 -0.00052873479714124841 0 -0.00019406465372152763 -0.00040568908679702534 0 0.00011689678109218358 -0.00069862284392393516 0 -0.00019406465372152763 -0.00040568908679702534 0 0.00019900666420435615 -0.00026386733922542356 0 -4.939136024083595e-05 5.5022181741759679e-05 0 0.00019900666420435615 -0.00026386733922542356 0 0.00026178047739122093 0.00018462030747922394 0 -4.939136024083595e-05 5.5022181741759679e-05 0 -0.00019406465372152763 -0.00040568908679702534 0 0.00019900666420435615 -0.00026386733922542356 0 0.00026178047739122093 0.00018462030747922394 0 0.000103784938651891 0.00058520893601766836 0 0.00030042827515789283 0.00037138388570109269 0 -4.939136024083595e-05 5.5022181741759679e-05 0 0.00026178047739122093 0.00018462030747922394 0 0.000103784938651891 0.00058520893601766836 0 -4.939136024083595e-05 5.5022181741759679e-05 0 0.000103784938651891 0.00058520893601766836 0 -0.00033313881137240429 0.0004219580268948963 0 0.000103784938651891 0.00058520893601766836 0 -0.00033313881137240429 0.0004219580268948963 0 -0.0001662001641081306 0.0012859266163342523 0 0.000103784938651891 0.00058520893601766836 0 -0.0001662001641081306 0.0012859266163342523 0 0.00015375532395622008 0.00093611012615412781 0 0.000103784938651891 0.00058520893601766836 0 0.00030042827515789283 0.00037138388570109269 0 0.00015375532395622008 0.00093611012615412781 0 -0.002224611843513931 0.00074039801560183327 0 -0.0014377186266411783 -2.7369509354403431e-05 0 -0.0010506295558239463 0.00059481052334687319 0 -0.002224611843513931 0.00074039801560183327 0 -0.0010506295558239463 0.00059481052334687319 0 -0.0015641485371464183 0.0014389894891277306 0 -0.00033313881137240429 0.0004219580268948963 0 -0.0001662001641081306 0.0012859266163342523 0 -0.0010506295558239463 0.00059481052334687319 0 -0.00058941301290356104 -2.4438448752596039e-05 0 -0.00033313881137240429 0.0004219580268948963 0 -0.0010506295558239463 0.00059481052334687319 0 -0.0001662001641081306 0.0012859266163342523 0 -0.0010506295558239463 0.00059481052334687319 0 -0.0015641485371464183 0.0014389894891277306 0 -0.0001662001641081306 0.0012859266163342523 0 -0.0015641485371464183 0.0014389894891277306 0 -0.00053228715736704018 0.0027418818265166271 0 5.7134399665119845e-05 0.0056300734340180682 0 -0.00032664320315855242 0.0052876240594377007 0 -0.00013376419923937373 0.0040977854135943277 0 -0.0010365725569511566 0.0031460636303900225 0 -0.00047176746219154675 0.0030594525666563606 0 -0.00032664320315855242 0.0052876240594377007 0 -0.00013376419923937373 0.0040977854135943277 0 -0.00053228715736704018 0.0027418818265166271 0 -0.0001662001641081306 0.0012859266163342523 0 -0.00053228715736704018 0.0027418818265166271 0 -6.9255937669696486e-05 0.0019162485660503938 0 -5.2335488984859306e-07 0.0034036242790955722 0 -6.9255937669696486e-05 0.0019162485660503938 0 3.1040728116173863e-08 0.0014844925782271151 0 -0.00053228715736704018 0.0027418818265166271 0 -5.2335488984859306e-07 0.0034036242790955722 0 -6.9255937669696486e-05 0.0019162485660503938 0 -0.00013376419923937373 0.0040977854135943277 0 -0.00053228715736704018 0.0027418818265166271 0 -5.2335488984859306e-07 0.0034036242790955722 0 1.9490882297092785e-07 0.0053228213188502797 0 -0.00013376419923937373 0.0040977854135943277 0 -5.2335488984859306e-07 0.0034036242790955722 0 0.00015375532395622008 0.00093611012615412781 0 0.00020764508049142218 0.00044478753054909151 0 -6.9255937669696486e-05 0.0019162485660503938 0 0.00030042827515789283 0.00037138388570109269 0 0.00015375532395622008 0.00093611012615412781 0 0.00020764508049142218 0.00044478753054909151 0 -0.0001662001641081306 0.0012859266163342523 0 0.00015375532395622008 0.00093611012615412781 0 -6.9255937669696486e-05 0.0019162485660503938 0 0.00020764508049142218 0.00044478753054909151 0 -6.9255937669696486e-05 0.0019162485660503938 0 3.1040728116173863e-08 0.0014844925782271151 0 0.00020764508049142218 0.00044478753054909151 0 3.1040728116173863e-08 0.0014844925782271151 0 5.1009013718569768e-07 -0.00043477154777725669 0 0.00020764508049142218 0.00044478753054909151 0 5.1009013718569768e-07 -0.00043477154777725669 0 0.00027290947949959362 -0.0009045514084364256 0 0.00020764508049142218 0.00044478753054909151 0 0.00035263310971200726 -0.00011572698829834035 0 0.00027290947949959362 -0.0009045514084364256 0 0.00030042827515789283 0.00037138388570109269 0 0.00020764508049142218 0.00044478753054909151 0 0.00035263310971200726 -0.00011572698829834035 0 0.00027290947949959362 -0.0009045514084364256 0 0.00011404572319176873 -0.00078408324805626377 0 0.00031303071856035445 -0.00028334385688894346 0 0.00035263310971200726 -0.00011572698829834035 0 0.00027290947949959362 -0.0009045514084364256 0 0.00031303071856035445 -0.00028334385688894346 0 5.1009013718569768e-07 -0.00043477154777725669 0 0.00027290947949959362 -0.0009045514084364256 0 6.685073155604187e-07 -0.0023534203241612878 0 0.00027290947949959362 -0.0009045514084364256 0 6.685073155604187e-07 -0.0023534203241612878 0 -3.6164716823171358e-05 -0.0025549478170059552 0 -0.00013117247373645727 -0.0035631608955268785 0 -0.00073730043180368101 -0.0047920695621497195 0 -3.6164716823171358e-05 -0.0025549478170059552 0 -5.3835034249280578e-05 -0.0042100617529896994 0 -0.00082078524734149308 -0.0016681967158816372 0 6.685073155604187e-07 -0.0023534203241612878 0 -3.6164716823171358e-05 -0.0025549478170059552 0 -1.4900000784865463e-06 -0.0042733318912355099 0 -3.6164716823171358e-05 -0.0025549478170059552 0 -5.3835034249280578e-05 -0.0042100617529896994 0 -1.4900000784865463e-06 -0.0042733318912355099 0 -3.6164716823171358e-05 -0.0025549478170059552 0 -0.00082078524734149308 -0.0016681967158816372 0 0.00011404572319176873 -0.00078408324805626377 0 -0.00073730043180368101 -0.0047920695621497195 0 0.00054011115929706395 -0.00053515627391472571 0 0.00027290947949959362 -0.0009045514084364256 0 -3.6164716823171358e-05 -0.0025549478170059552 0 0.00011404572319176873 -0.00078408324805626377 0 0.00011404572319176873 -0.00078408324805626377 0 0.00025801993715821459 -0.0003023377820148992 0 0.00031303071856035445 -0.00028334385688894346 0 0.00011404572319176873 -0.00078408324805626377 0 0.00025801993715821459 -0.0003023377820148992 0 5.6436532181940266e-05 -0.00029015803717841068 0 -0.00020664408362005464 -0.00094357180978930921 0 0.00011404572319176873 -0.00078408324805626377 0 5.6436532181940266e-05 -0.00029015803717841068 0 0.00013121949735584866 -0.008077299995848641 0 -0.0011850506981547076 -0.010266191480214246 0 -0.0012368718775505375 -0.0075297364254035565 0 -0.00073730043180368101 -0.0047920695621497195 0 0.00011882656739844544 -0.0044072849166842658 0 -0.00065431049511041508 -0.01063005980375889 0 0.00013121949735584866 -0.008077299995848641 0 -0.0011850506981547076 -0.010266191480214246 0 0.00013121949735584866 -0.008077299995848641 0 -0.0012368718775505375 -0.0075297364254035565 0 0.00058235956411037935 -0.0054109831341951752 0 0.00031397779713985576 -0.00021298150921570465 0 0.00035122558648248561 -0.00013773890001653714 0 0.00038715168460554925 -0.00021719772523045043 0 0.00025801993715821459 -0.0003023377820148992 0 5.6436532181940266e-05 -0.00029015803717841068 0 0.00031397779713985576 -0.00021298150921570465 0 0.00025801993715821459 -0.0003023377820148992 0 0.00031397779713985576 -0.00021298150921570465 0 0.00035122558648248561 -0.00013773890001653714 0 0.00035122558648248561 -0.00013773890001653714 0 0.00036368544122509675 3.3976215836993089e-05 0 0.0003490826055775064 -7.8582454008496502e-05 0 0.00026178047739122093 0.00018462030747922394 0 0.00036368544122509675 3.3976215836993089e-05 0 0.0003490826055775064 -7.8582454008496502e-05 0 0.00026178047739122093 0.00018462030747922394 0 0.00030042827515789283 0.00037138388570109269 0 0.00036368544122509675 3.3976215836993089e-05 0 0.00030042827515789283 0.00037138388570109269 0 0.00035263310971200726 -0.00011572698829834035 0 0.00036368544122509675 3.3976215836993089e-05 0 0.00035263310971200726 -0.00011572698829834035 0 0.00036368544122509675 3.3976215836993089e-05 0 0.00031303071856035445 -0.00028334385688894346 0 0.00025801993715821459 -0.0003023377820148992 0 0.00035122558648248561 -0.00013773890001653714 0 0.00031303071856035445 -0.00028334385688894346 0 0.00035122558648248561 -0.00013773890001653714 0 0.00036368544122509675 3.3976215836993089e-05 0 0.00031303071856035445 -0.00028334385688894346 0 0.00011740433745432714 -0.010780318836347752 0 -0.00065366173791676495 -0.009999407547292144 0 -0.00086322862986271294 -0.010722551837839404 0 0.00011740433745432714 -0.010780318836347752 0 -0.00065366173791676495 -0.009999407547292144 0 0.0002110525626276688 -0.0097923880171628275 0 -0.00065366173791676495 -0.009999407547292144 0 -1.6607875297676584e-06 -0.0081163761700426933 0 0.0002110525626276688 -0.0097923880171628275 0 -7.399816255352928e-07 -0.0081113513423853294 0 -4.681650798780117e-05 -0.0063966967252949329 0 7.9437232494751175e-07 -0.0061926484758576998 0 -0.00065366173791676495 -0.009999407547292144 0 -1.6607875297676584e-06 -0.0081163761700426933 0 -0.0014171900608934143 -0.0094470612343301955 0 9.7179958719941696e-08 -0.0081119959052235631 0 -0.00052228707556181394 -0.0078679753823863476 0 -0.00065366173791676495 -0.009999407547292144 0 -0.0014171900608934143 -0.0094470612343301955 0 -0.0014598196925207994 -0.010252868406668041 0 -0.00065366173791676495 -0.009999407547292144 0 -0.0014598196925207994 -0.010252868406668041 0 -0.00086322862986271294 -0.010722551837839404 0 -0.0014171900608934143 -0.0094470612343301955 0 -0.0014598196925207994 -0.010252868406668041 0 -0.0016326833990331681 -0.010277759941413136 0 -0.0014598196925207994 -0.010252868406668041 0 -0.0015253662570673772 -0.010298193445437037 0 -0.0016326833990331681 -0.010277759941413136 0 -0.00052228707556181394 -0.0078679753823863476 0 -0.0007545834842762921 -0.0080212667925088164 0 -4.681650798780117e-05 -0.0063966967252949329 0 7.9437232494751175e-07 -0.0061926484758576998 0 0.00017916489397878688 -0.0052578614254327654 0 -5.3835034249280578e-05 -0.0042100617529896994 0 -1.4900000784865463e-06 -0.0042733318912355099 0 0.00017916489397878688 -0.0052578614254327654 0 -1.4900000784865463e-06 -0.0042733318912355099 0 7.9437232494751175e-07 -0.0061926484758576998 0 0.00017916489397878688 -0.0052578614254327654 0 -5.3835034249280578e-05 -0.0042100617529896994 0 -0.00040534026879213223 -0.0053184388681176168 0 0.00017916489397878688 -0.0052578614254327654 0 -0.00065431049511041508 -0.01063005980375889 0 -0.0016326833990331681 -0.010277759941413136 0 -0.0011850506981547076 -0.010266191480214246 0 -0.00073730043180368101 -0.0047920695621497195 0 -0.0007545834842762921 -0.0080212667925088164 0 -0.0015253662570673772 -0.010298193445437037 0 -0.0016326833990331681 -0.010277759941413136 0 -0.0011850506981547076 -0.010266191480214246 0 -0.0011465434060436543 -0.010172621435875774 0 -0.0010591170112961208 -0.0085144544912085125 0 -0.0011850506981547076 -0.010266191480214246 0 -0.0013482515528957435 -0.01017506677367962 0 -0.00087111542119864215 -0.0095124020248723903 0 -0.0013482515528957435 -0.01017506677367962 0 -0.00087111542119864215 -0.0095124020248723903 0 -0.0016829970214825996 -0.010438926930623742 0 -0.0015253662570673772 -0.010298193445437037 0 -0.0011850506981547076 -0.010266191480214246 0 -0.0013482515528957435 -0.01017506677367962 0 -0.0016829970214825996 -0.010438926930623742 0 -0.0010774218483104337 -0.011317749744164093 0 -0.0018705437456070634 -0.01184437108357852 0 -0.00087111542119864215 -0.0095124020248723903 0 -0.0016829970214825996 -0.010438926930623742 0 -0.0022330461952586264 -0.0082981323786690906 0 -0.0017524960050201738 -0.010358569514082702 0 -0.0020181653925192391 -0.010134177782881426 0 -0.0014598196925207994 -0.010252868406668041 0 -0.0015253662570673772 -0.010298193445437037 0 -0.0016829970214825996 -0.010438926930623742 0 -0.0015253662570673772 -0.010298193445437037 0 -0.0013482515528957435 -0.01017506677367962 0 -0.0016829970214825996 -0.010438926930623742 0 -0.00086354708775278322 -0.010769112631034855 0 -0.0011091771906097839 -0.011828535301506824 0 -0.0016829970214825996 -0.010438926930623742 0 -0.00086322862986271294 -0.010722551837839404 0 -0.0010774218483104337 -0.011317749744164093 0 -0.0014598196925207994 -0.010252868406668041 0 -0.0016829970214825996 -0.010438926930623742 0 -0.00086322862986271294 -0.010722551837839404 0 -0.0011542508267505338 -0.012366509120906453 0 -0.00036692195524740964 -0.01204898314345112 0 -0.00057606135017421504 -0.012645682697986832 0 -0.00086322862986271294 -0.010722551837839404 0 -0.0011542508267505338 -0.012366509120906453 0 -0.00036692195524740964 -0.01204898314345112 0 -0.00036692195524740964 -0.01204898314345112 0 -0.00011942445297926177 -0.012576566980201218 0 -0.00057606135017421504 -0.012645682697986832 0 -0.00036692195524740964 -0.01204898314345112 0 -0.00011942445297926177 -0.012576566980201218 0 0.00025589529073286103 -0.012194467635282773 0 -0.00036692195524740964 -0.01204898314345112 0 0.00018424064871461673 -0.01153318306943134 0 0.00025589529073286103 -0.012194467635282773 0 -0.00086322862986271294 -0.010722551837839404 0 -0.00036692195524740964 -0.01204898314345112 0 0.00018424064871461673 -0.01153318306943134 0 0.00011740433745432714 -0.010780318836347752 0 -0.00086322862986271294 -0.010722551837839404 0 0.00018424064871461673 -0.01153318306943134 0 -0.00012178004407146696 -0.01367917858027478 0 -0.00055086257906706584 -0.01344155648236333 0 -0.0005621556727591463 -0.013879116166491141 0 -0.00055086257906706584 -0.01344155648236333 0 -0.00021091304484675233 -0.013102513688519028 0 -0.00082053877773231236 -0.013093481873854373 0 -0.00012178004407146696 -0.01367917858027478 0 -0.00055086257906706584 -0.01344155648236333 0 -0.00021091304484675233 -0.013102513688519028 0 -0.00012178004407146696 -0.01367917858027478 0 -0.00021091304484675233 -0.013102513688519028 0 0.00030511179053611221 -0.01342408081108897 0 -0.00021091304484675233 -0.013102513688519028 0 -0.00011942445297926177 -0.012576566980201218 0 0.0004882821331850855 -0.012845436846360268 0 -0.00021091304484675233 -0.013102513688519028 0 -0.00011942445297926177 -0.012576566980201218 0 -0.00057606135017421504 -0.012645682697986832 0 -0.00021091304484675233 -0.013102513688519028 0 -0.00057606135017421504 -0.012645682697986832 0 -0.00082053877773231236 -0.013093481873854373 0 -0.0011542508267505338 -0.012366509120906453 0 -0.00082053877773231236 -0.013093481873854373 0 -0.0013803933863560116 -0.013375120049456256 0 -0.0011542508267505338 -0.012366509120906453 0 -0.00057606135017421504 -0.012645682697986832 0 -0.00082053877773231236 -0.013093481873854373 0 -0.0011091771906097839 -0.011828535301506824 0 -0.0014112031620703714 -0.013159596009306882 0 -0.00082053877773231236 -0.013093481873854373 0 -0.00098468175941741854 -0.013602547026994431 0 -0.0013803933863560116 -0.013375120049456256 0 -0.00055086257906706584 -0.01344155648236333 0 -0.00082053877773231236 -0.013093481873854373 0 -0.00098468175941741854 -0.013602547026994431 0 -0.00055086257906706584 -0.01344155648236333 0 -0.00098468175941741854 -0.013602547026994431 0 -0.0005621556727591463 -0.013879116166491141 0 -0.0020181653925192391 -0.010134177782881426 0 -0.0021109188377383755 -0.0087629041586144117 0 -0.0022330461952586264 -0.0082981323786690906 0 -0.0008201985342260942 -0.0065412472602737332 0 -0.0023736048717106707 -0.0048561808199737797 0 -0.0014050920128492132 -0.012912209798585541 0 -0.0018705437456070634 -0.01184437108357852 0 -0.0018359204811889134 -0.013492294857055288 0 -0.00098468175941741854 -0.013602547026994431 0 -0.0013803933863560116 -0.013375120049456256 0 -0.0015569723392856933 -0.01389530742066453 0 -0.0010774218483104337 -0.011317749744164093 0 -0.0014050920128492132 -0.012912209798585541 0 -0.0018705437456070634 -0.01184437108357852 0 -0.00087111542119864215 -0.0095124020248723903 0 -0.0022330461952586264 -0.0082981323786690906 0 -0.0008201985342260942 -0.0065412472602737332 0 -0.0010591170112961208 -0.0085144544912085125 0 -0.0010426010089177745 -0.0057210744376837725 0 -0.0010426010089177745 -0.0057210744376837725 0 -0.0012173653433070154 -0.0030690613415536951 0 -0.0012230885181514827 -0.0049555820764589356 0 -0.0012310197404969965 -0.0029075813679911781 0 -0.00027409592724551038 -0.0038137649996735743 0 -0.0008201985342260942 -0.0065412472602737332 0 -0.0012310197404969965 -0.0029075813679911781 0 -0.0023736048717106707 -0.0048561808199737797 0 -0.0012310197404969965 -0.0029075813679911781 0 -0.00027409592724551038 -0.0038137649996735743 0 -0.00025419871444185086 -0.002858447591374557 0 -0.0012310197404969965 -0.0029075813679911781 0 -0.00025419871444185086 -0.002858447591374557 0 -0.0020051132551306434 -0.0012598054843587822 0 -0.00092401049246054485 -0.0012678563181721628 0 -0.0009808780531184438 -0.006598173687381627 0 -0.0012310197404969965 -0.0029075813679911781 0 -0.0021175553912251839 -0.0015847222702838359 0 -0.0020051132551306434 -0.0012598054843587822 0 -0.00025419871444185086 -0.002858447591374557 0 -9.0027610869462013e-05 -0.0017866946753483332 0 -0.00073585919769182293 -0.0019546880111473899 0 -0.0017970347509124272 -0.010020591418201713 0 -0.0021109188377383755 -0.0087629041586144117 0 -0.0014076343983999698 -0.014625067797876685 0 -0.0015569723392856933 -0.01389530742066453 0 -0.001126406589286688 -0.014403936253327639 0 -0.0012310197404969965 -0.0029075813679911781 0 -0.0021175553912251839 -0.0015847222702838359 0 -0.0023736048717106707 -0.0048561808199737797 0 -0.0017799096186698201 -0.01431560113648885 0 -0.0018296291091459982 -0.014816959696519198 0 -0.0018359204811889134 -0.013492294857055288 0 -0.0018385312833649919 -0.014898521446356365 0 -0.0016016819818944253 -0.014773333345626317 0 -0.0015569723392856933 -0.01389530742066453 0 -0.0017970347509124272 -0.010020591418201713 0 -0.0018620921785925677 -0.015837643160346387 0 -0.0017799096186698201 -0.01431560113648885 0 -0.0018296291091459982 -0.014816959696519198 0 -0.0015569723392856933 -0.01389530742066453 0 -0.0016016819818944253 -0.014773333345626317 0 -0.0014076343983999698 -0.014625067797876685 0 -0.0015569723392856933 -0.01389530742066453 0 -0.0018385312833649919 -0.014898521446356365 0 -0.0016016819818944253 -0.014773333345626317 0 -0.001877797575166554 -0.015033836087958337 0 -0.0014585679881115043 -0.014921010353413776 0 -0.0016016819818944253 -0.014773333345626317 0 -0.0015085638814743398 -0.015136641977998508 0 -0.0013026428312526343 -0.014940821097946998 0 -0.0014585679881115043 -0.014921010353413776 0 -0.0014076343983999698 -0.014625067797876685 0 -0.0014585679881115043 -0.014921010353413776 0 -0.0016016819818944253 -0.014773333345626317 0 -0.0014076343983999698 -0.014625067797876685 0 -0.0013026428312526343 -0.014940821097946998 0 -0.0014076343983999698 -0.014625067797876685 0 -0.0011831466378973098 -0.014734772758856622 0 -0.0014112031620703714 -0.013159596009306882 0 -0.0017559885296856326 -0.014264366434778327 0 -0.0013803933863560116 -0.013375120049456256 0 -0.0017799096186698201 -0.01431560113648885 0 -0.0015569723392856933 -0.01389530742066453 0 -0.0014050920128492132 -0.012912209798585541 0 -0.0017799096186698201 -0.01431560113648885 0 -0.0018359204811889134 -0.013492294857055288 0 -0.00098468175941741854 -0.013602547026994431 0 -0.0015569723392856933 -0.01389530742066453 0 -0.00093217632959392675 -0.014038535282357933 0 -0.00098468175941741854 -0.013602547026994431 0 -0.00093217632959392675 -0.014038535282357933 0 -0.0005621556727591463 -0.013879116166491141 0 -0.00093217632959392675 -0.014038535282357933 0 -0.001126406589286688 -0.014403936253327639 0 -0.00069319370653118809 -0.014409192459841227 0 -0.00093217632959392675 -0.014038535282357933 0 -0.00069319370653118809 -0.014409192459841227 0 -0.0005621556727591463 -0.013879116166491141 0 -0.0015569723392856933 -0.01389530742066453 0 -0.00093217632959392675 -0.014038535282357933 0 -0.001126406589286688 -0.014403936253327639 0 -0.001126406589286688 -0.014403936253327639 0 -0.0011831466378973098 -0.014734772758856622 0 -0.00096403604393197832 -0.014698578821157552 0 -0.0014076343983999698 -0.014625067797876685 0 -0.001126406589286688 -0.014403936253327639 0 -0.0011831466378973098 -0.014734772758856622 0 -0.0011831466378973098 -0.014734772758856622 0 -0.00096403604393197832 -0.014698578821157552 0 -0.0010395432301588154 -0.015025632183710984 0 -0.0013026428312526343 -0.014940821097946998 0 -0.0011831466378973098 -0.014734772758856622 0 -0.0010395432301588154 -0.015025632183710984 0 -0.00096403604393197832 -0.014698578821157552 0 -0.00064783458806230655 -0.014967631675366175 0 -0.0010395432301588154 -0.015025632183710984 0 -0.00096403604393197832 -0.014698578821157552 0 -0.00064783458806230655 -0.014967631675366175 0 -0.00069319370653118809 -0.014409192459841227 0 -0.001126406589286688 -0.014403936253327639 0 -0.00096403604393197832 -0.014698578821157552 0 -0.00069319370653118809 -0.014409192459841227 0 -0.00064783458806230655 -0.014967631675366175 0 -0.00069319370653118809 -0.014409192459841227 0 -0.00038544218003326201 -0.014674165923447132 0 -0.00069319370653118809 -0.014409192459841227 0 -0.00038544218003326201 -0.014674165923447132 0 -0.0002242401834277459 -0.014191692502092334 0 -0.00064783458806230655 -0.014967631675366175 0 -0.00038544218003326201 -0.014674165923447132 0 -0.00036966713920649817 -0.014956752702840206 0 -0.00038544218003326201 -0.014674165923447132 0 -0.00010445262848205543 -0.014967951229926465 0 5.9554462612460205e-06 -0.014563848065746654 0 -0.00038544218003326201 -0.014674165923447132 0 -0.00036966713920649817 -0.014956752702840206 0 -0.00010445262848205543 -0.014967951229926465 0 -0.00038544218003326201 -0.014674165923447132 0 5.9554462612460205e-06 -0.014563848065746654 0 -0.0002242401834277459 -0.014191692502092334 0 5.9554462612460205e-06 -0.014563848065746654 0 -0.0002242401834277459 -0.014191692502092334 0 0.00019735702389324318 -0.014038972590556576 0 -0.00069319370653118809 -0.014409192459841227 0 -0.0002242401834277459 -0.014191692502092334 0 -0.0005621556727591463 -0.013879116166491141 0 -0.00012178004407146696 -0.01367917858027478 0 -0.0002242401834277459 -0.014191692502092334 0 -0.0005621556727591463 -0.013879116166491141 0 -0.00012178004407146696 -0.01367917858027478 0 -0.0002242401834277459 -0.014191692502092334 0 0.00019735702389324318 -0.014038972590556576 0 0.00035602298210798673 -0.00034191507145494936 0 0.00038715168460554925 -0.00021719772523045043 0 0.00044857516955765497 -0.00041594115085324024 0 0.00035602298210798673 -0.00034191507145494936 0 0.00044857516955765497 -0.00041594115085324024 0 0.00038227527338949649 -0.00068843041099979666 0 0.00035602298210798673 -0.00034191507145494936 0 0.00038227527338949649 -0.00068843041099979666 0 0.00025335626564544617 -0.00064428461914390234 0 0.00019900666420435615 -0.00026386733922542356 0 0.00035602298210798673 -0.00034191507145494936 0 0.00025335626564544617 -0.00064428461914390234 0 0.00011689678109218358 -0.00069862284392393516 0 0.00019900666420435615 -0.00026386733922542356 0 0.00025335626564544617 -0.00064428461914390234 0 0.00019900666420435615 -0.00026386733922542356 0 0.00035602298210798673 -0.00034191507145494936 0 0.0003490826055775064 -7.8582454008496502e-05 0 0.00019900666420435615 -0.00026386733922542356 0 0.00026178047739122093 0.00018462030747922394 0 0.0003490826055775064 -7.8582454008496502e-05 0 0.00035122558648248561 -0.00013773890001653714 0 0.0003490826055775064 -7.8582454008496502e-05 0 0.00038715168460554925 -0.00021719772523045043 0 0.00035602298210798673 -0.00034191507145494936 0 0.0003490826055775064 -7.8582454008496502e-05 0 0.00038715168460554925 -0.00021719772523045043 0 0.00031397779713985576 -0.00021298150921570465 0 0.00038715168460554925 -0.00021719772523045043 0 0.00050014759208796334 -0.0002764240496125627 0 0.00011882656739844544 -0.0044072849166842658 0 0.00052216845253555779 -0.0028238355232166504 0 5.6436532181940266e-05 -0.00029015803717841068 0 0.00031397779713985576 -0.00021298150921570465 0 0.00050014759208796334 -0.0002764240496125627 0 -0.0012368718775505375 -0.0075297364254035565 0 -0.0012230885181514827 -0.0049555820764589356 0 0.00058235956411037935 -0.0054109831341951752 0 0.00052216845253555779 -0.0028238355232166504 0 0.00067697883209365207 -0.0019622946328541903 0 -0.0012230885181514827 -0.0049555820764589356 0 0.00058235956411037935 -0.0054109831341951752 0 -0.00027409592724551038 -0.0038137649996735743 0 0.00038715168460554925 -0.00021719772523045043 0 0.00050014759208796334 -0.0002764240496125627 0 0.00044857516955765497 -0.00041594115085324024 0 0.00050014759208796334 -0.0002764240496125627 0 0.00044857516955765497 -0.00041594115085324024 0 0.00067841114798239106 -0.00073645814529106157 0 0.00044857516955765497 -0.00041594115085324024 0 0.00067841114798239106 -0.00073645814529106157 0 0.00038227527338949649 -0.00068843041099979666 0 0.00067841114798239106 -0.00073645814529106157 0 0.00045015477423744849 -0.0010181615535895237 0 0.00038227527338949649 -0.00068843041099979666 0 0.00058235956411037935 -0.0054109831341951752 0 0.00073219000961380798 -0.0031270819872883607 0 -0.00027409592724551038 -0.0038137649996735743 0 0.00073219000961380798 -0.0031270819872883607 0 -0.00027409592724551038 -0.0038137649996735743 0 -0.00025419871444185086 -0.002858447591374557 0 0.00073219000961380798 -0.0031270819872883607 0 -0.00025419871444185086 -0.002858447591374557 0 -9.0027610869462013e-05 -0.0017866946753483332 0 0.00073219000961380798 -0.0031270819872883607 0 0.00054709802616504657 -0.0014339346983626628 0 -9.0027610869462013e-05 -0.0017866946753483332 0 0.00067841114798239106 -0.00073645814529106157 0 0.00045015477423744849 -0.0010181615535895237 0 0.00054709802616504657 -0.0014339346983626628 0 0.00067697883209365207 -0.0019622946328541903 0 0.00058493963604713697 -0.0014733014899330308 0 0.00045015477423744849 -0.0010181615535895237 0 0.00028805134173343094 -0.00093704715708404715 0 0.00028301525037883357 -0.0011714585939231101 0 0.00045015477423744849 -0.0010181615535895237 0 0.00038227527338949649 -0.00068843041099979666 0 0.00028805134173343094 -0.00093704715708404715 0 0.00038227527338949649 -0.00068843041099979666 0 0.00025335626564544617 -0.00064428461914390234 0 0.00028805134173343094 -0.00093704715708404715 0 0.00011689678109218358 -0.00069862284392393516 0 0.00016994895340067054 -0.0009393263340057858 0 0.00025335626564544617 -0.00064428461914390234 0 0.00016994895340067054 -0.0009393263340057858 0 0.00025335626564544617 -0.00064428461914390234 0 0.00028805134173343094 -0.00093704715708404715 0 0.00016994895340067054 -0.0009393263340057858 0 0.00028805134173343094 -0.00093704715708404715 0 0.00028301525037883357 -0.0011714585939231101 0 0.00019278446941574319 -0.0010961137549529581 0 0.00016994895340067054 -0.0009393263340057858 0 0.00028301525037883357 -0.0011714585939231101 0 0.00045015477423744849 -0.0010181615535895237 0 0.00028301525037883357 -0.0011714585939231101 0 0.00054709802616504657 -0.0014339346983626628 0 0.00028301525037883357 -0.0011714585939231101 0 0.00028445137021248612 -0.0012426304650602141 0 0.00054709802616504657 -0.0014339346983626628 0 0.00019278446941574319 -0.0010961137549529581 0 0.00028301525037883357 -0.0011714585939231101 0 0.00021993749191093103 -0.0011532559191921464 0 0.00028301525037883357 -0.0011714585939231101 0 0.00021993749191093103 -0.0011532559191921464 0 0.00028445137021248612 -0.0012426304650602141 0 0.00020122586151289214 -0.0010799160420083517 0 0.00021993749191093103 -0.0011532559191921464 0 0.00020551396468152574 -0.0011602668220013889 0 0.00021993749191093103 -0.0011532559191921464 0 0.00028445137021248612 -0.0012426304650602141 0 0.00020551396468152574 -0.0011602668220013889 0 0.00028445137021248612 -0.0012426304650602141 0 0.0001681219943659306 -0.0012629618817361886 0 0.00020551396468152574 -0.0011602668220013889 0 0.00022524157788945454 -0.0013635148593761743 0 0.00022838619008854483 -0.0012458418520595732 0 0.00020668663325645919 -0.0012656378022943471 0 0.00022524157788945454 -0.0013635148593761743 0 0.00020668663325645919 -0.0012656378022943471 0 0.00027233069408873553 -0.0016908141451154703 0 0.0001681219943659306 -0.0012629618817361886 0 0.00022524157788945454 -0.0013635148593761743 0 0.00022838619008854483 -0.0012458418520595732 0 0.00028445137021248612 -0.0012426304650602141 0 0.0001681219943659306 -0.0012629618817361886 0 0.00022838619008854483 -0.0012458418520595732 0 0.00022838619008854483 -0.0012458418520595732 0 7.9350874530901259e-05 -0.0013918993918207777 0 0.00054709802616504657 -0.0014339346983626628 0 0.00022838619008854483 -0.0012458418520595732 0 7.9350874530901259e-05 -0.0013918993918207777 0 -0.00017116601483490004 -0.0012977028828267479 0 0.00028445137021248612 -0.0012426304650602141 0 0.00022838619008854483 -0.0012458418520595732 0 0.00054709802616504657 -0.0014339346983626628 0 7.9350874530901259e-05 -0.0013918993918207777 0 0.00054709802616504657 -0.0014339346983626628 0 -9.0027610869462013e-05 -0.0017866946753483332 0 -0.0009808780531184438 -0.006598173687381627 0 -4.7275044341794034e-05 -0.0025077846648560356 0 -9.0027610869462013e-05 -0.0017866946753483332 0 -0.00073585919769182293 -0.0019546880111473899 0 -0.00017116601483490004 -0.0012977028828267479 0 -0.0009808780531184438 -0.006598173687381627 0 4.5332859929884054e-05 -0.011017623185640467 0 -0.0016016819818944253 -0.014773333345626317 0 -0.001877797575166554 -0.015033836087958337 0 -0.0015085638814743398 -0.015136641977998508 0 -0.001877797575166554 -0.015033836087958337 0 -0.0015085638814743398 -0.015136641977998508 0 -0.00096542036382126308 -0.015829515963917105 0 -0.0005915072163164125 -0.0065407667561477312 0 -0.00097706247678791525 -0.0052660690271449243 0 -0.0021271473178345094 -0.0052242891980138241 0 -0.0017970347509124272 -0.010020591418201713 0 -0.0009808780531184438 -0.006598173687381627 0 -0.0013026428312526343 -0.014940821097946998 0 -0.0013917833794946069 -0.015076654578358734 0 -0.0012775620242852317 -0.015225487789215517 0 -0.0014585679881115043 -0.014921010353413776 0 -0.0013917833794946069 -0.015076654578358734 0 -0.0015085638814743398 -0.015136641977998508 0 -0.0013026428312526343 -0.014940821097946998 0 -0.0014585679881115043 -0.014921010353413776 0 -0.0013917833794946069 -0.015076654578358734 0 -0.0013917833794946069 -0.015076654578358734 0 -0.0015085638814743398 -0.015136641977998508 0 -0.0012775620242852317 -0.015225487789215517 0 -0.0005915072163164125 -0.0065407667561477312 0 -0.00097706247678791525 -0.0052660690271449243 0 -0.00010527174321218177 -0.004672564018367774 0 -0.00097706247678791525 -0.0052660690271449243 0 -0.00010527174321218177 -0.004672564018367774 0 -0.00096781075530390128 -0.003426757103255202 0 -0.00097706247678791525 -0.0052660690271449243 0 -0.0021271473178345094 -0.0052242891980138241 0 -0.00096781075530390128 -0.003426757103255202 0 7.9350874530901259e-05 -0.0013918993918207777 0 -9.0027610869462013e-05 -0.0017866946753483332 0 -0.00017116601483490004 -0.0012977028828267479 0 -8.3142853990342809e-05 -0.015496050236608739 0 -0.0001104110434156466 -0.015729481612647905 0 0.00015295468093854742 -0.015772234090316656 0 -0.00035888637738980359 -0.015488867321998404 0 -0.00035306013117721046 -0.015713415425106139 0 -0.0001104110434156466 -0.015729481612647905 0 -8.3142853990342809e-05 -0.015496050236608739 0 -0.00035888637738980359 -0.015488867321998404 0 -0.0001104110434156466 -0.015729481612647905 0 -8.3142853990342809e-05 -0.015496050236608739 0 -0.00034288687889905145 -0.015216254787756822 0 -0.00035888637738980359 -0.015488867321998404 0 -0.00010445262848205543 -0.014967951229926465 0 -8.9125808295753071e-06 -0.015246830789242917 0 -0.00034288687889905145 -0.015216254787756822 0 -8.3142853990342809e-05 -0.015496050236608739 0 -8.9125808295753071e-06 -0.015246830789242917 0 -0.00034288687889905145 -0.015216254787756822 0 -0.00036966713920649817 -0.014956752702840206 0 -0.00010445262848205543 -0.014967951229926465 0 -0.00034288687889905145 -0.015216254787756822 0 -0.00034288687889905145 -0.015216254787756822 0 -0.0005902076526625961 -0.015309118210707842 0 -0.00035888637738980359 -0.015488867321998404 0 -0.00064783458806230655 -0.014967631675366175 0 -0.00034288687889905145 -0.015216254787756822 0 -0.0005902076526625961 -0.015309118210707842 0 -0.00064783458806230655 -0.014967631675366175 0 -0.00036966713920649817 -0.014956752702840206 0 -0.00034288687889905145 -0.015216254787756822 0 -0.0005902076526625961 -0.015309118210707842 0 -0.00035888637738980359 -0.015488867321998404 0 -0.00059022830842337456 -0.015562914620815802 0 -0.00035888637738980359 -0.015488867321998404 0 -0.00059022830842337456 -0.015562914620815802 0 -0.00035306013117721046 -0.015713415425106139 0 -0.0015085638814743398 -0.015136641977998508 0 -0.0012775620242852317 -0.015225487789215517 0 -0.00096542036382126308 -0.015829515963917105 0 -0.00059022830842337456 -0.015562914620815802 0 -0.000712793784703682 -0.015648129374497916 0 -0.00081213384691154039 -0.015492048148615774 0 -0.000712793784703682 -0.015648129374497916 0 -0.00081213384691154039 -0.015492048148615774 0 -0.00087952173754706235 -0.015704378781587831 0 -0.00081213384691154039 -0.015492048148615774 0 -0.00099983614059446168 -0.015455827641138838 0 -0.00087952173754706235 -0.015704378781587831 0 -0.00081213384691154039 -0.015492048148615774 0 -0.00084705190976301094 -0.015259152986249361 0 -0.00099983614059446168 -0.015455827641138838 0 -0.0005902076526625961 -0.015309118210707842 0 -0.00081213384691154039 -0.015492048148615774 0 -0.00084705190976301094 -0.015259152986249361 0 -0.0005902076526625961 -0.015309118210707842 0 -0.00059022830842337456 -0.015562914620815802 0 -0.00081213384691154039 -0.015492048148615774 0 -0.00064783458806230655 -0.014967631675366175 0 -0.00084705190976301094 -0.015259152986249361 0 -0.0010395432301588154 -0.015025632183710984 0 -0.00064783458806230655 -0.014967631675366175 0 -0.0005902076526625961 -0.015309118210707842 0 -0.00084705190976301094 -0.015259152986249361 0 -0.00084705190976301094 -0.015259152986249361 0 -0.0010507863058265472 -0.015240443523831785 0 -0.00099983614059446168 -0.015455827641138838 0 -0.0010507863058265472 -0.015240443523831785 0 -0.0012775620242852317 -0.015225487789215517 0 -0.00099983614059446168 -0.015455827641138838 0 -0.00084705190976301094 -0.015259152986249361 0 -0.0010507863058265472 -0.015240443523831785 0 -0.0010395432301588154 -0.015025632183710984 0 -0.0013026428312526343 -0.014940821097946998 0 -0.0010395432301588154 -0.015025632183710984 0 -0.0012775620242852317 -0.015225487789215517 0 -0.0010507863058265472 -0.015240443523831785 0 -0.0010395432301588154 -0.015025632183710984 0 -0.0012775620242852317 -0.015225487789215517 0 -0.0012775620242852317 -0.015225487789215517 0 -0.00099983614059446168 -0.015455827641138838 0 -0.00096542036382126308 -0.015829515963917105 0 4.5332859929884054e-05 -0.011017623185640467 0 0.0012566316230925294 -0.013635838425274448 0 -0.00099983614059446168 -0.015455827641138838 0 -0.00096542036382126308 -0.015829515963917105 0 -0.00087952173754706235 -0.015704378781587831 0 -0.00096535076209510156 -0.015835743001291917 0 -0.00087952173754706235 -0.015704378781587831 0 -0.00056929365770400022 -0.015833262966747651 0 4.5332859929884054e-05 -0.011017623185640467 0 -0.00076401596181241069 -0.012668881189483247 0 -0.00059022830842337456 -0.015562914620815802 0 -0.000712793784703682 -0.015648129374497916 0 -0.00056929365770400022 -0.015833262966747651 0 -0.000712793784703682 -0.015648129374497916 0 -0.00087952173754706235 -0.015704378781587831 0 -0.00056929365770400022 -0.015833262966747651 0 -0.00096535076209510156 -0.015835743001291917 0 -0.00056929365770400022 -0.015833262966747651 0 -0.00025319469137424484 -0.016464365378987461 0 0.0019078208076828028 -0.010867154648960041 0 0.0021524078326134867 -0.011082248278323398 0 0.0020968987879534931 -0.011074959762364859 0 -0.00035306013117721046 -0.015713415425106139 0 -0.00056929365770400022 -0.015833262966747651 0 -9.4832351535713871e-05 -0.015967294257063218 0 -0.00059022830842337456 -0.015562914620815802 0 -0.00035306013117721046 -0.015713415425106139 0 -0.00056929365770400022 -0.015833262966747651 0 -0.00056929365770400022 -0.015833262966747651 0 -9.4832351535713871e-05 -0.015967294257063218 0 -0.00025319469137424484 -0.016464365378987461 0 -9.4832351535713871e-05 -0.015967294257063218 0 -0.00025319469137424484 -0.016464365378987461 0 0.00016202076177463222 -0.016245727393290652 0 -0.00035306013117721046 -0.015713415425106139 0 -9.4832351535713871e-05 -0.015967294257063218 0 -0.0001104110434156466 -0.015729481612647905 0 -9.4832351535713871e-05 -0.015967294257063218 0 -0.0001104110434156466 -0.015729481612647905 0 0.00015295468093854742 -0.015772234090316656 0 0.0021571924207294418 -0.011082541185165884 0 0.0021218977167141171 -0.011202801389928158 0 0.0022325263301531998 -0.011301497101786221 0 0.0021571924207294418 -0.011082541185165884 0 0.0020968987879534931 -0.011074959762364859 0 0.0021218977167141171 -0.011202801389928158 0 0.0012566316230925294 -0.013635838425274448 0 0.001573020624691446 -0.013294354549860122 0 0.0020968987879534931 -0.011074959762364859 0 0.0021218977167141171 -0.011202801389928158 0 0.0019451003456440429 -0.011191017344670802 0 0.0019078208076828028 -0.010867154648960041 0 0.0020968987879534931 -0.011074959762364859 0 0.0019451003456440429 -0.011191017344670802 0 0.0019078208076828028 -0.010867154648960041 0 0.0019451003456440429 -0.011191017344670802 0 0.0017059160483531518 -0.011175617215460055 0 0.0019451003456440429 -0.011191017344670802 0 0.0017059160483531518 -0.011175617215460055 0 0.001871450761797316 -0.011469161461034593 0 0.0019451003456440429 -0.011191017344670802 0 0.0020949941894962639 -0.011363878784373177 0 0.001871450761797316 -0.011469161461034593 0 0.0020949941894962639 -0.011363878784373177 0 0.0021741464095284099 -0.011576177653247132 0 0.001871450761797316 -0.011469161461034593 0 0.0021218977167141171 -0.011202801389928158 0 0.0019451003456440429 -0.011191017344670802 0 0.0020949941894962639 -0.011363878784373177 0 0.0021218977167141171 -0.011202801389928158 0 0.0020949941894962639 -0.011363878784373177 0 0.0022325263301531998 -0.011301497101786221 0 0.0020949941894962639 -0.011363878784373177 0 0.0022546864271800098 -0.011425204427146866 0 0.0021741464095284099 -0.011576177653247132 0 0.0020949941894962639 -0.011363878784373177 0 0.0022546864271800098 -0.011425204427146866 0 0.0022325263301531998 -0.011301497101786221 0 -0.00010527174321218177 -0.004672564018367774 0 -0.00096781075530390128 -0.003426757103255202 0 0.00025905165084760514 -0.0028671331813375305 0 0.00022838619008854483 -0.0012458418520595732 0 -0.00017116601483490004 -0.0012977028828267479 0 0.00020668663325645919 -0.0012656378022943471 0 -4.7275044341794034e-05 -0.0025077846648560356 0 0.00017902481848978133 -0.0022108573979164057 0 4.5332859929884054e-05 -0.011017623185640467 0 0.00046880718607290265 -0.0067569464638639453 0 0.0017059160483531518 -0.011175617215460055 0 0.0014918545640693914 -0.01149235111416109 0 0.001871450761797316 -0.011469161461034593 0 0.00046880718607290265 -0.0067569464638639453 0 0.00067593454477604892 -0.0066469503123187173 0 -0.00096781075530390128 -0.003426757103255202 0 0.00025905165084760514 -0.0028671331813375305 0 3.704422619250584e-05 -0.0019750348075658359 0 0.00017902481848978133 -0.0022108573979164057 0 0.00028930153221586974 -0.0016836398760314444 0 0.00025905165084760514 -0.0028671331813375305 0 3.704422619250584e-05 -0.0019750348075658359 0 0.00027233069408873553 -0.0016908141451154703 0 0.0014918545640693914 -0.01149235111416109 0 0.0017998990066811717 -0.011753100665902662 0 0.001871450761797316 -0.011469161461034593 0 0.0014918545640693914 -0.01149235111416109 0 0.0017998990066811717 -0.011753100665902662 0 0.0016151091844053772 -0.011945117444160871 0 0.0014918545640693914 -0.01149235111416109 0 0.0016151091844053772 -0.011945117444160871 0 0.0012723686389786771 -0.011819050408361672 0 0.0017998990066811717 -0.011753100665902662 0 0.001871450761797316 -0.011469161461034593 0 0.0020678951859095817 -0.01180030846430526 0 0.0021741464095284099 -0.011576177653247132 0 0.001871450761797316 -0.011469161461034593 0 0.0020678951859095817 -0.01180030846430526 0 0.0017998990066811717 -0.011753100665902662 0 0.0020678951859095817 -0.01180030846430526 0 0.0019574829716324468 -0.012067769291958429 0 0.0021741464095284099 -0.011576177653247132 0 0.0020678951859095817 -0.01180030846430526 0 0.00236368815757038 -0.011803622704041509 0 0.0020678951859095817 -0.01180030846430526 0 0.0023148801204071158 -0.012177625447196949 0 0.00236368815757038 -0.011803622704041509 0 0.0020678951859095817 -0.01180030846430526 0 0.0019574829716324468 -0.012067769291958429 0 0.0023148801204071158 -0.012177625447196949 0 0.001978118294527481 -0.013916049804369128 0 0.0023278707921408825 -0.014847417110967143 0 0.0022484587812893323 -0.016097595103308597 0 0.0021375901983874388 -0.015950255083429947 0 0.0020287063550075159 -0.016023076761519147 0 0.0022484587812893323 -0.016097595103308597 0 0.0022763709182774881 -0.015839753990604621 0 0.0021375901983874388 -0.015950255083429947 0 0.0022484587812893323 -0.016097595103308597 0 0.0022763709182774881 -0.015839753990604621 0 0.002555519536476843 -0.015882960814418732 0 0.0022763709182774881 -0.015839753990604621 0 0.0021375901983874388 -0.015950255083429947 0 0.0021293670413355605 -0.015865311964217539 0 0.0021375901983874388 -0.015950255083429947 0 0.0020572852360503245 -0.01594724101466086 0 0.0021293670413355605 -0.015865311964217539 0 0.0021375901983874388 -0.015950255083429947 0 0.0020572852360503245 -0.01594724101466086 0 0.0020287063550075159 -0.016023076761519147 0 0.0026511434077169981 -0.016198166314617225 0 0.002555519536476843 -0.015882960814418732 0 0.0029347773934484647 -0.015963584032225 0 0.0026511434077169981 -0.016198166314617225 0 0.0029347773934484647 -0.015963584032225 0 0.0031433115043534585 -0.016273512625224151 0 0.0024706187579616812 -0.014774851934871415 0 0.0013803350476239793 -0.0078459472267009139 0 0.0017998990066811717 -0.011753100665902662 0 0.0019574829716324468 -0.012067769291958429 0 0.0016151091844053772 -0.011945117444160871 0 0.0022484587812893323 -0.016097595103308597 0 0.0026511434077169981 -0.016198166314617225 0 0.002555519536476843 -0.015882960814418732 0 0.001978118294527481 -0.013916049804369128 0 0.0024706187579616812 -0.014774851934871415 0 0.002555519536476843 -0.015882960814418732 0 0.0029347773934484647 -0.015963584032225 0 0.0028602538165145353 -0.015590326764259851 0 0.0029347773934484647 -0.015963584032225 0 0.0035089637244513257 -0.015847104407753658 0 0.0028602538165145353 -0.015590326764259851 0 0.0029347773934484647 -0.015963584032225 0 0.0035089637244513257 -0.015847104407753658 0 0.0031433115043534585 -0.016273512625224151 0 0.00033898930908274799 -0.0022545096285387753 0 0.00062650895150952591 -0.0018320496288601442 0 0.00025140847502396098 -0.0016987573975716106 0 0.0020753649247823832 -0.0090002697728392353 0 0.0013803350476239793 -0.0078459472267009139 0 0.0020753649247823832 -0.0090002697728392353 0 0.0015316450232910517 -0.010169607757618871 0 0.00033898930908274799 -0.0022545096285387753 0 -0.00019582431923495988 -0.002320869091636639 0 0.00010648228950393099 -0.0026078456880768625 0 0.00033898930908274799 -0.0022545096285387753 0 -0.00019582431923495988 -0.002320869091636639 0 -4.063204560913901e-05 -0.0019630586423975125 0 -0.00042354622616620768 -0.0019492876077484437 0 -0.00019582431923495988 -0.002320869091636639 0 -4.063204560913901e-05 -0.0019630586423975125 0 0.00033898930908274799 -0.0022545096285387753 0 -4.063204560913901e-05 -0.0019630586423975125 0 0.00025140847502396098 -0.0016987573975716106 0 -4.063204560913901e-05 -0.0019630586423975125 0 -0.00012642654024237057 -0.00158077753375974 0 0.00025140847502396098 -0.0016987573975716106 0 -0.00042354622616620768 -0.0019492876077484437 0 -4.063204560913901e-05 -0.0019630586423975125 0 -0.00012642654024237057 -0.00158077753375974 0 -0.0004322655106453521 -0.0020062294506303954 0 0.00011622546700112453 -0.0011979850946183138 0 0.00020887952749185283 -0.0010287944625390608 0 0.00020551396468152574 -0.0011602668220013889 0 0.00017501528706061033 -0.0010549647238541574 0 0.00011949175451664796 -0.0013048937191196739 0 0.00011622546700112453 -0.0011979850946183138 0 0.0001681219943659306 -0.0012629618817361886 0 0.00020551396468152574 -0.0011602668220013889 0 0.00017501528706061033 -0.0010549647238541574 0 0.0001681219943659306 -0.0012629618817361886 0 -0.00012642654024237057 -0.00158077753375974 0 0.00025140847502396098 -0.0016987573975716106 0 0.0001681219943659306 -0.0012629618817361886 0 0.00022524157788945454 -0.0013635148593761743 0 0.00028061268802592195 -0.0015595799965607161 0 0.0001681219943659306 -0.0012629618817361886 0 0.00028061268802592195 -0.0015595799965607161 0 0.00025140847502396098 -0.0016987573975716106 0 0.00022524157788945454 -0.0013635148593761743 0 0.00028061268802592195 -0.0015595799965607161 0 0.00027233069408873553 -0.0016908141451154703 0 3.704422619250584e-05 -0.0019750348075658359 0 0.00027233069408873553 -0.0016908141451154703 0 0.0003693052278041055 -0.0014878541332541205 0 0.00067593454477604892 -0.0066469503123187173 0 0.0013803350476239793 -0.0078459472267009139 0 0.00028061268802592195 -0.0015595799965607161 0 0.00027233069408873553 -0.0016908141451154703 0 0.0003693052278041055 -0.0014878541332541205 0 0.0013803350476239793 -0.0078459472267009139 0 -0.00044923586151365352 -0.0012579466083577002 0 0.00028061268802592195 -0.0015595799965607161 0 0.0003693052278041055 -0.0014878541332541205 0 0.00025140847502396098 -0.0016987573975716106 0 -0.00040915357091621908 -0.019341984559302524 0 0.0004075704611135852 -0.019382576803643012 0 -0.00082228367255702444 -0.020119401217427287 0 -0.00040915357091621908 -0.019341984559302524 0 -0.0011023442206188909 -0.019273240512072361 0 -0.00010848786246941316 -0.018581023209396207 0 0.00052426430191531283 -0.017763943614978787 0 -6.760972065417587e-05 -0.018045761774424723 0 -0.00040915357091621908 -0.019341984559302524 0 0.0004075704611135852 -0.019382576803643012 0 -0.00010848786246941316 -0.018581023209396207 0 0.00082638933664356715 -0.015953036393422205 0 0.00096586319661387011 -0.016059595837329514 0 0.00081647587495142435 -0.016139334545019701 0 0.00082638933664356715 -0.015953036393422205 0 0.0006089874381661162 -0.016049387842514966 0 0.00081647587495142435 -0.016139334545019701 0 -6.760972065417587e-05 -0.018045761774424723 0 -0.00090219134774149467 -0.018578600100509986 0 -0.00082228367255702444 -0.020119401217427287 0 -0.002024948278866622 -0.019952178083955066 0 -0.0019637411275788127 -0.020756272501719845 0 -0.0022852771133564376 -0.020454133163887049 0 -0.0016638723397826272 -0.020103478230987737 0 -0.0020333443451577048 -0.019793856335957618 0 -0.0022852771133564376 -0.020454133163887049 0 -0.0020333443451577048 -0.019793856335957618 0 -0.0025098380750425359 -0.01991640685018941 0 -0.0021521220919808117 -0.020203643554620586 0 -0.0013503567244413752 -0.019665926078792268 0 -0.00040915357091621908 -0.019341984559302524 0 -0.00082228367255702444 -0.020119401217427287 0 -0.0011023442206188909 -0.019273240512072361 0 -0.00082228367255702444 -0.020119401217427287 0 -0.002024948278866622 -0.019952178083955066 0 -0.0011023442206188909 -0.019273240512072361 0 -0.0015564952053104958 -0.019486438292874747 0 -0.0020333443451577048 -0.019793856335957618 0 -0.0020065985460142673 -0.019218812460455311 0 -0.0016638723397826272 -0.020103478230987737 0 -0.0015564952053104958 -0.019486438292874747 0 -0.0020333443451577048 -0.019793856335957618 0 -0.0020333443451577048 -0.019793856335957618 0 -0.0020065985460142673 -0.019218812460455311 0 -0.0025098380750425359 -0.01991640685018941 0 -0.0020065985460142673 -0.019218812460455311 0 -0.0025098380750425359 -0.01991640685018941 0 -0.0024767494375036122 -0.019150155861045716 0 -0.0020065985460142673 -0.019218812460455311 0 -0.0024767494375036122 -0.019150155861045716 0 -0.0021158196497172406 -0.018794543215427839 0 -0.0020065985460142673 -0.019218812460455311 0 -0.0021158196497172406 -0.018794543215427839 0 -0.0016962173449132055 -0.018561035811981264 0 -0.0015564952053104958 -0.019486438292874747 0 -0.0020065985460142673 -0.019218812460455311 0 -0.001517094641110708 -0.018923810161749224 0 -0.0020065985460142673 -0.019218812460455311 0 -0.001517094641110708 -0.018923810161749224 0 -0.0016962173449132055 -0.018561035811981264 0 -0.001517094641110708 -0.018923810161749224 0 -0.00098069211258734203 -0.018945645217101303 0 -0.0012002658658149408 -0.018260953942706826 0 -0.00098069211258734203 -0.018945645217101303 0 -0.00019951315236717979 -0.018658056450881554 0 -0.0012002658658149408 -0.018260953942706826 0 -0.0015564952053104958 -0.019486438292874747 0 -0.001517094641110708 -0.018923810161749224 0 -0.00098069211258734203 -0.018945645217101303 0 -0.0015564952053104958 -0.019486438292874747 0 -0.00098069211258734203 -0.018945645217101303 0 -0.00091875989479257099 -0.019661482211767452 0 -0.0016638723397826272 -0.020103478230987737 0 -0.0015564952053104958 -0.019486438292874747 0 -0.00091875989479257099 -0.019661482211767452 0 -0.0013503567244413752 -0.019665926078792268 0 -0.00062349940624212969 -0.019220853043811856 0 -0.00010848786246941316 -0.018581023209396207 0 0.00071751443407604587 -0.018619287561824245 0 0.00092168154086617556 -0.017899547312503872 0 -0.00062349940624212969 -0.019220853043811856 0 0.00098122772871536137 -0.017771645831276904 0 0.0004075704611135852 -0.019382576803643012 0 -0.00010848786246941316 -0.018581023209396207 0 0.00071751443407604587 -0.018619287561824245 0 -0.00098069211258734203 -0.018945645217101303 0 -0.00091875989479257099 -0.019661482211767452 0 -0.00019951315236717979 -0.018658056450881554 0 0.0001911831894515461 -0.018977177105183908 0 -0.00019951315236717979 -0.018658056450881554 0 0.00032537035388531744 -0.017846638567390178 0 -0.00091875989479257099 -0.019661482211767452 0 0.00012444031543043854 -0.018973651728853371 0 -0.00019951315236717979 -0.018658056450881554 0 0.00098122772871536137 -0.017771645831276904 0 0.00046385833670247389 -0.018209809671204724 0 0.00098122772871536137 -0.017771645831276904 0 0.002009504213163065 -0.016847843319219208 0 0.0027108804125411121 -0.015917653587933362 0 0.0025972602981072586 -0.015865736613778436 0 0.0024702457907966277 -0.016087105811214183 0 0.0001911831894515461 -0.018977177105183908 0 0.0014289029151859894 -0.017770346046692972 0 0.00032537035388531744 -0.017846638567390178 0 0.0024895334602358216 -0.015873784349073505 0 0.0023703655438127437 -0.015843300867009562 0 0.0024702457907966277 -0.016087105811214183 0 0.0023703655438127437 -0.015843300867009562 0 0.002243140792272745 -0.015968067371785858 0 0.0024702457907966277 -0.016087105811214183 0 0.0024895334602358216 -0.015873784349073505 0 0.0025972602981072586 -0.015865736613778436 0 0.0024702457907966277 -0.016087105811214183 0 0.0024375048985684324 -0.015773922147629443 0 0.0024880273637677332 -0.015808088989863574 0 0.0023703655438127437 -0.015843300867009562 0 0.0024895334602358216 -0.015873784349073505 0 0.0024880273637677332 -0.015808088989863574 0 0.0023703655438127437 -0.015843300867009562 0 0.0024895334602358216 -0.015873784349073505 0 0.0024880273637677332 -0.015808088989863574 0 0.0025332620643739906 -0.015813967352854924 0 0.0024880273637677332 -0.015808088989863574 0 0.0025184878842567332 -0.015759150317803308 0 0.0025332620643739906 -0.015813967352854924 0 0.0024375048985684324 -0.015773922147629443 0 0.0024880273637677332 -0.015808088989863574 0 0.0025184878842567332 -0.015759150317803308 0 0.0023703655438127437 -0.015843300867009562 0 0.0024108634979758637 -0.015707419233907317 0 0.0022652655480977805 -0.015707298657055946 0 0.0024375048985684324 -0.015773922147629443 0 0.0023703655438127437 -0.015843300867009562 0 0.0024108634979758637 -0.015707419233907317 0 0.0024108634979758637 -0.015707419233907317 0 0.0025184878842567332 -0.015759150317803308 0 0.0025643669539290432 -0.015732621389311266 0 0.0024375048985684324 -0.015773922147629443 0 0.0024108634979758637 -0.015707419233907317 0 0.0025184878842567332 -0.015759150317803308 0 0.00071751443407604587 -0.018619287561824245 0 0.00092168154086617556 -0.017899547312503872 0 0.0016503315226006449 -0.018613232931965318 0 0.0004075704611135852 -0.019382576803643012 0 0.00071751443407604587 -0.018619287561824245 0 0.0016503315226006449 -0.018613232931965318 0 0.0020785467461288611 -0.016403272792939926 0 0.0016522038833794704 -0.016720144427716306 0 0.0027108804125411121 -0.015917653587933362 0 0.0025546813758089604 -0.015740177438995206 0 0.0025972602981072586 -0.015865736613778436 0 0.00098122772871536137 -0.017771645831276904 0 0.0016522038833794704 -0.016720144427716306 0 0.0024895334602358216 -0.015873784349073505 0 0.0025972602981072586 -0.015865736613778436 0 0.0025332620643739906 -0.015813967352854924 0 0.0025546813758089604 -0.015740177438995206 0 0.0025972602981072586 -0.015865736613778436 0 0.0025332620643739906 -0.015813967352854924 0 0.0025184878842567332 -0.015759150317803308 0 0.0025546813758089604 -0.015740177438995206 0 0.0025332620643739906 -0.015813967352854924 0 0.0020572852360503245 -0.01594724101466086 0 0.0020682852001523075 -0.015957343986834113 0 0.0020323600942872945 -0.015882660748899883 0 0.0020434407254796907 -0.016160920252861657 0 0.0023278707921408825 -0.014847417110967143 0 0.0020682852001523075 -0.015957343986834113 0 0.0020641918806892185 -0.015877610330586083 0 0.0020323600942872945 -0.015882660748899883 0 0.0020572852360503245 -0.01594724101466086 0 0.0020682852001523075 -0.015957343986834113 0 0.0020794817486620011 -0.016005246855645514 0 0.0020682852001523075 -0.015957343986834113 0 0.0021271612505655811 -0.015937704060670427 0 0.0020998437996521116 -0.016038402856038417 0 0.0020682852001523075 -0.015957343986834113 0 0.0020794817486620011 -0.016005246855645514 0 0.0020998437996521116 -0.016038402856038417 0 0.0020682852001523075 -0.015957343986834113 0 0.0020641918806892185 -0.015877610330586083 0 0.0021271612505655811 -0.015937704060670427 0 0.0021271612505655811 -0.015937704060670427 0 0.002243140792272745 -0.015968067371785858 0 0.0021884965442364014 -0.015837809644287364 0 0.0020641918806892185 -0.015877610330586083 0 0.0021271612505655811 -0.015937704060670427 0 0.0021884965442364014 -0.015837809644287364 0 0.0021271612505655811 -0.015937704060670427 0 0.002243140792272745 -0.015968067371785858 0 0.0020998437996521116 -0.016038402856038417 0 0.0023703655438127437 -0.015843300867009562 0 0.002243140792272745 -0.015968067371785858 0 0.0021884965442364014 -0.015837809644287364 0 0.0023703655438127437 -0.015843300867009562 0 0.0022652655480977805 -0.015707298657055946 0 0.0021884965442364014 -0.015837809644287364 0 0.0022652655480977805 -0.015707298657055946 0 0.0021884965442364014 -0.015837809644287364 0 0.0020732811697952262 -0.015657481808446564 0 0.0023278707921408825 -0.014847417110967143 0 0.0021807514416954327 -0.013332457055661068 0 0.0020732811697952262 -0.015657481808446564 0 0.0019167360915245 -0.015839706797038708 0 0.001952739486312033 -0.015461466240738856 0 0.0020641918806892185 -0.015877610330586083 0 0.0020732811697952262 -0.015657481808446564 0 0.0019167360915245 -0.015839706797038708 0 0.0020641918806892185 -0.015877610330586083 0 0.0021884965442364014 -0.015837809644287364 0 0.0020732811697952262 -0.015657481808446564 0 0.0021431037097381675 -0.015386715702534909 0 0.0023278707921408825 -0.014847417110967143 0 0.0022652655480977805 -0.015707298657055946 0 0.0020732811697952262 -0.015657481808446564 0 0.0023094048002522253 -0.015413625441987216 0 0.0020732811697952262 -0.015657481808446564 0 0.001952739486312033 -0.015461466240738856 0 0.0023094048002522253 -0.015413625441987216 0 0.0024108634979758637 -0.015707419233907317 0 0.0022652655480977805 -0.015707298657055946 0 0.0023094048002522253 -0.015413625441987216 0 0.0011244349239116452 -0.015997633723275857 0 0.0010986784275763474 -0.015950719265088995 0 0.0011214064456888913 -0.015971033074212954 0 0.0016857888932280114 -0.015805385728864481 0 0.0020152341387787379 -0.013908763266131057 0 0.0011244349239116452 -0.015997633723275857 0 0.0010881125493246012 -0.016019771799619938 0 0.0011214064456888913 -0.015971033074212954 0 0.0021741464095284099 -0.011576177653247132 0 0.00236368815757038 -0.011803622704041509 0 0.0024044110725238636 -0.011460754266375123 0 0.001952739486312033 -0.015461466240738856 0 0.0023094048002522253 -0.015413625441987216 0 0.0020036408284138298 -0.015070437120711291 0 0.0021807514416954327 -0.013332457055661068 0 0.0020152341387787379 -0.013908763266131057 0 0.00082638933664356715 -0.015953036393422205 0 0.0010181335156782187 -0.015968279506644718 0 0.00096586319661387011 -0.016059595837329514 0 0.00082638933664356715 -0.015953036393422205 0 0.001013762035178217 -0.015867490369669068 0 0.0010181335156782187 -0.015968279506644718 0 0.00052426430191531283 -0.017763943614978787 0 0.0016522038833794704 -0.016720144427716306 0 0.001013762035178217 -0.015867490369669068 0 0.0011244349239116452 -0.015997633723275857 0 0.0010181335156782187 -0.015968279506644718 0 0.0024108634979758637 -0.015707419233907317 0 0.0025643669539290432 -0.015732621389311266 0 0.0023094048002522253 -0.015413625441987216 0 0.0016522038833794704 -0.016720144427716306 0 0.0016857888932280114 -0.015805385728864481 0 0.0011244349239116452 -0.015997633723275857 0 0.0010181335156782187 -0.015968279506644718 0 0.0010881125493246012 -0.016019771799619938 0 0.0010881125493246012 -0.016019771799619938 0 0.0010593175859726195 -0.016113530120197631 0 0.00096586319661387011 -0.016059595837329514 0 0.0010881125493246012 -0.016019771799619938 0 0.0010593175859726195 -0.016113530120197631 0 0.0011893406119768519 -0.016119742645321157 0 0.0010459416684200776 -0.01597175741552901 0 0.0012763700497332826 -0.01618558825792089 0 0.00096586319661387011 -0.016059595837329514 0 0.00096853822834394446 -0.016172962682596367 0 0.00081647587495142435 -0.016139334545019701 0 0.0010181335156782187 -0.015968279506644718 0 0.0010881125493246012 -0.016019771799619938 0 0.00096586319661387011 -0.016059595837329514 0 0.0010593175859726195 -0.016113530120197631 0 0.00096586319661387011 -0.016059595837329514 0 0.00096853822834394446 -0.016172962682596367 0 0.00096853822834394446 -0.016172962682596367 0 0.001004048190526827 -0.016244708686946462 0 0.00087478554823664954 -0.016310950137032036 0 0.00096853822834394446 -0.016172962682596367 0 0.0010895906388978369 -0.016196378822339763 0 0.001004048190526827 -0.016244708686946462 0 0.0010593175859726195 -0.016113530120197631 0 0.0010895906388978369 -0.016196378822339763 0 0.0011893406119768519 -0.016119742645321157 0 0.0010593175859726195 -0.016113530120197631 0 0.00096853822834394446 -0.016172962682596367 0 0.0010895906388978369 -0.016196378822339763 0 0.0010895906388978369 -0.016196378822339763 0 0.001079842984436496 -0.016300182730234272 0 0.001004048190526827 -0.016244708686946462 0 0.0010895906388978369 -0.016196378822339763 0 0.001079842984436496 -0.016300182730234272 0 0.0011808236781053578 -0.016222144360361374 0 0.001079842984436496 -0.016300182730234272 0 0.001004048190526827 -0.016244708686946462 0 0.00087478554823664954 -0.016310950137032036 0 0.0012827316213491287 -0.016382103928975402 0 0.0010246228658548899 -0.016282148906546022 0 0.0014346049212024072 -0.01635972977073109 0 0.0014595128734032571 -0.016285332462467595 0 0.0012120834691292234 -0.016245222609413072 0 0.0022546864271800098 -0.011425204427146866 0 0.0021741464095284099 -0.011576177653247132 0 0.0024044110725238636 -0.011460754266375123 0 0.0022325263301531998 -0.011301497101786221 0 0.0023646137374135285 -0.011422000039241507 0 0.0024252131837284598 -0.011328624943629014 0 0.0022546864271800098 -0.011425204427146866 0 0.0022325263301531998 -0.011301497101786221 0 0.0023646137374135285 -0.011422000039241507 0 0.0022546864271800098 -0.011425204427146866 0 0.0023646137374135285 -0.011422000039241507 0 0.0024044110725238636 -0.011460754266375123 0 0.0010986784275763474 -0.015950719265088995 0 0.0011019169947190809 -0.015922244648862455 0 0.0011214064456888913 -0.015971033074212954 0 0.0020152341387787379 -0.013908763266131057 0 0.0013288051176746783 -0.014342031060054598 0 0.0023646137374135285 -0.011422000039241507 0 0.0024051826292389449 -0.011467612384245761 0 0.0024252131837284598 -0.011328624943629014 0 0.001758700652467743 -0.013271002764960564 0 0.0020152341387787379 -0.013908763266131057 0 0.0012787277337810501 -0.016197224061691794 0 0.0011893406119768519 -0.016119742645321157 0 0.0011808236781053578 -0.016222144360361374 0 0.0013288051176746783 -0.014342031060054598 0 0.0012763700497332826 -0.01618558825792089 0 0.0010895906388978369 -0.016196378822339763 0 0.0011893406119768519 -0.016119742645321157 0 0.0011808236781053578 -0.016222144360361374 0 0.001079842984436496 -0.016300182730234272 0 0.0011808236781053578 -0.016222144360361374 0 0.0012623959521852269 -0.016296243506300889 0 0.0012827316213491287 -0.016382103928975402 0 0.00074690058225570014 -0.015991934122047559 0 0.0014346049212024072 -0.01635972977073109 0 0.00063655382726653673 -0.016491168755723328 0 0.0010376219300234674 -0.016256120765104236 0 0.00063655382726653673 -0.016491168755723328 0 0.00075873603774005867 -0.016281125375414256 0 0.0010376219300234674 -0.016256120765104236 0 0.0012787277337810501 -0.016197224061691794 0 0.0011808236781053578 -0.016222144360361374 0 0.0012623959521852269 -0.016296243506300889 0 0.0011282989103645238 -0.014571478262002542 0 0.0011644899637116527 -0.01460806916984967 0 0.0011674840899636267 -0.014582880326221159 0 0.0021571924207294418 -0.011082541185165884 0 0.0022325263301531998 -0.011301497101786221 0 0.0024252131837284598 -0.011328624943629014 0 0.0012566316230925294 -0.013635838425274448 0 0.00074690058225570014 -0.015991934122047559 0 0.0012566316230925294 -0.013635838425274448 0 0.0013288051176746783 -0.014342031060054598 0 -0.00025319469137424484 -0.016464365378987461 0 0.00059931436818109205 -0.016530605224064056 0 0.00016202076177463222 -0.016245727393290652 0 0.0013288051176746783 -0.014342031060054598 0 0.00074690058225570014 -0.015991934122047559 0 0.00059931436818109205 -0.016530605224064056 0 0.00063211361597489404 -0.016356691547753825 0 0.00043354580031277538 -0.016219634748694447 0 0.00063655382726653673 -0.016491168755723328 0 0.00063211361597489404 -0.016356691547753825 0 0.00075873603774005867 -0.016281125375414256 0 0.00074690058225570014 -0.015991934122047559 0 0.00070830340753839395 -0.016184634697702174 0 -9.4832351535713871e-05 -0.015967294257063218 0 0.00015295468093854742 -0.015772234090316656 0 0.00027755777662631534 -0.016006858072187956 0 0.00015295468093854742 -0.015772234090316656 0 0.00027755777662631534 -0.016006858072187956 0 0.00042212977022294644 -0.015767887785132901 0 -9.4832351535713871e-05 -0.015967294257063218 0 0.00027755777662631534 -0.016006858072187956 0 0.00016202076177463222 -0.016245727393290652 0 0.00027755777662631534 -0.016006858072187956 0 0.00016202076177463222 -0.016245727393290652 0 0.00043354580031277538 -0.016219634748694447 0 0.00027755777662631534 -0.016006858072187956 0 0.00043354580031277538 -0.016219634748694447 0 0.00057571117465985561 -0.016018935156451853 0 0.00059931436818109205 -0.016530605224064056 0 0.00016202076177463222 -0.016245727393290652 0 0.00043354580031277538 -0.016219634748694447 0 0.00063211361597489404 -0.016356691547753825 0 0.00065110768868101212 -0.01619568288680277 0 0.00075873603774005867 -0.016281125375414256 0 0.00063211361597489404 -0.016356691547753825 0 0.00043354580031277538 -0.016219634748694447 0 0.00065110768868101212 -0.01619568288680277 0 0.00065110768868101212 -0.01619568288680277 0 0.00057571117465985561 -0.016018935156451853 0 0.00082650274704687511 -0.01610331717783996 0 0.00043354580031277538 -0.016219634748694447 0 0.00065110768868101212 -0.01619568288680277 0 0.00057571117465985561 -0.016018935156451853 0 0.00057571117465985561 -0.016018935156451853 0 0.00042212977022294644 -0.015767887785132901 0 0.00080427581455598009 -0.015825014820193196 0 0.00027755777662631534 -0.016006858072187956 0 0.00057571117465985561 -0.016018935156451853 0 0.00042212977022294644 -0.015767887785132901 0 0.00080427581455598009 -0.015825014820193196 0 0.0010960665728415584 -0.016060714229930637 0 0.0014007103384491946 -0.015926075861983014 0 0.00080427581455598009 -0.015825014820193196 0 0.00082650274704687511 -0.01610331717783996 0 0.0010960665728415584 -0.016060714229930637 0 0.00057571117465985561 -0.016018935156451853 0 0.00080427581455598009 -0.015825014820193196 0 0.00082650274704687511 -0.01610331717783996 0 0.00065110768868101212 -0.01619568288680277 0 0.00082650274704687511 -0.01610331717783996 0 0.00075873603774005867 -0.016281125375414256 0 0.00082650274704687511 -0.01610331717783996 0 0.00075873603774005867 -0.016281125375414256 0 0.0010376219300234674 -0.016256120765104236 0 0.0010376219300234674 -0.016256120765104236 0 0.0010960665728415584 -0.016060714229930637 0 0.001347388132591284 -0.016159056580325015 0 0.00082650274704687511 -0.01610331717783996 0 0.0010376219300234674 -0.016256120765104236 0 0.0010960665728415584 -0.016060714229930637 0 0.00080427581455598009 -0.015825014820193196 0 0.00082475661760743801 -0.015449053121554132 0 0.0014007103384491946 -0.015926075861983014 0 0.00082475661760743801 -0.015449053121554132 0 0.0014007103384491946 -0.015926075861983014 0 0.0010864647049211972 -0.015117970923942797 0 0.00082475661760743801 -0.015449053121554132 0 0.00057851032972791757 -0.015205980383666991 0 0.0010864647049211972 -0.015117970923942797 0 0.00080427581455598009 -0.015825014820193196 0 0.00082475661760743801 -0.015449053121554132 0 0.00049883336565883694 -0.015486306027746305 0 0.00042212977022294644 -0.015767887785132901 0 0.00080427581455598009 -0.015825014820193196 0 0.00049883336565883694 -0.015486306027746305 0 0.00042212977022294644 -0.015767887785132901 0 0.00049883336565883694 -0.015486306027746305 0 0.00020264567361714459 -0.015489517750555921 0 0.00082475661760743801 -0.015449053121554132 0 0.00049883336565883694 -0.015486306027746305 0 0.00057851032972791757 -0.015205980383666991 0 0.00049883336565883694 -0.015486306027746305 0 0.00057851032972791757 -0.015205980383666991 0 0.0002787524464263436 -0.015065500071834414 0 0.00049883336565883694 -0.015486306027746305 0 0.00020264567361714459 -0.015489517750555921 0 0.0002787524464263436 -0.015065500071834414 0 -8.9125808295753071e-06 -0.015246830789242917 0 0.00020264567361714459 -0.015489517750555921 0 0.0002787524464263436 -0.015065500071834414 0 -0.00010445262848205543 -0.014967951229926465 0 -8.9125808295753071e-06 -0.015246830789242917 0 0.0002787524464263436 -0.015065500071834414 0 -8.3142853990342809e-05 -0.015496050236608739 0 -8.9125808295753071e-06 -0.015246830789242917 0 0.00020264567361714459 -0.015489517750555921 0 0.00015295468093854742 -0.015772234090316656 0 0.00042212977022294644 -0.015767887785132901 0 0.00020264567361714459 -0.015489517750555921 0 -8.3142853990342809e-05 -0.015496050236608739 0 0.00015295468093854742 -0.015772234090316656 0 0.00020264567361714459 -0.015489517750555921 0 0.0014595128734032571 -0.016285332462467595 0 0.0012058599282607249 -0.016500328272377577 0 0.0012120834691292234 -0.016245222609413072 0 0.0014595128734032571 -0.016285332462467595 0 0.0011876244798111706 -0.016850800022759401 0 0.0012058599282607249 -0.016500328272377577 0 0.0014595128734032571 -0.016285332462467595 0 0.0014395683309151067 -0.016074327835376323 0 0.0014989555747338922 -0.016080824898968442 0 0.001442485132229863 -0.016307406107674588 0 0.0012886809598717393 -0.016480264715323833 0 0.0014346049212024072 -0.01635972977073109 0 0.0014595128734032571 -0.016285332462467595 0 0.001347388132591284 -0.016159056580325015 0 0.0014346049212024072 -0.01635972977073109 0 0.0010376219300234674 -0.016256120765104236 0 0.001347388132591284 -0.016159056580325015 0 0.0010960665728415584 -0.016060714229930637 0 0.001347388132591284 -0.016159056580325015 0 0.0014007103384491946 -0.015926075861983014 0 0.001347388132591284 -0.016159056580325015 0 0.0014395683309151067 -0.016074327835376323 0 0.0014007103384491946 -0.015926075861983014 0 0.0014595128734032571 -0.016285332462467595 0 0.001347388132591284 -0.016159056580325015 0 0.0014395683309151067 -0.016074327835376323 0 0.0014007103384491946 -0.015926075861983014 0 0.0010864647049211972 -0.015117970923942797 0 0.0018432406880549603 -0.015155811552872893 0 0.0014395683309151067 -0.016074327835376323 0 0.0014007103384491946 -0.015926075861983014 0 0.0014204393918939347 -0.015978602719826658 0 0.001430114921414377 -0.015902393430752854 0 0.001654431364321112 -0.015512016307038251 0 0.0014595128734032571 -0.016285332462467595 0 0.0014989555747338922 -0.016080824898968442 0 0.0014178140888248785 -0.016090970398951021 0 0.0014395683309151067 -0.016074327835376323 0 0.0014989555747338922 -0.016080824898968442 0 0.0014204393918939347 -0.015978602719826658 0 0.0014989555747338922 -0.016080824898968442 0 0.0014178140888248785 -0.016090970398951021 0 0.0014005743814064788 -0.016459239690474237 0 0.0011876244798111706 -0.016850800022759401 0 0.00078661697159667417 -0.016966536401365872 0 0.00092732536161794067 -0.016763459231941762 0 0.0011876244798111706 -0.016850800022759401 0 0.00092732536161794067 -0.016763459231941762 0 0.0010726981839069055 -0.016652236392211257 0 0.00078661697159667417 -0.016966536401365872 0 0.00092732536161794067 -0.016763459231941762 0 0.00072498850475107457 -0.016777048663851268 0 0.00078661697159667417 -0.016966536401365872 0 0.00072498850475107457 -0.016777048663851268 0 0.00060098251044581833 -0.016915777442536195 0 0.00076468806816413538 -0.01660397258369185 0 0.00099106174179607888 -0.016520473662195733 0 0.00065601489448066327 -0.016325920641985139 0 0.00072498850475107457 -0.016777048663851268 0 0.00076468806816413538 -0.01660397258369185 0 0.00054179623687621579 -0.016646240117963458 0 0.00092732536161794067 -0.016763459231941762 0 0.00076468806816413538 -0.01660397258369185 0 0.00099106174179607888 -0.016520473662195733 0 0.00092732536161794067 -0.016763459231941762 0 0.00072498850475107457 -0.016777048663851268 0 0.00076468806816413538 -0.01660397258369185 0 0.0012058599282607249 -0.016500328272377577 0 0.00099106174179607888 -0.016520473662195733 0 0.0012120834691292234 -0.016245222609413072 0 0.0011876244798111706 -0.016850800022759401 0 0.0012058599282607249 -0.016500328272377577 0 0.0010726981839069055 -0.016652236392211257 0 0.0012058599282607249 -0.016500328272377577 0 0.0010726981839069055 -0.016652236392211257 0 0.00099106174179607888 -0.016520473662195733 0 0.00092732536161794067 -0.016763459231941762 0 0.0010726981839069055 -0.016652236392211257 0 0.00099106174179607888 -0.016520473662195733 0 0.0010246228658548899 -0.016282148906546022 0 0.00068993884756091855 -0.016313837169704554 0 0.00099106174179607888 -0.016520473662195733 0 0.0012120834691292234 -0.016245222609413072 0 0.00065601489448066327 -0.016325920641985139 0 0.0006089874381661162 -0.016049387842514966 0 0.00065601489448066327 -0.016325920641985139 0 0.00081647587495142435 -0.016139334545019701 0 0.00096853822834394446 -0.016172962682596367 0 0.00087478554823664954 -0.016310950137032036 0 0.00081647587495142435 -0.016139334545019701 0 0.00087478554823664954 -0.016310950137032036 0 0.00065601489448066327 -0.016325920641985139 0 0.00081647587495142435 -0.016139334545019701 0 0.0006089874381661162 -0.016049387842514966 0 0.00065601489448066327 -0.016325920641985139 0 0.00031144572030484386 -0.016182685502723643 0 0.00065601489448066327 -0.016325920641985139 0 0.00025536856229598973 -0.016442596146500624 0 0.00054179623687621579 -0.016646240117963458 0 0.00065601489448066327 -0.016325920641985139 0 0.00031144572030484386 -0.016182685502723643 0 0.00025536856229598973 -0.016442596146500624 0 0.00025536856229598973 -0.016442596146500624 0 0.00033113864864308225 -0.016732944435562006 0 0.00054179623687621579 -0.016646240117963458 0 0.00025536856229598973 -0.016442596146500624 0 0.00033113864864308225 -0.016732944435562006 0 0.00014612716120131642 -0.01675576134074705 0 0.00033113864864308225 -0.016732944435562006 0 0.00023744781248827721 -0.016946506222526251 0 0.00014612716120131642 -0.01675576134074705 0 0.00076468806816413538 -0.01660397258369185 0 0.00065601489448066327 -0.016325920641985139 0 0.00054179623687621579 -0.016646240117963458 0 0.00033113864864308225 -0.016732944435562006 0 0.00054179623687621579 -0.016646240117963458 0 0.00043907848731988423 -0.01693560900792011 0 0.00072498850475107457 -0.016777048663851268 0 0.00054179623687621579 -0.016646240117963458 0 0.00060098251044581833 -0.016915777442536195 0 0.00054179623687621579 -0.016646240117963458 0 0.00043907848731988423 -0.01693560900792011 0 0.00060098251044581833 -0.016915777442536195 0 0.00043907848731988423 -0.01693560900792011 0 0.00060098251044581833 -0.016915777442536195 0 0.00059382038560497157 -0.017075240626699593 0 0.00078661697159667417 -0.016966536401365872 0 0.00060098251044581833 -0.016915777442536195 0 0.00059382038560497157 -0.017075240626699593 0 0.00033113864864308225 -0.016732944435562006 0 0.00043907848731988423 -0.01693560900792011 0 0.00023744781248827721 -0.016946506222526251 0 0.00043907848731988423 -0.01693560900792011 0 0.00023744781248827721 -0.016946506222526251 0 0.00030912359599911347 -0.017101475715444452 0 0.00023744781248827721 -0.016946506222526251 0 0.00030912359599911347 -0.017101475715444452 0 0.0001460569499892186 -0.017199679712133566 0 0.00030912359599911347 -0.017101475715444452 0 0.00025989091262535748 -0.017252060925863344 0 0.0001460569499892186 -0.017199679712133566 0 0.00043907848731988423 -0.01693560900792011 0 0.00030912359599911347 -0.017101475715444452 0 0.00043218291388547433 -0.01714614831536217 0 0.00030912359599911347 -0.017101475715444452 0 0.00025989091262535748 -0.017252060925863344 0 0.00043218291388547433 -0.01714614831536217 0 0.00037436457301721942 -0.017259915065803957 0 0.00025989091262535748 -0.017252060925863344 0 0.00043218291388547433 -0.01714614831536217 0 0.00037436457301721942 -0.017259915065803957 0 0.00025989091262535748 -0.017252060925863344 0 0.00027971764999464743 -0.017338865732764917 0 0.00025989091262535748 -0.017252060925863344 0 0.00027971764999464743 -0.017338865732764917 0 0.0001747477344572074 -0.017369272053742415 0 0.00027971764999464743 -0.017338865732764917 0 0.0001747477344572074 -0.017369272053742415 0 0.00019950130896144452 -0.017428858862475388 0 0.00037436457301721942 -0.017259915065803957 0 0.00027971764999464743 -0.017338865732764917 0 0.00037256678492920292 -0.017316975163632502 0 0.00037436457301721942 -0.017259915065803957 0 0.00037256678492920292 -0.017316975163632502 0 0.0004559841950266013 -0.01727722096723433 0 0.00037256678492920292 -0.017316975163632502 0 0.00044165379867093475 -0.017321855251340973 0 0.0004559841950266013 -0.01727722096723433 0 0.00027971764999464743 -0.017338865732764917 0 0.00037256678492920292 -0.017316975163632502 0 0.00031614726301413138 -0.017397126925834686 0 0.00037256678492920292 -0.017316975163632502 0 0.00031614726301413138 -0.017397126925834686 0 0.00044165379867093475 -0.017321855251340973 0 0.00031614726301413138 -0.017397126925834686 0 0.00042098003010227061 -0.017459212902126566 0 0.00044165379867093475 -0.017321855251340973 0 0.00054856708519568234 -0.017012585650373831 0 0.00039147993042867001 -0.016569298277699481 0 0.00031614726301413138 -0.017397126925834686 0 0.00034108305316023658 -0.017440074942713397 0 0.00027767814743886174 -0.017470342988127507 0 0.00027971764999464743 -0.017338865732764917 0 0.00031614726301413138 -0.017397126925834686 0 0.00019950130896144452 -0.017428858862475388 0 0.00031614726301413138 -0.017397126925834686 0 0.00027767814743886174 -0.017470342988127507 0 0.00019950130896144452 -0.017428858862475388 0 0.0004559841950266013 -0.01727722096723433 0 0.0005382711075922746 -0.017225247733372282 0 0.00054667936334798874 -0.017317490611269776 0 0.0005382711075922746 -0.017225247733372282 0 0.00080804278570218064 -0.017206590728860285 0 0.00054667936334798874 -0.017317490611269776 0 0.00041794281314803066 -0.017324972415599504 0 0.00044165379867093475 -0.017321855251340973 0 0.00054667936334798874 -0.017317490611269776 0 0.00044165379867093475 -0.017321855251340973 0 0.0004559841950266013 -0.01727722096723433 0 0.00054667936334798874 -0.017317490611269776 0 0.00039147993042867001 -0.016569298277699481 0 0.00033875823317688658 -0.017146198874600154 0 0.00037436457301721942 -0.017259915065803957 0 0.0004559841950266013 -0.01727722096723433 0 0.0005382711075922746 -0.017225247733372282 0 0.0005382711075922746 -0.017225247733372282 0 0.00059382038560497157 -0.017075240626699593 0 0.00080804278570218064 -0.017206590728860285 0 0.00037436457301721942 -0.017259915065803957 0 0.0005382711075922746 -0.017225247733372282 0 0.00043218291388547433 -0.01714614831536217 0 0.0005382711075922746 -0.017225247733372282 0 0.00043218291388547433 -0.01714614831536217 0 0.00059382038560497157 -0.017075240626699593 0 0.00043907848731988423 -0.01693560900792011 0 0.00043218291388547433 -0.01714614831536217 0 0.00059382038560497157 -0.017075240626699593 0 0.00078661697159667417 -0.016966536401365872 0 0.00059382038560497157 -0.017075240626699593 0 0.00080804278570218064 -0.017206590728860285 0 0.0011876244798111706 -0.016850800022759401 0 0.00078661697159667417 -0.016966536401365872 0 0.00080804278570218064 -0.017206590728860285 0 0.0014178140888248785 -0.016090970398951021 0 0.00090475610063791418 -0.016652601039072536 0 0.0014005743814064788 -0.016459239690474237 0 0.0012886809598717393 -0.016480264715323833 0 0.00086726077062911869 -0.016926550564353868 0 0.00090475610063791418 -0.016652601039072536 0 0.0014005743814064788 -0.016459239690474237 0 0.0012887369695865664 -0.01686588431733543 0 0.00090475610063791418 -0.016652601039072536 0 0.0012887369695865664 -0.01686588431733543 0 0.00095999710392640338 -0.017185514006097351 0 0.0012887369695865664 -0.01686588431733543 0 0.00095999710392640338 -0.017185514006097351 0 0.0014282891524203078 -0.017312098156003479 0 0.00086726077062911869 -0.016926550564353868 0 0.00057006109849581173 -0.017282748596350629 0 0.00090475610063791418 -0.016652601039072536 0 0.00095999710392640338 -0.017185514006097351 0 0.00054667936334798874 -0.017317490611269776 0 0.00095999710392640338 -0.017185514006097351 0 0.00070291526221926619 -0.017499003710584809 0 0.00054667936334798874 -0.017317490611269776 0 0.00095999710392640338 -0.017185514006097351 0 0.00070291526221926619 -0.017499003710584809 0 0.0010551300592275522 -0.017451311045876151 0 0.00095999710392640338 -0.017185514006097351 0 0.0010551300592275522 -0.017451311045876151 0 0.0014282891524203078 -0.017312098156003479 0 0.0010551300592275522 -0.017451311045876151 0 0.0011377639671201025 -0.017806486869833622 0 0.0014282891524203078 -0.017312098156003479 0 0.0012048745885979385 -0.014225588273165267 0 0.0019966899947318766 -0.016155082170141898 0 0.0030307188994331403 -0.013316629326534851 0 0.0024936197113309359 -0.014403983682530701 0 0.0022385030930228678 -0.013592729516190172 0 0.0030307188994331403 -0.013316629326534851 0 0.0022385030930228678 -0.013592729516190172 0 0.0023189895300193501 -0.012736353621964271 0 0.00070291526221926619 -0.017499003710584809 0 0.0010551300592275522 -0.017451311045876151 0 0.0011377639671201025 -0.017806486869833622 0 0.00027618282398295503 -0.015979880842143683 0 0.0012048745885979385 -0.014225588273165267 0 -1.8957191218202498e-05 -0.014268722569747944 0 -0.00015312623295486797 -0.0141126660465498 0 -3.4238672008221496e-05 -0.014117215801358893 0 -3.4238672008221496e-05 -0.014117215801358893 0 6.1932250110277774e-05 -0.01408062712547142 0 8.8339513298508579e-05 -0.014206229955637646 0 -1.8957191218202498e-05 -0.014268722569747944 0 -3.4238672008221496e-05 -0.014117215801358893 0 8.8339513298508579e-05 -0.014206229955637646 0 8.8339513298508579e-05 -0.014206229955637646 0 0.00019353302879651088 -0.014242587072412898 0 0.00010447539690875248 -0.014294596227880525 0 8.8339513298508579e-05 -0.014206229955637646 0 0.00013218430402032449 -0.014124440059564669 0 0.00019353302879651088 -0.014242587072412898 0 6.1932250110277774e-05 -0.01408062712547142 0 8.8339513298508579e-05 -0.014206229955637646 0 0.00013218430402032449 -0.014124440059564669 0 6.1932250110277774e-05 -0.01408062712547142 0 0.00013218430402032449 -0.014124440059564669 0 0.00011563478093294843 -0.014057871288635103 0 0.00025939440781391423 -0.015756487566991322 0 0.00023078826294420463 -0.01605124703947608 0 0.00023078826294420463 -0.01605124703947608 0 0.00047598901299728761 -0.018469886464657619 0 0.00028210588410070307 -0.017554350455455461 0 0.00026182591457812811 -0.017606684094648644 0 0.00021000502329756281 -0.017563077843825881 0 0.00013218430402032449 -0.014124440059564669 0 0.00019353302879651088 -0.014242587072412898 0 0.00020537496437590888 -0.01404115457690849 0 0.00053353639703673729 -0.019027717365525238 0 0.00045367804949979522 -0.018634835621303015 0 0.00041312367497874162 -0.018858722726196465 0 0.00034108305316023658 -0.017440074942713397 0 0.00028210588410070307 -0.017554350455455461 0 0.00027767814743886174 -0.017470342988127507 0 0.00039147993042867001 -0.016569298277699481 0 0.00025939440781391423 -0.015756487566991322 0 0.00028210588410070307 -0.017554350455455461 0 0.00022829295811451777 -0.017501173602547382 0 0.00027767814743886174 -0.017470342988127507 0 0.00028210588410070307 -0.017554350455455461 0 0.00022829295811451777 -0.017501173602547382 0 0.00021000502329756281 -0.017563077843825881 0 0.00022829295811451777 -0.017501173602547382 0 0.00027767814743886174 -0.017470342988127507 0 0.00019950130896144452 -0.017428858862475388 0 0.00041794281314803066 -0.017324972415599504 0 0.00070291526221926619 -0.017499003710584809 0 0.00054667936334798874 -0.017317490611269776 0 0.00016080567770983181 -0.014459399228915223 0 -1.8957191218202498e-05 -0.014268722569747944 0 0.00010447539690875248 -0.014294596227880525 0 0.00016080567770983181 -0.014459399228915223 0 0.00019353302879651088 -0.014242587072412898 0 0.00010447539690875248 -0.014294596227880525 0 0.00039147993042867001 -0.016569298277699481 0 0.00027618282398295503 -0.015979880842143683 0 -1.8957191218202498e-05 -0.014268722569747944 0 8.8339513298508579e-05 -0.014206229955637646 0 0.00010447539690875248 -0.014294596227880525 0 0.00019735702389324318 -0.014038972590556576 0 0.00067257250146009152 -0.013850941542936857 0 0.00030511179053611221 -0.01342408081108897 0 0.00019735702389324318 -0.014038972590556576 0 0.00067257250146009152 -0.013850941542936857 0 0.0004554960458992583 -0.014435786094239804 0 5.9554462612460205e-06 -0.014563848065746654 0 0.00019735702389324318 -0.014038972590556576 0 0.0004554960458992583 -0.014435786094239804 0 5.9554462612460205e-06 -0.014563848065746654 0 0.0002787524464263436 -0.015065500071834414 0 0.0004554960458992583 -0.014435786094239804 0 -0.00010445262848205543 -0.014967951229926465 0 5.9554462612460205e-06 -0.014563848065746654 0 0.0002787524464263436 -0.015065500071834414 0 0.00057851032972791757 -0.015205980383666991 0 0.0002787524464263436 -0.015065500071834414 0 0.00063983679285378866 -0.014832826775090758 0 0.0002787524464263436 -0.015065500071834414 0 0.00063983679285378866 -0.014832826775090758 0 0.0004554960458992583 -0.014435786094239804 0 0.00063983679285378866 -0.014832826775090758 0 0.0004554960458992583 -0.014435786094239804 0 0.00094791436524883921 -0.014643993776385719 0 0.00063983679285378866 -0.014832826775090758 0 0.00094791436524883921 -0.014643993776385719 0 0.0010864647049211972 -0.015117970923942797 0 0.00057851032972791757 -0.015205980383666991 0 0.00063983679285378866 -0.014832826775090758 0 0.0010864647049211972 -0.015117970923942797 0 0.00094791436524883921 -0.014643993776385719 0 0.0010244221790333581 -0.014218547427616744 0 0.0014665450071512072 -0.014610915980123715 0 0.00094791436524883921 -0.014643993776385719 0 0.0010864647049211972 -0.015117970923942797 0 0.0014665450071512072 -0.014610915980123715 0 0.00067257250146009152 -0.013850941542936857 0 0.0004554960458992583 -0.014435786094239804 0 0.0010244221790333581 -0.014218547427616744 0 0.0004554960458992583 -0.014435786094239804 0 0.00094791436524883921 -0.014643993776385719 0 0.0010244221790333581 -0.014218547427616744 0 0.00067257250146009152 -0.013850941542936857 0 0.0010244221790333581 -0.014218547427616744 0 0.0012424667508148541 -0.013591961668626536 0 0.0010244221790333581 -0.014218547427616744 0 0.0015721319081130523 -0.014074255568972528 0 0.0012424667508148541 -0.013591961668626536 0 0.0015721319081130523 -0.014074255568972528 0 0.0014665450071512072 -0.014610915980123715 0 0.0021662173142748776 -0.014490766443254753 0 0.0015721319081130523 -0.014074255568972528 0 0.0021662173142748776 -0.014490766443254753 0 0.0019740559778850405 -0.013483025351061504 0 0.0010244221790333581 -0.014218547427616744 0 0.0015721319081130523 -0.014074255568972528 0 0.0014665450071512072 -0.014610915980123715 0 0.0010864647049211972 -0.015117970923942797 0 0.0014665450071512072 -0.014610915980123715 0 0.0018432406880549603 -0.015155811552872893 0 0.0014665450071512072 -0.014610915980123715 0 0.0018432406880549603 -0.015155811552872893 0 0.0021662173142748776 -0.014490766443254753 0 0.0014989555747338922 -0.016080824898968442 0 0.0014005743814064788 -0.016459239690474237 0 0.0017372060310582313 -0.01669893469073298 0 0.0014989555747338922 -0.016080824898968442 0 0.0014204393918939347 -0.015978602719826658 0 0.0014907125802492919 -0.015846755132013696 0 0.0014005743814064788 -0.016459239690474237 0 0.0012887369695865664 -0.01686588431733543 0 0.0017372060310582313 -0.01669893469073298 0 0.0015024915885602172 -0.016361785784551799 0 0.0017935928836210703 -0.01561035403013475 0 0.001654431364321112 -0.015512016307038251 0 0.0017935928836210703 -0.01561035403013475 0 0.0017935928836210703 -0.01561035403013475 0 0.0019966899947318766 -0.016155082170141898 0 0.0017935928836210703 -0.01561035403013475 0 0.0018743619760533152 -0.013795226100125499 0 0.0019369839045196 -0.015507177673506308 0 0.0017519958650341228 -0.014341316985236781 0 0.0024936197113309359 -0.014403983682530701 0 0.0012887369695865664 -0.01686588431733543 0 0.0017372060310582313 -0.01669893469073298 0 0.0014282891524203078 -0.017312098156003479 0 0.0017519958650341228 -0.014341316985236781 0 0.0024936197113309359 -0.014403983682530701 0 0.0022385030930228678 -0.013592729516190172 0 0.0017519958650341228 -0.014341316985236781 0 0.0022385030930228678 -0.013592729516190172 0 0.0015907081476665423 -0.013184606231959172 0 0.0022385030930228678 -0.013592729516190172 0 0.0015907081476665423 -0.013184606231959172 0 0.0023189895300193501 -0.012736353621964271 0 0.0018743619760533152 -0.013795226100125499 0 0.0016706735980814836 -0.012905375495074227 0 0.0019740559778850405 -0.013483025351061504 0 0.0017403561531798026 -0.01256137233933608 0 0.0014969803938794698 -0.013073200639406259 0 0.0017403561531798026 -0.01256137233933608 0 0.0014969803938794698 -0.013073200639406259 0 0.0013296779020112661 -0.012629521199893043 0 0.0015721319081130523 -0.014074255568972528 0 0.0019740559778850405 -0.013483025351061504 0 0.0012424667508148541 -0.013591961668626536 0 0.0019740559778850405 -0.013483025351061504 0 0.0014969803938794698 -0.013073200639406259 0 0.0012424667508148541 -0.013591961668626536 0 0.00067257250146009152 -0.013850941542936857 0 0.0012424667508148541 -0.013591961668626536 0 0.00075427698938471035 -0.013340622075142645 0 0.0012424667508148541 -0.013591961668626536 0 0.00075427698938471035 -0.013340622075142645 0 0.00106307276842237 -0.013008176366922558 0 0.0014969803938794698 -0.013073200639406259 0 0.0012424667508148541 -0.013591961668626536 0 0.00106307276842237 -0.013008176366922558 0 0.0014969803938794698 -0.013073200639406259 0 0.00106307276842237 -0.013008176366922558 0 0.0013296779020112661 -0.012629521199893043 0 0.00106307276842237 -0.013008176366922558 0 0.0013296779020112661 -0.012629521199893043 0 0.00093583180891700579 -0.012641356556825661 0 0.00075427698938471035 -0.013340622075142645 0 0.00106307276842237 -0.013008176366922558 0 0.0004882821331850855 -0.012845436846360268 0 0.00106307276842237 -0.013008176366922558 0 0.00093583180891700579 -0.012641356556825661 0 0.0004882821331850855 -0.012845436846360268 0 -0.00011942445297926177 -0.012576566980201218 0 0.0004882821331850855 -0.012845436846360268 0 0.00025589529073286103 -0.012194467635282773 0 0.00093583180891700579 -0.012641356556825661 0 0.0004882821331850855 -0.012845436846360268 0 0.00072779110253136489 -0.012359143008541009 0 -0.00021091304484675233 -0.013102513688519028 0 0.0004882821331850855 -0.012845436846360268 0 0.00030511179053611221 -0.01342408081108897 0 0.00075427698938471035 -0.013340622075142645 0 0.0004882821331850855 -0.012845436846360268 0 0.00030511179053611221 -0.01342408081108897 0 0.00067257250146009152 -0.013850941542936857 0 0.00075427698938471035 -0.013340622075142645 0 0.00030511179053611221 -0.01342408081108897 0 -0.00012178004407146696 -0.01367917858027478 0 0.00019735702389324318 -0.014038972590556576 0 0.00030511179053611221 -0.01342408081108897 0 0.00011740433745432714 -0.010780318836347752 0 0.000895884048932629 -0.011523582627934868 0 0.00018424064871461673 -0.01153318306943134 0 0.000895884048932629 -0.011523582627934868 0 0.00081343545254750982 -0.011922973741754408 0 0.00018424064871461673 -0.01153318306943134 0 0.0004882821331850855 -0.012845436846360268 0 0.00025589529073286103 -0.012194467635282773 0 0.00072779110253136489 -0.012359143008541009 0 0.00081343545254750982 -0.011922973741754408 0 0.00018424064871461673 -0.01153318306943134 0 0.00025589529073286103 -0.012194467635282773 0 0.00081343545254750982 -0.011922973741754408 0 0.00025589529073286103 -0.012194467635282773 0 0.00072779110253136489 -0.012359143008541009 0 0.00081343545254750982 -0.011922973741754408 0 0.0011024017718898769 -0.012315013380303819 0 0.0012289440550428677 -0.012063512810991899 0 0.00081343545254750982 -0.011922973741754408 0 0.00072779110253136489 -0.012359143008541009 0 0.0011024017718898769 -0.012315013380303819 0 0.00093583180891700579 -0.012641356556825661 0 0.00072779110253136489 -0.012359143008541009 0 0.0011024017718898769 -0.012315013380303819 0 0.0013296779020112661 -0.012629521199893043 0 0.0011024017718898769 -0.012315013380303819 0 0.001471038478705253 -0.01227213361988717 0 0.0013296779020112661 -0.012629521199893043 0 0.00093583180891700579 -0.012641356556825661 0 0.0011024017718898769 -0.012315013380303819 0 0.0011024017718898769 -0.012315013380303819 0 0.0012289440550428677 -0.012063512810991899 0 0.001471038478705253 -0.01227213361988717 0 0.0012289440550428677 -0.012063512810991899 0 0.001363253744882684 -0.011870527952776103 0 0.0014284538891094379 -0.012093840085034786 0 0.000895884048932629 -0.011523582627934868 0 0.0012289440550428677 -0.012063512810991899 0 0.001363253744882684 -0.011870527952776103 0 0.000895884048932629 -0.011523582627934868 0 0.00081343545254750982 -0.011922973741754408 0 0.0012289440550428677 -0.012063512810991899 0 0.000895884048932629 -0.011523582627934868 0 0.001363253744882684 -0.011870527952776103 0 0.0011768761946959585 -0.011360710405819634 0 0.001363253744882684 -0.011870527952776103 0 0.0015114140350545359 -0.011994201648066383 0 0.0014306521603889252 -0.011738765160582714 0 0.0014659109674607759 -0.01200294704481151 0 0.0015114140350545359 -0.011994201648066383 0 0.0015323931968863318 -0.01207574095034372 0 0.001363253744882684 -0.011870527952776103 0 0.0014659109674607759 -0.01200294704481151 0 0.0015114140350545359 -0.011994201648066383 0 0.0015114140350545359 -0.011994201648066383 0 0.0016142228220985138 -0.012177330605823057 0 0.0015642646834339081 -0.012048359242634863 0 0.0015114140350545359 -0.011994201648066383 0 0.0016142228220985138 -0.012177330605823057 0 0.0015323931968863318 -0.01207574095034372 0 0.0015323931968863318 -0.01207574095034372 0 0.0016554511041430421 -0.012197349927698596 0 0.001765181142088466 -0.012546577982905736 0 0.0016142228220985138 -0.012177330605823057 0 0.0015323931968863318 -0.01207574095034372 0 0.0016554511041430421 -0.012197349927698596 0 0.0015323931968863318 -0.01207574095034372 0 0.0014284538891094379 -0.012093840085034786 0 0.001471038478705253 -0.01227213361988717 0 0.0014659109674607759 -0.01200294704481151 0 0.0015323931968863318 -0.01207574095034372 0 0.0014284538891094379 -0.012093840085034786 0 0.001363253744882684 -0.011870527952776103 0 0.0014659109674607759 -0.01200294704481151 0 0.0014284538891094379 -0.012093840085034786 0 0.0017403561531798026 -0.01256137233933608 0 0.0015323931968863318 -0.01207574095034372 0 0.001471038478705253 -0.01227213361988717 0 0.0015907081476665423 -0.013184606231959172 0 0.0015323931968863318 -0.01207574095034372 0 0.001765181142088466 -0.012546577982905736 0 0.0012289440550428677 -0.012063512810991899 0 0.0014284538891094379 -0.012093840085034786 0 0.001471038478705253 -0.01227213361988717 0 0.0016706735980814836 -0.012905375495074227 0 0.0015421629106302044 -0.012131479458979117 0 0.0017403561531798026 -0.01256137233933608 0 0.0013296779020112661 -0.012629521199893043 0 0.001471038478705253 -0.01227213361988717 0 0.0016554511041430421 -0.012197349927698596 0 0.001765181142088466 -0.012546577982905736 0 0.0023189895300193501 -0.012736353621964271 0 0.00170168420175432 -0.012242919338673438 0 0.001887370203243272 -0.012326043991236898 0 0.0015907081476665423 -0.013184606231959172 0 0.001765181142088466 -0.012546577982905736 0 0.0023189895300193501 -0.012736353621964271 0 0.0015221365334425953 -0.012111361979461699 0 0.0015741091559713992 -0.01233645014675217 0 0.0013145445300408178 -0.012388519881803209 0 0.0016554511041430421 -0.012197349927698596 0 0.0015221365334425953 -0.012111361979461699 0 0.0015741091559713992 -0.01233645014675217 0 0.0016142228220985138 -0.012177330605823057 0 0.0016554511041430421 -0.012197349927698596 0 0.0015741091559713992 -0.01233645014675217 0 0.0016142228220985138 -0.012177330605823057 0 0.0015741091559713992 -0.01233645014675217 0 0.001584839061407526 -0.012403289852852403 0 0.0016142228220985138 -0.012177330605823057 0 0.001584839061407526 -0.012403289852852403 0 0.0015982535276264794 -0.012257465081188629 0 0.0015741091559713992 -0.01233645014675217 0 0.0014895306676255369 -0.012677421341821335 0 0.0013145445300408178 -0.012388519881803209 0 0.0015741091559713992 -0.01233645014675217 0 0.0014895306676255369 -0.012677421341821335 0 0.001584839061407526 -0.012403289852852403 0 0.0014895306676255369 -0.012677421341821335 0 0.001584839061407526 -0.012403289852852403 0 0.0015885228253928196 -0.012501186326153591 0 0.0014895306676255369 -0.012677421341821335 0 0.0015885228253928196 -0.012501186326153591 0 0.0014841630009753666 -0.012893775516594952 0 0.0015982535276264794 -0.012257465081188629 0 0.0015885228253928196 -0.012501186326153591 0 0.0015764156894887678 -0.012041321827937223 0 0.001584839061407526 -0.012403289852852403 0 0.0015982535276264794 -0.012257465081188629 0 0.0015885228253928196 -0.012501186326153591 0 0.0015885228253928196 -0.012501186326153591 0 0.0016424925054706132 -0.012366657535279595 0 0.0015764156894887678 -0.012041321827937223 0 0.0015885228253928196 -0.012501186326153591 0 0.0014841630009753666 -0.012893775516594952 0 0.0016424925054706132 -0.012366657535279595 0 0.0014841630009753666 -0.012893775516594952 0 0.0016424925054706132 -0.012366657535279595 0 0.0012737929308212993 -0.013686526393946187 0 8.1120729720481526e-06 -0.012020578384162107 0 -1.2033435311806655e-07 -0.011721628031477778 0 -1.532138129412887e-07 -0.013525945960703131 0 0.00084539390230638407 -0.012197581414837799 0 0.00064325780644233354 -0.013680862297267952 0 0.00084539390230638407 -0.012197581414837799 0 0.00065728012437399959 -0.010829125144216795 0 0.0016424925054706132 -0.012366657535279595 0 0.0015764156894887678 -0.012041321827937223 0 0.0013102507243739573 -0.011131340190957358 0 8.1120729720481526e-06 -0.012020578384162107 0 -1.2033435311806655e-07 -0.011721628031477778 0 5.8854053619236461e-05 -0.010492369299478135 0 0.0015764156894887678 -0.012041321827937223 0 0.0014306521603889252 -0.011738765160582714 0 0.0013102507243739573 -0.011131340190957358 0 0.0015982535276264794 -0.012257465081188629 0 0.0015764156894887678 -0.012041321827937223 0 0.0015642646834339081 -0.012048359242634863 0 0.0016142228220985138 -0.012177330605823057 0 0.0015982535276264794 -0.012257465081188629 0 0.0015642646834339081 -0.012048359242634863 0 0.0015764156894887678 -0.012041321827937223 0 0.0015642646834339081 -0.012048359242634863 0 0.0014306521603889252 -0.011738765160582714 0 0.0015114140350545359 -0.011994201648066383 0 0.0015642646834339081 -0.012048359242634863 0 0.0014306521603889252 -0.011738765160582714 0 0.001363253744882684 -0.011870527952776103 0 0.0014306521603889252 -0.011738765160582714 0 0.0011768761946959585 -0.011360710405819634 0 0.000895884048932629 -0.011523582627934868 0 0.0011768761946959585 -0.011360710405819634 0 0.00081293345635096066 -0.010930125733556752 0 0.0011768761946959585 -0.011360710405819634 0 0.0013102507243739573 -0.011131340190957358 0 0.00081293345635096066 -0.010930125733556752 0 0.0014306521603889252 -0.011738765160582714 0 0.0011768761946959585 -0.011360710405819634 0 0.0013102507243739573 -0.011131340190957358 0 -1.2033435311806655e-07 -0.011721628031477778 0 1.0973653857749081e-06 -0.0099163685216687864 0 5.8854053619236461e-05 -0.010492369299478135 0 0.00065728012437399959 -0.010829125144216795 0 0.00020816348101691429 -0.010010026295876504 0 1.0973653857749081e-06 -0.0099163685216687864 0 5.8854053619236461e-05 -0.010492369299478135 0 0.0002110525626276688 -0.0097923880171628275 0 -1.6607875297676584e-06 -0.0081163761700426933 0 1.0973653857749081e-06 -0.0099163685216687864 0 0.0002110525626276688 -0.0097923880171628275 0 0.00011740433745432714 -0.010780318836347752 0 0.0002110525626276688 -0.0097923880171628275 0 0.00081293345635096066 -0.010930125733556752 0 0.0013102507243739573 -0.011131340190957358 0 0.0002110525626276688 -0.0097923880171628275 0 0.00081293345635096066 -0.010930125733556752 0 0.00011740433745432714 -0.010780318836347752 0 0.000895884048932629 -0.011523582627934868 0 0.00081293345635096066 -0.010930125733556752 0 5.4085215718060712e-05 -0.013928270034847333 0 4.5930203082303316e-05 -0.014012863487281783 0 0.00020145764527148606 -0.013903097236032733 0 -9.9856671776816877e-06 -0.013872703216436223 0 5.4085215718060712e-05 -0.013928270034847333 0 6.1174519978117754e-05 -0.013988196876313828 0 -9.9856671776816877e-06 -0.013872703216436223 0 5.4085215718060712e-05 -0.013928270034847333 0 4.5930203082303316e-05 -0.014012863487281783 0 -9.9856671776816877e-06 -0.013872703216436223 0 4.5930203082303316e-05 -0.014012863487281783 0 -0.0002246444955875468 -0.014198964790915293 0 -9.9856671776816877e-06 -0.013872703216436223 0 -0.00049328469556452099 -0.013869862347223599 0 -0.0002246444955875468 -0.014198964790915293 0 1.0700514246150079e-05 -0.017932568571356975 0 -0.00017851629002164121 -0.019910496861841175 0 0.00028803492856025413 -0.019381607114694714 0 -0.00015231489792015031 -0.01928452845659864 0 0.00013220890417682901 -0.019388369408252337 0 0.00028803492856025413 -0.019381607114694714 0 0.00034662602584908871 -0.019182088894523341 0 0.00049479368188557013 -0.019020159473640951 0 1.0700514246150079e-05 -0.017932568571356975 0 0.00023078826294420463 -0.01605124703947608 0 -0.00036118993479852877 -0.01316822522209396 0 0.00023078826294420463 -0.01605124703947608 0 -9.9856671776816877e-06 -0.013872703216436223 0 -0.00049328469556452099 -0.013869862347223599 0 -0.00035380795837739723 -0.013332754019470875 0 -9.9856671776816877e-06 -0.013872703216436223 0 0.00020537496437590888 -0.01404115457690849 0 6.1174519978117754e-05 -0.013988196876313828 0 0.00048432561923330707 -0.019062166585851033 0 0.00049479368188557013 -0.019020159473640951 0 0.00053353639703673729 -0.019027717365525238 0 1.0700514246150079e-05 -0.017932568571356975 0 0.00047127330570433709 -0.019465765898397359 0 0.00049479368188557013 -0.019020159473640951 0 0.00053353639703673729 -0.019027717365525238 0 0.00041312367497874162 -0.018858722726196465 0 0.00034662602584908871 -0.019182088894523341 0 0.00049479368188557013 -0.019020159473640951 0 0.0003284703356213838 -0.019063709728818767 0 0.00013218430402032449 -0.014124440059564669 0 0.00020537496437590888 -0.01404115457690849 0 0.00011563478093294843 -0.014057871288635103 0 0.00020537496437590888 -0.01404115457690849 0 0.00011563478093294843 -0.014057871288635103 0 6.1174519978117754e-05 -0.013988196876313828 0 6.1932250110277774e-05 -0.01408062712547142 0 0.00011563478093294843 -0.014057871288635103 0 6.1174519978117754e-05 -0.013988196876313828 0 5.4085215718060712e-05 -0.013928270034847333 0 6.1174519978117754e-05 -0.013988196876313828 0 2.54139630398467e-05 -0.014006401484550391 0 6.1932250110277774e-05 -0.01408062712547142 0 6.1174519978117754e-05 -0.013988196876313828 0 2.54139630398467e-05 -0.014006401484550391 0 -3.4238672008221496e-05 -0.014117215801358893 0 6.1932250110277774e-05 -0.01408062712547142 0 2.54139630398467e-05 -0.014006401484550391 0 0.0012048745885979385 -0.014225588273165267 0 0.00035590920422259284 -0.012979819499478832 0 -3.4238672008221496e-05 -0.014117215801358893 0 2.54139630398467e-05 -0.014006401484550391 0 -3.1837302135685882e-05 -0.013937565328397006 0 -0.00015312623295486797 -0.0141126660465498 0 -3.4238672008221496e-05 -0.014117215801358893 0 -3.1837302135685882e-05 -0.013937565328397006 0 5.4085215718060712e-05 -0.013928270034847333 0 2.54139630398467e-05 -0.014006401484550391 0 -3.1837302135685882e-05 -0.013937565328397006 0 0.0011113690397867332 -0.011756407923112397 0 0.0013145445300408178 -0.012388519881803209 0 0.00073971841569538989 -0.012346005800943064 0 0.0011113690397867332 -0.011756407923112397 0 0.0015221365334425953 -0.012111361979461699 0 0.0013145445300408178 -0.012388519881803209 0 0.0012048745885979385 -0.014225588273165267 0 0.001887370203243272 -0.012326043991236898 0 0.0013145445300408178 -0.012388519881803209 0 0.00073971841569538989 -0.012346005800943064 0 0.0012827403695569158 -0.012855860322338673 0 0.00073971841569538989 -0.012346005800943064 0 0.00093005286247177185 -0.013354547098184155 0 0.0012827403695569158 -0.012855860322338673 0 0.0014895306676255369 -0.012677421341821335 0 0.0013145445300408178 -0.012388519881803209 0 0.0012827403695569158 -0.012855860322338673 0 0.00073971841569538989 -0.012346005800943064 0 0.00093005286247177185 -0.013354547098184155 0 0.00020145764527148606 -0.013903097236032733 0 5.4085215718060712e-05 -0.013928270034847333 0 -3.1837302135685882e-05 -0.013937565328397006 0 0.00020145764527148606 -0.013903097236032733 0 0.00035590920422259284 -0.012979819499478832 0 0.00016775134254261182 -0.013891209130823718 0 0.00093005286247177185 -0.013354547098184155 0 0.000656131481401771 -0.014046349932817677 0 0.0010543037919459679 -0.013559075919829055 0 0.000656131481401771 -0.014046349932817677 0 0.00013374527993236608 -0.014533986155461639 0 0.00020145764527148606 -0.013903097236032733 0 0.00093005286247177185 -0.013354547098184155 0 0.000656131481401771 -0.014046349932817677 0 0.00020145764527148606 -0.013903097236032733 0 0.0014895306676255369 -0.012677421341821335 0 0.0012827403695569158 -0.012855860322338673 0 0.0013081480866997024 -0.013143092786778479 0 0.00093005286247177185 -0.013354547098184155 0 0.0012827403695569158 -0.012855860322338673 0 0.0013081480866997024 -0.013143092786778479 0 0.00093005286247177185 -0.013354547098184155 0 0.0010543037919459679 -0.013559075919829055 0 0.0013081480866997024 -0.013143092786778479 0 0.0010543037919459679 -0.013559075919829055 0 0.0013081480866997024 -0.013143092786778479 0 0.0012737929308212993 -0.013686526393946187 0 0.0014895306676255369 -0.012677421341821335 0 0.0014841630009753666 -0.012893775516594952 0 0.0013081480866997024 -0.013143092786778479 0 0.0014841630009753666 -0.012893775516594952 0 0.0013081480866997024 -0.013143092786778479 0 0.0012737929308212993 -0.013686526393946187 0 8.1120729720481526e-06 -0.012020578384162107 0 -1.532138129412887e-07 -0.013525945960703131 0 2.974679727276383e-05 -0.013646996374594728 0 -1.532138129412887e-07 -0.013525945960703131 0 2.974679727276383e-05 -0.013646996374594728 0 1.1911710394536844e-06 -0.015330615030561939 0 0.000656131481401771 -0.014046349932817677 0 0.0010543037919459679 -0.013559075919829055 0 0.0012737929308212993 -0.013686526393946187 0 2.974679727276383e-05 -0.013646996374594728 0 1.1911710394536844e-06 -0.015330615030561939 0 0.00011337489516363624 -0.015044011862731828 0 0.00064325780644233354 -0.013680862297267952 0 0.00014764939505887596 -0.014755704049791171 0 0.000656131481401771 -0.014046349932817677 0 0.0012737929308212993 -0.013686526393946187 0 0.00011337489516363624 -0.015044011862731828 0 0.000656131481401771 -0.014046349932817677 0 0.00011337489516363624 -0.015044011862731828 0 0.00013374527993236608 -0.014533986155461639 0 1.1911710394536844e-06 -0.015330615030561939 0 3.7448985953773457e-05 -0.0154749025211056 0 -2.3018126960259065e-06 -0.017132548678993019 0 1.1911710394536844e-06 -0.015330615030561939 0 3.7448985953773457e-05 -0.0154749025211056 0 0.00011337489516363624 -0.015044011862731828 0 3.7448985953773457e-05 -0.0154749025211056 0 -8.1193985924841381e-05 -0.014947866892269413 0 -0.00015751457135255938 -0.015759426616258392 0 3.7448985953773457e-05 -0.0154749025211056 0 0.00013374527993236608 -0.014533986155461639 0 -8.1193985924841381e-05 -0.014947866892269413 0 3.7448985953773457e-05 -0.0154749025211056 0 0.00011337489516363624 -0.015044011862731828 0 0.00013374527993236608 -0.014533986155461639 0 0.00013374527993236608 -0.014533986155461639 0 -2.6510794278914862e-05 -0.014333480976669628 0 0.00020145764527148606 -0.013903097236032733 0 0.00013374527993236608 -0.014533986155461639 0 -8.1193985924841381e-05 -0.014947866892269413 0 -2.6510794278914862e-05 -0.014333480976669628 0 -8.1193985924841381e-05 -0.014947866892269413 0 -2.6510794278914862e-05 -0.014333480976669628 0 -0.00027709817000050964 -0.014611289505451338 0 4.5930203082303316e-05 -0.014012863487281783 0 -2.6510794278914862e-05 -0.014333480976669628 0 -0.0002246444955875468 -0.014198964790915293 0 4.5930203082303316e-05 -0.014012863487281783 0 -2.6510794278914862e-05 -0.014333480976669628 0 0.00020145764527148606 -0.013903097236032733 0 -0.00049328469556452099 -0.013869862347223599 0 -0.0002246444955875468 -0.014198964790915293 0 -0.00081838966635730049 -0.014644828124558298 0 -0.00022039332052362467 -0.020144060580431829 0 -0.00015231489792015031 -0.01928452845659864 0 -0.00041242726440763233 -0.019123459053043346 0 1.0700514246150079e-05 -0.017932568571356975 0 -0.0005224318505181589 -0.016714335928588453 0 -2.6510794278914862e-05 -0.014333480976669628 0 -0.0002246444955875468 -0.014198964790915293 0 -0.00027709817000050964 -0.014611289505451338 0 -0.0002246444955875468 -0.014198964790915293 0 -0.00027709817000050964 -0.014611289505451338 0 -0.00081838966635730049 -0.014644828124558298 0 -0.00027709817000050964 -0.014611289505451338 0 -0.00030034554341091965 -0.014984684495559057 0 -0.00081838966635730049 -0.014644828124558298 0 -0.00030034554341091965 -0.014984684495559057 0 -0.00081838966635730049 -0.014644828124558298 0 -0.00015751457135255938 -0.015759426616258392 0 -8.1193985924841381e-05 -0.014947866892269413 0 -0.00027709817000050964 -0.014611289505451338 0 -0.00030034554341091965 -0.014984684495559057 0 -0.00015231489792015031 -0.01928452845659864 0 -0.00041242726440763233 -0.019123459053043346 0 2.8102303646783857e-05 -0.018943184638452078 0 -0.00081838966635730049 -0.014644828124558298 0 -0.00015751457135255938 -0.015759426616258392 0 -2.3018126960259065e-06 -0.017132548678993019 0 -0.0005224318505181589 -0.016714335928588453 0 -3.1871803730940468e-07 -0.017135432881483205 0 -0.00041242726440763233 -0.019123459053043346 0 -1.470867189561455e-06 -0.017138351737415344 0 2.8102303646783857e-05 -0.018943184638452078 0 -8.1193985924841381e-05 -0.014947866892269413 0 -0.00030034554341091965 -0.014984684495559057 0 -0.00015751457135255938 -0.015759426616258392 0 3.7448985953773457e-05 -0.0154749025211056 0 -0.00015751457135255938 -0.015759426616258392 0 -2.3018126960259065e-06 -0.017132548678993019 0 -1.470867189561455e-06 -0.017138351737415344 0 0.0001365428330926338 -0.018815126106886498 0 1.1472303002862135e-06 -0.019203560746539075 0 -1.470867189561455e-06 -0.017138351737415344 0 0.0001365428330926338 -0.018815126106886498 0 2.8102303646783857e-05 -0.018943184638452078 0 1.1472303002862135e-06 -0.019203560746539075 0 0.00014325079745366486 -0.019490326677018777 0 9.9036421940562505e-05 -0.020359099626173372 0 0.0001365428330926338 -0.018815126106886498 0 1.1472303002862135e-06 -0.019203560746539075 0 0.00014325079745366486 -0.019490326677018777 0 0.00014325079745366486 -0.019490326677018777 0 0.00015884812859123717 -0.019554015469469957 0 7.3873859159769657e-05 -0.019989664900528892 0 0.0001365428330926338 -0.018815126106886498 0 0.00014325079745366486 -0.019490326677018777 0 0.00016643094570081417 -0.01930066697784464 0 0.00014325079745366486 -0.019490326677018777 0 0.00015884812859123717 -0.019554015469469957 0 0.00016643094570081417 -0.01930066697784464 0 0.00015884812859123717 -0.019554015469469957 0 0.00011556571742351897 -0.019536659990539142 0 7.3873859159769657e-05 -0.019989664900528892 0 2.8102303646783857e-05 -0.018943184638452078 0 0.00016643094570081417 -0.01930066697784464 0 9.2908314374313676e-05 -0.019334271654707292 0 -0.00015231489792015031 -0.01928452845659864 0 2.8102303646783857e-05 -0.018943184638452078 0 9.2908314374313676e-05 -0.019334271654707292 0 0.0001365428330926338 -0.018815126106886498 0 2.8102303646783857e-05 -0.018943184638452078 0 0.00016643094570081417 -0.01930066697784464 0 0.00015884812859123717 -0.019554015469469957 0 0.00016643094570081417 -0.01930066697784464 0 0.00017859497022351711 -0.019434506925969212 0 0.00016643094570081417 -0.01930066697784464 0 9.2908314374313676e-05 -0.019334271654707292 0 0.00017859497022351711 -0.019434506925969212 0 -0.00015231489792015031 -0.01928452845659864 0 9.2908314374313676e-05 -0.019334271654707292 0 0.00013220890417682901 -0.019388369408252337 0 9.2908314374313676e-05 -0.019334271654707292 0 0.00013220890417682901 -0.019388369408252337 0 0.00017859497022351711 -0.019434506925969212 0 0.00013220890417682901 -0.019388369408252337 0 0.00020338367047427448 -0.019367826187623036 0 0.00017859497022351711 -0.019434506925969212 0 0.00028803492856025413 -0.019381607114694714 0 0.00013220890417682901 -0.019388369408252337 0 0.00020338367047427448 -0.019367826187623036 0 0.00028803492856025413 -0.019381607114694714 0 0.00020338367047427448 -0.019367826187623036 0 0.00026558279274454519 -0.01924509167949651 0 0.00020338367047427448 -0.019367826187623036 0 0.00018242211079931399 -0.01932460223102108 0 0.00026558279274454519 -0.01924509167949651 0 0.00020338367047427448 -0.019367826187623036 0 0.00018242211079931399 -0.01932460223102108 0 0.00017859497022351711 -0.019434506925969212 0 0.00018242211079931399 -0.01932460223102108 0 0.00017859497022351711 -0.019434506925969212 0 0.00011556571742351897 -0.019536659990539142 0 0.00015884812859123717 -0.019554015469469957 0 0.00017859497022351711 -0.019434506925969212 0 0.00011556571742351897 -0.019536659990539142 0 0.00011556571742351897 -0.019536659990539142 0 5.8839603632676515e-05 -0.019243197120699457 0 -8.6705109666955588e-05 -0.01939929062902316 0 0.00018242211079931399 -0.01932460223102108 0 0.00011556571742351897 -0.019536659990539142 0 5.8839603632676515e-05 -0.019243197120699457 0 0.00018242211079931399 -0.01932460223102108 0 5.8839603632676515e-05 -0.019243197120699457 0 0.00018930339087888643 -0.019148579484129 0 5.8839603632676515e-05 -0.019243197120699457 0 -0.00023130557839079295 -0.019047677622247541 0 6.4279682538424921e-05 -0.018916280772465748 0 5.8839603632676515e-05 -0.019243197120699457 0 0.00018930339087888643 -0.019148579484129 0 6.4279682538424921e-05 -0.018916280772465748 0 0.00018930339087888643 -0.019148579484129 0 0.00025078659668284329 -0.018952473433770264 0 6.4279682538424921e-05 -0.018916280772465748 0 0.0003284703356213838 -0.019063709728818767 0 0.00018930339087888643 -0.019148579484129 0 0.00025078659668284329 -0.018952473433770264 0 0.00049479368188557013 -0.019020159473640951 0 0.0003284703356213838 -0.019063709728818767 0 0.00041312367497874162 -0.018858722726196465 0 0.0003284703356213838 -0.019063709728818767 0 0.00025078659668284329 -0.018952473433770264 0 0.00041312367497874162 -0.018858722726196465 0 0.00028803492856025413 -0.019381607114694714 0 0.00034662602584908871 -0.019182088894523341 0 0.00026558279274454519 -0.01924509167949651 0 0.00034662602584908871 -0.019182088894523341 0 0.0003284703356213838 -0.019063709728818767 0 0.00026558279274454519 -0.01924509167949651 0 0.0003284703356213838 -0.019063709728818767 0 0.00026558279274454519 -0.01924509167949651 0 0.00018930339087888643 -0.019148579484129 0 0.00018242211079931399 -0.01932460223102108 0 0.00026558279274454519 -0.01924509167949651 0 0.00018930339087888643 -0.019148579484129 0 -9.491160333499347e-05 -0.019849572960851405 0 -0.00041925787822512373 -0.019844300294000649 0 -0.00043636566174867894 -0.019220712840158194 0 -0.00032100288433587409 -0.019547516116300408 0 -0.00066900563507872959 -0.018945706584427544 0 -0.00057581808254249548 -0.019261172964301247 0 -0.00090511501698531144 -0.018668526535989112 0 -0.00050264174101587373 -0.018793670817847816 0 -0.00057581808254249548 -0.019261172964301247 0 -0.00023130557839079295 -0.019047677622247541 0 -0.00050264174101587373 -0.018793670817847816 0 5.8839603632676515e-05 -0.019243197120699457 0 -0.00023130557839079295 -0.019047677622247541 0 -8.6705109666955588e-05 -0.01939929062902316 0 -0.00057581808254249548 -0.019261172964301247 0 -0.00023130557839079295 -0.019047677622247541 0 -8.6705109666955588e-05 -0.01939929062902316 0 -9.491160333499347e-05 -0.019849572960851405 0 -4.9541887471559239e-05 -0.020278267413968341 0 7.3873859159769657e-05 -0.019989664900528892 0 0.00011556571742351897 -0.019536659990539142 0 -8.6705109666955588e-05 -0.01939929062902316 0 7.3873859159769657e-05 -0.019989664900528892 0 -0.00057581808254249548 -0.019261172964301247 0 -8.6705109666955588e-05 -0.01939929062902316 0 7.3873859159769657e-05 -0.019989664900528892 0 -0.00032100288433587409 -0.019547516116300408 0 3.2792634302240392e-05 -0.019971683940546766 0 -9.491160333499347e-05 -0.019849572960851405 0 -0.00028500960944348604 -0.020088021194952725 0 -4.9541887471559239e-05 -0.020278267413968341 0 -9.491160333499347e-05 -0.019849572960851405 0 -0.00028500960944348604 -0.020088021194952725 0 -0.00041925787822512373 -0.019844300294000649 0 -4.9541887471559239e-05 -0.020278267413968341 0 9.9036421940562505e-05 -0.020359099626173372 0 -0.00013500052200643737 -0.021317705249473264 0 -0.00028500960944348604 -0.020088021194952725 0 -0.00046057913226195884 -0.020504885849176421 0 -4.9541887471559239e-05 -0.020278267413968341 0 -0.00046057913226195884 -0.020504885849176421 0 -4.9541887471559239e-05 -0.020278267413968341 0 -0.00013500052200643737 -0.021317705249473264 0 0.00014325079745366486 -0.019490326677018777 0 7.3873859159769657e-05 -0.019989664900528892 0 9.9036421940562505e-05 -0.020359099626173372 0 -4.9541887471559239e-05 -0.020278267413968341 0 7.3873859159769657e-05 -0.019989664900528892 0 9.9036421940562505e-05 -0.020359099626173372 0 1.1472303002862135e-06 -0.019203560746539075 0 9.9036421940562505e-05 -0.020359099626173372 0 -4.4382599452943556e-07 -0.021271933406946705 0 -4.4382599452943556e-07 -0.021271933406946705 0 -0.00013500052200643737 -0.021317705249473264 0 -2.7189252412156423e-05 -0.022481023321848217 0 9.9036421940562505e-05 -0.020359099626173372 0 -4.4382599452943556e-07 -0.021271933406946705 0 -0.00013500052200643737 -0.021317705249473264 0 -4.4382599452943556e-07 -0.021271933406946705 0 -2.7189252412156423e-05 -0.022481023321848217 0 2.8526607117182545e-07 -0.02333991396065754 0 -2.7189252412156423e-05 -0.022481023321848217 0 2.8526607117182545e-07 -0.02333991396065754 0 8.2053340454494046e-05 -0.023699551348486794 0 -0.00029996263846040621 -0.023361229542083299 0 -0.00054855495918701533 -0.023480138601705648 0 -0.00057778747457516396 -0.023216989736920327 0 -2.7189252412156423e-05 -0.022481023321848217 0 -1.0756645739460662e-05 -0.023162701398433589 0 8.2053340454494046e-05 -0.023699551348486794 0 -0.00057684457913482351 -0.021810328467065251 0 -0.00017881443262943552 -0.023602733894111969 0 -0.0004902890836128703 -0.019839308825220843 0 -0.00057684457913482351 -0.021810328467065251 0 -0.00018644560029760181 -0.021447544455818167 0 -0.00057684457913482351 -0.021810328467065251 0 -0.00028500960944348604 -0.020088021194952725 0 -0.00046057913226195884 -0.020504885849176421 0 -0.0015273048920403454 -0.020414238741251402 0 -0.00013500052200643737 -0.021317705249473264 0 -2.7189252412156423e-05 -0.022481023321848217 0 -1.0756645739460662e-05 -0.023162701398433589 0 -0.00046057913226195884 -0.020504885849176421 0 -0.00013500052200643737 -0.021317705249473264 0 -0.0015273048920403454 -0.020414238741251402 0 -0.00024367396723136084 -0.024963435601100207 0 0.00020320679623309911 -0.026537832984102575 0 -2.0952774473143689e-05 -0.025025161411312717 0 -3.4031984704507468e-05 -0.024932744794724945 0 1.1775340979786283e-05 -0.026688199668727177 0 -1.5648695054606334e-08 -0.025408170629471805 0 -2.0952774473143689e-05 -0.025025161411312717 0 1.1775340979786283e-05 -0.026688199668727177 0 -0.00021299580253297264 -0.024964368264610057 0 -0.00024367396723136084 -0.024963435601100207 0 2.8526607117182545e-07 -0.02333991396065754 0 -1.5648695054606334e-08 -0.025408170629471805 0 -2.0952774473143689e-05 -0.025025161411312717 0 2.8526607117182545e-07 -0.02333991396065754 0 -2.0952774473143689e-05 -0.025025161411312717 0 8.2053340454494046e-05 -0.023699551348486794 0 -2.0952774473143689e-05 -0.025025161411312717 0 -9.8412019862354863e-05 -0.02476190045023495 0 8.2053340454494046e-05 -0.023699551348486794 0 -0.00024367396723136084 -0.024963435601100207 0 -0.00017881443262943552 -0.023602733894111969 0 -0.00054855495918701533 -0.023480138601705648 0 -0.00083023819873907724 -0.023332452744535544 0 -0.00057778747457516396 -0.023216989736920327 0 -0.00080279388101686037 -0.023601284775750506 0 -0.00054855495918701533 -0.023480138601705648 0 -0.00083023819873907724 -0.023332452744535544 0 -0.00024367396723136084 -0.024963435601100207 0 -0.00015708392742861188 -0.024960580984621353 0 0.00050777212247197785 -0.026526248151330034 0 0.00049048539512412507 -0.02611473296937402 0 0.00012951010089752137 -0.026405512367721887 0 0.00049048539512412507 -0.02611473296937402 0 0.00012951010089752137 -0.026405512367721887 0 0.00015709075650853998 -0.026007539304072107 0 -0.00083023819873907724 -0.023332452744535544 0 -0.00085663203303803159 -0.023067438778303761 0 -0.00057778747457516396 -0.023216989736920327 0 0.00049048539512412507 -0.02611473296937402 0 0.00044823236769078202 -0.025658691788892664 0 0.00015709075650853998 -0.026007539304072107 0 -0.00015708392742861188 -0.024960580984621353 0 -0.00082501730215552504 -0.02302214935339154 0 -0.0017986527649469105 -0.019938858397255749 0 -0.0013560823240311652 -0.020173540736467006 0 -0.0014616476630454943 -0.019810901626491503 0 -0.00082501730215552504 -0.02302214935339154 0 -0.0011310785450766409 -0.021546647308729548 0 -0.0014616476630454943 -0.019810901626491503 0 -0.0018303536355963896 -0.019617670114380394 0 -0.0012119843049644495 -0.019534373079350267 0 -0.0014968503961291972 -0.021611434572826757 0 -0.0014147648945609511 -0.019098104285159026 0 -0.0012372094495298809 -0.023007124638810789 0 -0.0011873946544089041 -0.023510070201443193 0 -0.00039624866816351012 -0.023480826548045099 0 -0.0017986527649469105 -0.019938858397255749 0 -0.0014616476630454943 -0.019810901626491503 0 -0.0018303536355963896 -0.019617670114380394 0 -0.00082501730215552504 -0.02302214935339154 0 -0.0014968503961291972 -0.021611434572826757 0 -0.00028500960944348604 -0.020088021194952725 0 -0.00079231577525024272 -0.01985559254238186 0 -0.00041925787822512373 -0.019844300294000649 0 -0.00028500960944348604 -0.020088021194952725 0 -0.00088324945065900221 -0.020407201496912549 0 -0.00079231577525024272 -0.01985559254238186 0 -0.00088324945065900221 -0.020407201496912549 0 -0.0013560823240311652 -0.020173540736467006 0 -0.00079231577525024272 -0.01985559254238186 0 -0.0013560823240311652 -0.020173540736467006 0 -0.0014616476630454943 -0.019810901626491503 0 -0.00079231577525024272 -0.01985559254238186 0 -0.00057684457913482351 -0.021810328467065251 0 -0.0011310785450766409 -0.021546647308729548 0 -0.0014616476630454943 -0.019810901626491503 0 -0.0012119843049644495 -0.019534373079350267 0 -0.00079231577525024272 -0.01985559254238186 0 -0.0012119843049644495 -0.019534373079350267 0 -0.00079231577525024272 -0.01985559254238186 0 -0.00094497353362125482 -0.019073450142234379 0 -0.00079231577525024272 -0.01985559254238186 0 -0.00041925787822512373 -0.019844300294000649 0 -0.00043636566174867894 -0.019220712840158194 0 -0.00079231577525024272 -0.01985559254238186 0 -0.00043636566174867894 -0.019220712840158194 0 -0.00094497353362125482 -0.019073450142234379 0 -0.0012119843049644495 -0.019534373079350267 0 -0.00094497353362125482 -0.019073450142234379 0 -0.0015073675782714816 -0.018988935386845405 0 -0.00094497353362125482 -0.019073450142234379 0 -0.0014253545052051466 -0.018363004566015601 0 -0.00082570100138782147 -0.018514684727556931 0 -0.00094497353362125482 -0.019073450142234379 0 -0.0015073675782714816 -0.018988935386845405 0 -0.0014253545052051466 -0.018363004566015601 0 -0.00066900563507872959 -0.018945706584427544 0 -0.0009948743194384609 -0.01831578674578381 0 -0.00090511501698531144 -0.018668526535989112 0 -0.0011493205628251499 -0.018117889453059921 0 -0.00082604579021789987 -0.018188919883812972 0 -0.00043636566174867894 -0.019220712840158194 0 -0.00094497353362125482 -0.019073450142234379 0 -0.00082570100138782147 -0.018514684727556931 0 -0.00077216011857298491 -0.024359003311546727 0 -0.00077381288805513791 -0.024131610005898925 0 -0.0008828248912971106 -0.02423353310581268 0 -0.0020499166702457644 -0.019619932078304272 0 -0.0015073675782714816 -0.018988935386845405 0 -0.0021316816227323352 -0.018920781613016628 0 -0.0014968503961291972 -0.021611434572826757 0 -0.001470426460445155 -0.021493341443557079 0 -0.0020499166702457644 -0.019619932078304272 0 -0.0012119843049644495 -0.019534373079350267 0 -0.0015073675782714816 -0.018988935386845405 0 -0.0015073675782714816 -0.018988935386845405 0 -0.0021316816227323352 -0.018920781613016628 0 -0.0014253545052051466 -0.018363004566015601 0 -0.001470426460445155 -0.021493341443557079 0 -0.001229307429155317 -0.021555492726408942 0 -0.0021316816227323352 -0.018920781613016628 0 -0.0022160974550089049 -0.018227534495269333 0 -0.0014253545052051466 -0.018363004566015601 0 -0.0022160974550089049 -0.018227534495269333 0 -0.0014253545052051466 -0.018363004566015601 0 -0.0015317890189155661 -0.017755934487480533 0 -0.0014253545052051466 -0.018363004566015601 0 -0.0015317890189155661 -0.017755934487480533 0 -0.001342997889778785 -0.017747370752672326 0 -0.001229307429155317 -0.021555492726408942 0 -0.0011788434431357813 -0.022393209102469027 0 -0.001229307429155317 -0.021555492726408942 0 -0.0017860955817017852 -0.019000100286428061 0 -0.0016309092502309289 -0.020605119386975183 0 -0.0019593659085221406 -0.02078624188709751 0 -0.0015952955315618634 -0.02099117448249788 0 -0.0011493205628251499 -0.018117889453059921 0 -0.00089670602402084558 -0.017922184192037279 0 -0.0010801497168440464 -0.017758484074334432 0 -0.0011493205628251499 -0.018117889453059921 0 -0.00089670602402084558 -0.017922184192037279 0 -0.00082604579021789987 -0.018188919883812972 0 -0.0011493205628251499 -0.018117889453059921 0 -0.001342997889778785 -0.017747370752672326 0 -0.0010801497168440464 -0.017758484074334432 0 -0.0014253545052051466 -0.018363004566015601 0 -0.00082570100138782147 -0.018514684727556931 0 -0.001342997889778785 -0.017747370752672326 0 -0.0009948743194384609 -0.01831578674578381 0 -0.0013193829160395775 -0.017779892301547744 0 -0.0015317890189155661 -0.017755934487480533 0 -0.001342997889778785 -0.017747370752672326 0 -0.0010968901859253475 -0.017427841592125955 0 -0.0017860955817017852 -0.019000100286428061 0 -0.001665040359123023 -0.019234325161477807 0 -0.001342997889778785 -0.017747370752672326 0 -0.0010801497168440464 -0.017758484074334432 0 -0.0010968901859253475 -0.017427841592125955 0 -0.0010801497168440464 -0.017758484074334432 0 -0.00082257347414408473 -0.017634348860274585 0 -0.0010968901859253475 -0.017427841592125955 0 -0.00089670602402084558 -0.017922184192037279 0 -0.0010801497168440464 -0.017758484074334432 0 -0.00082257347414408473 -0.017634348860274585 0 -0.00082257347414408473 -0.017634348860274585 0 -0.00040021352790426805 -0.017615586345761179 0 -0.00050173486363108493 -0.017371106855525786 0 -0.00082257347414408473 -0.017634348860274585 0 -0.00057902211582523417 -0.017922782063074082 0 -0.00040021352790426805 -0.017615586345761179 0 -0.00089670602402084558 -0.017922184192037279 0 -0.00082257347414408473 -0.017634348860274585 0 -0.00057902211582523417 -0.017922782063074082 0 -0.00089670602402084558 -0.017922184192037279 0 -0.00057902211582523417 -0.017922782063074082 0 -0.00082604579021789987 -0.018188919883812972 0 -0.00057902211582523417 -0.017922782063074082 0 -0.00022461278270594098 -0.018080562393464967 0 -0.00053134015754227029 -0.018352358821630593 0 -0.00057902211582523417 -0.017922782063074082 0 -0.00022461278270594098 -0.018080562393464967 0 -0.00030409501287018815 -0.017778631493700816 0 -0.00057902211582523417 -0.017922782063074082 0 -0.00030409501287018815 -0.017778631493700816 0 -0.00040021352790426805 -0.017615586345761179 0 -0.00030409501287018815 -0.017778631493700816 0 -0.00040021352790426805 -0.017615586345761179 0 -6.9609429627217242e-05 -0.017521986846465554 0 -0.00040021352790426805 -0.017615586345761179 0 -0.00020456507468532561 -0.017443804810853888 0 -6.9609429627217242e-05 -0.017521986846465554 0 -0.00040021352790426805 -0.017615586345761179 0 -0.00020456507468532561 -0.017443804810853888 0 -0.00050173486363108493 -0.017371106855525786 0 -0.00020456507468532561 -0.017443804810853888 0 1.5677472718514482e-06 -0.017398110757971482 0 -0.00017598543765400164 -0.017289940876585485 0 1.5677472718514482e-06 -0.017398110757971482 0 -6.9609429627217242e-05 -0.017521986846465554 0 7.7020525861786127e-05 -0.017423261333016526 0 -0.00020456507468532561 -0.017443804810853888 0 1.5677472718514482e-06 -0.017398110757971482 0 -6.9609429627217242e-05 -0.017521986846465554 0 1.5677472718514482e-06 -0.017398110757971482 0 0.0001460569499892186 -0.017199679712133566 0 -1.6897115313783005e-05 -0.017127693825468433 0 1.5677472718514482e-06 -0.017398110757971482 0 0.0001460569499892186 -0.017199679712133566 0 0.00012957173371781086 -0.017331665555681733 0 1.5677472718514482e-06 -0.017398110757971482 0 0.00012957173371781086 -0.017331665555681733 0 7.7020525861786127e-05 -0.017423261333016526 0 0.00025989091262535748 -0.017252060925863344 0 0.00012957173371781086 -0.017331665555681733 0 0.0001747477344572074 -0.017369272053742415 0 0.00025989091262535748 -0.017252060925863344 0 0.0001460569499892186 -0.017199679712133566 0 0.00012957173371781086 -0.017331665555681733 0 0.0001747477344572074 -0.017369272053742415 0 7.7020525861786127e-05 -0.017423261333016526 0 0.00019950130896144452 -0.017428858862475388 0 0.00012957173371781086 -0.017331665555681733 0 0.0001747477344572074 -0.017369272053742415 0 7.7020525861786127e-05 -0.017423261333016526 0 7.7020525861786127e-05 -0.017423261333016526 0 9.1292784695535593e-05 -0.017469829827856293 0 0.00019950130896144452 -0.017428858862475388 0 0.00022829295811451777 -0.017501173602547382 0 9.1292784695535593e-05 -0.017469829827856293 0 0.00019950130896144452 -0.017428858862475388 0 -6.9609429627217242e-05 -0.017521986846465554 0 7.7020525861786127e-05 -0.017423261333016526 0 9.1292784695535593e-05 -0.017469829827856293 0 -0.00022461278270594098 -0.018080562393464967 0 -0.00030409501287018815 -0.017778631493700816 0 -6.9609429627217242e-05 -0.017521986846465554 0 -0.00022461278270594098 -0.018080562393464967 0 -6.9609429627217242e-05 -0.017521986846465554 0 0.00026725754720856825 -0.018121245498183922 0 -2.664684092254814e-05 -0.017556113467229458 0 0.00011976246487546845 -0.017714345839115655 0 -0.00022461278270594098 -0.018080562393464967 0 0.00026725754720856825 -0.018121245498183922 0 9.2413351973090848e-05 -0.018541479794053049 0 -0.00022461278270594098 -0.018080562393464967 0 9.2413351973090848e-05 -0.018541479794053049 0 -0.00026993123720748087 -0.018660358361346916 0 0.00026725754720856825 -0.018121245498183922 0 9.2413351973090848e-05 -0.018541479794053049 0 0.00045367804949979522 -0.018634835621303015 0 0.00011976246487546845 -0.017714345839115655 0 0.00047598901299728761 -0.018469886464657619 0 0.00022829295811451777 -0.017501173602547382 0 9.1292784695535593e-05 -0.017469829827856293 0 0.00021000502329756281 -0.017563077843825881 0 9.2413351973090848e-05 -0.018541479794053049 0 0.00045367804949979522 -0.018634835621303015 0 0.00026737897108082402 -0.018777616419439994 0 0.00045367804949979522 -0.018634835621303015 0 0.00026737897108082402 -0.018777616419439994 0 0.00041312367497874162 -0.018858722726196465 0 0.00026737897108082402 -0.018777616419439994 0 0.00025078659668284329 -0.018952473433770264 0 6.4279682538424921e-05 -0.018916280772465748 0 0.00026737897108082402 -0.018777616419439994 0 0.00025078659668284329 -0.018952473433770264 0 0.00041312367497874162 -0.018858722726196465 0 9.2413351973090848e-05 -0.018541479794053049 0 6.4279682538424921e-05 -0.018916280772465748 0 -0.00026993123720748087 -0.018660358361346916 0 9.2413351973090848e-05 -0.018541479794053049 0 0.00026737897108082402 -0.018777616419439994 0 6.4279682538424921e-05 -0.018916280772465748 0 -0.00023130557839079295 -0.019047677622247541 0 6.4279682538424921e-05 -0.018916280772465748 0 -0.00026993123720748087 -0.018660358361346916 0 -0.00023130557839079295 -0.019047677622247541 0 -0.00026993123720748087 -0.018660358361346916 0 -0.00050264174101587373 -0.018793670817847816 0 -0.00026993123720748087 -0.018660358361346916 0 -0.00050264174101587373 -0.018793670817847816 0 -0.00053134015754227029 -0.018352358821630593 0 -0.00090511501698531144 -0.018668526535989112 0 -0.00050264174101587373 -0.018793670817847816 0 -0.00053134015754227029 -0.018352358821630593 0 -0.00090511501698531144 -0.018668526535989112 0 -0.00082604579021789987 -0.018188919883812972 0 -0.00053134015754227029 -0.018352358821630593 0 -0.00057902211582523417 -0.017922782063074082 0 -0.00082604579021789987 -0.018188919883812972 0 -0.00053134015754227029 -0.018352358821630593 0 -0.00022461278270594098 -0.018080562393464967 0 -0.00026993123720748087 -0.018660358361346916 0 -0.00053134015754227029 -0.018352358821630593 0 6.3628073517137779e-05 -0.034737620619482164 0 1.3963893394985539e-05 -0.034779441093400733 0 6.4146873873750332e-05 -0.034826577599935953 0 1.4452092799998022e-06 -0.034998933800067848 0 -9.6047891158062187e-08 -0.035000656230793688 0 9.0510796360305142e-06 -0.034990076709674439 0 9.5007488661692918e-05 -0.034245143120735039 0 3.432642117667927e-05 -0.035016520876249117 0 -1.2045601045430881e-07 -0.034997925896265214 0 1.4452092799998022e-06 -0.034998933800067848 0 -9.6047891158062187e-08 -0.035000656230793688 0 5.3116860477839024e-05 -0.034324580762890654 0 9.5007488661692918e-05 -0.034245143120735039 0 9.5007488661692918e-05 -0.034245143120735039 0 6.8681725681682472e-05 -0.033470641052345394 0 -3.8932946547847643e-05 -0.032803339439654661 0 5.4043682702012128e-05 -0.032844360139650072 0 1.8253814508054597e-05 -0.032894343467294695 0 6.3628073517137779e-05 -0.034737620619482164 0 1.3963893394985539e-05 -0.034779441093400733 0 -5.0115130128332809e-05 -0.03473778602451208 0 1.3963893394985539e-05 -0.034779441093400733 0 -2.7105243573527981e-05 -0.034764903616796808 0 -5.0115130128332809e-05 -0.03473778602451208 0 1.3963893394985539e-05 -0.034779441093400733 0 -2.7105243573527981e-05 -0.034764903616796808 0 -1.058711469344221e-05 -0.034797576332281685 0 -3.8932946547847643e-05 -0.032803339439654661 0 5.4043682702012128e-05 -0.032844360139650072 0 -0.00016647234153440357 -0.032864335863631668 0 9.5007488661692918e-05 -0.034245143120735039 0 -8.498460270517777e-05 -0.033865075085346336 0 -1.2045601045430881e-07 -0.034997925896265214 0 -1.1821718611049516e-06 -0.03499675134209819 0 -2.7812385624969088e-07 -0.034986663201897063 0 -1.2045601045430881e-07 -0.034997925896265214 0 -9.6047891158062187e-08 -0.035000656230793688 0 -2.7812385624969088e-07 -0.034986663201897063 0 -9.6047891158062187e-08 -0.035000656230793688 0 -2.7812385624969088e-07 -0.034986663201897063 0 3.5010563108745576e-07 -0.034997405210933676 0 -0.00016647234153440357 -0.032864335863631668 0 -7.9715433806541628e-07 -0.034442697872617306 0 0.00017462891767361461 -0.033054044405967792 0 -8.498460270517777e-05 -0.033865075085346336 0 -2.9664514259043873e-08 -0.034445747133061158 0 -2.7812385624969088e-07 -0.034986663201897063 0 3.5010563108745576e-07 -0.034997405210933676 0 -5.5224924244110298e-07 -0.03444990807687192 0 -7.9715433806541628e-07 -0.034442697872617306 0 0.00017462891767361461 -0.033054044405967792 0 4.2871730033454296e-07 -0.032721059916448941 0 0.00017462891767361461 -0.033054044405967792 0 9.1708933663417816e-05 -0.032626838580258367 0 4.2871730033454296e-07 -0.032721059916448941 0 5.4043682702012128e-05 -0.032844360139650072 0 0.00017462891767361461 -0.033054044405967792 0 7.1247324392735226e-05 -0.032794813896717991 0 5.4043682702012128e-05 -0.032844360139650072 0 -0.00016647234153440357 -0.032864335863631668 0 0.00017462891767361461 -0.033054044405967792 0 7.1247324392735226e-05 -0.032794813896717991 0 -4.0631266339957526e-05 -0.032034199170332373 0 -0.00032572316239600776 -0.03289233041166157 0 0.00017462891767361461 -0.033054044405967792 0 7.1247324392735226e-05 -0.032794813896717991 0 9.1708933663417816e-05 -0.032626838580258367 0 7.1247324392735226e-05 -0.032794813896717991 0 9.1708933663417816e-05 -0.032626838580258367 0 -4.0631266339957526e-05 -0.032034199170332373 0 -4.0631266339957526e-05 -0.032034199170332373 0 4.2871730033454296e-07 -0.032721059916448941 0 1.7609219157160294e-07 -0.030995265843663106 0 9.1708933663417816e-05 -0.032626838580258367 0 -4.0631266339957526e-05 -0.032034199170332373 0 4.2871730033454296e-07 -0.032721059916448941 0 1.7609219157160294e-07 -0.030995265843663106 0 3.5832204879170471e-05 -0.031213047403503755 0 9.3992351811879966e-05 -0.030834919849539195 0 -4.0631266339957526e-05 -0.032034199170332373 0 1.7609219157160294e-07 -0.030995265843663106 0 3.5832204879170471e-05 -0.031213047403503755 0 -0.00015493129962546162 -0.032348212370628265 0 -5.7429193372209469e-05 -0.030798833025888896 0 -4.0631266339957526e-05 -0.032034199170332373 0 3.5832204879170471e-05 -0.031213047403503755 0 -4.9561166722382701e-05 -0.03063559597459721 0 3.5832204879170471e-05 -0.031213047403503755 0 -4.9561166722382701e-05 -0.03063559597459721 0 9.3992351811879966e-05 -0.030834919849539195 0 -5.428318056927263e-05 -0.031557822227233592 0 0.00022254379450622545 -0.031859131131995337 0 4.0887113255481941e-05 -0.032177907192951001 0 -5.7429193372209469e-05 -0.030798833025888896 0 0.00011343587986617265 -0.032428855917080363 0 5.4043682702012128e-05 -0.032844360139650072 0 -5.0501093025312141e-05 -0.032939683765549933 0 1.8253814508054597e-05 -0.032894343467294695 0 7.1247324392735226e-05 -0.032794813896717991 0 -0.00032572316239600776 -0.03289233041166157 0 -5.0501093025312141e-05 -0.032939683765549933 0 5.4043682702012128e-05 -0.032844360139650072 0 7.1247324392735226e-05 -0.032794813896717991 0 -5.0501093025312141e-05 -0.032939683765549933 0 0.00011343587986617265 -0.032428855917080363 0 6.8681725681682472e-05 -0.033470641052345394 0 -3.6688445624638947e-05 -0.034736237631147929 0 -8.3343192618915885e-05 -0.034701101095560995 0 -4.3162406849638748e-05 -0.034769029394848439 0 0.00022254379450622545 -0.031859131131995337 0 0.00049837737769471604 -0.032164835500296918 0 4.0887113255481941e-05 -0.032177907192951001 0 6.8681725681682472e-05 -0.033470641052345394 0 -1.8989021837889092e-05 -0.033475299335638559 0 -2.7105243573527981e-05 -0.034764903616796808 0 -3.6688445624638947e-05 -0.034736237631147929 0 -4.3162406849638748e-05 -0.034769029394848439 0 0.00031760827385173045 -0.034350473602235539 0 6.8681725681682472e-05 -0.033470641052345394 0 -8.3343192618915885e-05 -0.034701101095560995 0 -8.8246729534701091e-05 -0.034708493312013235 0 -4.3162406849638748e-05 -0.034769029394848439 0 -1.8989021837889092e-05 -0.033475299335638559 0 -0.0002345851469444019 -0.031034217154388245 0 -8.3343192618915885e-05 -0.034701101095560995 0 -0.0001007686750128421 -0.034669809925267803 0 -8.8246729534701091e-05 -0.034708493312013235 0 -5.428318056927263e-05 -0.031557822227233592 0 4.0887113255481941e-05 -0.032177907192951001 0 -0.0004143141163397719 -0.032193525583265561 0 -0.0001007686750128421 -0.034669809925267803 0 -0.00010449294505891093 -0.034668919078588017 0 -8.8246729534701091e-05 -0.034708493312013235 0 -0.0002345851469444019 -0.031034217154388245 0 -0.00048109133669926841 -0.032408824240698547 0 -4.7144633925550624e-05 -0.028767341025279808 0 -4.7799745680175675e-05 -0.02876136886902839 0 -4.1407640329410987e-05 -0.028754197080614378 0 -0.0002345851469444019 -0.031034217154388245 0 -0.00055070108820663417 -0.028209593449952056 0 -0.00069341673638336984 -0.029949563271490884 0 -0.00068661850658992892 -0.029979378779382702 0 -0.00062788952209719303 -0.029991354548040829 0 -0.00060978036630392478 -0.029963405290687192 0 -0.00069341673638336984 -0.029949563271490884 0 -0.00062788952209719303 -0.029991354548040829 0 -0.00073369627245995351 -0.027133989716559986 0 -0.00077355974778652514 -0.027195454520250205 0 -0.00070826372021405473 -0.027234145938289756 0 -0.00055070108820663417 -0.028209593449952056 0 -0.00083752739058250451 -0.028534721541433973 0 -4.7799745680175675e-05 -0.02876136886902839 0 -4.1407640329410987e-05 -0.028754197080614378 0 -3.550320642984944e-05 -0.028799321748335882 0 -5.7429193372209469e-05 -0.030798833025888896 0 -0.0002345851469444019 -0.031034217154388245 0 -6.4640727290594426e-05 -0.028766983229556033 0 -4.7144633925550624e-05 -0.028767341025279808 0 -4.1407640329410987e-05 -0.028754197080614378 0 -6.4640727290594426e-05 -0.028766983229556033 0 -4.1407640329410987e-05 -0.028754197080614378 0 -0.00011160640549367374 -0.028732877955425864 0 -5.7429193372209469e-05 -0.030798833025888896 0 -4.4157309868945896e-05 -0.029607506618023156 0 -4.1407640329410987e-05 -0.028754197080614378 0 -0.00011160640549367374 -0.028732877955425864 0 2.5124079660885997e-05 -0.028688988270770863 0 1.7609219157160294e-07 -0.030995265843663106 0 9.3992351811879966e-05 -0.030834919849539195 0 -7.3475906706052167e-08 -0.029269607731656891 0 -4.4157309868945896e-05 -0.029607506618023156 0 4.6215597673599533e-05 -0.029427843902285068 0 -7.3475906706052167e-08 -0.029269607731656891 0 -7.0091553712714043e-06 -0.029195306053586303 0 -2.7836818711217772e-07 -0.027546361515692112 0 9.3992351811879966e-05 -0.030834919849539195 0 -7.3475906706052167e-08 -0.029269607731656891 0 -7.0091553712714043e-06 -0.029195306053586303 0 -7.0091553712714043e-06 -0.029195306053586303 0 5.9068697129704174e-05 -0.028723439944872635 0 3.5421091133863055e-05 -0.028410173733130116 0 -0.00011160640549367374 -0.028732877955425864 0 -7.0091553712714043e-06 -0.029195306053586303 0 2.5124079660885997e-05 -0.028688988270770863 0 5.9068697129704174e-05 -0.028723439944872635 0 4.5949207327779046e-05 -0.028613333631851156 0 3.5421091133863055e-05 -0.028410173733130116 0 -7.0091553712714043e-06 -0.029195306053586303 0 5.9068697129704174e-05 -0.028723439944872635 0 2.5124079660885997e-05 -0.028688988270770863 0 5.9068697129704174e-05 -0.028723439944872635 0 4.5949207327779046e-05 -0.028613333631851156 0 2.5124079660885997e-05 -0.028688988270770863 0 -4.1407640329410987e-05 -0.028754197080614378 0 2.5124079660885997e-05 -0.028688988270770863 0 -3.550320642984944e-05 -0.028799321748335882 0 4.5949207327779046e-05 -0.028613333631851156 0 2.5124079660885997e-05 -0.028688988270770863 0 -3.550320642984944e-05 -0.028799321748335882 0 -0.00030727585000263542 -0.026683833625326364 0 -0.0001493537535140059 -0.027566230482759076 0 -0.00032217708383727565 -0.027417692129574133 0 -0.00035634044194191321 -0.027421024192381377 0 -0.00031282856466850555 -0.027579126509847722 0 4.5949207327779046e-05 -0.028613333631851156 0 -3.550320642984944e-05 -0.028799321748335882 0 -0.00015022539188536943 -0.028157255820490956 0 -0.00016148271517308729 -0.028130666575767956 0 -0.0001493537535140059 -0.027566230482759076 0 4.5949207327779046e-05 -0.028613333631851156 0 -0.00015022539188536943 -0.028157255820490956 0 3.5421091133863055e-05 -0.028410173733130116 0 -7.0091553712714043e-06 -0.029195306053586303 0 -2.7836818711217772e-07 -0.027546361515692112 0 3.5421091133863055e-05 -0.028410173733130116 0 -0.00015022539188536943 -0.028157255820490956 0 -2.7836818711217772e-07 -0.027546361515692112 0 3.5421091133863055e-05 -0.028410173733130116 0 -0.0001493537535140059 -0.027566230482759076 0 -3.3630870197801592e-07 -0.027544475480708559 0 -1.5648695054606334e-08 -0.025408170629471805 0 -5.5761310896745369e-07 -0.027542799050198803 0 1.1775340979786283e-05 -0.026688199668727177 0 0.00050777212247197785 -0.026526248151330034 0 1.1775340979786283e-05 -0.026688199668727177 0 0.00012951010089752137 -0.026405512367721887 0 -0.000166810264852529 -0.026960308861716322 0 -5.5761310896745369e-07 -0.027542799050198803 0 1.1775340979786283e-05 -0.026688199668727177 0 -0.000166810264852529 -0.026960308861716322 0 1.1775340979786283e-05 -0.026688199668727177 0 0.00012951010089752137 -0.026405512367721887 0 -0.00031528275516414775 -0.026076671063790701 0 -0.000166810264852529 -0.026960308861716322 0 0.00012951010089752137 -0.026405512367721887 0 -0.00031528275516414775 -0.026076671063790701 0 0.00012951010089752137 -0.026405512367721887 0 0.00015709075650853998 -0.026007539304072107 0 0.00044823236769078202 -0.025658691788892664 0 0.00015709075650853998 -0.026007539304072107 0 -3.7007086826226838e-05 -0.025693293647903112 0 -0.00031528275516414775 -0.026076671063790701 0 0.00015709075650853998 -0.026007539304072107 0 -3.7007086826226838e-05 -0.025693293647903112 0 -0.00030727585000263542 -0.026683833625326364 0 -0.00050263596952578222 -0.026298414789008604 0 -0.00032217708383727565 -0.027417692129574133 0 -0.00035634044194191321 -0.027421024192381377 0 -0.00033209873305505976 -0.02725751675027839 0 -0.00055070108820663417 -0.028209593449952056 0 -0.00016148271517308729 -0.028130666575767956 0 -0.00031528275516414775 -0.026076671063790701 0 -3.7007086826226838e-05 -0.025693293647903112 0 -0.00035381081092598698 -0.025350315853657115 0 -0.00039997731883981152 -0.027265501532399341 0 -0.00035634044194191321 -0.027421024192381377 0 -0.00033209873305505976 -0.02725751675027839 0 -0.00077355974778652514 -0.027195454520250205 0 -0.00089284006342364242 -0.027136014221798926 0 -0.00083749331592724663 -0.027231312293943308 0 -0.00055070108820663417 -0.028209593449952056 0 -0.00050263596952578222 -0.026298414789008604 0 -0.00073369627245995351 -0.027133989716559986 0 -0.00077355974778652514 -0.027195454520250205 0 -0.00089284006342364242 -0.027136014221798926 0 -0.00050263596952578222 -0.026298414789008604 0 -0.00039565957924293137 -0.025024916685417089 0 -0.00089284006342364242 -0.027136014221798926 0 -0.00089054091343325817 -0.027200247807652855 0 -0.00083749331592724663 -0.027231312293943308 0 -0.00050263596952578222 -0.026298414789008604 0 -0.00076326222946402342 -0.025662428871489073 0 -0.00039565957924293137 -0.025024916685417089 0 -0.00076326222946402342 -0.025662428871489073 0 -0.00095469699056657136 -0.024381142214081185 0 -0.0010125478324161806 -0.024353028856080733 0 -0.001013827490121496 -0.024336652205730891 0 -0.00040632004892889235 -0.025558939512874863 0 -0.00055123897382450564 -0.025564978545420728 0 -0.000402489404964804 -0.025648458198332627 0 -0.0014968503961291972 -0.021611434572826757 0 -0.00039565957924293137 -0.025024916685417089 0 0.00044823236769078202 -0.025658691788892664 0 -3.7007086826226838e-05 -0.025693293647903112 0 -0.00015062542117762797 -0.025336494991940666 0 -0.00077216011857298491 -0.024359003311546727 0 -0.00095469699056657136 -0.024381142214081185 0 -0.00088696072686048945 -0.024319105072055043 0 -0.00082501730215552504 -0.02302214935339154 0 -0.00039565957924293137 -0.025024916685417089 0 -3.7007086826226838e-05 -0.025693293647903112 0 -0.00035381081092598698 -0.025350315853657115 0 -0.00015062542117762797 -0.025336494991940666 0 -0.00095469699056657136 -0.024381142214081185 0 -0.00088696072686048945 -0.024319105072055043 0 -0.001013827490121496 -0.024336652205730891 0 -0.00098044908376947312 -0.024273679390598064 0 -0.00088696072686048945 -0.024319105072055043 0 -0.0010675280305223692 -0.024354891780570462 0 -0.00096625686431579783 -0.024373944561519232 0 -0.00082824445157575922 -0.025257389542462528 0 -0.00098044908376947312 -0.024273679390598064 0 -0.0008828248912971106 -0.02423353310581268 0 -0.00094810070508343121 -0.024172326632151186 0 -0.00098044908376947312 -0.024273679390598064 0 -0.001031065396427994 -0.024248518867430763 0 -0.00094810070508343121 -0.024172326632151186 0 -0.00077216011857298491 -0.024359003311546727 0 -0.0008828248912971106 -0.02423353310581268 0 -0.00088696072686048945 -0.024319105072055043 0 -0.00098044908376947312 -0.024273679390598064 0 -0.0008828248912971106 -0.02423353310581268 0 -0.00088696072686048945 -0.024319105072055043 0 -0.00098044908376947312 -0.024273679390598064 0 -0.0010675280305223692 -0.024354891780570462 0 -0.0010702926717117045 -0.024308957840968527 0 -0.0010652663427580982 -0.02436687851943032 0 -0.0010702926717117045 -0.024308957840968527 0 -0.001111124197463338 -0.024367742701932638 0 -0.00076326222946402342 -0.025662428871489073 0 -0.00082824445157575922 -0.025257389542462528 0 -0.00076326222946402342 -0.025662428871489073 0 -0.0010017184586195056 -0.02609581275365137 0 -0.001132813154166559 -0.02566360514695026 0 -0.0011245109265455725 -0.025848928309437087 0 -0.00080892655508999801 -0.025842117397554733 0 -0.00082824445157575922 -0.025257389542462528 0 -0.0010017184586195056 -0.02609581275365137 0 -0.00082824445157575922 -0.025257389542462528 0 -0.00088307989481127775 -0.024784569957036231 0 -0.001111124197463338 -0.024367742701932638 0 -0.0011310561859735112 -0.024249666827653806 0 -0.0012316908806257443 -0.024311968546189906 0 -0.0010017184586195056 -0.02609581275365137 0 -0.00083752739058250451 -0.028534721541433973 0 -0.0010017184586195056 -0.02609581275365137 0 -0.0012421383323170134 -0.027757252434871666 0 -0.0010702926717117045 -0.024308957840968527 0 -0.001111124197463338 -0.024367742701932638 0 -0.0011310561859735112 -0.024249666827653806 0 -0.00077355974778652514 -0.027195454520250205 0 -0.00083749331592724663 -0.027231312293943308 0 -0.00070826372021405473 -0.027234145938289756 0 -0.0010702926717117045 -0.024308957840968527 0 -0.0011310561859735112 -0.024249666827653806 0 -0.001031065396427994 -0.024248518867430763 0 -0.001031065396427994 -0.024248518867430763 0 -0.001060026440756927 -0.024195931420240391 0 -0.00094810070508343121 -0.024172326632151186 0 -0.0011310561859735112 -0.024249666827653806 0 -0.001031065396427994 -0.024248518867430763 0 -0.001060026440756927 -0.024195931420240391 0 -0.00098044908376947312 -0.024273679390598064 0 -0.0010702926717117045 -0.024308957840968527 0 -0.001031065396427994 -0.024248518867430763 0 -0.001060026440756927 -0.024195931420240391 0 -0.0011439036850724477 -0.024137048392788685 0 -0.00097660784069169833 -0.023986252716238717 0 -0.0011439036850724477 -0.024137048392788685 0 -0.00097065213148711516 -0.024049125208513267 0 -0.001187319172930062 -0.024029307669169168 0 -0.0011310561859735112 -0.024249666827653806 0 -0.0011439036850724477 -0.024137048392788685 0 -0.0012653162372942177 -0.024184635877456024 0 -0.0011310561859735112 -0.024249666827653806 0 -0.001060026440756927 -0.024195931420240391 0 -0.0011439036850724477 -0.024137048392788685 0 -0.0010807435772580509 -0.024093077186547344 0 -0.0010861597545243481 -0.024111853635169732 0 -0.00077381288805513791 -0.024131610005898925 0 -0.00079384258667237193 -0.023846551179219098 0 -0.00097660784069169833 -0.023986252716238717 0 -0.001060026440756927 -0.024195931420240391 0 -0.00094810070508343121 -0.024172326632151186 0 -0.00097660784069169833 -0.023986252716238717 0 -0.00077381288805513791 -0.024131610005898925 0 -0.00094810070508343121 -0.024172326632151186 0 -0.00097660784069169833 -0.023986252716238717 0 -0.00077381288805513791 -0.024131610005898925 0 -0.0008828248912971106 -0.02423353310581268 0 -0.00094810070508343121 -0.024172326632151186 0 -0.00097065213148711516 -0.024049125208513267 0 -0.00090922878911712797 -0.023730354949056447 0 -0.0011149519442274053 -0.023877811276870008 0 -0.001229307429155317 -0.021555492726408942 0 -0.0010861597545243481 -0.024111853635169732 0 -0.00073585746339318355 -0.023907066686705 0 -0.00097065213148711516 -0.024049125208513267 0 -0.00090922878911712797 -0.023730354949056447 0 -0.00090922878911712797 -0.023730354949056447 0 -0.0011000864147493021 -0.023619494584755214 0 -0.0007815953473653774 -0.023482336572757709 0 -0.00073585746339318355 -0.023907066686705 0 -0.00090922878911712797 -0.023730354949056447 0 -0.0007815953473653774 -0.023482336572757709 0 -0.0011000864147493021 -0.023619494584755214 0 -0.0011149519442274053 -0.023877811276870008 0 -0.001322216048709444 -0.023616688198656761 0 -0.00090922878911712797 -0.023730354949056447 0 -0.0011000864147493021 -0.023619494584755214 0 -0.0011149519442274053 -0.023877811276870008 0 -0.0011912159706049842 -0.024059379030338023 0 -0.00089139145463561404 -0.023750204431929215 0 -0.00097065213148711516 -0.024049125208513267 0 -0.0011149519442274053 -0.023877811276870008 0 -0.001187319172930062 -0.024029307669169168 0 -0.00077207908836319128 -0.029637411950547938 0 -0.0009018977735725434 -0.028423003777859904 0 -0.0011149519442274053 -0.023877811276870008 0 -0.0012509207142540404 -0.024265269161570496 0 -0.0015795075394193522 -0.023915028657747077 0 -0.0012509207142540404 -0.024265269161570496 0 -0.0015795075394193522 -0.023915028657747077 0 -0.0014497920411498065 -0.024647313011281667 0 -0.0011149519442274053 -0.023877811276870008 0 -0.0015795075394193522 -0.023915028657747077 0 -0.001322216048709444 -0.023616688198656761 0 -0.0015795075394193522 -0.023915028657747077 0 -0.001322216048709444 -0.023616688198656761 0 -0.0016074957279385369 -0.02336042172630488 0 -6.6033139629079088e-05 -0.034786060305929997 0 -4.1306654831038718e-05 -0.034819246150015276 0 -1.4092431553696693e-05 -0.034855526665695899 0 -0.00077207908836319128 -0.029637411950547938 0 -0.00081556264238819909 -0.029023232686487474 0 -6.6033139629079088e-05 -0.034786060305929997 0 -1.4092431553696693e-05 -0.034855526665695899 0 -3.2662862490353547e-06 -0.034807214179033083 0 -6.6033139629079088e-05 -0.034786060305929997 0 -5.8508588219660104e-05 -0.034789262932739116 0 -4.1306654831038718e-05 -0.034819246150015276 0 -6.6033139629079088e-05 -0.034786060305929997 0 -5.8508588219660104e-05 -0.034789262932739116 0 -0.00010150088806529445 -0.034724685231994658 0 -7.0640157411853275e-05 -0.034761891326327649 0 -0.00010150088806529445 -0.034724685231994658 0 -8.5792513872406928e-05 -0.034733098200142726 0 -5.8508588219660104e-05 -0.034789262932739116 0 -7.0640157411853275e-05 -0.034761891326327649 0 -5.7978048763027321e-05 -0.034787990975395561 0 -5.8508588219660104e-05 -0.034789262932739116 0 -7.0640157411853275e-05 -0.034761891326327649 0 -0.00010150088806529445 -0.034724685231994658 0 -7.0640157411853275e-05 -0.034761891326327649 0 -7.0750977562453537e-05 -0.034757110063993749 0 -5.7978048763027321e-05 -0.034787990975395561 0 -7.0640157411853275e-05 -0.034761891326327649 0 -7.6517279324186244e-05 -0.034748962613176497 0 -8.5792513872406928e-05 -0.034733098200142726 0 -0.0011439036850724477 -0.024137048392788685 0 -0.001187319172930062 -0.024029307669169168 0 -0.0012653162372942177 -0.024184635877456024 0 -0.00089139145463561404 -0.023750204431929215 0 -0.0009018977735725434 -0.028423003777859904 0 -0.0009018977735725434 -0.028423003777859904 0 -0.00062380117669599995 -0.031543316762637455 0 -0.00082197076773435395 -0.029434919605409608 0 -0.00073062304791229502 -0.029275596820830804 0 -0.00089200475372429549 -0.029183518864478925 0 -0.00010150088806529445 -0.034724685231994658 0 -9.4041598889931262e-05 -0.034719323585471432 0 -8.5792513872406928e-05 -0.034733098200142726 0 -0.00062380117669599995 -0.031543316762637455 0 -2.4589839252721739e-05 -0.032279405849082017 0 -0.00062380117669599995 -0.031543316762637455 0 -0.0012421383323170134 -0.027757252434871666 0 -0.0011310561859735112 -0.024249666827653806 0 -0.0012653162372942177 -0.024184635877456024 0 -0.0012316908806257443 -0.024311968546189906 0 -0.0009018977735725434 -0.028423003777859904 0 -0.0012421383323170134 -0.027757252434871666 0 -0.0011728503505688472 -0.027218344158084426 0 -0.00072328979872543801 -0.027470477186264594 0 -0.0007899919812518791 -0.027213859712195799 0 -0.0012421383323170134 -0.027757252434871666 0 -0.00083752739058250451 -0.028534721541433973 0 -0.00062380117669599995 -0.031543316762637455 0 -0.00048109133669926841 -0.032408824240698547 0 -0.00097070501077981864 -0.030282577460589162 0 -0.00099423890805363374 -0.030191526509685214 0 -0.00077303330837134301 -0.030201473859355128 0 -0.00086136478564631893 -0.030348716260423958 0 -0.00097070501077981864 -0.030282577460589162 0 -0.00077303330837134301 -0.030201473859355128 0 -0.00083752739058250451 -0.028534721541433973 0 -0.00048109133669926841 -0.032408824240698547 0 -8.1426787476446684e-05 -0.034732221356468883 0 -7.0750977562453537e-05 -0.034757110063993749 0 -6.2927471376079367e-05 -0.034763376156539912 0 -0.00048109133669926841 -0.032408824240698547 0 -5.5710184372969659e-06 -0.03481310476728175 0 -8.1426787476446684e-05 -0.034732221356468883 0 -7.0750977562453537e-05 -0.034757110063993749 0 -8.064217304557325e-05 -0.034740543660865181 0 -7.0640157411853275e-05 -0.034761891326327649 0 -7.0750977562453537e-05 -0.034757110063993749 0 -7.6517279324186244e-05 -0.034748962613176497 0 -7.0750977562453537e-05 -0.034757110063993749 0 -7.6517279324186244e-05 -0.034748962613176497 0 -8.064217304557325e-05 -0.034740543660865181 0 -8.6403256541605023e-05 -0.034730587860053064 0 -8.1426787476446684e-05 -0.034732221356468883 0 -8.064217304557325e-05 -0.034740543660865181 0 -7.6517279324186244e-05 -0.034748962613176497 0 -8.5792513872406928e-05 -0.034733098200142726 0 -8.064217304557325e-05 -0.034740543660865181 0 -8.6403256541605023e-05 -0.034730587860053064 0 -8.5792513872406928e-05 -0.034733098200142726 0 -8.064217304557325e-05 -0.034740543660865181 0 -5.9743799211141108e-05 -0.034777448637723717 0 -5.2977140900393598e-05 -0.034783567985589688 0 -4.7072165958964405e-05 -0.034808764203402197 0 -7.0750977562453537e-05 -0.034757110063993749 0 -5.9743799211141108e-05 -0.034777448637723717 0 -5.7978048763027321e-05 -0.034787990975395561 0 -7.0750977562453537e-05 -0.034757110063993749 0 -5.9743799211141108e-05 -0.034777448637723717 0 -6.2927471376079367e-05 -0.034763376156539912 0 -5.9743799211141108e-05 -0.034777448637723717 0 -6.2927471376079367e-05 -0.034763376156539912 0 -5.2977140900393598e-05 -0.034783567985589688 0 -5.2977140900393598e-05 -0.034783567985589688 0 -4.3162406849638748e-05 -0.034769029394848439 0 -4.1011416438921166e-05 -0.034804136640305183 0 -6.2927471376079367e-05 -0.034763376156539912 0 -5.2977140900393598e-05 -0.034783567985589688 0 -4.3162406849638748e-05 -0.034769029394848439 0 -5.5710184372969659e-06 -0.03481310476728175 0 -6.6219993375094148e-05 -0.034754444080475955 0 -4.3162406849638748e-05 -0.034769029394848439 0 -4.1011416438921166e-05 -0.034804136640305183 0 -2.525904278517995e-05 -0.034811747170629161 0 -2.7105243573527981e-05 -0.034764903616796808 0 -4.3162406849638748e-05 -0.034769029394848439 0 -2.525904278517995e-05 -0.034811747170629161 0 -4.1011416438921166e-05 -0.034804136640305183 0 -3.1440697390823316e-05 -0.034845189752559638 0 -2.525904278517995e-05 -0.034811747170629161 0 -5.2977140900393598e-05 -0.034783567985589688 0 -4.1011416438921166e-05 -0.034804136640305183 0 -4.7072165958964405e-05 -0.034808764203402197 0 -4.1011416438921166e-05 -0.034804136640305183 0 -4.7072165958964405e-05 -0.034808764203402197 0 -3.1440697390823316e-05 -0.034845189752559638 0 -3.1440697390823316e-05 -0.034845189752559638 0 -3.3068092541075052e-05 -0.034847077269838767 0 -1.0544165978775104e-05 -0.034915434635937541 0 -4.7072165958964405e-05 -0.034808764203402197 0 -3.1440697390823316e-05 -0.034845189752559638 0 -3.3068092541075052e-05 -0.034847077269838767 0 -5.8508588219660104e-05 -0.034789262932739116 0 -5.7978048763027321e-05 -0.034787990975395561 0 -3.3068092541075052e-05 -0.034847077269838767 0 -4.7072165958964405e-05 -0.034808764203402197 0 -5.7978048763027321e-05 -0.034787990975395561 0 -3.3068092541075052e-05 -0.034847077269838767 0 -5.9743799211141108e-05 -0.034777448637723717 0 -4.7072165958964405e-05 -0.034808764203402197 0 -5.7978048763027321e-05 -0.034787990975395561 0 -4.1306654831038718e-05 -0.034819246150015276 0 -1.4092431553696693e-05 -0.034855526665695899 0 -3.3068092541075052e-05 -0.034847077269838767 0 -1.4092431553696693e-05 -0.034855526665695899 0 -1.0544165978775104e-05 -0.034915434635937541 0 -1.0389908583919273e-05 -0.034906393411428607 0 -5.8508588219660104e-05 -0.034789262932739116 0 -4.1306654831038718e-05 -0.034819246150015276 0 -3.3068092541075052e-05 -0.034847077269838767 0 -1.4092431553696693e-05 -0.034855526665695899 0 -3.3068092541075052e-05 -0.034847077269838767 0 -1.0544165978775104e-05 -0.034915434635937541 0 -1.0544165978775104e-05 -0.034915434635937541 0 9.3253149224298565e-08 -0.034999638636981314 0 -1.0389908583919273e-05 -0.034906393411428607 0 -1.0544165978775104e-05 -0.034915434635937541 0 9.3253149224298565e-08 -0.034999638636981314 0 1.3609649261373222e-05 -0.034975151353530187 0 -9.6047891158062187e-08 -0.035000656230793688 0 9.3253149224298565e-08 -0.034999638636981314 0 1.3609649261373222e-05 -0.034975151353530187 0 1.3609649261373222e-05 -0.034975151353530187 0 6.5254615606094215e-07 -0.034904605314445239 0 6.4146873873750332e-05 -0.034826577599935953 0 -1.0544165978775104e-05 -0.034915434635937541 0 -1.5484577812873089e-05 -0.034864845580234761 0 6.5254615606094215e-07 -0.034904605314445239 0 -3.1440697390823316e-05 -0.034845189752559638 0 -1.0544165978775104e-05 -0.034915434635937541 0 -1.5484577812873089e-05 -0.034864845580234761 0 -1.0544165978775104e-05 -0.034915434635937541 0 1.3609649261373222e-05 -0.034975151353530187 0 6.5254615606094215e-07 -0.034904605314445239 0 -1.5484577812873089e-05 -0.034864845580234761 0 6.5254615606094215e-07 -0.034904605314445239 0 -3.3363099084333601e-07 -0.034831512552806358 0 -3.1440697390823316e-05 -0.034845189752559638 0 -1.5484577812873089e-05 -0.034864845580234761 0 -2.525904278517995e-05 -0.034811747170629161 0 -1.5484577812873089e-05 -0.034864845580234761 0 -3.3363099084333601e-07 -0.034831512552806358 0 -2.525904278517995e-05 -0.034811747170629161 0 -2.7105243573527981e-05 -0.034764903616796808 0 -1.058711469344221e-05 -0.034797576332281685 0 -2.525904278517995e-05 -0.034811747170629161 0 -3.3363099084333601e-07 -0.034831512552806358 0 -1.058711469344221e-05 -0.034797576332281685 0 -2.525904278517995e-05 -0.034811747170629161 0 1.3963893394985539e-05 -0.034779441093400733 0 -3.3363099084333601e-07 -0.034831512552806358 0 -1.058711469344221e-05 -0.034797576332281685 0 1.3963893394985539e-05 -0.034779441093400733 0 -3.3363099084333601e-07 -0.034831512552806358 0 6.4146873873750332e-05 -0.034826577599935953 0 -9.6047891158062187e-08 -0.035000656230793688 0 1.3609649261373222e-05 -0.034975151353530187 0 9.0510796360305142e-06 -0.034990076709674439 0 2.095149271590917e-05 -0.034926288311196312 0 3.432642117667927e-05 -0.035016520876249117 0 6.5254615606094215e-07 -0.034904605314445239 0 -3.3363099084333601e-07 -0.034831512552806358 0 6.4146873873750332e-05 -0.034826577599935953 0 0.00013963252062060586 -0.035054066772979842 0 -5.4850939533673058e-08 -0.035000099071157191 0 2.2193663306092679e-07 -0.035000097088719415 0 -2.8124649956329616e-05 -0.034799754671343192 0 -1.5085435307266105e-05 -0.034933805349088569 0 -2.0608724676248145e-06 -0.034829367670882336 0 -2.8124649956329616e-05 -0.034799754671343192 0 -1.686715026699843e-07 -0.03499969251250281 0 -1.5085435307266105e-05 -0.034933805349088569 0 7.629737939557582e-05 -0.034961055038138664 0 5.9526960536607179e-08 -0.034999923109956442 0 9.3253149224298565e-08 -0.034999638636981314 0 -1.686715026699843e-07 -0.03499969251250281 0 -1.5085435307266105e-05 -0.034933805349088569 0 9.3253149224298565e-08 -0.034999638636981314 0 -1.5085435307266105e-05 -0.034933805349088569 0 -1.0389908583919273e-05 -0.034906393411428607 0 -1.5085435307266105e-05 -0.034933805349088569 0 -1.0389908583919273e-05 -0.034906393411428607 0 -2.0608724676248145e-06 -0.034829367670882336 0 -1.0389908583919273e-05 -0.034906393411428607 0 2.5566349534292717e-05 -0.034828320938444846 0 -2.0608724676248145e-06 -0.034829367670882336 0 -1.4092431553696693e-05 -0.034855526665695899 0 -1.0389908583919273e-05 -0.034906393411428607 0 2.5566349534292717e-05 -0.034828320938444846 0 -1.4092431553696693e-05 -0.034855526665695899 0 2.5566349534292717e-05 -0.034828320938444846 0 -3.2662862490353547e-06 -0.034807214179033083 0 2.5566349534292717e-05 -0.034828320938444846 0 3.0417637600417603e-05 -0.034760737282638988 0 0.00011400578132292149 -0.034773461440678111 0 3.0417637600417603e-05 -0.034760737282638988 0 1.2246652647451166e-05 -0.034721634254041227 0 8.3247699555541883e-05 -0.034578581502706394 0 2.5566349534292717e-05 -0.034828320938444846 0 3.0417637600417603e-05 -0.034760737282638988 0 -2.0608724676248145e-06 -0.034829367670882336 0 3.0417637600417603e-05 -0.034760737282638988 0 8.3247699555541883e-05 -0.034578581502706394 0 0.00011400578132292149 -0.034773461440678111 0 -2.8124649956329616e-05 -0.034799754671343192 0 -2.0608724676248145e-06 -0.034829367670882336 0 1.2246652647451166e-05 -0.034721634254041227 0 3.0417637600417603e-05 -0.034760737282638988 0 -2.0608724676248145e-06 -0.034829367670882336 0 1.2246652647451166e-05 -0.034721634254041227 0 0.00013963252062060586 -0.035054066772979842 0 0.00033973674043528436 -0.034992196959056608 0 0.00021774209428502035 -0.034978581227749952 0 -2.8124649956329616e-05 -0.034799754671343192 0 1.2246652647451166e-05 -0.034721634254041227 0 2.5857015982305763e-05 -0.03465137200388399 0 7.629737939557582e-05 -0.034961055038138664 0 9.2951479262238211e-05 -0.034526713923141057 0 1.2246652647451166e-05 -0.034721634254041227 0 8.3247699555541883e-05 -0.034578581502706394 0 2.5857015982305763e-05 -0.03465137200388399 0 -0.0007176234695082048 -0.028847119344094643 0 -0.00059279651610309378 -0.028332598258762859 0 8.3247699555541883e-05 -0.034578581502706394 0 0.00013816397899347541 -0.034001764629245465 0 -1.9528855155358544e-05 -0.034059760377968429 0 6.0191715301167494e-05 -0.034513208727605216 0 9.2951479262238211e-05 -0.034526713923141057 0 8.3247699555541883e-05 -0.034578581502706394 0 0.00011400578132292149 -0.034773461440678111 0 0.00013816397899347541 -0.034001764629245465 0 -0.0013126974360157817 -0.022815329787218154 0 -0.0015744925916771984 -0.022912132925727365 0 -0.0016074957279385369 -0.02336042172630488 0 -0.001412182682438735 -0.022703942184453634 0 -0.0015744925916771984 -0.022912132925727365 0 -0.0013162597930053044 -0.022622204971323299 0 -0.001412182682438735 -0.022703942184453634 0 -0.0013126974360157817 -0.022815329787218154 0 -0.0013770549520568129 -0.022564824275136963 0 -0.001412182682438735 -0.022703942184453634 0 -0.0013126974360157817 -0.022815329787218154 0 -0.0015744925916771984 -0.022912132925727365 0 -0.0013126974360157817 -0.022815329787218154 0 -0.0016074957279385369 -0.02336042172630488 0 -0.0011750434588510446 -0.023319324232189256 0 2.5566349534292717e-05 -0.034828320938444846 0 0.00011400578132292149 -0.034773461440678111 0 -3.2662862490353547e-06 -0.034807214179033083 0 -0.0007176234695082048 -0.028847119344094643 0 -0.00081556264238819909 -0.029023232686487474 0 -0.001322216048709444 -0.023616688198656761 0 -0.0016074957279385369 -0.02336042172630488 0 -0.0011750434588510446 -0.023319324232189256 0 -0.0013126974360157817 -0.022815329787218154 0 -0.0011750434588510446 -0.023319324232189256 0 -0.00090368520180643137 -0.023012085096337797 0 -0.0011000864147493021 -0.023619494584755214 0 -0.001322216048709444 -0.023616688198656761 0 -0.0011750434588510446 -0.023319324232189256 0 -0.0011000864147493021 -0.023619494584755214 0 -0.0011750434588510446 -0.023319324232189256 0 -0.0007815953473653774 -0.023482336572757709 0 -0.0012386127133501518 -0.022168752481773815 0 -0.0011788434431357813 -0.022393209102469027 0 -0.0011750434588510446 -0.023319324232189256 0 -0.00090368520180643137 -0.023012085096337797 0 -0.0007815953473653774 -0.023482336572757709 0 -0.0012386127133501518 -0.022168752481773815 0 -0.0013289197132254553 -0.022224538576068112 0 -0.0013126974360157817 -0.022815329787218154 0 -0.00090368520180643137 -0.023012085096337797 0 -0.0010971507873748329 -0.022627134103639424 0 -0.0013126974360157817 -0.022815329787218154 0 -0.0013506001533256247 -0.022480707136641031 0 -0.0013770549520568129 -0.022564824275136963 0 -0.0013126974360157817 -0.022815329787218154 0 -0.0010971507873748329 -0.022627134103639424 0 -0.0013506001533256247 -0.022480707136641031 0 -0.0010971507873748329 -0.022627134103639424 0 -0.0013506001533256247 -0.022480707136641031 0 -0.0014995501166488964 -0.022300251981241501 0 -0.0015380144752101649 -0.021772962560659397 0 -0.0014995501166488964 -0.022300251981241501 0 -0.0018162596684525533 -0.022009910235359746 0 -0.0013289197132254553 -0.022224538576068112 0 -0.0014617706444216738 -0.022306245342757113 0 -0.0013506001533256247 -0.022480707136641031 0 -0.0014534693633279966 -0.022488382464586072 0 -0.0013770549520568129 -0.022564824275136963 0 -0.0013506001533256247 -0.022480707136641031 0 -0.0014995501166488964 -0.022300251981241501 0 -0.0014534693633279966 -0.022488382464586072 0 -0.0014995501166488964 -0.022300251981241501 0 -0.0017162880444774348 -0.022294483089265495 0 -0.0014534693633279966 -0.022488382464586072 0 -0.0017162880444774348 -0.022294483089265495 0 -0.0016993900181200595 -0.022587396853830807 0 -0.0014534693633279966 -0.022488382464586072 0 -0.0016993900181200595 -0.022587396853830807 0 -0.0013952251472467583 -0.022826905590699442 0 -0.0017368822589790528 -0.022998703929902248 0 -0.0016993900181200595 -0.022587396853830807 0 -0.0013952251472467583 -0.022826905590699442 0 -0.0014534693633279966 -0.022488382464586072 0 -0.0013952251472467583 -0.022826905590699442 0 -0.0014534693633279966 -0.022488382464586072 0 -0.001080634685262377 -0.022730813159438614 0 -0.001421558969545053 -0.022568523212936318 0 -0.001280360224847872 -0.022818463620204718 0 -0.0014534693633279966 -0.022488382464586072 0 -0.0014463804412938994 -0.023019172389535533 0 -0.0012991363326036284 -0.022670229486425966 0 -0.0014463804412938994 -0.023019172389535533 0 -0.0011396295460547887 -0.023334045678615689 0 -0.00114118203763639 -0.022998824795685168 0 -0.001280360224847872 -0.022818463620204718 0 -0.00090412376528031877 -0.02379486001313148 0 -0.0014463804412938994 -0.023019172389535533 0 -0.0011396295460547887 -0.023334045678615689 0 -0.0011805512285519429 -0.023707571460549252 0 -0.0014463804412938994 -0.023019172389535533 0 -0.00114118203763639 -0.022998824795685168 0 -0.0012991363326036284 -0.022670229486425966 0 -0.00114118203763639 -0.022998824795685168 0 -0.0012991363326036284 -0.022670229486425966 0 -0.00092084100696087506 -0.022744479502178439 0 -0.0014534693633279966 -0.022488382464586072 0 -0.0012991363326036284 -0.022670229486425966 0 -0.0013770549520568129 -0.022564824275136963 0 -0.001412182682438735 -0.022703942184453634 0 -0.0013770549520568129 -0.022564824275136963 0 -0.0013162597930053044 -0.022622204971323299 0 -0.0012991363326036284 -0.022670229486425966 0 -0.0013770549520568129 -0.022564824275136963 0 -0.0013162597930053044 -0.022622204971323299 0 0.00013816397899347541 -0.034001764629245465 0 7.8784244036003207e-05 -0.034007515349154784 0 0.00013611402005459658 -0.033844739677366162 0 0.00013816397899347541 -0.034001764629245465 0 7.8784244036003207e-05 -0.034007515349154784 0 -1.9528855155358544e-05 -0.034059760377968429 0 0.00015847362294781829 -0.034387450309621446 0 9.2951479262238211e-05 -0.034526713923141057 0 0.00033973674043528436 -0.034992196959056608 0 0.00029728730962354775 -0.034881725635895144 0 0.00021774209428502035 -0.034978581227749952 0 9.2951479262238211e-05 -0.034526713923141057 0 0.00020759855487198674 -0.034399938152171662 0 7.8784244036003207e-05 -0.034007515349154784 0 7.058071300906293e-05 -0.034012044977163633 0 8.4036205701767217e-05 -0.033913667951291068 0 7.8784244036003207e-05 -0.034007515349154784 0 8.4036205701767217e-05 -0.033913667951291068 0 0.00013611402005459658 -0.033844739677366162 0 8.4036205701767217e-05 -0.033913667951291068 0 0.00013611402005459658 -0.033844739677366162 0 0.00010832012581975633 -0.033881583658333284 0 -0.0012991363326036284 -0.022670229486425966 0 -0.0013162597930053044 -0.022622204971323299 0 -0.00092084100696087506 -0.022744479502178439 0 -0.00059279651610309378 -0.028332598258762859 0 -0.00037763967905439928 -0.02830857621196765 0 -0.00114118203763639 -0.022998824795685168 0 -0.00092084100696087506 -0.022744479502178439 0 -0.00084942441992224313 -0.023212404315190376 0 -0.0011396295460547887 -0.023334045678615689 0 -0.00114118203763639 -0.022998824795685168 0 -0.00084942441992224313 -0.023212404315190376 0 -0.00092084100696087506 -0.022744479502178439 0 -0.00084942441992224313 -0.023212404315190376 0 -0.000249275516989711 -0.023430828886507205 0 -0.00084942441992224313 -0.023212404315190376 0 -0.000249275516989711 -0.023430828886507205 0 -0.00091160632191168744 -0.023785610558022072 0 -0.0011396295460547887 -0.023334045678615689 0 -0.00084942441992224313 -0.023212404315190376 0 -0.00091160632191168744 -0.023785610558022072 0 -0.00037763967905439928 -0.02830857621196765 0 -1.5320086181782613e-05 -0.028638993301260397 0 0.00013611402005459658 -0.033844739677366162 0 0.00022855918937512453 -0.033769408083190976 0 0.00013007785389486021 -0.033868992795823304 0 0.00013611402005459658 -0.033844739677366162 0 0.00010832012581975633 -0.033881583658333284 0 0.00013007785389486021 -0.033868992795823304 0 0.00010832012581975633 -0.033881583658333284 0 0.00013007785389486021 -0.033868992795823304 0 4.90548991009951e-05 -0.033974839387602263 0 0.0001959612137426958 -0.034252681406656438 0 5.409756198799149e-05 -0.033993353582205697 0 0.00033488143650173171 -0.034665616064701789 0 0.0001033655141019633 -0.034696496079312293 0 0.00013912695514463084 -0.03481156669871955 0 0.00013007785389486021 -0.033868992795823304 0 4.90548991009951e-05 -0.033974839387602263 0 6.4176989235266758e-05 -0.03379211380881824 0 0.00022855918937512453 -0.033769408083190976 0 0.00013007785389486021 -0.033868992795823304 0 6.4176989235266758e-05 -0.03379211380881824 0 -6.3287535921433986e-05 -0.033900877227653101 0 -0.00025102581388627293 -0.034011856787208319 0 -0.00010914230486946285 -0.033759455958948185 0 -6.3287535921433986e-05 -0.033900877227653101 0 -9.0459804511429449e-05 -0.034024151262373584 0 -0.00025102581388627293 -0.034011856787208319 0 -6.3287535921433986e-05 -0.033900877227653101 0 4.90548991009951e-05 -0.033974839387602263 0 6.4176989235266758e-05 -0.03379211380881824 0 -6.3287535921433986e-05 -0.033900877227653101 0 -9.0459804511429449e-05 -0.034024151262373584 0 4.90548991009951e-05 -0.033974839387602263 0 -9.0459804511429449e-05 -0.034024151262373584 0 4.90548991009951e-05 -0.033974839387602263 0 -6.2089275545420622e-05 -0.034216324630592355 0 -6.2089275545420622e-05 -0.034216324630592355 0 -0.00025102581388627293 -0.034011856787208319 0 -1.0609273483485949e-05 -0.034498351217850401 0 -9.0459804511429449e-05 -0.034024151262373584 0 -6.2089275545420622e-05 -0.034216324630592355 0 -0.00025102581388627293 -0.034011856787208319 0 0.00033488143650173171 -0.034665616064701789 0 4.90548991009951e-05 -0.033974839387602263 0 -6.2089275545420622e-05 -0.034216324630592355 0 -1.9132415530038911e-09 -0.034999988361430964 0 -2.8154070415996441e-06 -0.034997101584814887 0 1.0153126186358879e-09 -0.034952529026499306 0 -0.00025102581388627293 -0.034011856787208319 0 -5.4550431674746795e-05 -0.034624054758956316 0 -5.1553173009886599e-07 -0.034951939151229225 0 -0.00025102581388627293 -0.034011856787208319 0 -1.0609273483485949e-05 -0.034498351217850401 0 -1.5478758972529305e-05 -0.034642992184871435 0 -0.00025102581388627293 -0.034011856787208319 0 -5.4550431674746795e-05 -0.034624054758956316 0 -1.5478758972529305e-05 -0.034642992184871435 0 0.00033488143650173171 -0.034665616064701789 0 -6.2089275545420622e-05 -0.034216324630592355 0 -1.0609273483485949e-05 -0.034498351217850401 0 0.00033488143650173171 -0.034665616064701789 0 -1.0609273483485949e-05 -0.034498351217850401 0 0.0001033655141019633 -0.034696496079312293 0 -0.00010630890557608211 -0.034504038008972816 0 -3.067388993722463e-05 -0.034905438131479165 0 -1.0609273483485949e-05 -0.034498351217850401 0 2.8575887791747256e-05 -0.034697635449902051 0 0.0001033655141019633 -0.034696496079312293 0 2.8575887791747256e-05 -0.034697635449902051 0 0.0001033655141019633 -0.034696496079312293 0 5.1901237968250631e-05 -0.034809368511967399 0 -5.4550431674746795e-05 -0.034624054758956316 0 -5.1553173009886599e-07 -0.034951939151229225 0 2.3040573124400809e-05 -0.034859487958582791 0 -1.0609273483485949e-05 -0.034498351217850401 0 2.8575887791747256e-05 -0.034697635449902051 0 -1.5478758972529305e-05 -0.034642992184871435 0 -1.5478758972529305e-05 -0.034642992184871435 0 2.3040573124400809e-05 -0.034859487958582791 0 5.1901237968250631e-05 -0.034809368511967399 0 2.8575887791747256e-05 -0.034697635449902051 0 -1.5478758972529305e-05 -0.034642992184871435 0 5.1901237968250631e-05 -0.034809368511967399 0 -5.4550431674746795e-05 -0.034624054758956316 0 -1.5478758972529305e-05 -0.034642992184871435 0 2.3040573124400809e-05 -0.034859487958582791 0 2.3040573124400809e-05 -0.034859487958582791 0 4.8724988150839165e-05 -0.034916821457377914 0 5.1901237968250631e-05 -0.034809368511967399 0 -5.1553173009886599e-07 -0.034951939151229225 0 2.3040573124400809e-05 -0.034859487958582791 0 4.8724988150839165e-05 -0.034916821457377914 0 -5.1553173009886599e-07 -0.034951939151229225 0 4.8724988150839165e-05 -0.034916821457377914 0 5.0263633937198427e-05 -0.034954809951777494 0 4.8724988150839165e-05 -0.034916821457377914 0 0.00018166571519030435 -0.034896497987389967 0 5.0263633937198427e-05 -0.034954809951777494 0 4.8724988150839165e-05 -0.034916821457377914 0 0.00013912695514463084 -0.03481156669871955 0 0.00018166571519030435 -0.034896497987389967 0 4.8724988150839165e-05 -0.034916821457377914 0 5.1901237968250631e-05 -0.034809368511967399 0 0.00013912695514463084 -0.03481156669871955 0 0.0001033655141019633 -0.034696496079312293 0 5.1901237968250631e-05 -0.034809368511967399 0 0.00013912695514463084 -0.03481156669871955 0 0.00029728730962354775 -0.034881725635895144 0 0.00033488143650173171 -0.034665616064701789 0 0.00018166571519030435 -0.034896497987389967 0 0.00033488143650173171 -0.034665616064701789 0 0.00013912695514463084 -0.03481156669871955 0 0.00018166571519030435 -0.034896497987389967 0 0.00020759855487198674 -0.034399938152171662 0 0.0001959612137426958 -0.034252681406656438 0 0.00018166571519030435 -0.034896497987389967 0 0.00021774209428502035 -0.034978581227749952 0 5.0263633937198427e-05 -0.034954809951777494 0 0.00013963252062060586 -0.035054066772979842 0 0.00021774209428502035 -0.034978581227749952 0 5.0263633937198427e-05 -0.034954809951777494 0 0.00029728730962354775 -0.034881725635895144 0 0.00018166571519030435 -0.034896497987389967 0 0.00021774209428502035 -0.034978581227749952 0 0.00013963252062060586 -0.035054066772979842 0 2.2193663306092679e-07 -0.035000097088719415 0 5.0263633937198427e-05 -0.034954809951777494 0 -5.1553173009886599e-07 -0.034951939151229225 0 2.2193663306092679e-07 -0.035000097088719415 0 5.0263633937198427e-05 -0.034954809951777494 0 -0.0029385616465602954 -0.020093806934520918 0 -0.0013481384244688015 -0.018223415211229079 0 -0.0020783298009915793 -0.018831715571184848 0 -0.0018638840250070222 -0.018876137619236677 0 -0.0019075388910646948 -0.019080340591792928 0 -0.0030981885913105413 -0.020229935240126021 0 -0.0031109902104217483 -0.020306251966985621 0 -0.0030555944520244843 -0.020261121079520057 0 -0.0030981885913105413 -0.020229935240126021 0 -0.0031109902104217483 -0.020306251966985621 0 -0.0031444895167034035 -0.020192513964464195 0 -0.0030981885913105413 -0.020229935240126021 0 -0.0030829108942838114 -0.020159078492288811 0 -0.0030555944520244843 -0.020261121079520057 0 -0.0034498071108240214 -0.020312554592028569 0 -0.0032052373921815976 -0.020475151565508446 0 -0.0033152106160568846 -0.020537261837961965 0 -0.0029385616465602954 -0.020093806934520918 0 -0.0032479740630432154 -0.020539617775313424 0 -0.0033100304588621152 -0.02071553972335087 0 -0.0032515097772204426 -0.020575271718581183 0 -0.0033152106160568846 -0.020537261837961965 0 -0.0033100304588621152 -0.02071553972335087 0 -0.0031138626628120537 -0.020866411403199881 0 -0.0032515097772204426 -0.020575271718581183 0 -0.0031138626628120537 -0.020866411403199881 0 -0.0032515097772204426 -0.020575271718581183 0 -0.0030112005641606604 -0.020526868045246085 0 -0.0029385616465602954 -0.020093806934520918 0 -0.0025588801104100114 -0.019927178640028981 0 -0.0031138626628120537 -0.020866411403199881 0 -0.0027141111116152352 -0.020595661152582018 0 -0.0030112005641606604 -0.020526868045246085 0 -0.0031138626628120537 -0.020866411403199881 0 -0.0027297052541325573 -0.021058379736488105 0 -0.0027141111116152352 -0.020595661152582018 0 -0.0019637411275788127 -0.020756272501719845 0 -0.0027297052541325573 -0.021058379736488105 0 -0.0027141111116152352 -0.020595661152582018 0 -0.00090219134774149467 -0.018578600100509986 0 -0.0011453099830415858 -0.018043686059531456 0 0.00031144572030484386 -0.016182685502723643 0 0.00025536856229598973 -0.016442596146500624 0 -5.0407975657743595e-05 -0.016388880772556558 0 0.00025536856229598973 -0.016442596146500624 0 -9.11445467713493e-05 -0.016361161342186594 0 -9.5894403097836726e-05 -0.016677896457252313 0 0.00050041335816567291 -0.01631107006089479 0 -0.0011453099830415858 -0.018043686059531456 0 -0.0018638840250070222 -0.018876137619236677 0 -0.001648760959031924 -0.018922501241690422 0 -0.0019075388910646948 -0.019080340591792928 0 -0.0025588801104100114 -0.019927178640028981 0 -0.0011453099830415858 -0.018043686059531456 0 -9.11445467713493e-05 -0.016361161342186594 0 -9.5894403097836726e-05 -0.016677896457252313 0 -0.00051181869205270912 -0.016614457092985663 0 -0.0011453099830415858 -0.018043686059531456 0 -0.0013481384244688015 -0.018223415211229079 0 -9.5894403097836726e-05 -0.016677896457252313 0 -0.00029943235794374688 -0.016949569793019613 0 -0.00051181869205270912 -0.016614457092985663 0 0.00025536856229598973 -0.016442596146500624 0 -9.5894403097836726e-05 -0.016677896457252313 0 0.00014612716120131642 -0.01675576134074705 0 -9.5894403097836726e-05 -0.016677896457252313 0 0.00014612716120131642 -0.01675576134074705 0 3.6294248982267517e-05 -0.016950616581296322 0 0.00023744781248827721 -0.016946506222526251 0 0.00014612716120131642 -0.01675576134074705 0 3.6294248982267517e-05 -0.016950616581296322 0 0.0001460569499892186 -0.017199679712133566 0 3.6294248982267517e-05 -0.016950616581296322 0 -1.6897115313783005e-05 -0.017127693825468433 0 0.00023744781248827721 -0.016946506222526251 0 0.0001460569499892186 -0.017199679712133566 0 3.6294248982267517e-05 -0.016950616581296322 0 1.5677472718514482e-06 -0.017398110757971482 0 -1.6897115313783005e-05 -0.017127693825468433 0 -0.00029943235794374688 -0.016949569793019613 0 -5.725414001328424e-06 -0.017451211442404708 0 -0.00020820881528619306 -0.01692291359430189 0 -9.5894403097836726e-05 -0.016677896457252313 0 3.6294248982267517e-05 -0.016950616581296322 0 -0.00029943235794374688 -0.016949569793019613 0 3.6294248982267517e-05 -0.016950616581296322 0 -1.6897115313783005e-05 -0.017127693825468433 0 -0.00029943235794374688 -0.016949569793019613 0 -0.00017598543765400164 -0.017289940876585485 0 -0.00050173486363108493 -0.017371106855525786 0 -0.00043139412011767864 -0.017204355919779136 0 -0.00020456507468532561 -0.017443804810853888 0 -0.00017598543765400164 -0.017289940876585485 0 -0.00050173486363108493 -0.017371106855525786 0 -0.00017598543765400164 -0.017289940876585485 0 -0.0003895954797241911 -0.016998516596494668 0 -0.00043139412011767864 -0.017204355919779136 0 -0.00020820881528619306 -0.01692291359430189 0 -0.0013481384244688015 -0.018223415211229079 0 -0.0003895954797241911 -0.016998516596494668 0 -0.00043139412011767864 -0.017204355919779136 0 -0.00065134539501482262 -0.017160869543288011 0 -0.0030981885913105413 -0.020229935240126021 0 -0.0031444895167034035 -0.020192513964464195 0 -0.0030829108942838114 -0.020159078492288811 0 -0.0013481384244688015 -0.018223415211229079 0 -0.001841796539148254 -0.019104164490961868 0 -0.00082257347414408473 -0.017634348860274585 0 -0.00050173486363108493 -0.017371106855525786 0 -0.00078299681059193884 -0.017392851008785289 0 -0.00074533295745582841 -0.017111431667832747 0 -0.001841796539148254 -0.019104164490961868 0 -0.00050173486363108493 -0.017371106855525786 0 -0.00043139412011767864 -0.017204355919779136 0 -0.00065134539501482262 -0.017160869543288011 0 -0.00050173486363108493 -0.017371106855525786 0 -0.00069505834316777883 -0.017146164727397571 0 -0.00078299681059193884 -0.017392851008785289 0 -0.00082257347414408473 -0.017634348860274585 0 -0.00078299681059193884 -0.017392851008785289 0 -0.0010968901859253475 -0.017427841592125955 0 -0.00069505834316777883 -0.017146164727397571 0 -0.00078299681059193884 -0.017392851008785289 0 -0.0010968901859253475 -0.017427841592125955 0 -0.001841796539148254 -0.019104164490961868 0 -0.001665040359123023 -0.019234325161477807 0 -0.0019593659085221406 -0.02078624188709751 0 -0.0022905894237078266 -0.020970483707845718 0 -0.0019481260111812813 -0.021120292837730408 0 -0.0022905894237078266 -0.020970483707845718 0 -0.002226336616486847 -0.021300413772919757 0 -0.0019481260111812813 -0.021120292837730408 0 -0.0026259844431033015 -0.021158964376165254 0 -0.002226336616486847 -0.021300413772919757 0 -0.0024277257940865564 -0.021499622117208531 0 -0.0026259844431033015 -0.021158964376165254 0 -0.0022905894237078266 -0.020970483707845718 0 -0.002226336616486847 -0.021300413772919757 0 -0.001841796539148254 -0.019104164490961868 0 -0.0028100801143521137 -0.021119751328361306 0 -0.0019593659085221406 -0.02078624188709751 0 -0.0015952955315618634 -0.02099117448249788 0 -0.0019481260111812813 -0.021120292837730408 0 -0.002226336616486847 -0.021300413772919757 0 -0.0019481260111812813 -0.021120292837730408 0 -0.0019935419116872194 -0.021456611423674686 0 -0.0015648700684792636 -0.021385350144860735 0 -0.0019481260111812813 -0.021120292837730408 0 -0.0019935419116872194 -0.021456611423674686 0 -0.0015648700684792636 -0.021385350144860735 0 -0.0015952955315618634 -0.02099117448249788 0 -0.0019481260111812813 -0.021120292837730408 0 -0.0015648700684792636 -0.021385350144860735 0 -0.0015380144752101649 -0.021772962560659397 0 -0.0017408840403075757 -0.021593600477114686 0 -0.0015648700684792636 -0.021385350144860735 0 -0.0017408840403075757 -0.021593600477114686 0 -0.0019935419116872194 -0.021456611423674686 0 -0.0017408840403075757 -0.021593600477114686 0 -0.0019935419116872194 -0.021456611423674686 0 -0.001869407079628693 -0.021761556432856464 0 -0.0019935419116872194 -0.021456611423674686 0 -0.0020568766958636189 -0.021713577739564411 0 -0.001869407079628693 -0.021761556432856464 0 -0.0020568766958636189 -0.021713577739564411 0 -0.001869407079628693 -0.021761556432856464 0 -0.0019789436774973836 -0.021897046856630093 0 -0.0015380144752101649 -0.021772962560659397 0 -0.0017408840403075757 -0.021593600477114686 0 -0.001869407079628693 -0.021761556432856464 0 -0.0015380144752101649 -0.021772962560659397 0 -0.001869407079628693 -0.021761556432856464 0 -0.0018162596684525533 -0.022009910235359746 0 -0.002226336616486847 -0.021300413772919757 0 -0.0019935419116872194 -0.021456611423674686 0 -0.0021848517001383252 -0.021564555434889245 0 -0.002226336616486847 -0.021300413772919757 0 -0.0024277257940865564 -0.021499622117208531 0 -0.0021848517001383252 -0.021564555434889245 0 -0.0019935419116872194 -0.021456611423674686 0 -0.0020568766958636189 -0.021713577739564411 0 -0.0021848517001383252 -0.021564555434889245 0 -0.0020568766958636189 -0.021713577739564411 0 -0.0021848517001383252 -0.021564555434889245 0 -0.0022192655050296854 -0.02183638512945954 0 -0.0024277257940865564 -0.021499622117208531 0 -0.0021848517001383252 -0.021564555434889245 0 -0.0022192655050296854 -0.02183638512945954 0 -0.0020568766958636189 -0.021713577739564411 0 -0.0022192655050296854 -0.02183638512945954 0 -0.0019789436774973836 -0.021897046856630093 0 -0.0034498071108240214 -0.020312554592028569 0 -0.0030442080277392767 -0.020370887749194922 0 -0.0032052373921815976 -0.020475151565508446 0 -0.0029385616465602954 -0.020093806934520918 0 -0.0031761629929244052 -0.020396015026174344 0 -0.0030555944520244843 -0.020261121079520057 0 -0.0029988391431128368 -0.020382876460575083 0 -0.0030442080277392767 -0.020370887749194922 0 -0.0031109902104217483 -0.020306251966985621 0 -0.0030555944520244843 -0.020261121079520057 0 -0.0030442080277392767 -0.020370887749194922 0 -0.0028100801143521137 -0.021119751328361306 0 -0.0025998230197914409 -0.021065556916227697 0 -0.0032052373921815976 -0.020475151565508446 0 -0.0032195169386386988 -0.020564307644234878 0 -0.0033152106160568846 -0.020537261837961965 0 -0.0032195169386386988 -0.020564307644234878 0 -0.0032032868084497213 -0.020650546576422922 0 -0.0033039178772708007 -0.020583312755935949 0 -0.0032195169386386988 -0.020564307644234878 0 -0.0033039178772708007 -0.020583312755935949 0 -0.0033152106160568846 -0.020537261837961965 0 -0.0031552383164352269 -0.020602440872015675 0 -0.0030795792822596868 -0.020529363489592174 0 -0.00308330032089636 -0.020749860886117598 0 -0.0032195169386386988 -0.020564307644234878 0 -0.0031552383164352269 -0.020602440872015675 0 -0.0030795792822596868 -0.020529363489592174 0 -0.0032195169386386988 -0.020564307644234878 0 -0.0031552383164352269 -0.020602440872015675 0 -0.0032032868084497213 -0.020650546576422922 0 -0.0030442080277392767 -0.020370887749194922 0 -0.0032052373921815976 -0.020475151565508446 0 -0.0030795792822596868 -0.020529363489592174 0 -0.0032052373921815976 -0.020475151565508446 0 -0.0032195169386386988 -0.020564307644234878 0 -0.0030795792822596868 -0.020529363489592174 0 -0.0029988391431128368 -0.020382876460575083 0 -0.0030442080277392767 -0.020370887749194922 0 -0.0030795792822596868 -0.020529363489592174 0 -0.0029988391431128368 -0.020382876460575083 0 -0.0030795792822596868 -0.020529363489592174 0 -0.0026450083744057377 -0.020719970235912086 0 -0.0022192655050296854 -0.02183638512945954 0 -0.0019789436774973836 -0.021897046856630093 0 -0.0019707763740451278 -0.022130682038269043 0 -0.0025998230197914409 -0.021065556916227697 0 -0.0023154493383429975 -0.021453977715941486 0 -0.00308330032089636 -0.020749860886117598 0 -0.0026450083744057377 -0.020719970235912086 0 -0.0029942012395511751 -0.021125327241734451 0 -0.0030795792822596868 -0.020529363489592174 0 -0.00308330032089636 -0.020749860886117598 0 -0.0026450083744057377 -0.020719970235912086 0 -0.00308330032089636 -0.020749860886117598 0 -0.0031854467824566361 -0.020907173840148716 0 -0.0029942012395511751 -0.021125327241734451 0 -0.00308330032089636 -0.020749860886117598 0 -0.0032512855088519862 -0.020722428475511676 0 -0.0031854467824566361 -0.020907173840148716 0 -0.0032512855088519862 -0.020722428475511676 0 -0.0032948286089297925 -0.020726313852841002 0 -0.0031854467824566361 -0.020907173840148716 0 -0.0032512855088519862 -0.020722428475511676 0 -0.0032032868084497213 -0.020650546576422922 0 -0.0033039178772708007 -0.020583312755935949 0 -0.0031552383164352269 -0.020602440872015675 0 -0.00308330032089636 -0.020749860886117598 0 -0.0032032868084497213 -0.020650546576422922 0 -0.00308330032089636 -0.020749860886117598 0 -0.0032512855088519862 -0.020722428475511676 0 -0.0032032868084497213 -0.020650546576422922 0 -0.0018162596684525533 -0.022009910235359746 0 -0.0019789436774973836 -0.021897046856630093 0 -0.0019707763740451278 -0.022130682038269043 0 -0.001869407079628693 -0.021761556432856464 0 -0.0018162596684525533 -0.022009910235359746 0 -0.0019789436774973836 -0.021897046856630093 0 -0.0019707763740451278 -0.022130682038269043 0 -0.0018744658664369288 -0.022153718478786933 0 -0.0020310567707933296 -0.022018192527423226 0 -0.0018162596684525533 -0.022009910235359746 0 -0.0019707763740451278 -0.022130682038269043 0 -0.0018744658664369288 -0.022153718478786933 0 -0.0014995501166488964 -0.022300251981241501 0 -0.0017162880444774348 -0.022294483089265495 0 -0.0018744658664369288 -0.022153718478786933 0 -0.0014995501166488964 -0.022300251981241501 0 -0.0018162596684525533 -0.022009910235359746 0 -0.0018744658664369288 -0.022153718478786933 0 -0.0017162880444774348 -0.022294483089265495 0 -0.0016993900181200595 -0.022587396853830807 0 -0.0019041306810636698 -0.022350981563745632 0 -0.0017162880444774348 -0.022294483089265495 0 -0.0018744658664369288 -0.022153718478786933 0 -0.0020310567707933296 -0.022018192527423226 0 -0.0017162880444774348 -0.022294483089265495 0 -0.0020310567707933296 -0.022018192527423226 0 -0.0019041306810636698 -0.022350981563745632 0 -0.0026450083744057377 -0.020719970235912086 0 -0.0020310567707933296 -0.022018192527423226 0 -0.0024268490813208858 -0.021851869514400588 0 -0.0023154493383429975 -0.021453977715941486 0 -0.0020442390981976789 -0.021957704173606277 0 -0.0026450083744057377 -0.020719970235912086 0 -0.0024268490813208858 -0.021851869514400588 0 -0.0026835475635254343 -0.021525883925200905 0 -0.0020310567707933296 -0.022018192527423226 0 -0.0024268490813208858 -0.021851869514400588 0 -0.0023044865603713115 -0.022200323855235671 0 -0.0024268490813208858 -0.021851869514400588 0 -0.0023044865603713115 -0.022200323855235671 0 -0.0030991860533361696 -0.021387038053775821 0 -0.0031880368707995158 -0.022424101666483953 0 -0.0023044865603713115 -0.022200323855235671 0 -0.004317678438375991 -0.021891893098545522 0 -0.0022905774663982649 -0.022228987920854579 0 -0.0037884779051924325 -0.021200895328267244 0 -0.0031880368707995158 -0.022424101666483953 0 -0.0026157543283748773 -0.022798655161650312 0 -0.0035645638735627471 -0.022743062435966525 0 -0.0031880368707995158 -0.022424101666483953 0 -0.0026157543283748773 -0.022798655161650312 0 -0.0023044865603713115 -0.022200323855235671 0 -0.0023044865603713115 -0.022200323855235671 0 -0.0019782430291920019 -0.022686865943832322 0 -0.0019041306810636698 -0.022350981563745632 0 -0.0020310567707933296 -0.022018192527423226 0 -0.0023044865603713115 -0.022200323855235671 0 -0.0019041306810636698 -0.022350981563745632 0 -0.0026157543283748773 -0.022798655161650312 0 -0.0023044865603713115 -0.022200323855235671 0 -0.0019782430291920019 -0.022686865943832322 0 -0.0026157543283748773 -0.022798655161650312 0 -0.0019782430291920019 -0.022686865943832322 0 -0.0020922607695705218 -0.023136488017728229 0 -0.0016993900181200595 -0.022587396853830807 0 -0.0019782430291920019 -0.022686865943832322 0 -0.0017368822589790528 -0.022998703929902248 0 -0.0016993900181200595 -0.022587396853830807 0 -0.0019782430291920019 -0.022686865943832322 0 -0.0019041306810636698 -0.022350981563745632 0 -0.0032282586302075362 -0.020947009458568106 0 -0.0031316877096022335 -0.021318146725986621 0 -0.0033529001757355483 -0.020551042849464088 0 -0.0032282586302075362 -0.020947009458568106 0 -0.0032948286089297925 -0.020726313852841002 0 -0.0033529001757355483 -0.020551042849464088 0 -0.0032282586302075362 -0.020947009458568106 0 -0.0031316877096022335 -0.021318146725986621 0 -0.0030991860533361696 -0.021387038053775821 0 -0.0032282586302075362 -0.020947009458568106 0 -0.0031171935820647374 -0.021142604834074076 0 -0.0030991860533361696 -0.021387038053775821 0 -0.0032282586302075362 -0.020947009458568106 0 -0.0032948286089297925 -0.020726313852841002 0 -0.0031854467824566361 -0.020907173840148716 0 -0.0032282586302075362 -0.020947009458568106 0 -0.0031854467824566361 -0.020907173840148716 0 -0.0031171935820647374 -0.021142604834074076 0 -0.0031854467824566361 -0.020907173840148716 0 -0.0029942012395511751 -0.021125327241734451 0 -0.0031171935820647374 -0.021142604834074076 0 -0.0026450083744057377 -0.020719970235912086 0 -0.0026835475635254343 -0.021525883925200905 0 -0.0029942012395511751 -0.021125327241734451 0 -0.0024268490813208858 -0.021851869514400588 0 -0.0026835475635254343 -0.021525883925200905 0 -0.0030991860533361696 -0.021387038053775821 0 -0.0029942012395511751 -0.021125327241734451 0 -0.0031171935820647374 -0.021142604834074076 0 -0.0030380432455098787 -0.021251597862025854 0 -0.0026835475635254343 -0.021525883925200905 0 -0.0029942012395511751 -0.021125327241734451 0 -0.0029556164830201528 -0.021337504430121352 0 -0.0026835475635254343 -0.021525883925200905 0 -0.0029556164830201528 -0.021337504430121352 0 -0.0030991860533361696 -0.021387038053775821 0 -0.0029942012395511751 -0.021125327241734451 0 -0.0029556164830201528 -0.021337504430121352 0 -0.0030380432455098787 -0.021251597862025854 0 -0.0029556164830201528 -0.021337504430121352 0 -0.0030380432455098787 -0.021251597862025854 0 -0.0030991860533361696 -0.021387038053775821 0 -0.0031171935820647374 -0.021142604834074076 0 -0.0030380432455098787 -0.021251597862025854 0 -0.0030991860533361696 -0.021387038053775821 0 -0.0044772468004148089 -0.021881147616660941 0 -0.0035645638735627471 -0.022743062435966525 0 -0.0040993586459105594 -0.023734725091723096 0 -0.0044772468004148089 -0.021881147616660941 0 -0.004317678438375991 -0.021891893098545522 0 -0.0035645638735627471 -0.022743062435966525 0 -0.0041802355817877196 -0.020901938370608157 0 -0.0037884779051924325 -0.021200895328267244 0 -0.0041802355817877196 -0.020901938370608157 0 -0.0045168026202615924 -0.021277995670109972 0 -0.0031880368707995158 -0.022424101666483953 0 -0.004317678438375991 -0.021891893098545522 0 -0.0035645638735627471 -0.022743062435966525 0 -0.0046831771013844514 -0.019638272172901441 0 -0.004296068794655169 -0.01911086445570738 0 -0.0048445284693663304 -0.018862151143618441 0 -0.0046831771013844514 -0.019638272172901441 0 -0.0039713014844593355 -0.019696185424213607 0 -0.004296068794655169 -0.01911086445570738 0 -0.0041802355817877196 -0.020901938370608157 0 -0.0035448737128588831 -0.02008714431703372 0 -0.0039713014844593355 -0.019696185424213607 0 -0.0037269253882640176 -0.018882164238139001 0 -0.004296068794655169 -0.01911086445570738 0 -0.0034409926925745146 -0.019318544479380386 0 -0.0039713014844593355 -0.019696185424213607 0 -0.0037269253882640176 -0.018882164238139001 0 -0.0034409926925745146 -0.019318544479380386 0 -0.0039713014844593355 -0.019696185424213607 0 -0.0030998805877999274 -0.019849368985468161 0 -0.0035448737128588831 -0.02008714431703372 0 -0.0031261437453613426 -0.019911667906394776 0 -0.0033529001757355483 -0.020551042849464088 0 -0.0032541279686079299 -0.020431811908897594 0 -0.0030998805877999274 -0.019849368985468161 0 -0.0033529001757355483 -0.020551042849464088 0 -0.0033039259455448925 -0.020586848967909105 0 -0.0032541279686079299 -0.020431811908897594 0 -0.0032948286089297925 -0.020726313852841002 0 -0.0033529001757355483 -0.020551042849464088 0 -0.0033039259455448925 -0.020586848967909105 0 -0.0032512855088519862 -0.020722428475511676 0 -0.0032948286089297925 -0.020726313852841002 0 -0.0033039259455448925 -0.020586848967909105 0 -0.0033039259455448925 -0.020586848967909105 0 -0.0033039178772708007 -0.020583312755935949 0 -0.0032541279686079299 -0.020431811908897594 0 -0.0032512855088519862 -0.020722428475511676 0 -0.0033039259455448925 -0.020586848967909105 0 -0.0033039178772708007 -0.020583312755935949 0 -0.0032541279686079299 -0.020431811908897594 0 -0.0032515097772204426 -0.020575271718581183 0 -0.0030112005641606604 -0.020526868045246085 0 -0.0033039178772708007 -0.020583312755935949 0 -0.0032541279686079299 -0.020431811908897594 0 -0.0032515097772204426 -0.020575271718581183 0 -0.0033039178772708007 -0.020583312755935949 0 -0.0032515097772204426 -0.020575271718581183 0 -0.0033152106160568846 -0.020537261837961965 0 -0.0021521220919808117 -0.020203643554620586 0 -0.0026611744257881223 -0.020553854189335457 0 -0.0022852771133564376 -0.020454133163887049 0 -0.0027141111116152352 -0.020595661152582018 0 -0.0026842410345283819 -0.02038916275485906 0 -0.002024948278866622 -0.019952178083955066 0 -0.0019637411275788127 -0.020756272501719845 0 -0.0027141111116152352 -0.020595661152582018 0 -0.0027141111116152352 -0.020595661152582018 0 -0.0026842410345283819 -0.02038916275485906 0 -0.0030112005641606604 -0.020526868045246085 0 -0.0032541279686079299 -0.020431811908897594 0 -0.0030112005641606604 -0.020526868045246085 0 -0.0029264064430492001 -0.020253369277630599 0 -0.0026842410345283819 -0.02038916275485906 0 -0.0030112005641606604 -0.020526868045246085 0 -0.0029264064430492001 -0.020253369277630599 0 -0.0032541279686079299 -0.020431811908897594 0 -0.0029264064430492001 -0.020253369277630599 0 -0.0030998805877999274 -0.019849368985468161 0 -0.0022852771133564376 -0.020454133163887049 0 -0.0026842410345283819 -0.02038916275485906 0 -0.0025098380750425359 -0.01991640685018941 0 -0.0026842410345283819 -0.02038916275485906 0 -0.0029264064430492001 -0.020253369277630599 0 -0.0025098380750425359 -0.01991640685018941 0 -0.0025098380750425359 -0.01991640685018941 0 -0.0030998805877999274 -0.019849368985468161 0 -0.0024767494375036122 -0.019150155861045716 0 -0.0029264064430492001 -0.020253369277630599 0 -0.0025098380750425359 -0.01991640685018941 0 -0.0030998805877999274 -0.019849368985468161 0 -0.0030998805877999274 -0.019849368985468161 0 -0.0024767494375036122 -0.019150155861045716 0 -0.0029252283919897399 -0.018847620328379475 0 -0.0034409926925745146 -0.019318544479380386 0 -0.0030998805877999274 -0.019849368985468161 0 -0.0029252283919897399 -0.018847620328379475 0 -0.0024767494375036122 -0.019150155861045716 0 -0.0029252283919897399 -0.018847620328379475 0 -0.0023231116451950008 -0.018505790323974827 0 -0.0029252283919897399 -0.018847620328379475 0 -0.0030020266798080068 -0.018199445821078967 0 -0.0034609651596927051 -0.018383254333749113 0 -0.0029252283919897399 -0.018847620328379475 0 -0.0030020266798080068 -0.018199445821078967 0 -0.0026059596634002299 -0.018304053119908639 0 -0.0029252283919897399 -0.018847620328379475 0 -0.0026059596634002299 -0.018304053119908639 0 -0.0023231116451950008 -0.018505790323974827 0 -0.0026059596634002299 -0.018304053119908639 0 -0.0023231116451950008 -0.018505790323974827 0 -0.0021975602657003557 -0.01815762909249917 0 -0.0026059596634002299 -0.018304053119908639 0 -0.0025580943201795633 -0.017927753056755803 0 -0.0021975602657003557 -0.01815762909249917 0 -0.0030020266798080068 -0.018199445821078967 0 -0.0025580943201795633 -0.017927753056755803 0 -0.002843126377572198 -0.01776315722094346 0 -0.0030020266798080068 -0.018199445821078967 0 -0.0026059596634002299 -0.018304053119908639 0 -0.0025580943201795633 -0.017927753056755803 0 -0.0030020266798080068 -0.018199445821078967 0 -0.0031673372004305846 -0.017742374173534557 0 -0.0034546874700813355 -0.017949177832815258 0 -0.0030020266798080068 -0.018199445821078967 0 -0.002843126377572198 -0.01776315722094346 0 -0.0031673372004305846 -0.017742374173534557 0 -0.002843126377572198 -0.01776315722094346 0 -0.0030957628906832647 -0.017413001520262494 0 -0.0027418607783636457 -0.017452021535731249 0 -0.002843126377572198 -0.01776315722094346 0 -0.0031673372004305846 -0.017742374173534557 0 -0.0030957628906832647 -0.017413001520262494 0 -0.0031673372004305846 -0.017742374173534557 0 -0.0030957628906832647 -0.017413001520262494 0 -0.0033937413808184727 -0.017571327744417404 0 -0.0030957628906832647 -0.017413001520262494 0 -0.0033937413808184727 -0.017571327744417404 0 -0.003338814911083393 -0.01726307128284555 0 -0.0030957628906832647 -0.017413001520262494 0 -0.0027418607783636457 -0.017452021535731249 0 -0.0028995016079230865 -0.017217833635486353 0 -0.0025580943201795633 -0.017927753056755803 0 -0.0027418607783636457 -0.017452021535731249 0 -0.0023483018987980864 -0.017443464900817027 0 -0.0025580943201795633 -0.017927753056755803 0 -0.002843126377572198 -0.01776315722094346 0 -0.0027418607783636457 -0.017452021535731249 0 -0.0027418607783636457 -0.017452021535731249 0 -0.0026012491239114665 -0.017150547210781349 0 -0.0023483018987980864 -0.017443464900817027 0 -0.0040502839958670607 -0.017789713857424096 0 -0.0039279957774363029 -0.017439014465875823 0 -0.0037025104287134736 -0.017690514116998828 0 -0.0040502839958670607 -0.017789713857424096 0 -0.0039279957774363029 -0.017439014465875823 0 -0.0043016225651750116 -0.017506599026851113 0 -0.0039279957774363029 -0.017439014465875823 0 -0.003607323227827878 -0.017371058547455159 0 -0.0037025104287134736 -0.017690514116998828 0 -0.003607323227827878 -0.017371058547455159 0 -0.0033937413808184727 -0.017571327744417404 0 -0.0037025104287134736 -0.017690514116998828 0 -0.003607323227827878 -0.017371058547455159 0 -0.0033937413808184727 -0.017571327744417404 0 -0.003338814911083393 -0.01726307128284555 0 -0.0031673372004305846 -0.017742374173534557 0 -0.0033937413808184727 -0.017571327744417404 0 -0.0034546874700813355 -0.017949177832815258 0 -0.0033937413808184727 -0.017571327744417404 0 -0.0037025104287134736 -0.017690514116998828 0 -0.0034546874700813355 -0.017949177832815258 0 -0.0037025104287134736 -0.017690514116998828 0 -0.0034546874700813355 -0.017949177832815258 0 -0.0038043143558425131 -0.018030951534656961 0 -0.0030020266798080068 -0.018199445821078967 0 -0.0034546874700813355 -0.017949177832815258 0 -0.0034609651596927051 -0.018383254333749113 0 -0.0034546874700813355 -0.017949177832815258 0 -0.0038043143558425131 -0.018030951534656961 0 -0.0034609651596927051 -0.018383254333749113 0 -0.0038043143558425131 -0.018030951534656961 0 -0.0041566749558594575 -0.018165605262530513 0 -0.0038644747754598692 -0.01840775989730312 0 -0.0040502839958670607 -0.017789713857424096 0 -0.0037025104287134736 -0.017690514116998828 0 -0.0038043143558425131 -0.018030951534656961 0 -0.0040502839958670607 -0.017789713857424096 0 -0.0038043143558425131 -0.018030951534656961 0 -0.0041566749558594575 -0.018165605262530513 0 -0.0038644747754598692 -0.01840775989730312 0 -0.0037269253882640176 -0.018882164238139001 0 -0.0042544047177753433 -0.018620160041397885 0 -0.0041566749558594575 -0.018165605262530513 0 -0.0038644747754598692 -0.01840775989730312 0 -0.0042544047177753433 -0.018620160041397885 0 -0.0038644747754598692 -0.01840775989730312 0 -0.0034609651596927051 -0.018383254333749113 0 -0.0037269253882640176 -0.018882164238139001 0 -0.0038043143558425131 -0.018030951534656961 0 -0.0038644747754598692 -0.01840775989730312 0 -0.0034609651596927051 -0.018383254333749113 0 -0.0029252283919897399 -0.018847620328379475 0 -0.0034609651596927051 -0.018383254333749113 0 -0.0037269253882640176 -0.018882164238139001 0 -0.0034409926925745146 -0.019318544479380386 0 -0.0029252283919897399 -0.018847620328379475 0 -0.0037269253882640176 -0.018882164238139001 0 -0.0037269253882640176 -0.018882164238139001 0 -0.004296068794655169 -0.01911086445570738 0 -0.0042544047177753433 -0.018620160041397885 0 -0.004296068794655169 -0.01911086445570738 0 -0.0048445284693663304 -0.018862151143618441 0 -0.0042544047177753433 -0.018620160041397885 0 -0.0035645638735627471 -0.022743062435966525 0 -0.0040993586459105594 -0.023734725091723096 0 -0.0031008762282347048 -0.023617098431754413 0 -0.0040993586459105594 -0.023734725091723096 0 -0.0033683916087506741 -0.024764760266151549 0 -0.0038065175719870976 -0.025362347815537256 0 -0.0048445284693663304 -0.018862151143618441 0 -0.0045634448713377258 -0.018273817097243919 0 -0.0049922635603024262 -0.018120677918857526 0 -0.0045168026202615924 -0.021277995670109972 0 -0.0044603631471025664 -0.02168523694427494 0 -0.0048445284693663304 -0.018862151143618441 0 -0.0042544047177753433 -0.018620160041397885 0 -0.0045634448713377258 -0.018273817097243919 0 -0.0041566749558594575 -0.018165605262530513 0 -0.0042544047177753433 -0.018620160041397885 0 -0.0045634448713377258 -0.018273817097243919 0 -0.0020922607695705218 -0.023136488017728229 0 -0.0019046480649360399 -0.023402398872518833 0 -0.0017368822589790528 -0.022998703929902248 0 -0.0020952410349089272 -0.023097424011827676 0 -0.0023259879245777467 -0.024499991911680407 0 -0.0020922607695705218 -0.023136488017728229 0 -0.0031008762282347048 -0.023617098431754413 0 -0.0016139585266555095 -0.024376654126022926 0 -0.0019782430291920019 -0.022686865943832322 0 -0.0020922607695705218 -0.023136488017728229 0 -0.0017368822589790528 -0.022998703929902248 0 -0.0026157543283748773 -0.022798655161650312 0 -0.0020922607695705218 -0.023136488017728229 0 -0.0031008762282347048 -0.023617098431754413 0 -0.0026157543283748773 -0.022798655161650312 0 -0.0035645638735627471 -0.022743062435966525 0 -0.0031008762282347048 -0.023617098431754413 0 -0.0031008762282347048 -0.023617098431754413 0 -0.0033683916087506741 -0.024764760266151549 0 -0.0016139585266555095 -0.024376654126022926 0 -0.0040993586459105594 -0.023734725091723096 0 -0.0031008762282347048 -0.023617098431754413 0 -0.0033683916087506741 -0.024764760266151549 0 -0.0032064047101574319 -0.024761196332031134 0 -0.0023259879245777467 -0.024499991911680407 0 -0.0033683916087506741 -0.024764760266151549 0 -0.0025795022382733329 -0.024725839096598843 0 -0.0028570766461676412 -0.025141123654664935 0 -0.0023259879245777467 -0.024499991911680407 0 -0.0024031917090679158 -0.025797315733471424 0 -0.0028570766461676412 -0.025141123654664935 0 -0.0029749780844296947 -0.025604390219696418 0 -0.0022886364174528021 -0.025504376946365384 0 -0.0029749780844296947 -0.025604390219696418 0 -0.0027204435080399598 -0.026085894049816816 0 -0.0022886364174528021 -0.025504376946365384 0 -0.0025795022382733329 -0.024725839096598843 0 -0.0028570766461676412 -0.025141123654664935 0 -0.0022886364174528021 -0.025504376946365384 0 -0.0029749780844296947 -0.025604390219696418 0 -0.0032496615971379355 -0.025337750413941224 0 -0.0033654426078461594 -0.025850442086941396 0 -0.0033683916087506741 -0.024764760266151549 0 -0.0028570766461676412 -0.025141123654664935 0 -0.0032496615971379355 -0.025337750413941224 0 -0.0028570766461676412 -0.025141123654664935 0 -0.0029749780844296947 -0.025604390219696418 0 -0.0032496615971379355 -0.025337750413941224 0 -0.0033683916087506741 -0.024764760266151549 0 -0.0032496615971379355 -0.025337750413941224 0 -0.0038065175719870976 -0.025362347815537256 0 -0.0032496615971379355 -0.025337750413941224 0 -0.0033654426078461594 -0.025850442086941396 0 -0.0038065175719870976 -0.025362347815537256 0 -0.0044603631471025664 -0.02168523694427494 0 -0.0038894917378644416 -0.022176438547403508 0 -0.0033654426078461594 -0.025850442086941396 0 -0.0038065175719870976 -0.025362347815537256 0 -0.0036217060717077562 -0.026460491870871461 0 -0.0033876737903323533 -0.026359707077986402 0 -0.0033654426078461594 -0.025850442086941396 0 -0.0036217060717077562 -0.026460491870871461 0 -0.0043607367738086279 -0.023830883980009009 0 -0.0038894917378644416 -0.022176438547403508 0 -0.0033876737903323533 -0.026359707077986402 0 -0.0031284156663092823 -0.026026516204499136 0 -0.0030737116628396549 -0.026416875813992224 0 -0.0029749780844296947 -0.025604390219696418 0 -0.0033654426078461594 -0.025850442086941396 0 -0.0031284156663092823 -0.026026516204499136 0 -0.0033876737903323533 -0.026359707077986402 0 -0.0033654426078461594 -0.025850442086941396 0 -0.0031284156663092823 -0.026026516204499136 0 -0.0027204435080399598 -0.026085894049816816 0 -0.0027293918436442498 -0.026622017543126729 0 -0.0020627827891403824 -0.026404575619629365 0 -0.0029749780844296947 -0.025604390219696418 0 -0.0031284156663092823 -0.026026516204499136 0 -0.0027204435080399598 -0.026085894049816816 0 -0.0030737116628396549 -0.026416875813992224 0 -0.0027204435080399598 -0.026085894049816816 0 -0.0027293918436442498 -0.026622017543126729 0 -0.0031284156663092823 -0.026026516204499136 0 -0.0030737116628396549 -0.026416875813992224 0 -0.0027204435080399598 -0.026085894049816816 0 -0.0044078971123407461 -0.017928404438780368 0 -0.0047004988925213901 -0.017985970914222226 0 -0.0047732716826010962 -0.017675040252031204 0 -0.0040502839958670607 -0.017789713857424096 0 -0.0041566749558594575 -0.018165605262530513 0 -0.0044078971123407461 -0.017928404438780368 0 -0.0041566749558594575 -0.018165605262530513 0 -0.0044078971123407461 -0.017928404438780368 0 -0.0045634448713377258 -0.018273817097243919 0 -0.0044078971123407461 -0.017928404438780368 0 -0.0045634448713377258 -0.018273817097243919 0 -0.0047004988925213901 -0.017985970914222226 0 -0.0045634448713377258 -0.018273817097243919 0 -0.0049922635603024262 -0.018120677918857526 0 -0.0047004988925213901 -0.017985970914222226 0 -0.0049922635603024262 -0.018120677918857526 0 -0.0047004988925213901 -0.017985970914222226 0 -0.0047732716826010962 -0.017675040252031204 0 -0.0049922635603024262 -0.018120677918857526 0 -0.0047732716826010962 -0.017675040252031204 0 -0.0051532647165216054 -0.017403319207515578 0 -0.0044078971123407461 -0.017928404438780368 0 -0.0047732716826010962 -0.017675040252031204 0 -0.0043016225651750116 -0.017506599026851113 0 -0.0047732716826010962 -0.017675040252031204 0 -0.0043016225651750116 -0.017506599026851113 0 -0.0045635585510545931 -0.017071232081013382 0 -0.0040502839958670607 -0.017789713857424096 0 -0.0044078971123407461 -0.017928404438780368 0 -0.0043016225651750116 -0.017506599026851113 0 -0.0043016225651750116 -0.017506599026851113 0 -0.0045635585510545931 -0.017071232081013382 0 -0.0040674141666992691 -0.017116188709067559 0 -0.0045635585510545931 -0.017071232081013382 0 -0.0040674141666992691 -0.017116188709067559 0 -0.0039580466285737128 -0.016745720947746349 0 -0.0042585506536311265 -0.021169459222212972 0 -0.0040097822021973352 -0.0211531166174336 0 -0.0040244039628731 -0.021092560373378116 0 -0.0044357524772461934 -0.018896863828053178 0 -0.0038894917378644416 -0.022176438547403508 0 -0.0047732716826010962 -0.017675040252031204 0 -0.0045635585510545931 -0.017071232081013382 0 -0.0051532647165216054 -0.017403319207515578 0 -0.0042585506536311265 -0.021169459222212972 0 -0.0040976154478221463 -0.021353463822971683 0 -0.0040097822021973352 -0.0211531166174336 0 -0.0042585506536311265 -0.021169459222212972 0 -0.0040976154478221463 -0.021353463822971683 0 -0.0043126724243412913 -0.021439337756996121 0 -0.0044357524772461934 -0.018896863828053178 0 -0.0042382724424939481 -0.018388850093642304 0 -0.0042585506536311265 -0.021169459222212972 0 -0.0043126724243412913 -0.021439337756996121 0 -0.0045238135504324433 -0.021262110877728987 0 -0.0027293918436442498 -0.026622017543126729 0 -0.0028873154434043984 -0.027141601365426149 0 -0.0024684698593429046 -0.027350424602974124 0 -0.0030737116628396549 -0.026416875813992224 0 -0.0027293918436442498 -0.026622017543126729 0 -0.0031019277088308521 -0.026832476875776452 0 -0.0028873154434043984 -0.027141601365426149 0 -0.0031019277088308521 -0.026832476875776452 0 -0.0032651464110907994 -0.027250414122976765 0 -0.0027293918436442498 -0.026622017543126729 0 -0.0028873154434043984 -0.027141601365426149 0 -0.0031019277088308521 -0.026832476875776452 0 -0.0033697361383637427 -0.026829096814078423 0 -0.0036145122893069845 -0.026765248153938083 0 -0.0032651464110907994 -0.027250414122976765 0 -0.0031019277088308521 -0.026832476875776452 0 -0.0033697361383637427 -0.026829096814078423 0 -0.0032651464110907994 -0.027250414122976765 0 -0.0030737116628396549 -0.026416875813992224 0 -0.0031019277088308521 -0.026832476875776452 0 -0.0033113945309130349 -0.026620154327330767 0 -0.0031019277088308521 -0.026832476875776452 0 -0.0033697361383637427 -0.026829096814078423 0 -0.0033113945309130349 -0.026620154327330767 0 -0.0033876737903323533 -0.026359707077986402 0 -0.0030737116628396549 -0.026416875813992224 0 -0.0033113945309130349 -0.026620154327330767 0 -0.0033876737903323533 -0.026359707077986402 0 -0.0033113945309130349 -0.026620154327330767 0 -0.003569675971004728 -0.026662093512248727 0 -0.0033697361383637427 -0.026829096814078423 0 -0.0033113945309130349 -0.026620154327330767 0 -0.003569675971004728 -0.026662093512248727 0 -0.0033697361383637427 -0.026829096814078423 0 -0.0036145122893069845 -0.026765248153938083 0 -0.003569675971004728 -0.026662093512248727 0 -0.0036132173736516246 -0.026759246409794931 0 -0.003569675971004728 -0.026662093512248727 0 -0.0036772337329357397 -0.026483135355628976 0 -0.0035150319122778783 -0.024223379485898741 0 -0.0036447680549409433 -0.024630912294499145 0 -0.0033876737903323533 -0.026359707077986402 0 -0.003569675971004728 -0.026662093512248727 0 -0.0036772337329357397 -0.026483135355628976 0 -0.0035150319122778783 -0.024223379485898741 0 -0.0038894917378644416 -0.022176438547403508 0 -0.0038190345325879067 -0.025099351067115923 0 -0.0034542001659230936 -0.024278935501639443 0 -0.0032253189773653549 -0.025268579961108657 0 -0.0036145122893069845 -0.026765248153938083 0 -0.003344588387679876 -0.027738097902092907 0 -0.0032651464110907994 -0.027250414122976765 0 -0.0038881799974423651 -0.022958073233514929 0 -0.0035150319122778783 -0.024223379485898741 0 -0.0035150319122778783 -0.024223379485898741 0 -0.0032487501430859583 -0.026760565656325667 0 -0.003344588387679876 -0.027738097902092907 0 -0.0032651464110907994 -0.027250414122976765 0 -0.0029411863052532013 -0.02757891566385921 0 -0.0029411863052532013 -0.02757891566385921 0 -0.0027575829963104809 -0.027992792049155241 0 -0.0024684698593429046 -0.027350424602974124 0 -0.003344588387679876 -0.027738097902092907 0 -0.0029411863052532013 -0.02757891566385921 0 -0.0027575829963104809 -0.027992792049155241 0 -0.0028873154434043984 -0.027141601365426149 0 -0.0032651464110907994 -0.027250414122976765 0 -0.0029411863052532013 -0.02757891566385921 0 -0.0028873154434043984 -0.027141601365426149 0 -0.0029411863052532013 -0.02757891566385921 0 -0.0024684698593429046 -0.027350424602974124 0 -0.003344588387679876 -0.027738097902092907 0 -0.0027575829963104809 -0.027992792049155241 0 -0.0030105916407679283 -0.028475060143050349 0 -0.0032253189773653549 -0.025268579961108657 0 -0.0035316295304564827 -0.025851272653595939 0 -0.0030126516009476396 -0.026248239581987354 0 -0.0032487501430859583 -0.026760565656325667 0 -0.0030211386956566768 -0.027281762249710725 0 -0.0038190345325879067 -0.025099351067115923 0 -0.0032253189773653549 -0.025268579961108657 0 -0.0035316295304564827 -0.025851272653595939 0 -0.0035316295304564827 -0.025851272653595939 0 -0.0030126516009476396 -0.026248239581987354 0 -0.0037891835216614486 -0.026387821276495107 0 -0.0030126516009476396 -0.026248239581987354 0 -0.0037891835216614486 -0.026387821276495107 0 -0.0035995313598367403 -0.02702937141808431 0 -0.0030105916407679283 -0.028475060143050349 0 -0.0026782732176932663 -0.028613829747940359 0 -0.0027120213037614398 -0.028571400549397455 0 -0.0027575829963104809 -0.027992792049155241 0 -0.0030105916407679283 -0.028475060143050349 0 -0.0026782732176932663 -0.028613829747940359 0 -0.0044006545745364422 -0.021605045218196384 0 -0.0043126724243412913 -0.021439337756996121 0 -0.0045238135504324433 -0.021262110877728987 0 -0.0043126724243412913 -0.021439337756996121 0 -0.0041876915724315712 -0.021589038932195374 0 -0.0043029877049013685 -0.021637088520439222 0 -0.0044006545745364422 -0.021605045218196384 0 -0.0043126724243412913 -0.021439337756996121 0 -0.0043029877049013685 -0.021637088520439222 0 -0.0040976154478221463 -0.021353463822971683 0 -0.0043126724243412913 -0.021439337756996121 0 -0.0041876915724315712 -0.021589038932195374 0 -0.0038881799974423651 -0.022958073233514929 0 -0.0042433411008575466 -0.023891519158495841 0 -0.0038190345325879067 -0.025099351067115923 0 -0.0035316295304564827 -0.025851272653595939 0 -0.004175410968583794 -0.025913401286384637 0 -0.004175410968583794 -0.025913401286384637 0 -0.0037891835216614486 -0.026387821276495107 0 -0.0045147415956274146 -0.026712910893088835 0 -0.0035316295304564827 -0.025851272653595939 0 -0.004175410968583794 -0.025913401286384637 0 -0.0037891835216614486 -0.026387821276495107 0 -0.003793903723974285 -0.019282558636424554 0 -0.0042965788900854625 -0.019762910800581537 0 -0.003560087948296486 -0.019860655899511432 0 -0.0040387650442400246 -0.019264581128343724 0 -0.0041504525922037728 -0.023854963162020338 0 -0.0044322284773112572 -0.021607314803432566 0 -0.0043029877049013685 -0.021637088520439222 0 -0.0043030548863697759 -0.021908233719917146 0 -0.0041876915724315712 -0.021589038932195374 0 -0.0043029877049013685 -0.021637088520439222 0 -0.0043030548863697759 -0.021908233719917146 0 -0.0042433411008575466 -0.023891519158495841 0 -0.0041504525922037728 -0.023854963162020338 0 -0.0040387650442400246 -0.019264581128343724 0 -0.0041027620199857728 -0.020297581977407195 0 -0.003793903723974285 -0.019282558636424554 0 -0.0042965788900854625 -0.019762910800581537 0 -0.0045822435700597569 -0.019112026748983848 0 -0.0040387650442400246 -0.019264581128343724 0 -0.0042382724424939481 -0.018388850093642304 0 -0.0040477859252170643 -0.016227480388413072 0 -0.0037133097538579163 -0.016470752178247845 0 -0.0038141727228314447 -0.016769413291296716 0 -0.0040387650442400246 -0.019264581128343724 0 -0.0040506804487716987 -0.017540756177394121 0 -0.0040477859252170643 -0.016227480388413072 0 -0.0037133097538579163 -0.016470752178247845 0 -0.0035077991732914886 -0.016276671402496754 0 -0.0035077991732914886 -0.016276671402496754 0 -0.0030531459750885782 -0.016317292193049907 0 -0.0034517616687555078 -0.016583293265270031 0 -0.0037133097538579163 -0.016470752178247845 0 -0.0035077991732914886 -0.016276671402496754 0 -0.0034517616687555078 -0.016583293265270031 0 -0.0042965788900854625 -0.019762910800581537 0 -0.0045822435700597569 -0.019112026748983848 0 -0.0051148058861814148 -0.019630218276243998 0 -0.0041952768354940363 -0.017558972909022148 0 -0.0037482795142462257 -0.017267257294241858 0 -0.0033080890728749979 -0.015121899758708156 0 -0.00286420414182569 -0.015310916547389902 0 -0.003122917896574001 -0.014641365017577589 0 -0.0033080890728749979 -0.015121899758708156 0 -0.00286420414182569 -0.015310916547389902 0 -0.0028727198209992418 -0.016009225184249621 0 -0.00286420414182569 -0.015310916547389902 0 -0.0024225627219590273 -0.015805236740019352 0 -0.0023550294094024393 -0.015242883297725496 0 -0.0026974757967386785 -0.016260852551600532 0 -0.0027140312841928815 -0.016448128642669702 0 -0.0021899608532854136 -0.016233178760598134 0 -0.00286420414182569 -0.015310916547389902 0 -0.0028727198209992418 -0.016009225184249621 0 -0.0024225627219590273 -0.015805236740019352 0 -0.0037482795142462257 -0.017267257294241858 0 -0.0019866333415537165 -0.016262131060828935 0 -0.0026974757967386785 -0.016260852551600532 0 -0.0029008532630441313 -0.016263869825126395 0 -0.0027140312841928815 -0.016448128642669702 0 -0.0029008532630441313 -0.016263869825126395 0 -0.0029486356146082087 -0.016412815918174842 0 -0.0027140312841928815 -0.016448128642669702 0 -0.0037482795142462257 -0.017267257294241858 0 -0.0040767087633799435 -0.01751973561548572 0 -0.0051148058861814148 -0.019630218276243998 0 -0.0055655154627393746 -0.018897915743730394 0 -0.0053455310999668548 -0.018947675364559984 0 -0.0040506804487716987 -0.017540756177394121 0 -0.0040767087633799435 -0.01751973561548572 0 -0.0031613193803219455 -0.016377907183656823 0 -0.0033023843369294264 -0.016448561643263922 0 -0.0045822435700597569 -0.019112026748983848 0 -0.0051148058861814148 -0.019630218276243998 0 -0.0053455310999668548 -0.018947675364559984 0 -0.0035077991732914886 -0.016276671402496754 0 -0.0030531459750885782 -0.016317292193049907 0 -0.0029008532630441313 -0.016263869825126395 0 -0.0030531459750885782 -0.016317292193049907 0 -0.0029486356146082087 -0.016412815918174842 0 -0.0031066872146263266 -0.016539810237932665 0 -0.0030531459750885782 -0.016317292193049907 0 -0.0029008532630441313 -0.016263869825126395 0 -0.0029486356146082087 -0.016412815918174842 0 -0.0031066872146263266 -0.016539810237932665 0 -0.0032239602390605176 -0.016773588609403579 0 -0.0034870136917757887 -0.016503269173447105 0 -0.0030531459750885782 -0.016317292193049907 0 -0.0031066872146263266 -0.016539810237932665 0 -0.0034870136917757887 -0.016503269173447105 0 -0.0029486356146082087 -0.016412815918174842 0 -0.0031066872146263266 -0.016539810237932665 0 -0.00292478247536068 -0.016544843746680443 0 -0.0031066872146263266 -0.016539810237932665 0 -0.00292478247536068 -0.016544843746680443 0 -0.0029954132919961965 -0.016746330202886447 0 -0.00292478247536068 -0.016544843746680443 0 -0.0029954132919961965 -0.016746330202886447 0 -0.0027612783425251691 -0.016664871675907189 0 -0.0029954132919961965 -0.016746330202886447 0 -0.0027612783425251691 -0.016664871675907189 0 -0.002844043230132019 -0.016916302538129358 0 -0.0031066872146263266 -0.016539810237932665 0 -0.0029954132919961965 -0.016746330202886447 0 -0.0032239602390605176 -0.016773588609403579 0 -0.0029954132919961965 -0.016746330202886447 0 -0.0032239602390605176 -0.016773588609403579 0 -0.0031086067111466705 -0.017051379459325708 0 -0.0025090814200150083 -0.01655339549805122 0 -0.0027140312841928815 -0.016448128642669702 0 -0.0021899608532854136 -0.016233178760598134 0 -0.00292478247536068 -0.016544843746680443 0 -0.0027140312841928815 -0.016448128642669702 0 -0.0027612783425251691 -0.016664871675907189 0 -0.0025090814200150083 -0.01655339549805122 0 -0.0027140312841928815 -0.016448128642669702 0 -0.0027612783425251691 -0.016664871675907189 0 -0.0029486356146082087 -0.016412815918174842 0 -0.00292478247536068 -0.016544843746680443 0 -0.0027140312841928815 -0.016448128642669702 0 -0.0027612783425251691 -0.016664871675907189 0 -0.0025517662528763774 -0.016815263438917448 0 -0.002844043230132019 -0.016916302538129358 0 -0.0025090814200150083 -0.01655339549805122 0 -0.0025517662528763774 -0.016815263438917448 0 -0.0022790027427139156 -0.016665698776907458 0 -0.0025090814200150083 -0.01655339549805122 0 -0.0027612783425251691 -0.016664871675907189 0 -0.0025517662528763774 -0.016815263438917448 0 -0.0025517662528763774 -0.016815263438917448 0 -0.0026012491239114665 -0.017150547210781349 0 -0.0021860949521211267 -0.017028440598100346 0 -0.0025517662528763774 -0.016815263438917448 0 -0.002844043230132019 -0.016916302538129358 0 -0.0026012491239114665 -0.017150547210781349 0 -0.0027418607783636457 -0.017452021535731249 0 -0.0026012491239114665 -0.017150547210781349 0 -0.0028995016079230865 -0.017217833635486353 0 -0.002844043230132019 -0.016916302538129358 0 -0.0026012491239114665 -0.017150547210781349 0 -0.0028995016079230865 -0.017217833635486353 0 -0.0032239602390605176 -0.016773588609403579 0 -0.0031086067111466705 -0.017051379459325708 0 -0.0033317930153550224 -0.017036930089467252 0 -0.0029954132919961965 -0.016746330202886447 0 -0.002844043230132019 -0.016916302538129358 0 -0.0031086067111466705 -0.017051379459325708 0 -0.002844043230132019 -0.016916302538129358 0 -0.0031086067111466705 -0.017051379459325708 0 -0.0028995016079230865 -0.017217833635486353 0 -0.0030957628906832647 -0.017413001520262494 0 -0.0031086067111466705 -0.017051379459325708 0 -0.0028995016079230865 -0.017217833635486353 0 -0.0030957628906832647 -0.017413001520262494 0 -0.0031086067111466705 -0.017051379459325708 0 -0.003338814911083393 -0.01726307128284555 0 -0.0031086067111466705 -0.017051379459325708 0 -0.003338814911083393 -0.01726307128284555 0 -0.0033317930153550224 -0.017036930089467252 0 -0.003607323227827878 -0.017371058547455159 0 -0.003338814911083393 -0.01726307128284555 0 -0.0035375328812324294 -0.01711600982909877 0 -0.003338814911083393 -0.01726307128284555 0 -0.0033317930153550224 -0.017036930089467252 0 -0.0035375328812324294 -0.01711600982909877 0 -0.0033317930153550224 -0.017036930089467252 0 -0.0035375328812324294 -0.01711600982909877 0 -0.0034532060575304955 -0.016877232173405112 0 -0.0032239602390605176 -0.016773588609403579 0 -0.0033317930153550224 -0.017036930089467252 0 -0.0034532060575304955 -0.016877232173405112 0 -0.0036816540946694731 -0.016932472985788066 0 -0.0035375328812324294 -0.01711600982909877 0 -0.0034532060575304955 -0.016877232173405112 0 -0.0036816540946694731 -0.016932472985788066 0 -0.0035375328812324294 -0.01711600982909877 0 -0.0038021159555902957 -0.017185032587030514 0 -0.003607323227827878 -0.017371058547455159 0 -0.0035375328812324294 -0.01711600982909877 0 -0.0038021159555902957 -0.017185032587030514 0 -0.0039279957774363029 -0.017439014465875823 0 -0.003607323227827878 -0.017371058547455159 0 -0.0038021159555902957 -0.017185032587030514 0 -0.0039279957774363029 -0.017439014465875823 0 -0.0038021159555902957 -0.017185032587030514 0 -0.0040674141666992691 -0.017116188709067559 0 -0.0039279957774363029 -0.017439014465875823 0 -0.0043016225651750116 -0.017506599026851113 0 -0.0040674141666992691 -0.017116188709067559 0 -0.0040674141666992691 -0.017116188709067559 0 -0.0038891969763963918 -0.017041858512821639 0 -0.0039088328124899877 -0.016857053765341422 0 -0.0038021159555902957 -0.017185032587030514 0 -0.0040674141666992691 -0.017116188709067559 0 -0.0038891969763963918 -0.017041858512821639 0 -0.0036816540946694731 -0.016932472985788066 0 -0.0038891969763963918 -0.017041858512821639 0 -0.0039088328124899877 -0.016857053765341422 0 -0.0036816540946694731 -0.016932472985788066 0 -0.0038021159555902957 -0.017185032587030514 0 -0.0038891969763963918 -0.017041858512821639 0 -0.0037133097538579163 -0.016470752178247845 0 -0.0038141727228314447 -0.016769413291296716 0 -0.0034517616687555078 -0.016583293265270031 0 -0.0039088328124899877 -0.016857053765341422 0 -0.0039589705005918449 -0.016740679538005277 0 -0.0034870136917757887 -0.016503269173447105 0 -0.0043576333675002287 -0.01772032565615999 0 -0.0042382724424939481 -0.018388850093642304 0 -0.0040674141666992691 -0.017116188709067559 0 -0.0039088328124899877 -0.016857053765341422 0 -0.0039580466285737128 -0.016745720947746349 0 -0.0042382724424939481 -0.018388850093642304 0 -0.0033023843369294264 -0.016448561643263922 0 -0.0032239602390605176 -0.016773588609403579 0 -0.0034870136917757887 -0.016503269173447105 0 -0.0034532060575304955 -0.016877232173405112 0 -0.0036816540946694731 -0.016932472985788066 0 -0.0034870136917757887 -0.016503269173447105 0 -0.0034532060575304955 -0.016877232173405112 0 -0.0036816540946694731 -0.016932472985788066 0 -0.0039088328124899877 -0.016857053765341422 0 -0.0034870136917757887 -0.016503269173447105 0 5.687984681406126e-10 -0.034999988093152253 0 1.2705450249005387e-08 -0.034997521600822534 0 7.1201376907696162e-07 -0.034998045836041596 0 -1.9286050826034487e-05 -0.03304441826002192 0 -0.00014225750842567696 -0.033163812273699349 0 -0.00010890776241272432 -0.032828986183362482 0 -9.297653363392661e-05 -0.033945800532042075 0 0.000181808498999003 -0.034533805038979258 0 0.00036139249618617221 -0.030290259574147809 0 0.000181808498999003 -0.034533805038979258 0 0.00014398387431470758 -0.033005907972926227 0 -1.9286050826034487e-05 -0.03304441826002192 0 -0.00010890776241272432 -0.032828986183362482 0 0.00014398387431470758 -0.033005907972926227 0 -1.9286050826034487e-05 -0.03304441826002192 0 3.5203379650503758e-05 -0.033184520553623649 0 0.00014398387431470758 -0.033005907972926227 0 3.5203379650503758e-05 -0.033184520553623649 0 0.00023937276229925902 -0.033396176135306647 0 3.5203379650503758e-05 -0.033184520553623649 0 -2.2733327707466582e-05 -0.033352953874362871 0 0.00023937276229925902 -0.033396176135306647 0 3.5203379650503758e-05 -0.033184520553623649 0 -0.00014225750842567696 -0.033163812273699349 0 -2.2733327707466582e-05 -0.033352953874362871 0 5.687984681406126e-10 -0.034999988093152253 0 1.2705450249005387e-08 -0.034997521600822534 0 -9.8026477347383479e-11 -0.034999995403774325 0 -1.9286050826034487e-05 -0.03304441826002192 0 3.5203379650503758e-05 -0.033184520553623649 0 -0.00014225750842567696 -0.033163812273699349 0 1.2705450249005387e-08 -0.034997521600822534 0 -9.8026477347383479e-11 -0.034999995403774325 0 -2.8491083734973943e-08 -0.03499893533278485 0 -0.00014225750842567696 -0.033163812273699349 0 -2.2733327707466582e-05 -0.033352953874362871 0 -0.00017260901060805057 -0.033521474755320579 0 -9.297653363392661e-05 -0.033945800532042075 0 -8.9270758896327294e-05 -0.034291595282462457 0 -3.6771050230878665e-05 -0.033515362500714352 0 -0.00017260901060805057 -0.033521474755320579 0 -4.8129363728424461e-05 -0.033613501640980807 0 -2.2733327707466582e-05 -0.033352953874362871 0 -3.6771050230878665e-05 -0.033515362500714352 0 -0.00017260901060805057 -0.033521474755320579 0 -1.9132415530038911e-09 -0.034999988361430964 0 -2.8154070415996441e-06 -0.034997101584814887 0 -2.8491083734973943e-08 -0.03499893533278485 0 -1.9132415530038911e-09 -0.034999988361430964 0 -9.8026477347383479e-11 -0.034999995403774325 0 -2.8491083734973943e-08 -0.03499893533278485 0 -0.00025102581388627293 -0.034011856787208319 0 -0.00017260901060805057 -0.033521474755320579 0 -0.00010914230486946285 -0.033759455958948185 0 -0.00010630890557608211 -0.034504038008972816 0 -8.9270758896327294e-05 -0.034291595282462457 0 -0.00017260901060805057 -0.033521474755320579 0 -4.8129363728424461e-05 -0.033613501640980807 0 -0.00010914230486946285 -0.033759455958948185 0 -4.8129363728424461e-05 -0.033613501640980807 0 -0.00010914230486946285 -0.033759455958948185 0 6.4176989235266758e-05 -0.03379211380881824 0 -6.3287535921433986e-05 -0.033900877227653101 0 -0.00010914230486946285 -0.033759455958948185 0 6.4176989235266758e-05 -0.03379211380881824 0 0.00022855918937512453 -0.033769408083190976 0 6.4176989235266758e-05 -0.03379211380881824 0 8.8376219867055683e-05 -0.033574844479974726 0 -3.6771050230878665e-05 -0.033515362500714352 0 -4.8129363728424461e-05 -0.033613501640980807 0 8.8376219867055683e-05 -0.033574844479974726 0 -4.8129363728424461e-05 -0.033613501640980807 0 6.4176989235266758e-05 -0.03379211380881824 0 8.8376219867055683e-05 -0.033574844479974726 0 -2.2733327707466582e-05 -0.033352953874362871 0 8.8376219867055683e-05 -0.033574844479974726 0 0.00023937276229925902 -0.033396176135306647 0 -2.2733327707466582e-05 -0.033352953874362871 0 -3.6771050230878665e-05 -0.033515362500714352 0 8.8376219867055683e-05 -0.033574844479974726 0 0.00043918381721923212 -0.025176328349632369 0 -0.00065531074805489601 -0.02479188779988788 0 0.000321883067565179 -0.02567241695456219 0 -0.00035303064280390906 -0.025089283018553399 0 0.00024112300150032638 -0.02559755433772078 0 -0.000249275516989711 -0.023430828886507205 0 0.00043918381721923212 -0.025176328349632369 0 -0.00065531074805489601 -0.02479188779988788 0 0.00022855918937512453 -0.033769408083190976 0 8.8376219867055683e-05 -0.033574844479974726 0 0.00023937276229925902 -0.033396176135306647 0 -1.5320086181782613e-05 -0.028638993301260397 0 0.00034340758348661341 -0.029204438054841797 0 -0.000249275516989711 -0.023430828886507205 0 -0.00091160632191168744 -0.023785610558022072 0 -0.00065531074805489601 -0.02479188779988788 0 -0.0010634191139406951 -0.023808592266895745 0 -0.00090412376528031877 -0.02379486001313148 0 -0.00035303064280390906 -0.025089283018553399 0 -0.00090412376528031877 -0.02379486001313148 0 -0.00091160632191168744 -0.023785610558022072 0 -0.00065531074805489601 -0.02479188779988788 0 -0.0015675555357366395 -0.023929853688280569 0 -0.00012638104917830735 -0.02526971584159321 0 -0.00028823895880351712 -0.025573948615678438 0 0.000321883067565179 -0.02567241695456219 0 -0.00012638104917830735 -0.02526971584159321 0 -0.00051457467816229798 -0.025225460398740889 0 -0.00060475758977029124 -0.02481948954240239 0 -0.00012638104917830735 -0.02526971584159321 0 -0.00028823895880351712 -0.025573948615678438 0 -0.00051457467816229798 -0.025225460398740889 0 -0.00028823895880351712 -0.025573948615678438 0 -0.00058161488898630898 -0.025507102161585582 0 -0.00051457467816229798 -0.025225460398740889 0 -0.00028823895880351712 -0.025573948615678438 0 -0.0001899219407173824 -0.025993820402277677 0 -0.00062067276918106092 -0.025839435896162919 0 -0.0001899219407173824 -0.025993820402277677 0 -0.00038439609106339387 -0.026232228866760146 0 -0.00062067276918106092 -0.025839435896162919 0 -0.0001899219407173824 -0.025993820402277677 0 0.00031829916273115616 -0.025993047089998819 0 6.3601265345946079e-05 -0.026361781136268154 0 -0.00028823895880351712 -0.025573948615678438 0 -0.0001899219407173824 -0.025993820402277677 0 0.00031829916273115616 -0.025993047089998819 0 -0.00013939779295031292 -0.02571144692545238 0 -4.4457605164560961e-06 -0.02575399622009808 0 0.00036139249618617221 -0.030290259574147809 0 0.00034340758348661341 -0.029204438054841797 0 0.00090100256006785931 -0.026800420177510394 0 0.000321883067565179 -0.02567241695456219 0 0.00011360437068960212 -0.026054108691166381 0 -0.00028823895880351712 -0.025573948615678438 0 0.000321883067565179 -0.02567241695456219 0 0.00011360437068960212 -0.026054108691166381 0 0.00090100256006785931 -0.026800420177510394 0 0.00043918381721923212 -0.025176328349632369 0 0.000321883067565179 -0.02567241695456219 0 0.00089755495591118534 -0.026452361252379059 0 0.00031829916273115616 -0.025993047089998819 0 6.3601265345946079e-05 -0.026361781136268154 0 0.00089755495591118534 -0.026452361252379059 0 6.3601265345946079e-05 -0.026361781136268154 0 0.00010189601268522197 -0.026846979951370229 0 0.00036139249618617221 -0.030290259574147809 0 -4.4457605164560961e-06 -0.02575399622009808 0 -0.00034415593141200374 -0.026710522570217034 0 6.3601265345946079e-05 -0.026361781136268154 0 0.00010189601268522197 -0.026846979951370229 0 -0.00034415593141200374 -0.026710522570217034 0 -0.00038439609106339387 -0.026232228866760146 0 6.3601265345946079e-05 -0.026361781136268154 0 -0.0001899219407173824 -0.025993820402277677 0 -0.00038439609106339387 -0.026232228866760146 0 6.3601265345946079e-05 -0.026361781136268154 0 -0.00034415593141200374 -0.026710522570217034 0 -0.00038439609106339387 -0.026232228866760146 0 -0.00083449323053744304 -0.026315126650880052 0 -0.00034415593141200374 -0.026710522570217034 0 -0.00083449323053744304 -0.026315126650880052 0 -0.00077735567951206746 -0.026802322033518913 0 -0.00083449323053744304 -0.026315126650880052 0 -0.0014856827909484405 -0.026576883518616395 0 -0.00077735567951206746 -0.026802322033518913 0 -0.00083449323053744304 -0.026315126650880052 0 -0.0014856827909484405 -0.026576883518616395 0 -0.0012026483631356784 -0.025929461291765789 0 -0.0012026483631356784 -0.025929461291765789 0 -0.0014655872203504269 -0.025485555451918062 0 -0.0018277814090832218 -0.025975820095389412 0 -0.0014856827909484405 -0.026576883518616395 0 -0.0012026483631356784 -0.025929461291765789 0 -0.0018277814090832218 -0.025975820095389412 0 -0.00083449323053744304 -0.026315126650880052 0 -0.0012026483631356784 -0.025929461291765789 0 -0.00062067276918106092 -0.025839435896162919 0 -0.0012026483631356784 -0.025929461291765789 0 -0.00062067276918106092 -0.025839435896162919 0 -0.00093627538521616027 -0.025426675817413643 0 -0.00038439609106339387 -0.026232228866760146 0 -0.00083449323053744304 -0.026315126650880052 0 -0.00062067276918106092 -0.025839435896162919 0 -0.00028823895880351712 -0.025573948615678438 0 -0.00062067276918106092 -0.025839435896162919 0 -0.00058161488898630898 -0.025507102161585582 0 -0.00062067276918106092 -0.025839435896162919 0 -0.00058161488898630898 -0.025507102161585582 0 -0.00093627538521616027 -0.025426675817413643 0 -0.00058161488898630898 -0.025507102161585582 0 -0.00093627538521616027 -0.025426675817413643 0 -0.00051457467816229798 -0.025225460398740889 0 -0.00093627538521616027 -0.025426675817413643 0 -0.00084317780001741318 -0.025110795958135541 0 -0.00051457467816229798 -0.025225460398740889 0 -0.00090412376528031877 -0.02379486001313148 0 -0.0011751024715672073 -0.024046237395196419 0 -0.00084317780001741318 -0.025110795958135541 0 -0.00060475758977029124 -0.02481948954240239 0 -0.0013194096244408392 -0.024970803517731278 0 -0.00084317780001741318 -0.025110795958135541 0 -0.00051457467816229798 -0.025225460398740889 0 -0.00060475758977029124 -0.02481948954240239 0 -0.0011396295460547887 -0.023334045678615689 0 -0.00091160632191168744 -0.023785610558022072 0 -0.0011805512285519429 -0.023707571460549252 0 -0.0013952251472467583 -0.022826905590699442 0 -0.001080634685262377 -0.022730813159438614 0 -0.0011105342297075135 -0.023108452900944203 0 -0.001080634685262377 -0.022730813159438614 0 -0.00074589777244710306 -0.023032393207238322 0 -0.0011105342297075135 -0.023108452900944203 0 -0.00093627538521616027 -0.025426675817413643 0 -0.00084317780001741318 -0.025110795958135541 0 -0.0013194096244408392 -0.024970803517731278 0 -0.00093627538521616027 -0.025426675817413643 0 -0.0013194096244408392 -0.024970803517731278 0 -0.0014655872203504269 -0.025485555451918062 0 -0.0012026483631356784 -0.025929461291765789 0 -0.00093627538521616027 -0.025426675817413643 0 -0.0014655872203504269 -0.025485555451918062 0 -0.0013194096244408392 -0.024970803517731278 0 -0.0014655872203504269 -0.025485555451918062 0 -0.0020447542457755021 -0.0251274466685809 0 -0.0014655872203504269 -0.025485555451918062 0 -0.0020447542457755021 -0.0251274466685809 0 -0.0018277814090832218 -0.025975820095389412 0 -0.0013952251472467583 -0.022826905590699442 0 -0.0011105342297075135 -0.023108452900944203 0 -0.0014738302547726977 -0.023228306569467807 0 -0.0011751024715672073 -0.024046237395196419 0 -0.0017705247368722133 -0.024171307018722683 0 -0.0013952251472467583 -0.022826905590699442 0 -0.0014738302547726977 -0.023228306569467807 0 -0.0017368822589790528 -0.022998703929902248 0 -0.0019046480649360399 -0.023402398872518833 0 -0.0014738302547726977 -0.023228306569467807 0 -0.0017368822589790528 -0.022998703929902248 0 -0.0027722946011643039 -0.025284305956142217 0 -0.0020447542457755021 -0.0251274466685809 0 -0.0025018438234092428 -0.025952345105353405 0 -0.0023259879245777467 -0.024499991911680407 0 -0.0017705247368722133 -0.024171307018722683 0 -0.0020447542457755021 -0.0251274466685809 0 -0.0025018438234092428 -0.025952345105353405 0 -0.0018277814090832218 -0.025975820095389412 0 -0.0014856827909484405 -0.026576883518616395 0 -0.0018277814090832218 -0.025975820095389412 0 -0.0022236252894496521 -0.026619810212690404 0 -0.0025018438234092428 -0.025952345105353405 0 -0.0018277814090832218 -0.025975820095389412 0 -0.0022236252894496521 -0.026619810212690404 0 -0.0027204435080399598 -0.026085894049816816 0 -0.0022886364174528021 -0.025504376946365384 0 -0.0020627827891403824 -0.026404575619629365 0 -0.0024031917090679158 -0.025797315733471424 0 -0.0021522578840007731 -0.026500322459815588 0 -0.0027293918436442498 -0.026622017543126729 0 -0.0020627827891403824 -0.026404575619629365 0 -0.0024684698593429046 -0.027350424602974124 0 -0.0021522578840007731 -0.026500322459815588 0 -0.001945136860848737 -0.027180847895884836 0 -0.0020627827891403824 -0.026404575619629365 0 -0.0019400599053395829 -0.027261984026514852 0 -0.0024684698593429046 -0.027350424602974124 0 -0.0014856827909484405 -0.026576883518616395 0 -0.0022236252894496521 -0.026619810212690404 0 -0.0019400599053395829 -0.027261984026514852 0 -0.0014856827909484405 -0.026576883518616395 0 -0.0019400599053395829 -0.027261984026514852 0 -0.0012900213564558971 -0.027165039467354751 0 -0.0019400599053395829 -0.027261984026514852 0 -0.00156651547005424 -0.027736812111801009 0 -0.0012900213564558971 -0.027165039467354751 0 -0.0019400599053395829 -0.027261984026514852 0 -0.002161922988203615 -0.027980642311517111 0 -0.00156651547005424 -0.027736812111801009 0 -0.0027575829963104809 -0.027992792049155241 0 -0.0024684698593429046 -0.027350424602974124 0 -0.002161922988203615 -0.027980642311517111 0 -0.0019400599053395829 -0.027261984026514852 0 -0.0024684698593429046 -0.027350424602974124 0 -0.002161922988203615 -0.027980642311517111 0 -0.0027575829963104809 -0.027992792049155241 0 -0.002161922988203615 -0.027980642311517111 0 -0.0026782732176932663 -0.028613829747940359 0 -0.002161922988203615 -0.027980642311517111 0 -0.0026782732176932663 -0.028613829747940359 0 -0.0020672822530360901 -0.028818224259917188 0 -0.0020672822530360901 -0.028818224259917188 0 -0.001659843452147602 -0.028350582544099473 0 -0.0015605876918382143 -0.029145560745854455 0 -0.002161922988203615 -0.027980642311517111 0 -0.0020672822530360901 -0.028818224259917188 0 -0.001659843452147602 -0.028350582544099473 0 -0.002161922988203615 -0.027980642311517111 0 -0.001659843452147602 -0.028350582544099473 0 -0.00156651547005424 -0.027736812111801009 0 -0.001659843452147602 -0.028350582544099473 0 -0.0011024929480470858 -0.028140744275268515 0 -0.0010050450779829046 -0.028894622025610189 0 -0.001659843452147602 -0.028350582544099473 0 -0.0011024929480470858 -0.028140744275268515 0 -0.00156651547005424 -0.027736812111801009 0 -0.001659843452147602 -0.028350582544099473 0 -0.0010050450779829046 -0.028894622025610189 0 -0.0015605876918382143 -0.029145560745854455 0 -0.0010050450779829046 -0.028894622025610189 0 -0.000315665979743039 -0.028925223219547387 0 -0.00055143972704238694 -0.029442719224988315 0 -0.0010050450779829046 -0.028894622025610189 0 -0.00056152927152587119 -0.028410343232242018 0 -0.000315665979743039 -0.028925223219547387 0 -0.0011024929480470858 -0.028140744275268515 0 -0.0010050450779829046 -0.028894622025610189 0 -0.00056152927152587119 -0.028410343232242018 0 -0.0011024929480470858 -0.028140744275268515 0 -0.00056152927152587119 -0.028410343232242018 0 -0.0006629007686406686 -0.027807481508042648 0 -0.00056152927152587119 -0.028410343232242018 0 -0.0006629007686406686 -0.027807481508042648 0 -0.00011907819823379381 -0.027905041025430236 0 -0.0006629007686406686 -0.027807481508042648 0 -0.00083582511379068391 -0.02733085390584903 0 -0.00033048286257414026 -0.027271392365803577 0 -0.0006629007686406686 -0.027807481508042648 0 -0.00083582511379068391 -0.02733085390584903 0 -0.0011051033613043171 -0.027619436032154426 0 -0.0011024929480470858 -0.028140744275268515 0 -0.0006629007686406686 -0.027807481508042648 0 -0.0011051033613043171 -0.027619436032154426 0 -0.0011051033613043171 -0.027619436032154426 0 -0.00156651547005424 -0.027736812111801009 0 -0.0012900213564558971 -0.027165039467354751 0 -0.0011024929480470858 -0.028140744275268515 0 -0.0011051033613043171 -0.027619436032154426 0 -0.00156651547005424 -0.027736812111801009 0 -0.00083582511379068391 -0.02733085390584903 0 -0.0011051033613043171 -0.027619436032154426 0 -0.0012900213564558971 -0.027165039467354751 0 -0.0014856827909484405 -0.026576883518616395 0 -0.0012900213564558971 -0.027165039467354751 0 -0.00077735567951206746 -0.026802322033518913 0 -0.00034415593141200374 -0.026710522570217034 0 -0.00077735567951206746 -0.026802322033518913 0 -0.00033048286257414026 -0.027271392365803577 0 -0.00083582511379068391 -0.02733085390584903 0 -0.00077735567951206746 -0.026802322033518913 0 -0.00033048286257414026 -0.027271392365803577 0 -0.00083582511379068391 -0.02733085390584903 0 -0.0012900213564558971 -0.027165039467354751 0 -0.00077735567951206746 -0.026802322033518913 0 -0.00033048286257414026 -0.027271392365803577 0 0.00010189601268522197 -0.026846979951370229 0 0.00036986664798065785 -0.027357079880488317 0 -0.00034415593141200374 -0.026710522570217034 0 -0.00033048286257414026 -0.027271392365803577 0 0.00010189601268522197 -0.026846979951370229 0 0.00089755495591118534 -0.026452361252379059 0 0.00010189601268522197 -0.026846979951370229 0 0.00036986664798065785 -0.027357079880488317 0 0.00036986664798065785 -0.027357079880488317 0 -0.00011907819823379381 -0.027905041025430236 0 0.00044384284129200477 -0.028103150714311218 0 0.00036986664798065785 -0.027357079880488317 0 0.00044384284129200477 -0.028103150714311218 0 0.0012152037881565558 -0.027529791776618101 0 -0.0006629007686406686 -0.027807481508042648 0 -0.00033048286257414026 -0.027271392365803577 0 -0.00011907819823379381 -0.027905041025430236 0 -0.00033048286257414026 -0.027271392365803577 0 0.00036986664798065785 -0.027357079880488317 0 -0.00011907819823379381 -0.027905041025430236 0 -0.00011907819823379381 -0.027905041025430236 0 3.3321735777546639e-05 -0.028497563247438705 0 0.00044384284129200477 -0.028103150714311218 0 -0.00056152927152587119 -0.028410343232242018 0 -0.00011907819823379381 -0.027905041025430236 0 3.3321735777546639e-05 -0.028497563247438705 0 -0.00056152927152587119 -0.028410343232242018 0 3.3321735777546639e-05 -0.028497563247438705 0 -0.000315665979743039 -0.028925223219547387 0 3.3321735777546639e-05 -0.028497563247438705 0 -0.000315665979743039 -0.028925223219547387 0 0.00025075019693310209 -0.029057155308002194 0 -0.000315665979743039 -0.028925223219547387 0 0.00025075019693310209 -0.029057155308002194 0 -7.3131425943131421e-05 -0.029258721870377986 0 0.00072531029005389741 -0.028936496335647682 0 0.00095694082283681614 -0.02928921806290757 0 0.00062063957839124731 -0.029283247237651421 0 0.00072531029005389741 -0.028936496335647682 0 0.00025075019693310209 -0.029057155308002194 0 0.00062063957839124731 -0.029283247237651421 0 3.3321735777546639e-05 -0.028497563247438705 0 0.00025075019693310209 -0.029057155308002194 0 0.00047353397079873035 -0.028610099254078866 0 0.00072531029005389741 -0.028936496335647682 0 0.00025075019693310209 -0.029057155308002194 0 0.00047353397079873035 -0.028610099254078866 0 0.00072531029005389741 -0.028936496335647682 0 0.00047353397079873035 -0.028610099254078866 0 0.00091513002175305585 -0.028460735879673352 0 0.00047353397079873035 -0.028610099254078866 0 0.00044384284129200477 -0.028103150714311218 0 0.00091513002175305585 -0.028460735879673352 0 3.3321735777546639e-05 -0.028497563247438705 0 0.00047353397079873035 -0.028610099254078866 0 0.00044384284129200477 -0.028103150714311218 0 0.00091513002175305585 -0.028460735879673352 0 0.001580803545272749 -0.028657089680602394 0 0.0012152037881565558 -0.027529791776618101 0 0.00079370241675013264 -0.031752229281200244 0 0.00055933476472001277 -0.031304716743617365 0 0.00044384284129200477 -0.028103150714311218 0 0.00091513002175305585 -0.028460735879673352 0 0.0012152037881565558 -0.027529791776618101 0 0.00072531029005389741 -0.028936496335647682 0 0.00091513002175305585 -0.028460735879673352 0 0.0012048239046754312 -0.028833246170034535 0 0.00091513002175305585 -0.028460735879673352 0 0.0012048239046754312 -0.028833246170034535 0 0.001580803545272749 -0.028657089680602394 0 0.00072531029005389741 -0.028936496335647682 0 0.0012048239046754312 -0.028833246170034535 0 0.00095694082283681614 -0.02928921806290757 0 0.0012048239046754312 -0.028833246170034535 0 0.001580803545272749 -0.028657089680602394 0 0.0019898833415009222 -0.030161765541878129 0 -6.3583398862330203e-06 -0.034997502029057 0 1.1224593982869105e-05 -0.034980470920140713 0 1.9403706634375177e-08 -0.034999897125850228 0 -6.3583398862330203e-06 -0.034997502029057 0 -4.3177418566766061e-08 -0.035000075437907861 0 1.9403706634375177e-08 -0.034999897125850228 0 0.00079370241675013264 -0.031752229281200244 0 0.00087270736425957857 -0.03289239115820787 0 -6.3583398862330203e-06 -0.034997502029057 0 -4.3177418566766061e-08 -0.035000075437907861 0 -1.8682760767445712e-05 -0.03498620780237318 0 -4.3177418566766061e-08 -0.035000075437907861 0 -1.8682760767445712e-05 -0.03498620780237318 0 6.7412240033556076e-08 -0.03499969979837643 0 -6.3583398862330203e-06 -0.034997502029057 0 -1.8682760767445712e-05 -0.03498620780237318 0 -0.00010379104898816881 -0.034961139558843987 0 -1.8682760767445712e-05 -0.03498620780237318 0 -2.4194664716119884e-05 -0.034955212075435567 0 6.7412240033556076e-08 -0.03499969979837643 0 -1.8682760767445712e-05 -0.03498620780237318 0 -2.4194664716119884e-05 -0.034955212075435567 0 -0.00010379104898816881 -0.034961139558843987 0 0.00089755495591118534 -0.026452361252379059 0 0.00036986664798065785 -0.027357079880488317 0 0.0012152037881565558 -0.027529791776618101 0 0.00036139249618617221 -0.030290259574147809 0 0.00055933476472001277 -0.031304716743617365 0 -0.00023064139966882849 -0.034578755052939204 0 -0.00010379104898816881 -0.034961139558843987 0 -7.8824611353052881e-06 -0.034846260620335898 0 5.687984681406126e-10 -0.034999988093152253 0 7.1201376907696162e-07 -0.034998045836041596 0 1.2099400737456078e-09 -0.034999997614747529 0 0.000181808498999003 -0.034533805038979258 0 1.5483357883812465e-07 -0.034999756109265236 0 -2.4194664716119884e-05 -0.034955212075435567 0 -7.8824611353052881e-06 -0.034846260620335898 0 6.7412240033556076e-08 -0.03499969979837643 0 -2.4194664716119884e-05 -0.034955212075435567 0 -0.00010379104898816881 -0.034961139558843987 0 -7.8824611353052881e-06 -0.034846260620335898 0 -2.7533076305395764e-08 -0.035000820399888291 0 1.9287710303609216e-08 -0.034999938701261848 0 -5.4498944668236611e-09 -0.035000022838651369 0 6.743461621083471e-05 -0.034985737314477447 0 3.932570807150353e-05 -0.034993878649463045 0 4.5898218810102978e-05 -0.035001309815336466 0 0.0013823276335885426 -0.032027322997230545 0 0.00098721394231490994 -0.03180006481544731 0 0.0011537722282068865 -0.031350772734026103 0 0.0013823276335885426 -0.032027322997230545 0 0.00098721394231490994 -0.03180006481544731 0 0.00076851001601106403 -0.032216667781878608 0 0.0011537722282068865 -0.031350772734026103 0 0.0017155594820744916 -0.031005081608501957 0 0.0016297581570004908 -0.030648859210110017 0 0.0011537722282068865 -0.031350772734026103 0 0.0016297581570004908 -0.030648859210110017 0 0.00051931257166476519 -0.031064769212034823 0 0.0013823276335885426 -0.032027322997230545 0 0.0011537722282068865 -0.031350772734026103 0 0.0017155594820744916 -0.031005081608501957 0 0.00098721394231490994 -0.03180006481544731 0 0.0011537722282068865 -0.031350772734026103 0 0.00063517428212280424 -0.031626355785261927 0 6.743461621083471e-05 -0.034985737314477447 0 3.932570807150353e-05 -0.034993878649463045 0 5.9443418534072369e-05 -0.034879818405037587 0 0.00075445593316209741 -0.033392739300079216 0 0.00072732582468917233 -0.033486997606998976 0 -2.7533076305395764e-08 -0.035000820399888291 0 -1.1999369569755742e-05 -0.034986075474549509 0 1.9287710303609216e-08 -0.034999938701261848 0 1.8250538233029966e-05 -0.035261206962801508 0 0.00072732582468917233 -0.033486997606998976 0 1.5474223760172838e-07 -0.035000415809984545 0 0.00035032540155789936 -0.034273947969742709 0 1.9287710303609216e-08 -0.034999938701261848 0 -2.588716594068861e-06 -0.034949496929215153 0 5.0224080356788859e-06 -0.034945824708238649 0 -1.1999369569755742e-05 -0.034986075474549509 0 1.9287710303609216e-08 -0.034999938701261848 0 -2.588716594068861e-06 -0.034949496929215153 0 6.2222889373986506e-10 -0.034999999668850458 0 6.283406828863904e-07 -0.03499901740016495 0 1.5519108637582953e-09 -0.034999993793694784 0 0.00072732582468917233 -0.033486997606998976 0 0.00057992507910391126 -0.033584205709419744 0 0.00096132413442646903 -0.03299616892508795 0 0.00091292133228750027 -0.03279960738796539 0 0.0010492789015597408 -0.032745194295100824 0 0.00072732582468917233 -0.033486997606998976 0 0.0014260234039076504 -0.03159299315060074 0 0.0014260234039076504 -0.03159299315060074 0 0.00057992507910391126 -0.033584205709419744 0 0.0011941836748844024 -0.032051450852160678 0 0.0010484791578425246 -0.032300463290495088 0 0.00092858173616557852 -0.032161081880829202 0 0.0011941836748844024 -0.032051450852160678 0 0.0010484791578425246 -0.032300463290495088 0 0.0012734315571926399 -0.032373057277761456 0 0.0014260234039076504 -0.03159299315060074 0 0.0014416357210772055 -0.030656380043782908 0 0.00057992507910391126 -0.033584205709419744 0 0.00035032540155789936 -0.034273947969742709 0 0.0010484791578425246 -0.032300463290495088 0 0.00092858173616557852 -0.032161081880829202 0 0.00085793685851675704 -0.032353399587854159 0 3.700028879843519e-06 -0.034995238678254555 0 3.6265395138940335e-06 -0.034997062883205081 0 1.5601312449662015e-06 -0.034998696945004674 0 0.00057992507910391126 -0.033584205709419744 0 0.00056185116758386501 -0.033620604363016456 0 0.00035032540155789936 -0.034273947969742709 0 0.00056185116758386501 -0.033620604363016456 0 0.00036011415579205404 -0.033968003136143503 0 0.00042350723816298168 -0.033942368513304372 0 0.00040027060685455954 -0.033854734458461495 0 3.700028879843519e-06 -0.034995238678254555 0 2.4468589457832376e-09 -0.03499998888354143 0 1.5601312449662015e-06 -0.034998696945004674 0 0.00035032540155789936 -0.034273947969742709 0 3.3550171773745927e-08 -0.034998759821523805 0 0.0012048239046754312 -0.028833246170034535 0 0.0019898833415009222 -0.030161765541878129 0 0.0015153456785096031 -0.030286713180958574 0 1.5601312449662015e-06 -0.034998696945004674 0 2.0056427535163503e-06 -0.034998633077701909 0 9.1526262603183017e-10 -0.03500000269071929 0 2.4468589457832376e-09 -0.03499998888354143 0 1.5601312449662015e-06 -0.034998696945004674 0 9.1526262603183017e-10 -0.03500000269071929 0 3.4850125420113557e-07 -0.034998650329704652 0 2.1410294325571178e-09 -0.034999993921197119 0 -1.9213875409703932e-09 -0.035000001138004951 0 7.9063337825002119e-06 -0.034981185311848094 0 1.1224593982869105e-05 -0.034980470920140713 0 1.9403706634375177e-08 -0.034999897125850228 0 3.6265395138940335e-06 -0.034997062883205081 0 1.5601312449662015e-06 -0.034998696945004674 0 2.0056427535163503e-06 -0.034998633077701909 0 0.00025243839659981517 -0.033998405382210557 0 -6.5243618827812118e-08 -0.034997741225709353 0 0.0010484791578425246 -0.032300463290495088 0 0.00085793685851675704 -0.032353399587854159 0 0.00089095626829118423 -0.032478487525236188 0 0.00025243839659981517 -0.033998405382210557 0 0.00087270736425957857 -0.03289239115820787 0 0.00056185116758386501 -0.033620604363016456 0 0.00087270736425957857 -0.03289239115820787 0 0.00080835096262800606 -0.033547666535451749 0 0.0009745921505859874 -0.033086807474667274 0 0.00070544066560143442 -0.033157282894596948 0 0.00056185116758386501 -0.033620604363016456 0 0.00025243839659981517 -0.033998405382210557 0 0.0010484791578425246 -0.032300463290495088 0 0.00089095626829118423 -0.032478487525236188 0 0.0012734315571926399 -0.032373057277761456 0 0.00087270736425957857 -0.03289239115820787 0 0.0014416357210772055 -0.030656380043782908 0 0.00025243839659981517 -0.033998405382210557 0 -1.4868856183754526e-07 -0.035000242457175125 0 0.0012046314988036432 -0.028645166886549962 0 0.0014416357210772055 -0.030656380043782908 0 0.001460694258593756 -0.029819623781257049 0 0.00095694082283681614 -0.02928921806290757 0 0.00079374698551240336 -0.029592857041511111 0 0.0012048239046754312 -0.028833246170034535 0 0.001460694258593756 -0.029819623781257049 0 0.00095694082283681614 -0.02928921806290757 0 0.001460694258593756 -0.029819623781257049 0 0.00040131247927098745 -0.0301339075702436 0 0.00079374698551240336 -0.029592857041511111 0 0.0014260234039076504 -0.03159299315060074 0 0.00069792457873949247 -0.030751266690584755 0 0.0017223040888578217 -0.030035055987980293 0 0.0011871977717266829 -0.030367295828478792 0 0.00053793554051540784 -0.030309009732068595 0 0.0017932096644468945 -0.030341766224775923 0 0.0011871977717266829 -0.030367295828478792 0 0.00071191682990885176 -0.030783144268875795 0 0.0014416357210772055 -0.030656380043782908 0 0.00049974256106882222 -0.0301157424695736 0 0.0017932096644468945 -0.030341766224775923 0 0.0017223040888578217 -0.030035055987980293 0 0.0011871977717266829 -0.030367295828478792 0 0.0011871977717266829 -0.030367295828478792 0 0.00053793554051540784 -0.030309009732068595 0 0.00071191682990885176 -0.030783144268875795 0 0.00053793554051540784 -0.030309009732068595 0 -3.9778178713570883e-05 -0.030760874762229076 0 0.00071191682990885176 -0.030783144268875795 0 0.00040131247927098745 -0.0301339075702436 0 0.00079374698551240336 -0.029592857041511111 0 0.00036618341893406345 -0.029539213407808629 0 0.00040131247927098745 -0.0301339075702436 0 0.00036618341893406345 -0.029539213407808629 0 -2.9187323670862817e-05 -0.02967506533560399 0 0.00025075019693310209 -0.029057155308002194 0 0.00036618341893406345 -0.029539213407808629 0 0.00062063957839124731 -0.029283247237651421 0 0.00095694082283681614 -0.02928921806290757 0 0.00079374698551240336 -0.029592857041511111 0 0.00062063957839124731 -0.029283247237651421 0 0.00079374698551240336 -0.029592857041511111 0 0.00036618341893406345 -0.029539213407808629 0 0.00062063957839124731 -0.029283247237651421 0 -0.000315665979743039 -0.028925223219547387 0 -7.3131425943131421e-05 -0.029258721870377986 0 -0.00055143972704238694 -0.029442719224988315 0 -7.3131425943131421e-05 -0.029258721870377986 0 -2.9187323670862817e-05 -0.02967506533560399 0 -0.00055143972704238694 -0.029442719224988315 0 0.00025075019693310209 -0.029057155308002194 0 0.00036618341893406345 -0.029539213407808629 0 -7.3131425943131421e-05 -0.029258721870377986 0 0.00036618341893406345 -0.029539213407808629 0 -7.3131425943131421e-05 -0.029258721870377986 0 -2.9187323670862817e-05 -0.02967506533560399 0 -2.9187323670862817e-05 -0.02967506533560399 0 -0.00043671704743630612 -0.02994916916356306 0 -0.00055143972704238694 -0.029442719224988315 0 0.00040131247927098745 -0.0301339075702436 0 -0.00081684281583984406 -0.030573650947830957 0 -0.00043671704743630612 -0.02994916916356306 0 0.00053793554051540784 -0.030309009732068595 0 -3.9778178713570883e-05 -0.030760874762229076 0 -0.00081684281583984406 -0.030573650947830957 0 0.00049974256106882222 -0.0301157424695736 0 -0.00079247208987920045 -0.030592221289334889 0 0.00040131247927098745 -0.0301339075702436 0 -2.9187323670862817e-05 -0.02967506533560399 0 -0.00043671704743630612 -0.02994916916356306 0 0.00069792457873949247 -0.030751266690584755 0 -0.00058798676458979553 -0.031408827696648059 0 -3.9778178713570883e-05 -0.030760874762229076 0 0.00071191682990885176 -0.030783144268875795 0 -0.00058792671667683291 -0.031364407122163693 0 0.00051931257166476519 -0.031064769212034823 0 0.00010464484633815193 -0.03157949564983896 0 -0.00058792671667683291 -0.031364407122163693 0 0.0011537722282068865 -0.031350772734026103 0 0.00051931257166476519 -0.031064769212034823 0 0.00063517428212280424 -0.031626355785261927 0 0.00051931257166476519 -0.031064769212034823 0 0.00063517428212280424 -0.031626355785261927 0 0.00010464484633815193 -0.03157949564983896 0 0.00063517428212280424 -0.031626355785261927 0 0.00023549365704804784 -0.032036949139785706 0 0.00010464484633815193 -0.03157949564983896 0 0.00098721394231490994 -0.03180006481544731 0 0.00063517428212280424 -0.031626355785261927 0 0.00076851001601106403 -0.032216667781878608 0 0.00063517428212280424 -0.031626355785261927 0 0.00076851001601106403 -0.032216667781878608 0 0.00023549365704804784 -0.032036949139785706 0 0.00076851001601106403 -0.032216667781878608 0 0.00023549365704804784 -0.032036949139785706 0 0.00034386586153330206 -0.032640757939051843 0 0.00023549365704804784 -0.032036949139785706 0 -0.00030804154151747539 -0.031921053517090014 0 -0.00015472799633826624 -0.032466438423002654 0 -0.00030804154151747539 -0.031921053517090014 0 0.00010464484633815193 -0.03157949564983896 0 -0.00058792671667683291 -0.031364407122163693 0 -0.00030804154151747539 -0.031921053517090014 0 -0.00063025962483050449 -0.032307986287375086 0 -0.00015472799633826624 -0.032466438423002654 0 0.00023549365704804784 -0.032036949139785706 0 -0.00030804154151747539 -0.031921053517090014 0 0.00010464484633815193 -0.03157949564983896 0 -0.00081898061217147299 -0.031815603784079279 0 -0.0010446033719726298 -0.031326674078547272 0 -0.00058792671667683291 -0.031364407122163693 0 -0.00081898061217147299 -0.031815603784079279 0 -0.0013112656601849235 -0.031740269974602081 0 -0.0010446033719726298 -0.031326674078547272 0 -0.00030804154151747539 -0.031921053517090014 0 -0.00081898061217147299 -0.031815603784079279 0 -0.00058792671667683291 -0.031364407122163693 0 -0.00081898061217147299 -0.031815603784079279 0 -0.0010703493826475679 -0.032217172071170634 0 -0.00063025962483050449 -0.032307986287375086 0 -0.00030804154151747539 -0.031921053517090014 0 -0.00081898061217147299 -0.031815603784079279 0 -0.00063025962483050449 -0.032307986287375086 0 -0.00081898061217147299 -0.031815603784079279 0 -0.0010703493826475679 -0.032217172071170634 0 -0.0013112656601849235 -0.031740269974602081 0 -0.0010703493826475679 -0.032217172071170634 0 -0.0016798833654410848 -0.031764728907679576 0 -0.0013112656601849235 -0.031740269974602081 0 -0.0016417623257126805 -0.031722766250605897 0 -0.0013112656601849235 -0.031740269974602081 0 -0.00135032130951766 -0.030982713481254632 0 -0.0016133736102116078 -0.031037556653794641 0 -0.0014575811671954113 -0.031311598373975853 0 -0.0016133736102116078 -0.031037556653794641 0 -0.0024931441812226863 -0.029360975487248007 0 -0.0016417623257126805 -0.031722766250605897 0 -0.00135032130951766 -0.030982713481254632 0 -0.0020636118152130229 -0.030661319245552255 0 -0.0013112656601849235 -0.031740269974602081 0 -0.00135032130951766 -0.030982713481254632 0 -0.0010446033719726298 -0.031326674078547272 0 -0.00135032130951766 -0.030982713481254632 0 -0.0010446033719726298 -0.031326674078547272 0 -0.00081684281583984406 -0.030573650947830957 0 -3.9778178713570883e-05 -0.030760874762229076 0 -0.00058792671667683291 -0.031364407122163693 0 -0.00081684281583984406 -0.030573650947830957 0 -0.0010446033719726298 -0.031326674078547272 0 -0.00058792671667683291 -0.031364407122163693 0 -0.00081684281583984406 -0.030573650947830957 0 -0.00081684281583984406 -0.030573650947830957 0 -0.00043671704743630612 -0.02994916916356306 0 -0.0012081750024299232 -0.029907552576503998 0 -0.00043671704743630612 -0.02994916916356306 0 -0.00055143972704238694 -0.029442719224988315 0 -0.0012081750024299232 -0.029907552576503998 0 -0.0010050450779829046 -0.028894622025610189 0 -0.00055143972704238694 -0.029442719224988315 0 -0.0012081750024299232 -0.029907552576503998 0 -0.0010050450779829046 -0.028894622025610189 0 -0.0015605876918382143 -0.029145560745854455 0 -0.0012081750024299232 -0.029907552576503998 0 -0.0015605876918382143 -0.029145560745854455 0 -0.0012081750024299232 -0.029907552576503998 0 -0.0018359959311441446 -0.029792685651270422 0 -0.00135032130951766 -0.030982713481254632 0 -0.00081684281583984406 -0.030573650947830957 0 -0.0012081750024299232 -0.029907552576503998 0 -0.00135032130951766 -0.030982713481254632 0 -0.0012081750024299232 -0.029907552576503998 0 -0.0020636118152130229 -0.030661319245552255 0 -0.0012081750024299232 -0.029907552576503998 0 -0.0018359959311441446 -0.029792685651270422 0 -0.0020636118152130229 -0.030661319245552255 0 -0.0018359959311441446 -0.029792685651270422 0 -0.0024075644599093481 -0.029644676358856113 0 -0.0020636118152130229 -0.030661319245552255 0 -0.0025404959451300279 -0.029118228334007672 0 -0.0024931441812226863 -0.029360975487248007 0 -0.0027510169202562959 -0.028500355059316088 0 -0.0027133034583494155 -0.02840850564765084 0 -0.002712924788429656 -0.028423013421062539 0 -0.0020672822530360901 -0.028818224259917188 0 -0.0018359959311441446 -0.029792685651270422 0 -0.0024075644599093481 -0.029644676358856113 0 -0.0020672822530360901 -0.028818224259917188 0 -0.0015605876918382143 -0.029145560745854455 0 -0.0018359959311441446 -0.029792685651270422 0 -0.0026782732176932663 -0.028613829747940359 0 -0.0027510169202562959 -0.028500355059316088 0 -0.0027120213037614398 -0.028571400549397455 0 -0.0026782732176932663 -0.028613829747940359 0 -0.0020672822530360901 -0.028818224259917188 0 -0.0024075644599093481 -0.029644676358856113 0 -0.0026938593331643241 -0.028653457814849403 0 -0.0025404959451300279 -0.029118228334007672 0 -0.0027510169202562959 -0.028500355059316088 0 -0.0027325638709681183 -0.028432352716566099 0 -0.0027120213037614398 -0.028571400549397455 0 -0.0027510169202562959 -0.028500355059316088 0 -0.0027325638709681183 -0.028432352716566099 0 -0.0027133034583494155 -0.02840850564765084 0 -0.0027325638709681183 -0.028432352716566099 0 -0.0026966338664090378 -0.028378920149072839 0 -0.0026853760899595404 -0.028280678839577401 0 -0.0026966338664090378 -0.028378920149072839 0 -0.0026918894504580717 -0.028435066271624024 0 -0.002698213970790818 -0.028385784956346884 0 -0.0027325638709681183 -0.028432352716566099 0 -0.0026966338664090378 -0.028378920149072839 0 -0.0027133034583494155 -0.02840850564765084 0 -0.0026966338664090378 -0.028378920149072839 0 -0.0027133034583494155 -0.02840850564765084 0 -0.0026918894504580717 -0.028435066271624024 0 -0.0026711934799458869 -0.028462239969807599 0 -0.002712924788429656 -0.028423013421062539 0 -0.0026939011288201484 -0.02843608565786938 0 -0.0027133034583494155 -0.02840850564765084 0 -0.002712924788429656 -0.028423013421062539 0 -0.0026939011288201484 -0.02843608565786938 0 -0.0027133034583494155 -0.02840850564765084 0 -0.0026939011288201484 -0.02843608565786938 0 -0.0026918894504580717 -0.028435066271624024 0 -0.001345254017046871 -0.032484079403545717 0 -0.0018256637360636973 -0.032506140388891283 0 -0.00166383280645744 -0.032723832757124573 0 -0.0026711934799458869 -0.028462239969807599 0 -0.0026939011288201484 -0.02843608565786938 0 -0.0026918894504580717 -0.028435066271624024 0 -0.001345254017046871 -0.032484079403545717 0 -0.00166383280645744 -0.032723832757124573 0 -0.0014720862714158894 -0.032808092194881129 0 -0.0016133736102116078 -0.031037556653794641 0 -0.0023468477436628561 -0.030420947989928077 0 -0.0023468477436628561 -0.030420947989928077 0 -0.0024551688829996523 -0.030455983991126818 0 -0.0018256637360636973 -0.032506140388891283 0 -0.0018466350535532394 -0.032890441041989384 0 -0.0021362815617567473 -0.032788590457226451 0 -0.0018256637360636973 -0.032506140388891283 0 -0.0018466350535532394 -0.032890441041989384 0 -0.00166383280645744 -0.032723832757124573 0 -0.0018466350535532394 -0.032890441041989384 0 -0.0020506132933163978 -0.033084787215265199 0 -0.0021362815617567473 -0.032788590457226451 0 -0.00166383280645744 -0.032723832757124573 0 -0.0014720862714158894 -0.032808092194881129 0 -0.0015866985406610727 -0.033029240853036552 0 -0.0018466350535532394 -0.032890441041989384 0 -0.00166383280645744 -0.032723832757124573 0 -0.0015866985406610727 -0.033029240853036552 0 -0.0018466350535532394 -0.032890441041989384 0 -0.0015866985406610727 -0.033029240853036552 0 -0.0017958030097536906 -0.033183855062834819 0 -0.0015866985406610727 -0.033029240853036552 0 -0.0015908973159595714 -0.033314906042818088 0 -0.0017958030097536906 -0.033183855062834819 0 -0.0015866985406610727 -0.033029240853036552 0 -0.0015908973159595714 -0.033314906042818088 0 -0.0013459653091863208 -0.033255407377843507 0 -0.0015908973159595714 -0.033314906042818088 0 -0.0017958030097536906 -0.033183855062834819 0 -0.0017579001099358236 -0.033371535393901551 0 -0.0018466350535532394 -0.032890441041989384 0 -0.0017958030097536906 -0.033183855062834819 0 -0.0020506132933163978 -0.033084787215265199 0 -0.0017958030097536906 -0.033183855062834819 0 -0.0020506132933163978 -0.033084787215265199 0 -0.0019447522730462877 -0.033350498354723083 0 -0.0017958030097536906 -0.033183855062834819 0 -0.0019447522730462877 -0.033350498354723083 0 -0.0017579001099358236 -0.033371535393901551 0 -0.0019447522730462877 -0.033350498354723083 0 -0.0017332197485339519 -0.033549329574213985 0 -0.0017579001099358236 -0.033371535393901551 0 -0.0019447522730462877 -0.033350498354723083 0 -0.0019581678523775364 -0.033561687895943333 0 -0.0017332197485339519 -0.033549329574213985 0 -0.0019447522730462877 -0.033350498354723083 0 -0.0019581678523775364 -0.033561687895943333 0 -0.0021860141575471034 -0.033507301010342466 0 -0.0019581678523775364 -0.033561687895943333 0 -0.001851430200751669 -0.033713279904405827 0 -0.0020810319494255288 -0.033674615116589202 0 -0.0019581678523775364 -0.033561687895943333 0 -0.001851430200751669 -0.033713279904405827 0 -0.0017332197485339519 -0.033549329574213985 0 -0.0019840691231474256 -0.033829411535579237 0 -0.001851430200751669 -0.033713279904405827 0 -0.0020810319494255288 -0.033674615116589202 0 -0.001851430200751669 -0.033713279904405827 0 -0.0017332197485339519 -0.033549329574213985 0 -0.0015018970502796605 -0.033696605205274628 0 -0.0017131355011316385 -0.033947910889155379 0 -0.001851430200751669 -0.033713279904405827 0 -0.0015018970502796605 -0.033696605205274628 0 -0.0015474571232661971 -0.033519992103090084 0 -0.0017332197485339519 -0.033549329574213985 0 -0.0015018970502796605 -0.033696605205274628 0 -0.0015474571232661971 -0.033519992103090084 0 -0.0017332197485339519 -0.033549329574213985 0 -0.0017579001099358236 -0.033371535393901551 0 -0.0015908973159595714 -0.033314906042818088 0 -0.0015474571232661971 -0.033519992103090084 0 -0.0017579001099358236 -0.033371535393901551 0 -0.0015908973159595714 -0.033314906042818088 0 -0.0015474571232661971 -0.033519992103090084 0 -0.0014277589248536903 -0.03340541552624901 0 -0.0012511010592184256 -0.033555355576569329 0 -0.0013846581820696423 -0.033732967455350996 0 -0.0015474571232661971 -0.033519992103090084 0 -0.0014277589248536903 -0.03340541552624901 0 -0.0012133218117694241 -0.03350662360904888 0 -0.0015474571232661971 -0.033519992103090084 0 -0.0012133218117694241 -0.03350662360904888 0 -0.0015018970502796605 -0.033696605205274628 0 -0.0012133218117694241 -0.03350662360904888 0 -0.0014022747296369672 -0.033989795718134833 0 -0.0010702507317444604 -0.033870882918495007 0 -0.00096091625253571426 -0.034194982457517391 0 -0.0014022747296369672 -0.033989795718134833 0 -0.0010702507317444604 -0.033870882918495007 0 -0.00096091625253571426 -0.034194982457517391 0 -0.0010702507317444604 -0.033870882918495007 0 -0.0006867320726241284 -0.033777270531776066 0 -0.0010753551173633016 -0.03342757702812852 0 -0.00057563203372309676 -0.03412066416386738 0 -0.0012133218117694241 -0.03350662360904888 0 -0.0010702507317444604 -0.033870882918495007 0 -0.0006867320726241284 -0.033777270531776066 0 -0.0012133218117694241 -0.03350662360904888 0 -0.001113639375832828 -0.033358333945948344 0 -0.0006867320726241284 -0.033777270531776066 0 -0.001113639375832828 -0.033358333945948344 0 -0.0005565680446860395 -0.033498403904121968 0 -0.0004606649794233449 -0.034509992049055853 0 -0.0010166319749484848 -0.033101854901615789 0 -0.001113639375832828 -0.033358333945948344 0 -0.0005565680446860395 -0.033498403904121968 0 -0.0010166319749484848 -0.033101854901615789 0 -0.00053289009601148506 -0.032882062972080253 0 -0.0005565680446860395 -0.033498403904121968 0 -0.0010166319749484848 -0.033101854901615789 0 -0.001113639375832828 -0.033358333945948344 0 -0.001198134835622974 -0.03316973986228678 0 -0.0012133218117694241 -0.03350662360904888 0 -0.001113639375832828 -0.033358333945948344 0 -0.0013459653091863208 -0.033255407377843507 0 -0.0015908973159595714 -0.033314906042818088 0 -0.0014277589248536903 -0.03340541552624901 0 -0.0013459653091863208 -0.033255407377843507 0 -0.0014277589248536903 -0.03340541552624901 0 -0.0012133218117694241 -0.03350662360904888 0 -0.0013459653091863208 -0.033255407377843507 0 -0.0015866985406610727 -0.033029240853036552 0 -0.0013459653091863208 -0.033255407377843507 0 -0.0012855893786421395 -0.032985267675977391 0 -0.001113639375832828 -0.033358333945948344 0 -0.0013459653091863208 -0.033255407377843507 0 -0.001198134835622974 -0.03316973986228678 0 -0.0010166319749484848 -0.033101854901615789 0 -0.001198134835622974 -0.03316973986228678 0 -0.0012855893786421395 -0.032985267675977391 0 -0.0013459653091863208 -0.033255407377843507 0 -0.001198134835622974 -0.03316973986228678 0 -0.0012855893786421395 -0.032985267675977391 0 -0.001345254017046871 -0.032484079403545717 0 -0.0014720862714158894 -0.032808092194881129 0 -0.0012855893786421395 -0.032985267675977391 0 -0.0016133736102116078 -0.031037556653794641 0 -0.00092587584517011179 -0.033508757864658643 0 -0.0010703493826475679 -0.032217172071170634 0 -0.0016798833654410848 -0.031764728907679576 0 -0.0010166319749484848 -0.033101854901615789 0 -0.001345254017046871 -0.032484079403545717 0 -0.0010166319749484848 -0.033101854901615789 0 -0.0012855893786421395 -0.032985267675977391 0 -0.0014720862714158894 -0.032808092194881129 0 -0.0015866985406610727 -0.033029240853036552 0 -0.0012855893786421395 -0.032985267675977391 0 -0.0010703493826475679 -0.032217172071170634 0 -0.0010166319749484848 -0.033101854901615789 0 -0.00081751838731483487 -0.032627297238136017 0 -0.00063025962483050449 -0.032307986287375086 0 -0.00081751838731483487 -0.032627297238136017 0 -0.00053289009601148506 -0.032882062972080253 0 -0.0010703493826475679 -0.032217172071170634 0 -0.00063025962483050449 -0.032307986287375086 0 -0.00081751838731483487 -0.032627297238136017 0 -0.0010166319749484848 -0.033101854901615789 0 -0.00081751838731483487 -0.032627297238136017 0 -0.00053289009601148506 -0.032882062972080253 0 -0.00015472799633826624 -0.032466438423002654 0 0.00034386586153330206 -0.032640757939051843 0 -9.6247281973981885e-05 -0.033163158646854429 0 -0.00053289009601148506 -0.032882062972080253 0 -0.00015472799633826624 -0.032466438423002654 0 -9.6247281973981885e-05 -0.033163158646854429 0 -0.00063025962483050449 -0.032307986287375086 0 -0.00053289009601148506 -0.032882062972080253 0 -0.00015472799633826624 -0.032466438423002654 0 0.00023549365704804784 -0.032036949139785706 0 -0.00015472799633826624 -0.032466438423002654 0 0.00034386586153330206 -0.032640757939051843 0 0.00076851001601106403 -0.032216667781878608 0 0.00034386586153330206 -0.032640757939051843 0 0.00098906294988194998 -0.033218773201539251 0 0.00034386586153330206 -0.032640757939051843 0 -9.6247281973981885e-05 -0.033163158646854429 0 0.00098906294988194998 -0.033218773201539251 0 0.00029342500003515113 -0.034572741642509293 0 0.00052898221792843116 -0.034124873593333743 0 -6.1365966377401285e-05 -0.03395182587308497 0 -9.6247281973981885e-05 -0.033163158646854429 0 0.00098906294988194998 -0.033218773201539251 0 -6.1365966377401285e-05 -0.03395182587308497 0 0.00025069033039598431 -0.03461887340715538 0 0.00098906294988194998 -0.033218773201539251 0 -6.1365966377401285e-05 -0.03395182587308497 0 -9.6247281973981885e-05 -0.033163158646854429 0 -0.0005565680446860395 -0.033498403904121968 0 -0.00053289009601148506 -0.032882062972080253 0 -9.6247281973981885e-05 -0.033163158646854429 0 -0.0005565680446860395 -0.033498403904121968 0 -6.1365966377401285e-05 -0.03395182587308497 0 -0.0005565680446860395 -0.033498403904121968 0 -0.0004606649794233449 -0.034509992049055853 0 -6.1365966377401285e-05 -0.03395182587308497 0 -0.0004606649794233449 -0.034509992049055853 0 0.00025069033039598431 -0.03461887340715538 0 -0.00016624435268184888 -0.034603197202071452 0 -0.00057563203372309676 -0.03412066416386738 0 -0.00096091625253571426 -0.034194982457517391 0 -0.00032667803039902266 -0.03428811928852437 0 -0.0006867320726241284 -0.033777270531776066 0 2.7029628523494513e-05 -0.034920864524401678 0 -0.0004606649794233449 -0.034509992049055853 0 0.00025069033039598431 -0.03461887340715538 0 2.7029628523494513e-05 -0.034920864524401678 0 6.1286956996635213e-05 -0.034885915119391236 0 0.00025069033039598431 -0.03461887340715538 0 0.00025069033039598431 -0.03461887340715538 0 5.8446499146392014e-05 -0.034862437095736838 0 0.00012335483983873157 -0.034987877458508558 0 6.1286956996635213e-05 -0.034885915119391236 0 0.00025069033039598431 -0.03461887340715538 0 5.8446499146392014e-05 -0.034862437095736838 0 6.1286956996635213e-05 -0.034885915119391236 0 5.8446499146392014e-05 -0.034862437095736838 0 6.7812578978687388e-08 -0.034999849590871414 0 5.8446499146392014e-05 -0.034862437095736838 0 6.7812578978687388e-08 -0.034999849590871414 0 -2.5262834414617952e-08 -0.034999828729393188 0 -2.5262834414617952e-08 -0.034999828729393188 0 3.4704582246787553e-05 -0.034981125350297494 0 1.1772353799762093e-07 -0.035000072713125843 0 5.8446499146392014e-05 -0.034862437095736838 0 -2.5262834414617952e-08 -0.034999828729393188 0 3.4704582246787553e-05 -0.034981125350297494 0 5.8446499146392014e-05 -0.034862437095736838 0 3.4704582246787553e-05 -0.034981125350297494 0 0.00012335483983873157 -0.034987877458508558 0 0.0013823276335885426 -0.032027322997230545 0 0.00076851001601106403 -0.032216667781878608 0 0.00098906294988194998 -0.033218773201539251 0 3.4704582246787553e-05 -0.034981125350297494 0 0.00012335483983873157 -0.034987877458508558 0 4.5898218810102978e-05 -0.035001309815336466 0 3.932570807150353e-05 -0.034993878649463045 0 0.00012335483983873157 -0.034987877458508558 0 4.5898218810102978e-05 -0.035001309815336466 0 0.00075445593316209741 -0.033392739300079216 0 0.00052898221792843116 -0.034124873593333743 0 1.8250538233029966e-05 -0.035261206962801508 0 -7.0480303741560654e-06 -0.034892928229209801 0 6.743461621083471e-05 -0.034985737314477447 0 4.5898218810102978e-05 -0.035001309815336466 0 1.1772353799762093e-07 -0.035000072713125843 0 -2.7533076305395764e-08 -0.035000820399888291 0 -5.4498944668236611e-09 -0.035000022838651369 0 2.2743926271799551e-09 -0.034999986737070152 0 3.4704582246787553e-05 -0.034981125350297494 0 4.5898218810102978e-05 -0.035001309815336466 0 1.1772353799762093e-07 -0.035000072713125843 0 -0.0038804402884165946 -0.014117755858676324 0 -0.0033366925220571189 -0.014032873696900034 0 -0.0035940359456371816 -0.014515525996786249 0 -0.0039156700745690094 -0.02186640071344545 0 -0.0031622693348254123 -0.015603790266694461 0 -0.0032473573138503079 -0.018167461297759625 0 -0.0033238314117222437 -0.018233081148436841 0 -0.0031152029620970761 -0.018181358645638291 0 -0.005175510350415794 -0.028201985869855454 0 -0.0048496075109878585 -0.027434402953121852 0 -0.0047497881543706244 -0.027946345692262026 0 -0.0032473573138503079 -0.018167461297759625 0 -0.0033238314117222437 -0.018233081148436841 0 -0.0032593977981686239 -0.01808733625717858 0 -0.0031337592442527008 -0.023169976815647132 0 -0.0036772075046153144 -0.024392601514606222 0 -0.002322495975998492 -0.0243614262004699 0 -0.0026524996371489534 -0.021804240889231351 0 -0.0026181710948045113 -0.028265570460784449 0 -0.0039156700745690094 -0.02186640071344545 0 -0.0026524996371489534 -0.021804240889231351 0 -0.0035788113808865561 -0.028163583229897499 0 -0.0034343791560314104 -0.028253407113155733 0 -0.0033781454961415987 -0.028473851138116998 0 -0.0039156700745690094 -0.02186640071344545 0 -0.0026181710948045113 -0.028265570460784449 0 -0.0020461476821101638 -0.025417258687964465 0 -0.0015205425801802024 -0.025420172714072369 0 -0.0016456359605125214 -0.025821519734294016 0 -0.0032473573138503079 -0.018167461297759625 0 -0.0030873416500459823 -0.018046179192153382 0 -0.0031152029620970761 -0.018181358645638291 0 -0.0026524996371489534 -0.021804240889231351 0 -0.0029638524797155311 -0.019017992061391095 0 -0.0032473573138503079 -0.018167461297759625 0 -0.0032593977981686239 -0.01808733625717858 0 -0.0030873416500459823 -0.018046179192153382 0 -0.0030873416500459823 -0.018046179192153382 0 -0.0030373850582415575 -0.018094630921501098 0 -0.0031152029620970761 -0.018181358645638291 0 -0.0030873416500459823 -0.018046179192153382 0 -0.0030373850582415575 -0.018094630921501098 0 -0.0029798583354793779 -0.018067166724174043 0 -0.0029638524797155311 -0.019017992061391095 0 -0.0028484438671209909 -0.016909262620005042 0 -0.0030873416500459823 -0.018046179192153382 0 -0.0029369852120339334 -0.018015180673548313 0 -0.0029798583354793779 -0.018067166724174043 0 -0.0030373850582415575 -0.018094630921501098 0 -0.0029798583354793779 -0.018067166724174043 0 -0.0029736977421750358 -0.018107738864311364 0 -0.0029369852120339334 -0.018015180673548313 0 -0.0029798583354793779 -0.018067166724174043 0 -0.0029378690037496573 -0.018097852001915059 0 -0.0028484438671209909 -0.016909262620005042 0 -0.0026493773868177871 -0.015685961920956219 0 -0.0029798583354793779 -0.018067166724174043 0 -0.0029378690037496573 -0.018097852001915059 0 -0.0029736977421750358 -0.018107738864311364 0 -0.0029328858418281797 -0.018127767660072531 0 -0.0029736977421750358 -0.018107738864311364 0 -0.0031152029620970761 -0.018181358645638291 0 -0.00289636305037793 -0.014691306437414738 0 -0.0026493773868177871 -0.015685961920956219 0 -0.0026493773868177871 -0.015685961920956219 0 -0.0030699767827255622 -0.016419017981658762 0 -0.0029328858418281797 -0.018127767660072531 0 -0.0029332477787373285 -0.018087932080158315 0 -0.0029736977421750358 -0.018107738864311364 0 -0.0027525680916532132 -0.013986582326421729 0 -0.0033366925220571189 -0.014032873696900034 0 -0.0030371854988813047 -0.014242062791652021 0 -0.0030373850582415575 -0.018094630921501098 0 -0.0029736977421750358 -0.018107738864311364 0 -0.0031152029620970761 -0.018181358645638291 0 -0.00289636305037793 -0.014691306437414738 0 -0.0031622693348254123 -0.015603790266694461 0 -0.0033366925220571189 -0.014032873696900034 0 -0.0030371854988813047 -0.014242062791652021 0 -0.0035940359456371816 -0.014515525996786249 0 -0.0030371854988813047 -0.014242062791652021 0 -0.003122917896574001 -0.014641365017577589 0 -0.0035940359456371816 -0.014515525996786249 0 -0.0027525680916532132 -0.013986582326421729 0 -0.0030371854988813047 -0.014242062791652021 0 -0.0026691673565961741 -0.014425270923483929 0 -0.00289636305037793 -0.014691306437414738 0 -0.0026514210664166679 -0.013997408883014859 0 -0.0030371854988813047 -0.014242062791652021 0 -0.0026691673565961741 -0.014425270923483929 0 -0.003122917896574001 -0.014641365017577589 0 -0.00286420414182569 -0.015310916547389902 0 -0.0026691673565961741 -0.014425270923483929 0 -0.003122917896574001 -0.014641365017577589 0 -0.00286420414182569 -0.015310916547389902 0 -0.0026691673565961741 -0.014425270923483929 0 -0.0023550294094024393 -0.015242883297725496 0 -0.0033080890728749979 -0.015121899758708156 0 -0.003122917896574001 -0.014641365017577589 0 -0.0035940359456371816 -0.014515525996786249 0 -0.0042965788900854625 -0.019762910800581537 0 -0.0051148058861814148 -0.019630218276243998 0 -0.0046432311447351122 -0.020370857758272468 0 -0.0041952768354940363 -0.017558972909022148 0 -0.0043231383795089926 -0.016623433251729599 0 -0.0039156700745690094 -0.02186640071344545 0 -0.004503673224444742 -0.024372489596976046 0 -0.0039156700745690094 -0.02186640071344545 0 -0.0043231383795089926 -0.016623433251729599 0 -0.0041345313299930662 -0.021144715220832215 0 -0.0046432311447351122 -0.020370857758272468 0 -0.00384330459942713 -0.020489980770320455 0 -0.0042965788900854625 -0.019762910800581537 0 -0.003560087948296486 -0.019860655899511432 0 -0.00384330459942713 -0.020489980770320455 0 -0.0042965788900854625 -0.019762910800581537 0 -0.0046432311447351122 -0.020370857758272468 0 -0.00384330459942713 -0.020489980770320455 0 -0.0041504525922037728 -0.023854963162020338 0 -0.004503673224444742 -0.024372489596976046 0 -0.0041504525922037728 -0.023854963162020338 0 -0.0039928178059882666 -0.02882644235134051 0 -0.0037891835216614486 -0.026387821276495107 0 -0.0045147415956274146 -0.026712910893088835 0 -0.0035995313598367403 -0.02702937141808431 0 -0.0045147415956274146 -0.026712910893088835 0 -0.0040422398063370028 -0.027772170246841501 0 -0.0035995313598367403 -0.02702937141808431 0 -0.0044743263466056728 -0.026559651883517447 0 -0.0040422398063370028 -0.027772170246841501 0 -0.0048496075109878585 -0.027434402953121852 0 -0.0040422398063370028 -0.027772170246841501 0 -0.0048496075109878585 -0.027434402953121852 0 -0.0047497881543706244 -0.027946345692262026 0 -0.0030211386956566768 -0.027281762249710725 0 -0.0027776282621457325 -0.027899167244902406 0 -0.0028124247453204399 -0.027220666071048893 0 -0.0035995313598367403 -0.02702937141808431 0 -0.0032799920260120799 -0.027758735220804544 0 -0.0030126516009476396 -0.026248239581987354 0 -0.0028124247453204399 -0.027220666071048893 0 -0.0035995313598367403 -0.02702937141808431 0 -0.0040422398063370028 -0.027772170246841501 0 -0.0032799920260120799 -0.027758735220804544 0 -0.0034611687496532706 -0.028328044295014308 0 -0.0040422398063370028 -0.027772170246841501 0 -0.0035995313598367403 -0.02702937141808431 0 -0.0032799920260120799 -0.027758735220804544 0 -0.0027776282621457325 -0.027899167244902406 0 -0.0026893084032049365 -0.028239910551395842 0 -0.0028124247453204399 -0.027220666071048893 0 -0.0032799920260120799 -0.027758735220804544 0 -0.0026853760899595404 -0.028280678839577401 0 -0.0027325638709681183 -0.028432352716566099 0 -0.0027120213037614398 -0.028571400549397455 0 -0.0026853760899595404 -0.028280678839577401 0 -0.002698213970790818 -0.028385784956346884 0 -0.0028955702036800859 -0.028298336482467421 0 -0.0027321389355210632 -0.028464211925092485 0 -0.002698213970790818 -0.028385784956346884 0 -0.0026853760899595404 -0.028280678839577401 0 -0.0034611687496532706 -0.028328044295014308 0 -0.0026966338664090378 -0.028378920149072839 0 -0.002698213970790818 -0.028385784956346884 0 -0.0026853760899595404 -0.028280678839577401 0 -0.0032799920260120799 -0.027758735220804544 0 -0.0026853760899595404 -0.028280678839577401 0 -0.0034611687496532706 -0.028328044295014308 0 -0.0027466575375753857 -0.028372111386262763 0 -0.0031526586127926613 -0.028284085811806189 0 -0.0022650103914950499 -0.032484744126966718 0 -0.002731199521237565 -0.032443421303637247 0 -0.0024836001895366367 -0.032689222681088904 0 -0.0028955702036800859 -0.028298336482467421 0 -0.0027321389355210632 -0.028464211925092485 0 -0.0029988923286611369 -0.028482114322563729 0 -0.0024551688829996523 -0.030455983991126818 0 -0.0030291735530330369 -0.03067546149035796 0 -0.0026918894504580717 -0.028435066271624024 0 -0.002698213970790818 -0.028385784956346884 0 -0.0027321389355210632 -0.028464211925092485 0 -0.0018256637360636973 -0.032506140388891283 0 -0.0022650103914950499 -0.032484744126966718 0 -0.0021362815617567473 -0.032788590457226451 0 -0.0039156700745690094 -0.02186640071344545 0 -0.0038743971275668827 -0.028682192338735764 0 -0.005175510350415794 -0.028201985869855454 0 -0.0047497881543706244 -0.027946345692262026 0 -0.004318446308553184 -0.028252098454739052 0 -0.0035788113808865561 -0.028163583229897499 0 -0.0032054426071513042 -0.028220725065879464 0 -0.0034343791560314104 -0.028253407113155733 0 -0.0040422398063370028 -0.027772170246841501 0 -0.0047497881543706244 -0.027946345692262026 0 -0.004318446308553184 -0.028252098454739052 0 -0.0040422398063370028 -0.027772170246841501 0 -0.0034611687496532706 -0.028328044295014308 0 -0.004318446308553184 -0.028252098454739052 0 -0.0028955702036800859 -0.028298336482467421 0 -0.0032054426071513042 -0.028220725065879464 0 -0.0029988923286611369 -0.028482114322563729 0 -0.0031526586127926613 -0.028284085811806189 0 -0.0038743971275668827 -0.028682192338735764 0 -0.0030291735530330369 -0.03067546149035796 0 -0.0026181710948045113 -0.028265570460784449 0 -0.0032054426071513042 -0.028220725065879464 0 -0.0034343791560314104 -0.028253407113155733 0 -0.0033781454961415987 -0.028473851138116998 0 -0.0032054426071513042 -0.028220725065879464 0 -0.0029988923286611369 -0.028482114322563729 0 -0.0033781454961415987 -0.028473851138116998 0 -0.0015205425801802024 -0.025420172714072369 0 -0.0010692565257087497 -0.026074059379556761 0 -0.0016456359605125214 -0.025821519734294016 0 -0.0026181710948045113 -0.028265570460784449 0 -0.0019186252203060698 -0.029603610469063742 0 -0.002731199521237565 -0.032443421303637247 0 -0.0028979322054507374 -0.032922019629239942 0 -0.0024836001895366367 -0.032689222681088904 0 -0.002731199521237565 -0.032443421303637247 0 -0.0032294692311518338 -0.032412200014620078 0 -0.0028979322054507374 -0.032922019629239942 0 -0.0019186252203060698 -0.029603610469063742 0 -0.0016211361382656513 -0.030207027395662563 0 -0.0010692565257087497 -0.026074059379556761 0 -0.0016468315462865803 -0.026226806109811231 0 -0.0016456359605125214 -0.025821519734294016 0 -0.0010692565257087497 -0.026074059379556761 0 -0.0012437689502643699 -0.026696096091367975 0 -0.0016468315462865803 -0.026226806109811231 0 -0.0021362815617567473 -0.032788590457226451 0 -0.0024836001895366367 -0.032689222681088904 0 -0.002381842662723635 -0.033024884172598197 0 -0.0022650103914950499 -0.032484744126966718 0 -0.0021362815617567473 -0.032788590457226451 0 -0.0024836001895366367 -0.032689222681088904 0 -0.0028979322054507374 -0.032922019629239942 0 -0.0024836001895366367 -0.032689222681088904 0 -0.002381842662723635 -0.033024884172598197 0 -0.0028979322054507374 -0.032922019629239942 0 -0.002381842662723635 -0.033024884172598197 0 -0.002561042075755627 -0.0333875803221068 0 -0.002381842662723635 -0.033024884172598197 0 -0.0022034880158971495 -0.033257831294970265 0 -0.002561042075755627 -0.0333875803221068 0 -0.0020506132933163978 -0.033084787215265199 0 -0.002381842662723635 -0.033024884172598197 0 -0.0022034880158971495 -0.033257831294970265 0 -0.0020506132933163978 -0.033084787215265199 0 -0.0021362815617567473 -0.032788590457226451 0 -0.002381842662723635 -0.033024884172598197 0 -0.0020506132933163978 -0.033084787215265199 0 -0.0019447522730462877 -0.033350498354723083 0 -0.0022034880158971495 -0.033257831294970265 0 -0.0022034880158971495 -0.033257831294970265 0 -0.0021860141575471034 -0.033507301010342466 0 -0.002561042075755627 -0.0333875803221068 0 -0.0019447522730462877 -0.033350498354723083 0 -0.0022034880158971495 -0.033257831294970265 0 -0.0021860141575471034 -0.033507301010342466 0 -0.0021860141575471034 -0.033507301010342466 0 -0.002561042075755627 -0.0333875803221068 0 -0.0022238931934979254 -0.033784444699490261 0 -0.00061088384360373537 -0.026742767785334132 0 -0.00015255832527593651 -0.027435808875513727 0 -0.00090174055245382156 -0.027253217370132705 0 -0.00079977755429454277 -0.029626734044132998 0 -0.00093242487129984179 -0.026885711889933866 0 -0.0016211361382656513 -0.030207027395662563 0 -0.00079977755429454277 -0.029626734044132998 0 -0.0021860141575471034 -0.033507301010342466 0 -0.0022238931934979254 -0.033784444699490261 0 -0.0020810319494255288 -0.033674615116589202 0 -0.0019840691231474256 -0.033829411535579237 0 -0.0022238931934979254 -0.033784444699490261 0 -0.0020810319494255288 -0.033674615116589202 0 -0.0019581678523775364 -0.033561687895943333 0 -0.0021860141575471034 -0.033507301010342466 0 -0.0020810319494255288 -0.033674615116589202 0 -0.0012437689502643699 -0.026696096091367975 0 -0.0019019746584082742 -0.026619124096871189 0 -0.0016468315462865803 -0.026226806109811231 0 -0.0012437689502643699 -0.026696096091367975 0 -0.0016323452087838599 -0.02706452343381727 0 -0.0019019746584082742 -0.026619124096871189 0 -0.00061088384360373537 -0.026742767785334132 0 -0.0012437689502643699 -0.026696096091367975 0 -0.00090174055245382156 -0.027253217370132705 0 -0.0010692565257087497 -0.026074059379556761 0 -0.00061088384360373537 -0.026742767785334132 0 -0.0012437689502643699 -0.026696096091367975 0 -0.00093242487129984179 -0.026885711889933866 0 -0.0015477559326646786 -0.027240914274975096 0 -0.0016292615174442716 -0.027296868117319344 0 -0.001040300797491714 -0.027098295233482197 0 -0.0016906303094914325 -0.026922612066956054 0 -0.0012437689502643699 -0.026696096091367975 0 -0.00090174055245382156 -0.027253217370132705 0 -0.0016323452087838599 -0.02706452343381727 0 -0.0021193688043602051 -0.02722015860466237 0 -0.0016906303094914325 -0.026922612066956054 0 -0.0022802497061578842 -0.026819670925553894 0 -0.0015477559326646786 -0.027240914274975096 0 -0.0027329866815327276 -0.025136031947652085 0 -0.0021193688043602051 -0.02722015860466237 0 -0.0016292615174442716 -0.027296868117319344 0 -0.0016906303094914325 -0.026922612066956054 0 -0.0021193688043602051 -0.02722015860466237 0 -0.0022296477354314171 -0.027222981865866008 0 -0.0022802497061578842 -0.026819670925553894 0 -0.0026524566103343574 -0.023356210444920474 0 -0.0027329866815327276 -0.025136031947652085 0 -0.0030936824546794529 -0.02050588494906257 0 -0.0031457749505598371 -0.020895951053133435 0 -0.0030021192268621304 -0.02069003400266994 0 -0.0027329866815327276 -0.025136031947652085 0 -0.0023507553993873495 -0.026918046174507326 0 -0.0023479865169308517 -0.026599120934747901 0 -0.0023211670741408821 -0.026335588096082843 0 -0.0025293032822109817 -0.026570706484546649 0 -0.0023703096344816288 -0.026885590765167701 0 -0.0019019746584082742 -0.026619124096871189 0 -0.0023211670741408821 -0.026335588096082843 0 -0.0023211670741408821 -0.026335588096082843 0 -0.0023478952714667016 -0.026137963464251714 0 -0.0025293032822109817 -0.026570706484546649 0 -0.0016323452087838599 -0.02706452343381727 0 -0.0023703096344816288 -0.026885590765167701 0 -0.0019019746584082742 -0.026619124096871189 0 -0.0016468315462865803 -0.026226806109811231 0 -0.0020439168253375789 -0.026236435807882617 0 -0.0019416589477238234 -0.025965202279050505 0 -0.0019019746584082742 -0.026619124096871189 0 -0.0016468315462865803 -0.026226806109811231 0 -0.0020439168253375789 -0.026236435807882617 0 -0.0019019746584082742 -0.026619124096871189 0 -0.0020439168253375789 -0.026236435807882617 0 -0.0023211670741408821 -0.026335588096082843 0 -0.0020439168253375789 -0.026236435807882617 0 -0.0023211670741408821 -0.026335588096082843 0 -0.0023478952714667016 -0.026137963464251714 0 -0.0020439168253375789 -0.026236435807882617 0 -0.0023478952714667016 -0.026137963464251714 0 -0.0019416589477238234 -0.025965202279050505 0 -0.0026524996371489534 -0.021804240889231351 0 -0.0025228491886480188 -0.023589070702686701 0 -0.0020461476821101638 -0.025417258687964465 0 -0.0023478952714667016 -0.026137963464251714 0 -0.0019416589477238234 -0.025965202279050505 0 -0.0025507528506542947 -0.020088436868307889 0 -0.0027195213540210138 -0.020070022581570913 0 -0.0026366136229933326 -0.020285271220851147 0 -0.0020461476821101638 -0.025417258687964465 0 -0.0016456359605125214 -0.025821519734294016 0 -0.0019416589477238234 -0.025965202279050505 0 -0.0016468315462865803 -0.026226806109811231 0 -0.0016456359605125214 -0.025821519734294016 0 -0.0019416589477238234 -0.025965202279050505 0 -0.0027195213540210138 -0.020070022581570913 0 -0.0028996296546949774 -0.020044471238335599 0 -0.0027968090889664899 -0.02018269382939069 0 -0.0028996296546949774 -0.020044471238335599 0 -0.0027968090889664899 -0.02018269382939069 0 -0.0028878068911813897 -0.020288063822178421 0 -0.0028484438671209909 -0.016909262620005042 0 -0.0026913192332581552 -0.017313150704143153 0 -0.0027195213540210138 -0.020070022581570913 0 -0.0026366136229933326 -0.020285271220851147 0 -0.0027968090889664899 -0.02018269382939069 0 -0.0026366136229933326 -0.020285271220851147 0 -0.0027968090889664899 -0.02018269382939069 0 -0.0027657829131995256 -0.020341498805200958 0 -0.0027968090889664899 -0.02018269382939069 0 -0.0027657829131995256 -0.020341498805200958 0 -0.0028878068911813897 -0.020288063822178421 0 -0.0026913192332581552 -0.017313150704143153 0 -0.0026499016791709366 -0.017073443021169626 0 -0.0028878068911813897 -0.020288063822178421 0 -0.0027851938258965764 -0.020463565730594831 0 -0.0028343128726510147 -0.020496430503320017 0 -0.0027657829131995256 -0.020341498805200958 0 -0.0028878068911813897 -0.020288063822178421 0 -0.0027851938258965764 -0.020463565730594831 0 -0.0025338997125245962 -0.014105507024121271 0 -0.0024710397560773869 -0.013886727990117592 0 -0.0024352745555268943 -0.013965430531879578 0 -0.0027657829131995256 -0.020341498805200958 0 -0.0027851938258965764 -0.020463565730594831 0 -0.0027229355757683394 -0.020484119350184821 0 -0.0026366136229933326 -0.020285271220851147 0 -0.0027657829131995256 -0.020341498805200958 0 -0.0027229355757683394 -0.020484119350184821 0 -0.0025228491886480188 -0.023589070702686701 0 -0.0024915036680836747 -0.022536648526708575 0 -0.0029407106175460408 -0.021539878573570332 0 -0.0024915036680836747 -0.022536648526708575 0 -0.0027329866815327276 -0.025136031947652085 0 -0.0024915036680836747 -0.022536648526708575 0 -0.0028159077309562056 -0.020516920768141721 0 -0.0029293502997606333 -0.020932543883522829 0 -0.0030021192268621304 -0.02069003400266994 0 -0.0028159077309562056 -0.020516920768141721 0 -0.0027851938258965764 -0.020463565730594831 0 -0.0027649348704875754 -0.020472302531202649 0 -0.0027180188848946619 -0.019914304223536228 0 -0.0024915036680836747 -0.022536648526708575 0 -0.0031457749505598371 -0.020895951053133435 0 -0.0029293502997606333 -0.020932543883522829 0 -0.0030021192268621304 -0.02069003400266994 0 -0.0028159077309562056 -0.020516920768141721 0 -0.0027851938258965764 -0.020463565730594831 0 -0.0028343128726510147 -0.020496430503320017 0 -0.0024317322476559463 -0.013853189271868661 0 -0.0024267669641854146 -0.013904309294391909 0 -0.0023888900217578328 -0.013857871510216675 0 -0.0024317322476559463 -0.013853189271868661 0 -0.0024710397560773869 -0.013886727990117592 0 -0.0024267669641854146 -0.013904309294391909 0 -0.0023888900217578328 -0.013857871510216675 0 -0.0023892893088051656 -0.013900968148968041 0 -0.0023453046366858424 -0.013851658393111865 0 -0.0023852283752714061 -0.01395971176414906 0 -0.0020198920424364507 -0.011954050861969405 0 -0.0021290123185915789 -0.013676457806642492 0 -0.0018121934304396565 -0.013453361861623776 0 -0.0018781744009633624 -0.013822212733326665 0 -0.0024267669641854146 -0.013904309294391909 0 -0.0023888900217578328 -0.013857871510216675 0 -0.0023892893088051656 -0.013900968148968041 0 -0.0021290123185915789 -0.013676457806642492 0 -0.0021309050433311097 -0.01395202665107417 0 -0.0018781744009633624 -0.013822212733326665 0 -0.0023852283752714061 -0.01395971176414906 0 -0.0023639069014692632 -0.013893642666208109 0 -0.0024267669641854146 -0.013904309294391909 0 -0.0023892893088051656 -0.013900968148968041 0 -0.0024352745555268943 -0.013965430531879578 0 -0.0021290123185915789 -0.013676457806642492 0 -0.0021309050433311097 -0.01395202665107417 0 -0.0024352745555268943 -0.013965430531879578 0 -0.0024710397560773869 -0.013886727990117592 0 -0.0024267669641854146 -0.013904309294391909 0 -0.0024352745555268943 -0.013965430531879578 0 -0.00067634908837645212 -0.0070264465885279221 0 -0.00072794728824429253 -0.0077637127450191287 0 -0.00021518830303508799 -0.0074134585972119122 0 -0.00067634908837645212 -0.0070264465885279221 0 -0.0011375701974164526 -0.0073377691554133966 0 -0.00072794728824429253 -0.0077637127450191287 0 -0.0024662226521775625 -0.012084035741442468 0 -0.0025469154281142739 -0.012136665259863132 0 -0.0018153835651403512 -0.012865814551227794 0 -0.0020198920424364507 -0.011954050861969405 0 -0.0016127465966945759 -0.013617168054425434 0 -0.0012867433538317134 -0.0096064103706706913 0 -0.0013524596689332819 -0.01026687617148361 0 -0.0012867433538317134 -0.0096064103706706913 0 -0.0020198920424364507 -0.011954050861969405 0 -0.0018121934304396565 -0.013453361861623776 0 -0.0017174064329672353 -0.013761628995512384 0 -0.0015015866888825112 -0.013798416139408196 0 -0.0018121934304396565 -0.013453361861623776 0 -0.0018781744009633624 -0.013822212733326665 0 -0.0017174064329672353 -0.013761628995512384 0 -0.0018781744009633624 -0.013822212733326665 0 -0.0017174064329672353 -0.013761628995512384 0 -0.0016784776377009765 -0.013961261412847056 0 -0.0025469154281142739 -0.012136665259863132 0 -0.0018153835651403512 -0.012865814551227794 0 -0.0017930891509809978 -0.013128858017955132 0 -0.0017174064329672353 -0.013761628995512384 0 -0.0015015866888825112 -0.013798416139408196 0 -0.0016784776377009765 -0.013961261412847056 0 -0.0018153835651403512 -0.012865814551227794 0 -0.0017930891509809978 -0.013128858017955132 0 -0.0012280304798923177 -0.013622566793489242 0 -0.0013524596689332819 -0.01026687617148361 0 -0.00072452511276301079 -0.011061479954659285 0 -0.0015015866888825112 -0.013798416139408196 0 -0.0013872299614614047 -0.014043259630559661 0 -0.0011212486342973178 -0.014050664379138227 0 -0.0015015866888825112 -0.013798416139408196 0 -0.0013872299614614047 -0.014043259630559661 0 -0.0015148703554883393 -0.013984790093275128 0 -0.0013872299614614047 -0.014043259630559661 0 -0.0015148703554883393 -0.013984790093275128 0 -0.0015430088205015554 -0.014137621108868906 0 -0.0013872299614614047 -0.014043259630559661 0 -0.0015430088205015554 -0.014137621108868906 0 -0.0013590189802408837 -0.014274248334862535 0 -0.0015015866888825112 -0.013798416139408196 0 -0.0015148703554883393 -0.013984790093275128 0 -0.0016784776377009765 -0.013961261412847056 0 -0.0015148703554883393 -0.013984790093275128 0 -0.0015430088205015554 -0.014137621108868906 0 -0.0016784776377009765 -0.013961261412847056 0 -0.0015430088205015554 -0.014137621108868906 0 -0.0016784776377009765 -0.013961261412847056 0 -0.0017776701589388444 -0.014287590970060514 0 -0.0016784776377009765 -0.013961261412847056 0 -0.0017776701589388444 -0.014287590970060514 0 -0.0019509071423324887 -0.014113517687090387 0 -0.0018781744009633624 -0.013822212733326665 0 -0.0016784776377009765 -0.013961261412847056 0 -0.0019509071423324887 -0.014113517687090387 0 -0.0015430088205015554 -0.014137621108868906 0 -0.0017776701589388444 -0.014287590970060514 0 -0.0016627545701632409 -0.014529010091502984 0 -0.0017776701589388444 -0.014287590970060514 0 -0.0021161630204945383 -0.014554803655858019 0 -0.0016627545701632409 -0.014529010091502984 0 -0.0015430088205015554 -0.014137621108868906 0 -0.0013590189802408837 -0.014274248334862535 0 -0.0016627545701632409 -0.014529010091502984 0 -0.0013590189802408837 -0.014274248334862535 0 -0.0016627545701632409 -0.014529010091502984 0 -0.0011350369099065892 -0.014561102269224978 0 -0.0025338997125245962 -0.014105507024121271 0 -0.0024352745555268943 -0.013965430531879578 0 -0.0022433016432710355 -0.014161812034031048 0 -0.0021309050433311097 -0.01395202665107417 0 -0.0024352745555268943 -0.013965430531879578 0 -0.0022433016432710355 -0.014161812034031048 0 -0.0021309050433311097 -0.01395202665107417 0 -0.0018781744009633624 -0.013822212733326665 0 -0.0019509071423324887 -0.014113517687090387 0 -0.0021309050433311097 -0.01395202665107417 0 -0.0022433016432710355 -0.014161812034031048 0 -0.0019509071423324887 -0.014113517687090387 0 -0.0017776701589388444 -0.014287590970060514 0 -0.0019509071423324887 -0.014113517687090387 0 -0.0021161630204945383 -0.014554803655858019 0 -0.0022433016432710355 -0.014161812034031048 0 -0.0019509071423324887 -0.014113517687090387 0 -0.0021161630204945383 -0.014554803655858019 0 -0.0025472766182837547 -0.014590427501102598 0 -0.0025338997125245962 -0.014105507024121271 0 -0.0022433016432710355 -0.014161812034031048 0 -0.0025472766182837547 -0.014590427501102598 0 -0.0022433016432710355 -0.014161812034031048 0 -0.0021161630204945383 -0.014554803655858019 0 -0.0028484438671209909 -0.016909262620005042 0 -0.0019965653838098789 -0.014266854946864508 0 -0.0027398241853319187 -0.014560355051794571 0 -0.0027346654283024025 -0.014946942876043987 0 -0.0019989301171340263 -0.014770325177363994 0 -0.0027398241853319187 -0.014560355051794571 0 -0.0019936926896119184 -0.014503765089135456 0 -0.0019989301171340263 -0.014770325177363994 0 -0.0026493773868177871 -0.015685961920956219 0 -0.0018250733980781715 -0.013756699473758228 0 -0.0026837325725254831 -0.013460107334539414 0 -0.0015195432884728055 -0.013464337051451246 0 -0.0020922710703719519 -0.013897851766563071 0 -0.0025286161681280419 -0.013506426978058509 0 -0.0015195432884728055 -0.013464337051451246 0 -0.0016941154858146925 -0.013095104164335699 0 -0.00289636305037793 -0.014691306437414738 0 -0.0014389585242434878 -0.013123392130713436 0 -0.0025286161681280419 -0.013506426978058509 0 -0.00253199785614149 -0.013293393402035992 0 -0.0016941154858146925 -0.013095104164335699 0 -0.0015195432884728055 -0.013464337051451246 0 -0.0020922710703719519 -0.013897851766563071 0 -0.0016308987767846028 -0.013901687450463305 0 -0.0015195432884728055 -0.013464337051451246 0 -0.0016941154858146925 -0.013095104164335699 0 -0.0012623700538793741 -0.013244841978596666 0 -0.0019936926896119184 -0.014503765089135456 0 -0.0019989301171340263 -0.014770325177363994 0 -0.0012788729178440075 -0.014587125631628933 0 -0.0016941154858146925 -0.013095104164335699 0 -0.00089854230074369839 -0.012955897827078114 0 -0.0012623700538793741 -0.013244841978596666 0 -0.0019965653838098789 -0.014266854946864508 0 -0.0014845998268726008 -0.014637297000238044 0 -0.00089854230074369839 -0.012955897827078114 0 -0.00094574278528691044 -0.013468533770233812 0 -0.0012623700538793741 -0.013244841978596666 0 -0.0019936926896119184 -0.014503765089135456 0 -0.0012638321492843339 -0.014443092774476137 0 -0.0012788729178440075 -0.014587125631628933 0 -0.0018250733980781715 -0.013756699473758228 0 -0.0010313869388530481 -0.013828425865968037 0 -0.00089854230074369839 -0.012955897827078114 0 -0.00054775152184870343 -0.013174633995824673 0 -0.00094574278528691044 -0.013468533770233812 0 -0.0010313869388530481 -0.013828425865968037 0 -0.0007913060142172465 -0.013215782364297733 0 -0.0014845998268726008 -0.014637297000238044 0 -0.0007913060142172465 -0.013215782364297733 0 -0.0012638321492843339 -0.014443092774476137 0 -0.0012788729178440075 -0.014587125631628933 0 -0.00058602170139298996 -0.014398812957539796 0 -0.00089854230074369839 -0.012955897827078114 0 -0.00054775152184870343 -0.013174633995824673 0 -0.00021731188534551983 -0.012834646275517985 0 -0.00054775152184870343 -0.013174633995824673 0 -0.00047627950367208741 -0.013580557543930588 0 -0.00094574278528691044 -0.013468533770233812 0 -0.0015195432884728055 -0.013464337051451246 0 -0.00094574278528691044 -0.013468533770233812 0 -0.0012623700538793741 -0.013244841978596666 0 -0.0015195432884728055 -0.013464337051451246 0 -0.00094574278528691044 -0.013468533770233812 0 -0.0012539814353676475 -0.013924025920317551 0 -0.0012539814353676475 -0.013924025920317551 0 -0.00060846766164841175 -0.014030824418769437 0 -0.0011701607674092862 -0.014371900004239357 0 -0.00094574278528691044 -0.013468533770233812 0 -0.0012539814353676475 -0.013924025920317551 0 -0.00060846766164841175 -0.014030824418769437 0 -0.0012539814353676475 -0.013924025920317551 0 -0.0011701607674092862 -0.014371900004239357 0 -0.0016303751276065671 -0.014393785658942676 0 -0.00047627950367208741 -0.013580557543930588 0 -0.00094574278528691044 -0.013468533770233812 0 -0.00060846766164841175 -0.014030824418769437 0 -0.00047627950367208741 -0.013580557543930588 0 -0.00060846766164841175 -0.014030824418769437 0 -0.00028000236049800147 -0.013875523405435727 0 -0.00059336460622510156 -0.014064282072921121 0 -0.00048120158705868286 -0.014649512310551387 0 -0.00060846766164841175 -0.014030824418769437 0 -0.00034902579277458132 -0.014116807540981548 0 -0.00045649326159792245 -0.014257762981220522 0 -0.00060846766164841175 -0.014030824418769437 0 -0.00034902579277458132 -0.014116807540981548 0 -0.00028000236049800147 -0.013875523405435727 0 -0.00060846766164841175 -0.014030824418769437 0 -0.0008912987667683063 -0.014707226271792075 0 -0.00047935001364502036 -0.015081124658543379 0 -0.00060846766164841175 -0.014030824418769437 0 -0.0011701607674092862 -0.014371900004239357 0 -0.0008912987667683063 -0.014707226271792075 0 -0.0011701607674092862 -0.014371900004239357 0 -0.0012780893450368785 -0.014826822822312246 0 -0.0016303751276065671 -0.014393785658942676 0 -0.0011701607674092862 -0.014371900004239357 0 -0.0008912987667683063 -0.014707226271792075 0 -0.0012780893450368785 -0.014826822822312246 0 -0.0012780893450368785 -0.014826822822312246 0 -0.0016303751276065671 -0.014393785658942676 0 -0.0017428097587940861 -0.015017067444734158 0 -0.0016303751276065671 -0.014393785658942676 0 -0.0021263741679233205 -0.014669257076105717 0 -0.0017428097587940861 -0.015017067444734158 0 -0.0026691673565961741 -0.014425270923483929 0 -0.0021263741679233205 -0.014669257076105717 0 -0.0023550294094024393 -0.015242883297725496 0 -0.0026837325725254831 -0.013460107334539414 0 -0.0026691673565961741 -0.014425270923483929 0 -0.0020922710703719519 -0.013897851766563071 0 -0.0016303751276065671 -0.014393785658942676 0 -0.0021263741679233205 -0.014669257076105717 0 -0.0020922710703719519 -0.013897851766563071 0 -0.0026691673565961741 -0.014425270923483929 0 -0.0021263741679233205 -0.014669257076105717 0 -0.0020922710703719519 -0.013897851766563071 0 -0.0015195432884728055 -0.013464337051451246 0 -0.0012539814353676475 -0.013924025920317551 0 -0.0016308987767846028 -0.013901687450463305 0 -0.0012539814353676475 -0.013924025920317551 0 -0.0016303751276065671 -0.014393785658942676 0 -0.0016308987767846028 -0.013901687450463305 0 -0.0016303751276065671 -0.014393785658942676 0 -0.0020922710703719519 -0.013897851766563071 0 -0.0016308987767846028 -0.013901687450463305 0 0.00028739900672127765 -0.013729528233427775 0 0.00018597062285262658 -0.013815728005294518 0 -1.8378092620801378e-05 -0.013815151748702455 0 0.00024407105823682327 -0.012483026095609409 0 8.6435732109417504e-05 -0.013050271987079339 0 0.00028739900672127765 -0.013729528233427775 0 0.00024605932586849931 -0.013770266421844039 0 0.00018597062285262658 -0.013815728005294518 0 0.00094828202247805625 -0.0090070822543778812 0 0.0015086250697721423 -0.0089802559479611778 0 0.0014189775895303675 -0.0091825030439321217 0 0.00094828202247805625 -0.0090070822543778812 0 0.0011326740495726641 -0.0085916496561532184 0 0.0015086250697721423 -0.0089802559479611778 0 0.00024407105823682327 -0.012483026095609409 0 0.00093829118021946929 -0.011692350900935787 0 0.00026323327166033488 -0.013729630756755689 0 0.00039666459520305863 -0.013793625480547791 0 0.00053041719393714883 -0.01365734669210892 0 0.00046994193809191055 -0.014104775968546838 0 0.00017170597872131268 -0.014027487496019795 0 0.0002417106550702086 -0.01415422843487851 0 0.00019758795750437393 -0.013810090444018373 0 0.00042397052249967739 -0.013948238373925436 0 0.00026323327166033488 -0.013729630756755689 0 0.00024605932586849931 -0.013770266421844039 0 0.00039666459520305863 -0.013793625480547791 0 0.00018597062285262658 -0.013815728005294518 0 0.00046994193809191055 -0.014104775968546838 0 0.00017170597872131268 -0.014027487496019795 0 0.00024605932586849931 -0.013770266421844039 0 0.00018597062285262658 -0.013815728005294518 0 0.00039666459520305863 -0.013793625480547791 0 0.00018597062285262658 -0.013815728005294518 0 0.00017170597872131268 -0.014027487496019795 0 7.8690940982481097e-05 -0.013918193231255909 0 0.00017170597872131268 -0.014027487496019795 0 5.1473423301067504e-05 -0.014165955077181882 0 0.0002417106550702086 -0.01415422843487851 0 0.00017170597872131268 -0.014027487496019795 0 -1.8203010449576776e-05 -0.014020902664887945 0 5.1473423301067504e-05 -0.014165955077181882 0 -1.8203010449576776e-05 -0.014020902664887945 0 -0.0001968140115746522 -0.014214078430530281 0 5.1473423301067504e-05 -0.014165955077181882 0 -1.8203010449576776e-05 -0.014020902664887945 0 -0.0001721128117961461 -0.014016758746719543 0 -0.0001968140115746522 -0.014214078430530281 0 -1.8203010449576776e-05 -0.014020902664887945 0 7.8690940982481097e-05 -0.013918193231255909 0 -1.8378092620801378e-05 -0.013815151748702455 0 -1.8203010449576776e-05 -0.014020902664887945 0 -0.0001721128117961461 -0.014016758746719543 0 -1.8378092620801378e-05 -0.013815151748702455 0 0.00017170597872131268 -0.014027487496019795 0 -1.8203010449576776e-05 -0.014020902664887945 0 7.8690940982481097e-05 -0.013918193231255909 0 -0.00034902579277458132 -0.014116807540981548 0 -0.0001721128117961461 -0.014016758746719543 0 -0.0001968140115746522 -0.014214078430530281 0 -0.00034902579277458132 -0.014116807540981548 0 -0.0001721128117961461 -0.014016758746719543 0 -0.00028000236049800147 -0.013875523405435727 0 -0.00047627950367208741 -0.013580557543930588 0 -0.00028000236049800147 -0.013875523405435727 0 -0.00010173040815358702 -0.013564725793603896 0 -0.0001721128117961461 -0.014016758746719543 0 -0.00028000236049800147 -0.013875523405435727 0 -1.8378092620801378e-05 -0.013815151748702455 0 -0.00028000236049800147 -0.013875523405435727 0 -1.8378092620801378e-05 -0.013815151748702455 0 -0.00010173040815358702 -0.013564725793603896 0 0.00024407105823682327 -0.012483026095609409 0 7.9573627478136459e-05 -0.013950132108683129 0 0.00028739900672127765 -0.013729528233427775 0 -1.8378092620801378e-05 -0.013815151748702455 0 -0.00010173040815358702 -0.013564725793603896 0 0.00018597062285262658 -0.013815728005294518 0 7.8690940982481097e-05 -0.013918193231255909 0 -1.8378092620801378e-05 -0.013815151748702455 0 0.00058835170899358951 -0.013798190445477122 0 -0.00010173040815358702 -0.013564725793603896 0 0.00040473120017683412 -0.013352049826551115 0 -0.00010173040815358702 -0.013564725793603896 0 9.6013923522363784e-05 -0.01314117570228256 0 0.00040473120017683412 -0.013352049826551115 0 -0.00047627950367208741 -0.013580557543930588 0 -0.00010173040815358702 -0.013564725793603896 0 -0.00021022670834707524 -0.013190372123468295 0 -0.00010173040815358702 -0.013564725793603896 0 -0.00021022670834707524 -0.013190372123468295 0 9.6013923522363784e-05 -0.01314117570228256 0 -0.00054775152184870343 -0.013174633995824673 0 -0.00047627950367208741 -0.013580557543930588 0 -0.00021022670834707524 -0.013190372123468295 0 -0.00054775152184870343 -0.013174633995824673 0 -0.00021022670834707524 -0.013190372123468295 0 -0.00025257017269216897 -0.01282664259215258 0 -0.00021022670834707524 -0.013190372123468295 0 -0.00010964505867371744 -0.012789603834110983 0 9.6013923522363784e-05 -0.01314117570228256 0 -0.00021022670834707524 -0.013190372123468295 0 -0.00010964505867371744 -0.012789603834110983 0 -0.00025257017269216897 -0.01282664259215258 0 -0.00032804982517574633 -0.011902653029496042 0 -0.0007913060142172465 -0.013215782364297733 0 -0.00035825171481522835 -0.012972937638618611 0 -0.0007913060142172465 -0.013215782364297733 0 9.6013923522363784e-05 -0.01314117570228256 0 0.00040473120017683412 -0.013352049826551115 0 0.00036158100531176229 -0.01274247650288097 0 -0.00010964505867371744 -0.012789603834110983 0 9.6013923522363784e-05 -0.01314117570228256 0 0.00036158100531176229 -0.01274247650288097 0 0.0018134949610441797 -0.0083745714979290252 0 0.0018340416790321701 -0.0073347547362621014 0 0.0008779376192937573 -0.0073919975807309624 0 0.00040473120017683412 -0.013352049826551115 0 0.00084222973651421258 -0.013226771269478637 0 0.00036158100531176229 -0.01274247650288097 0 0.0016593242565460422 -0.0080449574615833498 0 0.00087186986286363769 -0.0098799112940536234 0 0.00058835170899358951 -0.013798190445477122 0 0.00040473120017683412 -0.013352049826551115 0 0.00084222973651421258 -0.013226771269478637 0 0.00024407105823682327 -0.012483026095609409 0 0.0016593242565460422 -0.0080449574615833498 0 0.0016593242565460422 -0.0080449574615833498 0 0.0023297818718743548 -0.0051955538657515021 0 0.0016593242565460422 -0.0080449574615833498 0 0.0028754396129280586 -0.0039664265009745417 0 0.0027309584699664216 -0.0024686475851001016 0 0.0030120512908913292 -0.0018518636804349842 0 0.0033195806305617746 -0.0023389793678724748 0 0.0018134949610441797 -0.0083745714979290252 0 0.0023656973026706255 -0.0071739038146542448 0 0.0018340416790321701 -0.0073347547362621014 0 0.0023656973026706255 -0.0071739038146542448 0 0.001802960627912264 -0.0068762727353247934 0 0.0019834840423344174 -0.0062551668958227046 0 0.0023656973026706255 -0.0071739038146542448 0 0.001802960627912264 -0.0068762727353247934 0 0.0018340416790321701 -0.0073347547362621014 0 0.001802960627912264 -0.0068762727353247934 0 0.0018340416790321701 -0.0073347547362621014 0 0.001440472460132531 -0.0071060112402983695 0 0.0018340416790321701 -0.0073347547362621014 0 0.001440472460132531 -0.0071060112402983695 0 0.00082695959912943134 -0.0074151826105193072 0 0.0017609317685997963 -0.007220238670239439 0 0.00087186986286363769 -0.0098799112940536234 0 0.0015212937098421694 -0.0073856934326467635 0 0.00053694338850424333 -0.0092517247733188753 0 0.001440472460132531 -0.0071060112402983695 0 0.0009486201994610029 -0.0067983361544107813 0 0.00069709168644908426 -0.0072794685166824233 0 0.001440472460132531 -0.0071060112402983695 0 0.00082695959912943134 -0.0074151826105193072 0 0.00070034233929214653 -0.0072841081967050404 0 0.001440472460132531 -0.0071060112402983695 0 0.0009486201994610029 -0.0067983361544107813 0 0.0013867656812394029 -0.0065077185845530535 0 0.001802960627912264 -0.0068762727353247934 0 0.001440472460132531 -0.0071060112402983695 0 0.0013867656812394029 -0.0065077185845530535 0 0.0013867656812394029 -0.0065077185845530535 0 0.0012155329920895486 -0.0057818400573094939 0 0.0019834840423344174 -0.0062551668958227046 0 0.0009486201994610029 -0.0067983361544107813 0 0.0013867656812394029 -0.0065077185845530535 0 0.00087061956824722726 -0.0062471323313534463 0 0.0013867656812394029 -0.0065077185845530535 0 0.00087061956824722726 -0.0062471323313534463 0 0.0012155329920895486 -0.0057818400573094939 0 0.0011043351584659818 -0.0061568664459141038 0 0.0011853349373573633 -0.0064465979765404389 0 0.0023656973026706255 -0.0071739038146542448 0 0.0019834840423344174 -0.0062551668958227046 0 0.0029065895724573283 -0.0059275091390478384 0 0.001802960627912264 -0.0068762727353247934 0 0.0013867656812394029 -0.0065077185845530535 0 0.0019834840423344174 -0.0062551668958227046 0 -0.0011350369099065892 -0.014561102269224978 0 -0.00072983297647554314 -0.014238887635387332 0 -0.0011212486342973178 -0.014050664379138227 0 -0.0013590189802408837 -0.014274248334862535 0 -0.0011350369099065892 -0.014561102269224978 0 -0.0011212486342973178 -0.014050664379138227 0 -0.0007913060142172465 -0.013215782364297733 0 -8.4082084780459965e-07 -0.010108251131113201 0 -0.00054743889439549367 -0.011258472839221328 0 -0.0009682140490472681 -0.01134904125690756 0 1.8592542593536518e-05 -0.010314223098019316 0 -0.00032896245657381833 -0.010730700995183369 0 0.00069784124339592466 -0.010668204570217648 0 0.00056451792767320806 -0.010528910223059391 0 -0.00032804982517574633 -0.011902653029496042 0 0.00087186986286363769 -0.0098799112940536234 0 -0.00054743889439549367 -0.011258472839221328 0 1.8592542593536518e-05 -0.010314223098019316 0 0.00066554432523654224 -0.010996509822881594 0 -0.00032804982517574633 -0.011902653029496042 0 0.00053694338850424333 -0.0092517247733188753 0 -8.4082084780459965e-07 -0.010108251131113201 0 0.00053694338850424333 -0.0092517247733188753 0 0.00087186986286363769 -0.0098799112940536234 0 0.00053694338850424333 -0.0092517247733188753 0 0.0009486201994610029 -0.0067983361544107813 0 0.00024295634318208725 -0.0068034940816599871 0 0.00069709168644908426 -0.0072794685166824233 0 0.0009486201994610029 -0.0067983361544107813 0 0.00087061956824722726 -0.0062471323313534463 0 0.00024295634318208725 -0.0068034940816599871 0 0.00057359905416089598 -0.0080700209808529638 0 7.7316213521988586e-05 -0.0086179650983795129 0 0.00012701743613695619 -0.0078812316101668535 0 7.7316213521988586e-05 -0.0086179650983795129 0 -0.00032683034561495805 -0.0081867174366989318 0 0.00012701743613695619 -0.0078812316101668535 0 0.00087061956824722726 -0.0062471323313534463 0 0.0012121577606737152 -0.0057868134597064847 0 0.00024295634318208725 -0.0068034940816599871 0 0.0011853349373573633 -0.0064465979765404389 0 -8.4082084780459965e-07 -0.010108251131113201 0 -0.0016127465966945759 -0.013617168054425434 0 -0.0011660993275147986 -0.013977026538383484 0 -0.0017930891509809978 -0.013128858017955132 0 -0.0011212486342973178 -0.014050664379138227 0 -0.0012280304798923177 -0.013622566793489242 0 -8.4082084780459965e-07 -0.010108251131113201 0 -0.00072452511276301079 -0.011061479954659285 0 -0.00072983297647554314 -0.014238887635387332 0 -0.0011212486342973178 -0.014050664379138227 0 -0.0012280304798923177 -0.013622566793489242 0 -0.0013872299614614047 -0.014043259630559661 0 -0.0013590189802408837 -0.014274248334862535 0 -0.0011212486342973178 -0.014050664379138227 0 -0.00072794728824429253 -0.0077637127450191287 0 -0.00032683034561495805 -0.0081867174366989318 0 -0.00021518830303508799 -0.0074134585972119122 0 -0.00032683034561495805 -0.0081867174366989318 0 0.00012701743613695619 -0.0078812316101668535 0 -0.00021518830303508799 -0.0074134585972119122 0 0.00012701743613695619 -0.0078812316101668535 0 0.00028562400029701025 -0.0073748568010896373 0 -0.00021518830303508799 -0.0074134585972119122 0 0.00018454631394878256 -0.0069526692652504734 0 0.00028562400029701025 -0.0073748568010896373 0 -0.00021518830303508799 -0.0074134585972119122 0 0.00012701743613695619 -0.0078812316101668535 0 0.00028562400029701025 -0.0073748568010896373 0 0.00051861578686222094 -0.0076145278631504654 0 0.0019834840423344174 -0.0062551668958227046 0 0.0020648747700878086 -0.0049088171201632233 0 0.0029065895724573283 -0.0059275091390478384 0 0.0012155329920895486 -0.0057818400573094939 0 0.0019834840423344174 -0.0062551668958227046 0 0.0020648747700878086 -0.0049088171201632233 0 0.001555403471948086 -0.0065593373269585715 0 0.0018758584818574476 -0.006198605215529558 0 0.0018763044520336842 -0.0062764132717138136 0 0.0011853349373573633 -0.0064465979765404389 0 0.0020103193761227996 -0.0055462356899696344 0 0.00057359905416089598 -0.0080700209808529638 0 0.00012701743613695619 -0.0078812316101668535 0 0.00051861578686222094 -0.0076145278631504654 0 0.0011853349373573633 -0.0064465979765404389 0 0.0013590630445562758 -0.0070063090183675337 0 0.00057359905416089598 -0.0080700209808529638 0 0.00051861578686222094 -0.0076145278631504654 0 0.00097315920391048921 -0.0074736586187641079 0 0.00051861578686222094 -0.0076145278631504654 0 0.00064965326703534309 -0.0072747106411305438 0 0.00097315920391048921 -0.0074736586187641079 0 0.00028562400029701025 -0.0073748568010896373 0 0.00051861578686222094 -0.0076145278631504654 0 0.00064965326703534309 -0.0072747106411305438 0 0.00045328529261480125 -0.0070759916558853914 0 0.00028562400029701025 -0.0073748568010896373 0 0.00064965326703534309 -0.0072747106411305438 0 0.0010827160734209434 -0.007056605909456155 0 0.00089919671464082861 -0.0070525484278447176 0 0.00097315920391048921 -0.0074736586187641079 0 0.0025360930645054757 -0.0050241177625820659 0 0.0020103193761227996 -0.0055462356899696344 0 0.0021639054710867129 -0.0060074489381524406 0 0.0018758584818574476 -0.006198605215529558 0 0.0018763044520336842 -0.0062764132717138136 0 0.00089919671464082861 -0.0070525484278447176 0 0.00064965326703534309 -0.0072747106411305438 0 0.00097315920391048921 -0.0074736586187641079 0 0.0017781721429931229 -0.0063587205582195418 0 0.0013590630445562758 -0.0070063090183675337 0 0.0028745328170417498 -0.0040932076629222758 0 0.0020648747700878086 -0.0049088171201632233 0 0.0034104994556318591 -0.0047291412809441291 0 0.0035570182243935744 -0.0028408392648503252 0 0.0030875090535612561 -0.0037201980528872927 0 0.0020648747700878086 -0.0049088171201632233 0 0.0034104994556318591 -0.0047291412809441291 0 0.0029065895724573283 -0.0059275091390478384 0 0.0037362776276057457 -0.00087965525333503721 0 0.0033526057051394761 -0.0012754358368013768 0 0.0037396461170570577 -0.001242720955817589 0 0.0037362776276057457 -0.00087965525333503721 0 0.0039113876365592165 -0.00096901934993168443 0 0.0037396461170570577 -0.001242720955817589 0 0.0039849524783168392 -0.0008888761600364609 0 0.0037362776276057457 -0.00087965525333503721 0 0.003963641233330659 -0.00086697445633956516 0 0.0037362776276057457 -0.00087965525333503721 0 0.003963641233330659 -0.00086697445633956516 0 0.0039113876365592165 -0.00096901934993168443 0 0.0038683017017500467 -0.0036291501338859321 0 0.0028745328170417498 -0.0040932076629222758 0 0.0034104994556318591 -0.0047291412809441291 0 0.0040151647421643958 -0.0020800741875584656 0 0.0035570182243935744 -0.0028408392648503252 0 0.003963641233330659 -0.00086697445633956516 0 0.0039113876365592165 -0.00096901934993168443 0 0.0040568471750336323 -0.00089180309937975143 0 0.0039021121497969818 -0.00089189517689654816 0 0.003963641233330659 -0.00086697445633956516 0 0.0040568471750336323 -0.00089180309937975143 0 0.0042754944229574151 -0.00046095742698203833 0 0.0042573430313278746 -0.00078906534792824734 0 0.0043626215213208273 -0.00062936442354658852 0 0.0040911092915140012 -0.00070235269635384823 0 0.0040522638234680086 -0.0008861771604284285 0 0.0042754944229574151 -0.00046095742698203833 0 0.0042573430313278746 -0.00078906534792824734 0 0.0040568471750336323 -0.00089180309937975143 0 0.0042573430313278746 -0.00078906534792824734 0 0.0042645926529510207 -0.0010193241727048459 0 0.0044640798651833678 -0.0009151235988611176 0 0.0042573430313278746 -0.00078906534792824734 0 0.0042645926529510207 -0.0010193241727048459 0 0.0040568471750336323 -0.00089180309937975143 0 0.0042645926529510207 -0.0010193241727048459 0 0.0040568471750336323 -0.00089180309937975143 0 0.0040461324442394343 -0.0010401795811681718 0 0.0039113876365592165 -0.00096901934993168443 0 0.0040568471750336323 -0.00089180309937975143 0 0.0040461324442394343 -0.0010401795811681718 0 0.0039113876365592165 -0.00096901934993168443 0 0.0040461324442394343 -0.0010401795811681718 0 0.0039252005304631788 -0.0012023788749942277 0 0.0039113876365592165 -0.00096901934993168443 0 0.0039252005304631788 -0.0012023788749942277 0 0.0037396461170570577 -0.001242720955817589 0 0.0040161489201111494 -0.0014264331717325804 0 0.0038021101539288424 -0.0016795532417466319 0 0.0037396461170570577 -0.001242720955817589 0 0.0039252005304631788 -0.0012023788749942277 0 0.0040161489201111494 -0.0014264331717325804 0 0.0037396461170570577 -0.001242720955817589 0 0.0040461324442394343 -0.0010401795811681718 0 0.0039252005304631788 -0.0012023788749942277 0 0.0040161489201111494 -0.0014264331717325804 0 0.0040461324442394343 -0.0010401795811681718 0 0.0042881716090737432 -0.0012475803027430555 0 0.0043457491335147369 -0.0014370626512312666 0 0.0040461324442394343 -0.0010401795811681718 0 0.0040161489201111494 -0.0014264331717325804 0 0.0045115366943210521 -0.0016809931028480866 0 0.0040685452697423003 -0.0010605363318739679 0 0.004421842919343384 -0.0015565994868611541 0 0.0042645926529510207 -0.0010193241727048459 0 0.0042881716090737432 -0.0012475803027430555 0 0.0044645400244308761 -0.0010839159951683576 0 0.0042645926529510207 -0.0010193241727048459 0 0.0040461324442394343 -0.0010401795811681718 0 0.0042881716090737432 -0.0012475803027430555 0 0.0040161489201111494 -0.0014264331717325804 0 0.0045115366943210521 -0.0016809931028480866 0 0.004128129731754835 -0.0017991621431195268 0 0.0045115366943210521 -0.0016809931028480866 0 0.004128129731754835 -0.0017991621431195268 0 0.0044523774639180372 -0.0020347733900765684 0 0.004128129731754835 -0.0017991621431195268 0 0.0038021101539288424 -0.0016795532417466319 0 0.0038219414510772391 -0.0021508257133876245 0 0.0040161489201111494 -0.0014264331717325804 0 0.004128129731754835 -0.0017991621431195268 0 0.0038021101539288424 -0.0016795532417466319 0 0.0038021101539288424 -0.0016795532417466319 0 0.0034432707932236482 -0.0019092448404770092 0 0.0038219414510772391 -0.0021508257133876245 0 0.0038021101539288424 -0.0016795532417466319 0 0.0034432707932236482 -0.0019092448404770092 0 0.0034775115957446706 -0.0015871121564154178 0 0.0030120512908913292 -0.0018518636804349842 0 0.0034432707932236482 -0.0019092448404770092 0 0.0034775115957446706 -0.0015871121564154178 0 0.0030120512908913292 -0.0018518636804349842 0 0.0034775115957446706 -0.0015871121564154178 0 0.0033526057051394761 -0.0012754358368013768 0 0.0028754396129280586 -0.0039664265009745417 0 0.0030875090535612561 -0.0037201980528872927 0 0.0034775115957446706 -0.0015871121564154178 0 0.0033526057051394761 -0.0012754358368013768 0 0.0037396461170570577 -0.001242720955817589 0 0.0038021101539288424 -0.0016795532417466319 0 0.0034775115957446706 -0.0015871121564154178 0 0.0037396461170570577 -0.001242720955817589 0 0.003827991104431962 -0.00012778417248228668 0 0.0040362528099988637 -0.00010598156983867518 0 0.0040141019311546785 -0.0002875493158460718 0 0.0040362528099988637 -0.00010598156983867518 0 0.0042093972491125623 -0.00011729484725199741 0 0.0041937507033391443 -3.832931671877453e-05 0 0.0040362528099988637 -0.00010598156983867518 0 0.0041436333740682623 -0.00024102758341221713 0 0.0042093972491125623 -0.00011729484725199741 0 0.0040362528099988637 -0.00010598156983867518 0 0.0041436333740682623 -0.00024102758341221713 0 0.0040141019311546785 -0.0002875493158460718 0 0.0041436333740682623 -0.00024102758341221713 0 0.0040141019311546785 -0.0002875493158460718 0 0.0041093897842111194 -0.00034869667618374849 0 0.0041436333740682623 -0.00024102758341221713 0 0.0041093897842111194 -0.00034869667618374849 0 0.0042037392421401974 -0.00034990577122907861 0 0.0039206185997874001 -0.00038916018929145495 0 0.0038727656125818856 -0.00027228815307704218 0 0.0040141019311546785 -0.0002875493158460718 0 0.0039921475106152165 0.0011723462863995815 0 0.0044339345735802333 -0.0005576174464611732 0 0.0039416242038788803 -0.00038700435433950916 0 0.0040141019311546785 -0.0002875493158460718 0 0.0041093897842111194 -0.00034869667618374849 0 0.0042736595095506048 -0.00046496740500300422 0 0.0042654345344858985 -0.00047298645627376996 0 0.0042173516891682375 -0.00047191773357734435 0 0.0042637691177623577 -0.00046001668799567854 0 0.0042736595095506048 -0.00046496740500300422 0 0.0042173516891682375 -0.00047191773357734435 0 0.0039921475106152165 0.0011723462863995815 0 0.0036287817567738994 6.7777657209389244e-05 0 0.0042173516891682375 -0.00047191773357734435 0 0.0041093897842111194 -0.00034869667618374849 0 0.0042037392421401974 -0.00034990577122907861 0 0.0039416242038788803 -0.00038700435433950916 0 0.0042173516891682375 -0.00047191773357734435 0 0.0041093897842111194 -0.00034869667618374849 0 0.0042173516891682375 -0.00047191773357734435 0 0.0042771796955398357 -0.00040753199073177183 0 0.0042853412543687021 -0.00049860875477519394 0 0.0042173516891682375 -0.00047191773357734435 0 0.0042771796955398357 -0.00040753199073177183 0 0.0042037392421401974 -0.00034990577122907861 0 0.0042771796955398357 -0.00040753199073177183 0 0.0042448890342354608 -0.00029796474869435424 0 0.0043490889716205567 -0.00036991473281590116 0 0.0044623694818841288 -0.00080819916914496171 0 0.0048696924246363436 0.00097115798331308964 0 0.0042448890342354608 -0.00029796474869435424 0 0.0042093972491125623 -0.00011729484725199741 0 0.0043490889716205567 -0.00036991473281590116 0 0.0042093972491125623 -0.00011729484725199741 0 0.0043490889716205567 -0.00036991473281590116 0 0.0042048710246071477 -7.1234102472991507e-05 0 0.0046911630107296064 -0.00092066712720746745 0 0.004602568020813989 -0.00090361255403072194 0 0.0044830276239917434 -0.00090595727156850194 0 0.0042771796955398357 -0.00040753199073177183 0 0.0042448890342354608 -0.00029796474869435424 0 0.0042037392421401974 -0.00034990577122907861 0 0.0041436333740682623 -0.00024102758341221713 0 0.0042448890342354608 -0.00029796474869435424 0 0.0042037392421401974 -0.00034990577122907861 0 0.0041436333740682623 -0.00024102758341221713 0 0.0042448890342354608 -0.00029796474869435424 0 0.0042093972491125623 -0.00011729484725199741 0 0.0046911630107296064 -0.00092066712720746745 0 0.0044640798651833678 -0.0009151235988611176 0 0.0046730818449318302 -0.00097974204027275933 0 0.0046911630107296064 -0.00092066712720746745 0 0.0046730818449318302 -0.00097974204027275933 0 0.004602568020813989 -0.00090361255403072194 0 0.0042771796955398357 -0.00040753199073177183 0 0.0043490889716205567 -0.00036991473281590116 0 0.0043288924443795635 -0.00048496859585256581 0 0.0043490889716205567 -0.00036991473281590116 0 0.0043288924443795635 -0.00048496859585256581 0 0.0043626215213208273 -0.00062936442354658852 0 0.0042771796955398357 -0.00040753199073177183 0 0.0042853412543687021 -0.00049860875477519394 0 0.0043288924443795635 -0.00048496859585256581 0 0.0042853412543687021 -0.00049860875477519394 0 0.0043231691073268835 -0.00053187049180835146 0 0.0043288924443795635 -0.00048496859585256581 0 0.0043231691073268835 -0.00053187049180835146 0 0.0043288924443795635 -0.00048496859585256581 0 0.0043626215213208273 -0.00062936442354658852 0 0.0044623694818841288 -0.00080819916914496171 0 0.0043639388007406816 -0.0005739655884523956 0 0.0046911630107296064 -0.00092066712720746745 0 0.0043626215213208273 -0.00062936442354658852 0 0.0044640798651833678 -0.0009151235988611176 0 0.0042573430313278746 -0.00078906534792824734 0 0.0043626215213208273 -0.00062936442354658852 0 0.0044640798651833678 -0.0009151235988611176 0 0.0044640798651833678 -0.0009151235988611176 0 0.0044645400244308761 -0.0010839159951683576 0 0.0046730818449318302 -0.00097974204027275933 0 0.0042645926529510207 -0.0010193241727048459 0 0.0044640798651833678 -0.0009151235988611176 0 0.0044645400244308761 -0.0010839159951683576 0 0.0044645400244308761 -0.0010839159951683576 0 0.0045951521799862775 -0.0012870658699027399 0 0.0046730818449318302 -0.00097974204027275933 0 0.0042881716090737432 -0.0012475803027430555 0 0.0044645400244308761 -0.0010839159951683576 0 0.0045951521799862775 -0.0012870658699027399 0 0.0043137699678468758 -0.0012271123409568409 0 0.004746028413028988 -0.0014040041479261652 0 0.0043457491335147369 -0.0014370626512312666 0 0.0048833934211726321 -0.001354784728720267 0 0.0050994586427903811 -0.0017842621230450678 0 0.0042881716090737432 -0.0012475803027430555 0 0.0043457491335147369 -0.0014370626512312666 0 0.0048833934211726321 -0.001354784728720267 0 0.0048833934211726321 -0.001354784728720267 0 0.0054816925666543457 -0.0015703532569054104 0 0.0050994586427903811 -0.0017842621230450678 0 0.004746028413028988 -0.0014040041479261652 0 0.0053064343032704535 -0.0007012994244423328 0 0.0045951521799862775 -0.0012870658699027399 0 0.0046730818449318302 -0.00097974204027275933 0 0.0049911493211185175 -0.001400589216619282 0 0.0045293966409078422 -0.0010464904461170805 0 0.0053064343032704535 -0.0007012994244423328 0 0.0046730818449318302 -0.00097974204027275933 0 0.004602568020813989 -0.00090361255403072194 0 0.004546703853248151 -0.00078242783556794256 0 0.0046730818449318302 -0.00097974204027275933 0 0.004546703853248151 -0.00078242783556794256 0 0.0045905916409484078 -0.00060520761113371348 0 0.004602568020813989 -0.00090361255403072194 0 0.004546703853248151 -0.00078242783556794256 0 0.0044830276239917434 -0.00090595727156850194 0 0.0048696569754441577 0.00072272216078692866 0 0.0048696924246363436 0.00097115798331308964 0 0.004546703853248151 -0.00078242783556794256 0 0.0043724449516176316 -0.00070288021063915523 0 0.0044830276239917434 -0.00090595727156850194 0 0.004546703853248151 -0.00078242783556794256 0 0.0045905916409484078 -0.00060520761113371348 0 0.0043724449516176316 -0.00070288021063915523 0 0.0045905916409484078 -0.00060520761113371348 0 0.0043724449516176316 -0.00070288021063915523 0 0.0042755571713986792 -0.00045336195890566483 0 0.0053064343032704535 -0.0007012994244423328 0 0.0045568925656881247 0.0028619793538818355 0 0.004688587386433604 0.0023290644468269483 0 0.0045568925656881247 0.0028619793538818355 0 0.0044348612400181711 0.0054380009564466165 0 0.0050930874320518184 0.0052172272643370423 0 0.0047508624952258185 0.0058701369408845428 0 0.0037606474299715616 0.00031047393665113547 0 0.0040362528099988637 -0.00010598156983867518 0 0.0041937507033391443 -3.832931671877453e-05 0 0.0041849914887619128 0.0052077483644624731 0 0.0050930874320518184 0.0052172272643370423 0 0.0054009829502306107 0.0044182885923092947 0 0.003893758384584816 0.0042216091584821556 0 0.0048696924246363436 0.00097115798331308964 0 0.004688587386433604 0.0023290644468269483 0 0.0048696924246363436 0.00097115798331308964 0 0.0048939969064494514 0.0023664521311325512 0 0.0056452933511560799 -0.00045551218745503889 0 0.0058642299645333424 -0.0024620955934804038 0 0.0057716669473758331 -0.0021311624242484105 0 0.0056362299848234489 -0.0024371173067490779 0 0.0060449401171748882 0.00067724540741742037 0 0.0051808082174266083 0.0018989752950414676 0 0.0048708484679892824 0.0010578290793842031 0 0.0042495811211660031 0.0025759060877110921 0 0.0051808082174266083 0.0018989752950414676 0 0.0048708484679892824 0.0010578290793842031 0 0.0054816925666543457 -0.0015703532569054104 0 0.0057716669473758331 -0.0021311624242484105 0 0.0054630737488533644 -0.0020071782440669339 0 0.0054816925666543457 -0.0015703532569054104 0 0.0054630737488533644 -0.0020071782440669339 0 0.0050994586427903811 -0.0017842621230450678 0 0.0053064343032704535 -0.0007012994244423328 0 0.0056452933511560799 -0.00045551218745503889 0 0.0057716669473758331 -0.0021311624242484105 0 0.0054630737488533644 -0.0020071782440669339 0 0.0056362299848234489 -0.0024371173067490779 0 0.0054630737488533644 -0.0020071782440669339 0 0.0056362299848234489 -0.0024371173067490779 0 0.0052903292910626634 -0.0022883209989256236 0 0.0052903292910626634 -0.0022883209989256236 0 0.0048111288567427614 -0.0021173379700584372 0 0.0053157491189045692 -0.0027456088882689758 0 0.004865618734571836 -0.0022011737459549704 0 0.0052851272921754086 -0.002728796701212921 0 0.0052903292910626634 -0.0022883209989256236 0 0.0050994586427903811 -0.0017842621230450678 0 0.0048111288567427614 -0.0021173379700584372 0 0.0054630737488533644 -0.0020071782440669339 0 0.0052903292910626634 -0.0022883209989256236 0 0.0050994586427903811 -0.0017842621230450678 0 0.0043457491335147369 -0.0014370626512312666 0 0.0050994586427903811 -0.0017842621230450678 0 0.0048111288567427614 -0.0021173379700584372 0 0.004421842919343384 -0.0015565994868611541 0 0.004865618734571836 -0.0022011737459549704 0 0.0045115366943210521 -0.0016809931028480866 0 0.0048982996220255899 -0.0022836973051442019 0 0.0044523774639180372 -0.0020347733900765684 0 0.0048982996220255899 -0.0022836973051442019 0 0.0044523774639180372 -0.0020347733900765684 0 0.0044893809091820546 -0.0023484589005258539 0 0.0048982996220255899 -0.0022836973051442019 0 0.0047116251249326507 -0.0027005493219219869 0 0.0044893809091820546 -0.0023484589005258539 0 0.0048982996220255899 -0.0022836973051442019 0 0.0047116251249326507 -0.0027005493219219869 0 0.0053157491189045692 -0.0027456088882689758 0 0.0047116251249326507 -0.0027005493219219869 0 0.0048816017876235386 -0.0030815135367496509 0 0.0044600358731354027 -0.0032694305800034318 0 0.0047116251249326507 -0.0027005493219219869 0 0.0048816017876235386 -0.0030815135367496509 0 0.0053157491189045692 -0.0027456088882689758 0 0.0048816017876235386 -0.0030815135367496509 0 0.0044600358731354027 -0.0032694305800034318 0 0.0048244175471263669 -0.0034986558981267984 0 0.0048816017876235386 -0.0030815135367496509 0 0.0052422287778956011 -0.003365924173038859 0 0.0048244175471263669 -0.0034986558981267984 0 0.0052422287778956011 -0.003365924173038859 0 0.0053157491189045692 -0.0027456088882689758 0 0.005502433708588517 -0.0026542804431163077 0 0.0048816017876235386 -0.0030815135367496509 0 0.0052422287778956011 -0.003365924173038859 0 0.0053157491189045692 -0.0027456088882689758 0 0.0053396726646696346 -0.0031284561580744454 0 0.0055333111100019485 -0.0026448707315497562 0 0.0052903292910626634 -0.0022883209989256236 0 0.0053157491189045692 -0.0027456088882689758 0 0.005502433708588517 -0.0026542804431163077 0 0.0056362299848234489 -0.0024371173067490779 0 0.0052903292910626634 -0.0022883209989256236 0 0.005502433708588517 -0.0026542804431163077 0 0.0056362299848234489 -0.0024371173067490779 0 0.0055965718804614067 -0.0026235011302394823 0 0.005502433708588517 -0.0026542804431163077 0 0.0055965718804614067 -0.0026235011302394823 0 0.005502433708588517 -0.0026542804431163077 0 0.0055690399623619449 -0.002651283161113556 0 0.0055710304158055092 -0.0026593455371418571 0 0.005502433708588517 -0.0026542804431163077 0 0.0055690399623619449 -0.002651283161113556 0 0.0055710304158055092 -0.0026593455371418571 0 0.0055690399623619449 -0.002651283161113556 0 0.0056255526991837229 -0.0026567745762099497 0 0.0055965718804614067 -0.0026235011302394823 0 0.0055690399623619449 -0.002651283161113556 0 0.0056255526991837229 -0.0026567745762099497 0 0.0055965718804614067 -0.0026235011302394823 0 0.0056255526991837229 -0.0026567745762099497 0 0.005695614498378492 -0.002580937157827866 0 0.0057612285753111175 -0.0026264101372693673 0 0.0056255526991837229 -0.0026567745762099497 0 0.005695614498378492 -0.002580937157827866 0 0.0058642299645333424 -0.0024620955934804038 0 0.0056362299848234489 -0.0024371173067490779 0 0.005695614498378492 -0.002580937157827866 0 0.0056362299848234489 -0.0024371173067490779 0 0.0055965718804614067 -0.0026235011302394823 0 0.005695614498378492 -0.002580937157827866 0 0.0036806973171700521 -0.0026167376505946017 0 0.0033195806305617746 -0.0023389793678724748 0 0.0038219414510772391 -0.0021508257133876245 0 0.0027309584699664216 -0.0024686475851001016 0 0.0033195806305617746 -0.0023389793678724748 0 0.0032349237136887693 -0.0029710316774574255 0 0.0036806973171700521 -0.0026167376505946017 0 0.0033195806305617746 -0.0023389793678724748 0 0.0032349237136887693 -0.0029710316774574255 0 0.0030120512908913292 -0.0018518636804349842 0 0.0034432707932236482 -0.0019092448404770092 0 0.0033195806305617746 -0.0023389793678724748 0 0.0034432707932236482 -0.0019092448404770092 0 0.0033195806305617746 -0.0023389793678724748 0 0.0038219414510772391 -0.0021508257133876245 0 0.0038219414510772391 -0.0021508257133876245 0 0.0042024024984235429 -0.0021250966090682016 0 0.0041639382420575466 -0.0025922083394125202 0 0.004128129731754835 -0.0017991621431195268 0 0.0038219414510772391 -0.0021508257133876245 0 0.0042024024984235429 -0.0021250966090682016 0 0.004128129731754835 -0.0017991621431195268 0 0.0042024024984235429 -0.0021250966090682016 0 0.0044523774639180372 -0.0020347733900765684 0 0.0042024024984235429 -0.0021250966090682016 0 0.0044523774639180372 -0.0020347733900765684 0 0.0044893809091820546 -0.0023484589005258539 0 0.0042024024984235429 -0.0021250966090682016 0 0.0044893809091820546 -0.0023484589005258539 0 0.0041639382420575466 -0.0025922083394125202 0 0.0047116251249326507 -0.0027005493219219869 0 0.0044893809091820546 -0.0023484589005258539 0 0.0041639382420575466 -0.0025922083394125202 0 0.0036806973171700521 -0.0026167376505946017 0 0.0038219414510772391 -0.0021508257133876245 0 0.0041639382420575466 -0.0025922083394125202 0 0.0036806973171700521 -0.0026167376505946017 0 0.0041639382420575466 -0.0025922083394125202 0 0.0038873688598206734 -0.0031149516237439869 0 0.0041639382420575466 -0.0025922083394125202 0 0.0044600358731354027 -0.0032694305800034318 0 0.0038873688598206734 -0.0031149516237439869 0 0.0047116251249326507 -0.0027005493219219869 0 0.0041639382420575466 -0.0025922083394125202 0 0.0044600358731354027 -0.0032694305800034318 0 0.0044600358731354027 -0.0032694305800034318 0 0.0038873688598206734 -0.0031149516237439869 0 0.004084633025253896 -0.0034099333813345277 0 0.0038873688598206734 -0.0031149516237439869 0 0.004084633025253896 -0.0034099333813345277 0 0.0038609720795114116 -0.0033920908242915013 0 0.004084633025253896 -0.0034099333813345277 0 0.0038609720795114116 -0.0033920908242915013 0 0.0037593062833018234 -0.0035347203710910393 0 0.0038873688598206734 -0.0031149516237439869 0 0.0038609720795114116 -0.0033920908242915013 0 0.0037144135106928224 -0.0035107706498274569 0 0.0038873688598206734 -0.0031149516237439869 0 0.0037144135106928224 -0.0035107706498274569 0 0.0032349237136887693 -0.0029710316774574255 0 0.0038609720795114116 -0.0033920908242915013 0 0.0037144135106928224 -0.0035107706498274569 0 0.0037593062833018234 -0.0035347203710910393 0 0.002321643339163165 -0.0083628409607673249 0 0.0023297818718743548 -0.0051955538657515021 0 0.002321643339163165 -0.0083628409607673249 0 0.0023167592322494274 -0.0081268215172480441 0 0.0036806973171700521 -0.0026167376505946017 0 0.0038873688598206734 -0.0031149516237439869 0 0.0032349237136887693 -0.0029710316774574255 0 0.002321643339163165 -0.0083628409607673249 0 0.00093829118021946929 -0.011692350900935787 0 0.0018808134532870221 -0.0093541929172710533 0 0.0015086250697721423 -0.0089802559479611778 0 0.0014189775895303675 -0.0091825030439321217 0 0.00039666459520305863 -0.013793625480547791 0 0.00053041719393714883 -0.01365734669210892 0 0.00061956782266310941 -0.013948910065894864 0 0.00092642035025343298 -0.013684466176198064 0 0.00053041719393714883 -0.01365734669210892 0 0.00061956782266310941 -0.013948910065894864 0 0.00075032083688741957 -0.014327966448529695 0 0.00078774023398389215 -0.01458230724759859 0 0.00059829329308266237 -0.014517751452867718 0 0.00075032083688741957 -0.014327966448529695 0 0.00103514413180845 -0.014521226006937506 0 0.00078774023398389215 -0.01458230724759859 0 0.00068597261747063156 -0.014139495855007116 0 0.0010002267900184947 -0.014378847739790149 0 0.00092642035025343298 -0.013684466176198064 0 0.00061956782266310941 -0.013948910065894864 0 0.00093770664979104634 -0.014223759192375353 0 0.002321643339163165 -0.0083628409607673249 0 0.0026117831947224186 -0.0093572679438465017 0 0.0037101151026468289 -0.0035126932745021713 0 0.0037593062833018234 -0.0035347203710910393 0 0.0041405813326545688 -0.0040228530821110929 0 0.004084633025253896 -0.0034099333813345277 0 0.0037593062833018234 -0.0035347203710910393 0 0.0041405813326545688 -0.0040228530821110929 0 0.0044600358731354027 -0.0032694305800034318 0 0.004084633025253896 -0.0034099333813345277 0 0.0041405813326545688 -0.0040228530821110929 0 0.0044600358731354027 -0.0032694305800034318 0 0.0045861172060619373 -0.0039266039999763143 0 0.0041405813326545688 -0.0040228530821110929 0 0.0013073645665174986 -0.013974792225791451 0 0.0014297992794790723 -0.014339340116365165 0 0.0017487860163966395 -0.014374320837652893 0 0.0045861172060619373 -0.0039266039999763143 0 0.0041405813326545688 -0.0040228530821110929 0 0.0046271089202783462 -0.0045760431393700269 0 0.0026117831947224186 -0.0093572679438465017 0 0.0048053125509737752 -0.0070341710493850868 0 0.00092642035025343298 -0.013684466176198064 0 0.00093770664979104634 -0.014223759192375353 0 0.0013073645665174986 -0.013974792225791451 0 0.00093770664979104634 -0.014223759192375353 0 0.0013073645665174986 -0.013974792225791451 0 0.0014297992794790723 -0.014339340116365165 0 0.0010002267900184947 -0.014378847739790149 0 0.001361189989778185 -0.014639630640101172 0 0.00103514413180845 -0.014521226006937506 0 0.0013838012099625433 -0.014646893853438385 0 0.0011881016311816887 -0.014796512902348206 0 0.00093770664979104634 -0.014223759192375353 0 0.0014297992794790723 -0.014339340116365165 0 0.0013838012099625433 -0.014646893853438385 0 0.0022659971914474101 -0.01159087947063478 0 0.0016442549997557762 -0.014472952379514568 0 0.0013838012099625433 -0.014646893853438385 0 0.0016550477247441531 -0.014537954793248931 0 0.0011881016311816887 -0.014796512902348206 0 0.0014297992794790723 -0.014339340116365165 0 0.0016550477247441531 -0.014537954793248931 0 0.0017487860163966395 -0.014374320837652893 0 0.0014297992794790723 -0.014339340116365165 0 0.0013838012099625433 -0.014646893853438385 0 0.0016550477247441531 -0.014537954793248931 0 0.0022659971914474101 -0.01159087947063478 0 0.0048053125509737752 -0.0070341710493850868 0 0.0022659971914474101 -0.01159087947063478 0 0.0025286038112764695 -0.014240702661316131 0 0.002934146548169311 -0.013399319655779172 0 0.0026599435189288384 -0.013893057325884866 0 0.002287485287021412 -0.013661219434457425 0 0.0029238937200235034 -0.013347815846777165 0 0.0026599435189288384 -0.013893057325884866 0 0.0031238181123734417 -0.013816800248706665 0 0.0026599435189288384 -0.013893057325884866 0 0.002287485287021412 -0.013661219434457425 0 0.0022526606738261334 -0.014100049082145072 0 0.0011881016311816887 -0.014796512902348206 0 0.0008625436589244351 -0.014982772733920777 0 0.00092184462403909731 -0.014730224128221048 0 0.002287485287021412 -0.013661219434457425 0 0.0015915461013636706 -0.013931189139782765 0 0.0022526606738261334 -0.014100049082145072 0 0.0016442549997557762 -0.014472952379514568 0 0.0012657564751078734 -0.014426933363103512 0 0.0008625436589244351 -0.014982772733920777 0 0.00062996301785109038 -0.014743244057485306 0 0.00092184462403909731 -0.014730224128221048 0 0.0008625436589244351 -0.014982772733920777 0 0.00062996301785109038 -0.014743244057485306 0 0.00052936167983021589 -0.014946022220485255 0 0.0008625436589244351 -0.014982772733920777 0 0.00052436642185061549 -0.015154448808334732 0 0.00052936167983021589 -0.014946022220485255 0 0.00062996301785109038 -0.014743244057485306 0 0.00078774023398389215 -0.01458230724759859 0 0.00092184462403909731 -0.014730224128221048 0 0.00062996301785109038 -0.014743244057485306 0 0.00078774023398389215 -0.01458230724759859 0 0.00059829329308266237 -0.014517751452867718 0 0.00103514413180845 -0.014521226006937506 0 0.00078774023398389215 -0.01458230724759859 0 0.00092184462403909731 -0.014730224128221048 0 0.00103514413180845 -0.014521226006937506 0 0.0011881016311816887 -0.014796512902348206 0 0.00092184462403909731 -0.014730224128221048 0 0.0054580172930141918 0.0021511127871568811 0 0.0058086518347566915 0.002685006975281757 0 0.0065739287627153585 0.0025399414495559515 0 0.0049401579043577629 0.0018092923460857602 0 0.0060412934964612945 -0.00029940692625406276 0 0.0057166891482960053 -0.0026866271043211125 0 0.0056640155704627366 -0.0026875030646475299 0 0.0056495038246986463 -0.0027230639436945014 0 0.0054922141091587832 0.0030118768227707926 0 0.0054943435759286794 0.0024932022925863227 0 0.0058086518347566915 0.002685006975281757 0 0.0058086518347566915 0.002685006975281757 0 0.0065739287627153585 0.0025399414495559515 0 0.0060238922980185104 0.0032261253053490141 0 0.0054580172930141918 0.0021511127871568811 0 0.0054943435759286794 0.0024932022925863227 0 0.0058086518347566915 0.002685006975281757 0 0.0057612285753111175 -0.0026264101372693673 0 0.0056255526991837229 -0.0026567745762099497 0 0.0056640155704627366 -0.0026875030646475299 0 0.0057612285753111175 -0.0026264101372693673 0 0.0057166891482960053 -0.0026866271043211125 0 0.0056640155704627366 -0.0026875030646475299 0 0.0055710304158055092 -0.0026593455371418571 0 0.0056255526991837229 -0.0026567745762099497 0 0.005607804043015148 -0.0026996455456435547 0 0.0056255526991837229 -0.0026567745762099497 0 0.0056640155704627366 -0.0026875030646475299 0 0.005607804043015148 -0.0026996455456435547 0 0.0060412934964612945 -0.00029940692625406276 0 0.0070912123302668186 0.00054901900190389369 0 0.0056640155704627366 -0.0026875030646475299 0 0.005607804043015148 -0.0026996455456435547 0 0.0056495038246986463 -0.0027230639436945014 0 0.005607804043015148 -0.0026996455456435547 0 0.0056495038246986463 -0.0027230639436945014 0 0.005597171222284209 -0.0027651648872098742 0 0.005607804043015148 -0.0026996455456435547 0 0.0055456029915882067 -0.0027158494585821221 0 0.005597171222284209 -0.0027651648872098742 0 0.0055710304158055092 -0.0026593455371418571 0 0.005607804043015148 -0.0026996455456435547 0 0.0055456029915882067 -0.0027158494585821221 0 0.0053396726646696346 -0.0031284561580744454 0 0.0054598368243414875 -0.0027419683099681878 0 0.0045861172060619373 -0.0039266039999763143 0 0.0048244175471263669 -0.0034986558981267984 0 0.0049559163026730857 -0.0039658740154826407 0 0.0052422287778956011 -0.003365924173038859 0 0.0048244175471263669 -0.0034986558981267984 0 0.0049559163026730857 -0.0039658740154826407 0 0.0044600358731354027 -0.0032694305800034318 0 0.0045861172060619373 -0.0039266039999763143 0 0.0048244175471263669 -0.0034986558981267984 0 0.0054598368243414875 -0.0027419683099681878 0 0.0048053125509737752 -0.0070341710493850868 0 0.0045861172060619373 -0.0039266039999763143 0 0.0049559163026730857 -0.0039658740154826407 0 0.0046271089202783462 -0.0045760431393700269 0 0.0055456029915882067 -0.0027158494585821221 0 0.0054909047164621817 -0.0028229437258910826 0 0.0055074400555013975 -0.0028348600871555608 0 0.0055456029915882067 -0.0027158494585821221 0 0.0055074400555013975 -0.0028348600871555608 0 0.005597171222284209 -0.0027651648872098742 0 0.0029238937200235034 -0.013347815846777165 0 0.0031330329556480984 -0.013259371890600587 0 0.0031238181123734417 -0.013816800248706665 0 0.0057676209332978004 -0.004687494677548437 0 0.0070912123302668186 0.00054901900190389369 0 0.0087143580837436146 0.0032285208320482826 0 0.0078882423764781127 0.0042058948269529132 0 0.0076598324420463423 0.002899182253011467 0 0.0048053125509737752 -0.0070341710493850868 0 0.0057676209332978004 -0.004687494677548437 0 0.0022659971914474101 -0.01159087947063478 0 0.0057676209332978004 -0.004687494677548437 0 0.0034392612059799383 -0.0083892145444757552 0 0.0045078925103325569 -0.0065649191365631746 0 0.0055027223193407481 -0.0076184236428239486 0 0.0031330329556480984 -0.013259371890600587 0 0.0031238181123734417 -0.013816800248706665 0 0.0035711467928014663 -0.013790352483820023 0 0.0057676209332978004 -0.004687494677548437 0 0.0056936952875585754 -0.0047700338411849836 0 0.0078882423764781127 0.0042058948269529132 0 0.0076598324420463423 0.002899182253011467 0 0.0069923803161965952 0.0042074594269839189 0 0.0076598324420463423 0.002899182253011467 0 0.0066841018703895656 0.0033869486982673427 0 0.0069923803161965952 0.0042074594269839189 0 0.0065739287627153585 0.0025399414495559515 0 0.0066841018703895656 0.0033869486982673427 0 0.0060238922980185104 0.0032261253053490141 0 0.0065739287627153585 0.0025399414495559515 0 0.0076598324420463423 0.002899182253011467 0 0.0066841018703895656 0.0033869486982673427 0 0.0069923803161965952 0.0042074594269839189 0 0.0061404131162449719 0.0040217278469859841 0 0.0062777265539844139 0.0047671537058138645 0 0.0066841018703895656 0.0033869486982673427 0 0.0069923803161965952 0.0042074594269839189 0 0.0061404131162449719 0.0040217278469859841 0 0.0055581980263033487 0.004673147420406744 0 0.0054936358385536252 0.0037293913526419528 0 0.0061404131162449719 0.0040217278469859841 0 0.0055581980263033487 0.004673147420406744 0 0.0061404131162449719 0.0040217278469859841 0 0.0062777265539844139 0.0047671537058138645 0 0.0054936358385536252 0.0037293913526419528 0 0.0061404131162449719 0.0040217278469859841 0 0.0060238922980185104 0.0032261253053490141 0 0.0066841018703895656 0.0033869486982673427 0 0.0061404131162449719 0.0040217278469859841 0 0.0060238922980185104 0.0032261253053490141 0 0.0054922141091587832 0.0030118768227707926 0 0.0054936358385536252 0.0037293913526419528 0 0.0060238922980185104 0.0032261253053490141 0 0.0054922141091587832 0.0030118768227707926 0 0.0058086518347566915 0.002685006975281757 0 0.0060238922980185104 0.0032261253053490141 0 0.0061364407715054263 0.006155936566311763 0 0.0056691236958323673 0.0055523133906158831 0 0.0070212954203253278 0.0052177107625569798 0 0.0053110754299422018 0.0063213078205850374 0 0.006151469791083118 0.0063996383643627995 0 0.0056691236958323673 0.0055523133906158831 0 0.0034922402408767129 -0.0025705656983324781 0 0.0073400587275432123 0.0079330087931102182 0 0.0056691236958323673 0.0055523133906158831 0 0.0062777265539844139 0.0047671537058138645 0 0.0070212954203253278 0.0052177107625569798 0 0.0055581980263033487 0.004673147420406744 0 0.0056691236958323673 0.0055523133906158831 0 0.0062777265539844139 0.0047671537058138645 0 0.0069923803161965952 0.0042074594269839189 0 0.0062777265539844139 0.0047671537058138645 0 0.0070212954203253278 0.0052177107625569798 0 0.0043548152080994619 -0.014633430098534407 0 0.0039497719472476409 -0.0142364913589296 0 0.0036844535095531014 -0.014752799287088959 0 0.0034922402408767129 -0.0025705656983324781 0 0.0058357030378707129 -0.0048627280036973829 0 0.0039497719472476409 -0.0142364913589296 0 0.0036844535095531014 -0.014752799287088959 0 0.0033584986194609128 -0.014295802798635168 0 0.0035711467928014663 -0.013790352483820023 0 0.0039497719472476409 -0.0142364913589296 0 0.0033584986194609128 -0.014295802798635168 0 0.0078882423764781127 0.0042058948269529132 0 0.0069923803161965952 0.0042074594269839189 0 0.0070212954203253278 0.0052177107625569798 0 0.0056936952875585754 -0.0047700338411849836 0 0.0058357030378707129 -0.0048627280036973829 0 0.0031238181123734417 -0.013816800248706665 0 0.0035711467928014663 -0.013790352483820023 0 0.0033584986194609128 -0.014295802798635168 0 0.0031238181123734417 -0.013816800248706665 0 0.0033584986194609128 -0.014295802798635168 0 0.0027263292827812511 -0.0144842041299012 0 0.0033584986194609128 -0.014295802798635168 0 0.0031704150825001961 -0.014807534555783406 0 0.0027263292827812511 -0.0144842041299012 0 0.0036844535095531014 -0.014752799287088959 0 0.0033584986194609128 -0.014295802798635168 0 0.0031704150825001961 -0.014807534555783406 0 0.0031704150825001961 -0.014807534555783406 0 0.00336598978057389 -0.015256061777275594 0 0.0027732243645315325 -0.015211421357837207 0 0.0035089637244513257 -0.015847104407753658 0 0.00336598978057389 -0.015256061777275594 0 0.0028602538165145353 -0.015590326764259851 0 0.00336598978057389 -0.015256061777275594 0 0.0027732243645315325 -0.015211421357837207 0 0.0028602538165145353 -0.015590326764259851 0 0.0035089637244513257 -0.015847104407753658 0 0.00336598978057389 -0.015256061777275594 0 0.0039420599853509774 -0.015300865052206042 0 0.0036844535095531014 -0.014752799287088959 0 0.00336598978057389 -0.015256061777275594 0 0.0039420599853509774 -0.015300865052206042 0 0.0036844535095531014 -0.014752799287088959 0 0.0031704150825001961 -0.014807534555783406 0 0.00336598978057389 -0.015256061777275594 0 -0.00041336618826973051 -0.0025967037439008191 0 -0.00019582431923495988 -0.002320869091636639 0 0.00010648228950393099 -0.0026078456880768625 0 -0.00041336618826973051 -0.0025967037439008191 0 -0.00010120768864265081 -0.0029354822473670627 0 0.00010648228950393099 -0.0026078456880768625 0 0.0043548152080994619 -0.014633430098534407 0 0.0036844535095531014 -0.014752799287088959 0 0.0039420599853509774 -0.015300865052206042 0 0.0034922402408767129 -0.0025705656983324781 0 0.0015316450232910517 -0.010169607757618871 0 0.0020966547542909278 0.0033696986619825313 0 0.0034922402408767129 -0.0025705656983324781 0 0.0014966696922756729 -0.014995651758709512 0 0.0013434649662863898 -0.014479668914124258 0 0.0019619709648323663 -0.014527938479186623 0 0.0018633605095086329 -0.015334795185980689 0 0.0022598631778596688 -0.0153487576165721 0 0.0014966696922756729 -0.014995651758709512 0 0.0019619709648323663 -0.014527938479186623 0 0.0022758383993790681 -0.015302360405185516 0 0.0018633605095086329 -0.015334795185980689 0 0.0015454840246348096 -0.015243583119577098 0 0.0014966696922756729 -0.014995651758709512 0 0.0013434649662863898 -0.014479668914124258 0 0.00082518991299241424 -0.014728634549402831 0 0.0015915461013636706 -0.013931189139782765 0 0.0013434649662863898 -0.014479668914124258 0 0.00086635741505204276 -0.014220495578638873 0 0.0012657564751078734 -0.014426933363103512 0 0.00061177204636562641 -0.014681640327280254 0 0.0015915461013636706 -0.013931189139782765 0 0.0013434649662863898 -0.014479668914124258 0 0.0019619709648323663 -0.014527938479186623 0 0.0015915461013636706 -0.013931189139782765 0 0.0019619709648323663 -0.014527938479186623 0 0.0022526606738261334 -0.014100049082145072 0 0.0019619709648323663 -0.014527938479186623 0 0.0022526606738261334 -0.014100049082145072 0 0.0027263292827812511 -0.0144842041299012 0 0.0026599435189288384 -0.013893057325884866 0 0.0022526606738261334 -0.014100049082145072 0 0.0027263292827812511 -0.0144842041299012 0 0.0026599435189288384 -0.013893057325884866 0 0.0031238181123734417 -0.013816800248706665 0 0.0027263292827812511 -0.0144842041299012 0 0.0031704150825001961 -0.014807534555783406 0 0.0027263292827812511 -0.0144842041299012 0 0.0027732243645315325 -0.015211421357837207 0 0.0019619709648323663 -0.014527938479186623 0 0.0027263292827812511 -0.0144842041299012 0 0.0022758383993790681 -0.015302360405185516 0 0.0027263292827812511 -0.0144842041299012 0 0.0022758383993790681 -0.015302360405185516 0 0.0027732243645315325 -0.015211421357837207 0 0.0022758383993790681 -0.015302360405185516 0 0.0027732243645315325 -0.015211421357837207 0 0.0024567694126442657 -0.015590392243448459 0 0.0027732243645315325 -0.015211421357837207 0 0.0028602538165145353 -0.015590326764259851 0 0.0024567694126442657 -0.015590392243448459 0 0.002555519536476843 -0.015882960814418732 0 0.0028602538165145353 -0.015590326764259851 0 0.0024567694126442657 -0.015590392243448459 0 0.0022763709182774881 -0.015839753990604621 0 0.002555519536476843 -0.015882960814418732 0 0.0024567694126442657 -0.015590392243448459 0 0.0022763709182774881 -0.015839753990604621 0 0.0024567694126442657 -0.015590392243448459 0 0.0022027870507633301 -0.015628824128273468 0 0.0022763709182774881 -0.015839753990604621 0 0.0022027870507633301 -0.015628824128273468 0 0.0021293670413355605 -0.015865311964217539 0 0.0022758383993790681 -0.015302360405185516 0 0.0024567694126442657 -0.015590392243448459 0 0.0022027870507633301 -0.015628824128273468 0 0.0021924565359778456 -0.015704991500402408 0 0.0022758383993790681 -0.015302360405185516 0 0.0022027870507633301 -0.015628824128273468 0 0.0021924565359778456 -0.015704991500402408 0 0.0021486178918175346 -0.015816952636335459 0 0.0021457374828607249 -0.015967360149878131 0 0.0021924565359778456 -0.015704991500402408 0 0.0022027870507633301 -0.015628824128273468 0 0.0021486178918175346 -0.015816952636335459 0 0.0021486178918175346 -0.015816952636335459 0 0.0021293670413355605 -0.015865311964217539 0 0.0020794817486620011 -0.016005246855645514 0 0.0022027870507633301 -0.015628824128273468 0 0.0021486178918175346 -0.015816952636335459 0 0.0021293670413355605 -0.015865311964217539 0 0.0020572852360503245 -0.01594724101466086 0 0.0021293670413355605 -0.015865311964217539 0 0.0020794817486620011 -0.016005246855645514 0 0.0020794817486620011 -0.016005246855645514 0 0.0020998437996521116 -0.016038402856038417 0 0.0021260542646207082 -0.016322061273690243 0 0.0020794817486620011 -0.016005246855645514 0 0.0021260542646207082 -0.016322061273690243 0 0.0021457374828607249 -0.015967360149878131 0 0.002243140792272745 -0.015968067371785858 0 0.0021260542646207082 -0.016322061273690243 0 0.0024702457907966277 -0.016087105811214183 0 0.002243140792272745 -0.015968067371785858 0 0.0020998437996521116 -0.016038402856038417 0 0.0021260542646207082 -0.016322061273690243 0 0.0021260542646207082 -0.016322061273690243 0 0.0019519521131335751 -0.015983766645657472 0 0.0016620853386702912 -0.01626411572209488 0 0.0021260542646207082 -0.016322061273690243 0 0.0021457374828607249 -0.015967360149878131 0 0.0019519521131335751 -0.015983766645657472 0 0.0021486178918175346 -0.015816952636335459 0 0.0020794817486620011 -0.016005246855645514 0 0.0021457374828607249 -0.015967360149878131 0 0.0021924565359778456 -0.015704991500402408 0 0.0021457374828607249 -0.015967360149878131 0 0.0021574852953007667 -0.015777178923793725 0 0.0021457374828607249 -0.015967360149878131 0 0.0021574852953007667 -0.015777178923793725 0 0.0019519521131335751 -0.015983766645657472 0 0.0019519521131335751 -0.015983766645657472 0 0.0018000030691869371 -0.015534484709642523 0 0.0014861962234091674 -0.015935485027794072 0 0.0015454840246348096 -0.015243583119577098 0 0.0006185467295564505 -0.015166088732925808 0 0.0021574852953007667 -0.015777178923793725 0 0.0019519521131335751 -0.015983766645657472 0 0.0018000030691869371 -0.015534484709642523 0 0.0001766518054158754 -0.015319859157887158 0 0.00052436642185061549 -0.015154448808334732 0 0.00028082928815496166 -0.015042465859608271 0 0.0001766518054158754 -0.015319859157887158 0 0.00028082928815496166 -0.015042465859608271 0 4.6154528874283759e-06 -0.015065062805749093 0 0.0006185467295564505 -0.015166088732925808 0 0.00061177204636562641 -0.014681640327280254 0 0.0013434649662863898 -0.014479668914124258 0 0.00082518991299241424 -0.014728634549402831 0 0.00086635741505204276 -0.014220495578638873 0 0.00082518991299241424 -0.014728634549402831 0 0.00017275620651071411 -0.014492588923972404 0 0.00086635741505204276 -0.014220495578638873 0 -0.00036115359466436161 -0.015578038368921259 0 -0.00043806610361830548 -0.015586691663413782 0 -0.00046914405205016957 -0.015584722620178527 0 -0.00030181468703940271 -0.015220965132367146 0 -0.00036115359466436161 -0.015578038368921259 0 -0.0004016347747633572 -0.015000025850387991 0 -0.00036931473909453691 -0.015568313257281792 0 -0.00042882154687139172 -0.015304474114974678 0 -0.00030181468703940271 -0.015220965132367146 0 -0.00011146752683891987 -0.015464909911511643 0 -0.00036115359466436161 -0.015578038368921259 0 0.00029698009656590774 -0.015462698340159583 0 -0.00011146752683891987 -0.015464909911511643 0 -8.4601109981455338e-05 -0.015601405602403111 0 0.0001766518054158754 -0.015319859157887158 0 -0.00030181468703940271 -0.015220965132367146 0 4.6154528874283759e-06 -0.015065062805749093 0 0.00029698009656590774 -0.015462698340159583 0 -0.00030181468703940271 -0.015220965132367146 0 -0.00011146752683891987 -0.015464909911511643 0 0.0006185467295564505 -0.015166088732925808 0 -0.0004292736854661066 -0.015268329065818136 0 0.0006185467295564505 -0.015166088732925808 0 0.00064027479472444524 -0.015597920068296411 0 0.0018000030691869371 -0.015534484709642523 0 0.0012515900178461899 -0.015629519752662902 0 0.0014861962234091674 -0.015935485027794072 0 0.0014861962234091674 -0.015935485027794072 0 0.00097515895183136281 -0.015975499748047416 0 0.00094827851688262675 -0.01645538402537472 0 0.0012515900178461899 -0.015629519752662902 0 0.0014861962234091674 -0.015935485027794072 0 0.00097515895183136281 -0.015975499748047416 0 0.00097515895183136281 -0.015975499748047416 0 0.00052788443332266058 -0.015844465321299999 0 0.00094827851688262675 -0.01645538402537472 0 0.0012515900178461899 -0.015629519752662902 0 0.00097515895183136281 -0.015975499748047416 0 0.00052788443332266058 -0.015844465321299999 0 -8.4601109981455338e-05 -0.015601405602403111 0 -0.00036115359466436161 -0.015578038368921259 0 -0.00042850730814043386 -0.01569058610499529 0 0.00064027479472444524 -0.015597920068296411 0 -1.1490608111364272e-05 -0.015944897602837006 0 -0.00011146752683891987 -0.015464909911511643 0 -8.4601109981455338e-05 -0.015601405602403111 0 -0.00036115359466436161 -0.015578038368921259 0 -0.00036115359466436161 -0.015578038368921259 0 -0.00042850730814043386 -0.01569058610499529 0 -0.00043806610361830548 -0.015586691663413782 0 0.00029475124721665003 -0.015636101414875973 0 0.00041139342376628782 -0.016228160870444916 0 -3.3334372550431575e-05 -0.015737499453145575 0 0.00029475124721665003 -0.015636101414875973 0 0.00041139342376628782 -0.016228160870444916 0 0.00094827851688262675 -0.01645538402537472 0 -1.1490608111364272e-05 -0.015944897602837006 0 0.00091204201005613676 -0.01640454147424289 0 0.00041139342376628782 -0.016228160870444916 0 0.00094827851688262675 -0.01645538402537472 0 0.00017225391368730415 -0.016848746735459788 0 0.00094827851688262675 -0.01645538402537472 0 0.00089602081799784923 -0.017116572812417664 0 0.00017225391368730415 -0.016848746735459788 0 0.0021260542646207082 -0.016322061273690243 0 0.0016620853386702912 -0.01626411572209488 0 0.001520287679020643 -0.016742956984081219 0 0.00094827851688262675 -0.01645538402537472 0 0.0016620853386702912 -0.01626411572209488 0 0.001520287679020643 -0.016742956984081219 0 0.0014861962234091674 -0.015935485027794072 0 0.00094827851688262675 -0.01645538402537472 0 0.0016620853386702912 -0.01626411572209488 0 0.0019519521131335751 -0.015983766645657472 0 0.0014861962234091674 -0.015935485027794072 0 0.0016620853386702912 -0.01626411572209488 0 0.00094827851688262675 -0.01645538402537472 0 0.001520287679020643 -0.016742956984081219 0 0.00089602081799784923 -0.017116572812417664 0 0.0020671214878077494 -0.01646647500121913 0 0.002009504213163065 -0.016847843319219208 0 0.0021260542646207082 -0.016322061273690243 0 0.001520287679020643 -0.016742956984081219 0 0.0014289029151859894 -0.017770346046692972 0 0.001520287679020643 -0.016742956984081219 0 0.0014289029151859894 -0.017770346046692972 0 0.00089602081799784923 -0.017116572812417664 0 0.00032537035388531744 -0.017846638567390178 0 0.00089602081799784923 -0.017116572812417664 0 0.00017225391368730415 -0.016848746735459788 0 0.0014289029151859894 -0.017770346046692972 0 0.00032537035388531744 -0.017846638567390178 0 0.00089602081799784923 -0.017116572812417664 0 -0.00019951315236717979 -0.018658056450881554 0 0.00032537035388531744 -0.017846638567390178 0 -0.00027040718654173037 -0.017629578777591616 0 0.00032537035388531744 -0.017846638567390178 0 -0.00027040718654173037 -0.017629578777591616 0 0.00017225391368730415 -0.016848746735459788 0 -0.00019951315236717979 -0.018658056450881554 0 -0.00027040718654173037 -0.017629578777591616 0 -0.0012002658658149408 -0.018260953942706826 0 -0.00027040718654173037 -0.017629578777591616 0 -0.0012002658658149408 -0.018260953942706826 0 -0.000526571521033915 -0.016925325477171436 0 -0.0012002658658149408 -0.018260953942706826 0 -0.0014499793774839721 -0.016255076506688643 0 -0.000526571521033915 -0.016925325477171436 0 -0.0012662284915716181 -0.018064291503502566 0 -0.0012119111385915896 -0.017378997343232602 0 -0.0012002658658149408 -0.018260953942706826 0 -0.0013270755029306457 -0.017898209830072429 0 -0.0017349225700906802 -0.018092841153450993 0 0.00017225391368730415 -0.016848746735459788 0 -0.000526571521033915 -0.016925325477171436 0 1.5762314366018805e-05 -0.015754039103417102 0 0.00012364452508999211 -0.016583473791516565 0 -0.00028680806540896389 -0.016216695551980589 0 0.00041139342376628782 -0.016228160870444916 0 0.00017225391368730415 -0.016848746735459788 0 -3.3334372550431575e-05 -0.015737499453145575 0 -0.0014499793774839721 -0.016255076506688643 0 -0.000526571521033915 -0.016925325477171436 0 1.5762314366018805e-05 -0.015754039103417102 0 -0.00027040718654173037 -0.017629578777591616 0 0.00017225391368730415 -0.016848746735459788 0 -0.000526571521033915 -0.016925325477171436 0 -0.0024767494375036122 -0.019150155861045716 0 -0.0023231116451950008 -0.018505790323974827 0 -0.0021158196497172406 -0.018794543215427839 0 -0.0023231116451950008 -0.018505790323974827 0 -0.0021158196497172406 -0.018794543215427839 0 -0.0017349225700906802 -0.018092841153450993 0 -0.001517094641110708 -0.018923810161749224 0 -0.0012002658658149408 -0.018260953942706826 0 -0.0016962173449132055 -0.018561035811981264 0 -0.0012002658658149408 -0.018260953942706826 0 -0.0016962173449132055 -0.018561035811981264 0 -0.0017349225700906802 -0.018092841153450993 0 -0.0021158196497172406 -0.018794543215427839 0 -0.0016962173449132055 -0.018561035811981264 0 -0.0017349225700906802 -0.018092841153450993 0 -0.0012119111385915896 -0.017378997343232602 0 -0.0018440075276192137 -0.018291369125730227 0 -0.0018394483461702318 -0.018381721877542726 0 -0.0021975602657003557 -0.01815762909249917 0 -0.0017153849015593126 -0.017953416617966355 0 -0.0013226098395615947 -0.018205069586584622 0 -0.0018394483461702318 -0.018381721877542726 0 -0.0017153849015593126 -0.017953416617966355 0 -0.0022365289645760525 -0.018451327930793581 0 -0.0018440075276192137 -0.018291369125730227 0 -0.0023231116451950008 -0.018505790323974827 0 -0.0018394483461702318 -0.018381721877542726 0 -0.0021975602657003557 -0.01815762909249917 0 -0.0021975602657003557 -0.01815762909249917 0 -0.0021042907616284079 -0.017761798424207335 0 -0.0017153849015593126 -0.017953416617966355 0 -0.0025580943201795633 -0.017927753056755803 0 -0.0021975602657003557 -0.01815762909249917 0 -0.0021042907616284079 -0.017761798424207335 0 -0.0017153849015593126 -0.017953416617966355 0 -0.0017818351701987664 -0.017340899541946616 0 -0.0013447577124449991 -0.017560502987446325 0 -0.0021042907616284079 -0.017761798424207335 0 -0.0017153849015593126 -0.017953416617966355 0 -0.0017818351701987664 -0.017340899541946616 0 -0.0025580943201795633 -0.017927753056755803 0 -0.0021042907616284079 -0.017761798424207335 0 -0.0023483018987980864 -0.017443464900817027 0 -0.0021042907616284079 -0.017761798424207335 0 -0.0017818351701987664 -0.017340899541946616 0 -0.0023483018987980864 -0.017443464900817027 0 -0.0012119111385915896 -0.017378997343232602 0 -0.00028680806540896389 -0.016216695551980589 0 -0.00093738078529521593 -0.017001308744314714 0 -0.00076426900156314538 -0.016933788250041337 0 -0.00086639053094451793 -0.016892012597118571 0 -0.00076426900156314538 -0.016933788250041337 0 -0.00086639053094451793 -0.016892012597118571 0 -0.00078268778733901008 -0.016840336478818892 0 -0.00086639053094451793 -0.016892012597118571 0 -0.00086819812067451165 -0.016815427543155816 0 -0.00078268778733901008 -0.016840336478818892 0 -0.00028680806540896389 -0.016216695551980589 0 -0.00052150781042497208 -0.016364888692889094 0 -1.1490608111364272e-05 -0.015944897602837006 0 -0.00052150781042497208 -0.016364888692889094 0 -0.00034079646363774818 -0.016131830870832455 0 -0.00028934369874465129 -0.016112998581147422 0 -0.00027000097244573863 -0.016228921056841303 0 -1.1490608111364272e-05 -0.015944897602837006 0 -0.00028680806540896389 -0.016216695551980589 0 -0.00093738078529521593 -0.017001308744314714 0 -0.00086639053094451793 -0.016892012597118571 0 -0.00094920018604239902 -0.016803825384277229 0 -0.0012119111385915896 -0.017378997343232602 0 -0.0011344291996176128 -0.017252245239851756 0 -0.0013226098395615947 -0.018205069586584622 0 -0.0017153849015593126 -0.017953416617966355 0 -0.0013447577124449991 -0.017560502987446325 0 -0.00086639053094451793 -0.016892012597118571 0 -0.00086819812067451165 -0.016815427543155816 0 -0.00094920018604239902 -0.016803825384277229 0 -0.00086819812067451165 -0.016815427543155816 0 -0.00094920018604239902 -0.016803825384277229 0 -0.00087418246666407233 -0.016726182667177108 0 -0.00087854685680433962 -0.016663696402209362 0 -0.00065100371074117657 -0.016959641826432705 0 -0.00073007008073130541 -0.016478055933283303 0 -0.00052150781042497208 -0.016364888692889094 0 -0.00061404334984733967 -0.016012233483506298 0 -0.00085216111166023969 -0.016733521908524032 0 -0.00052150781042497208 -0.016364888692889094 0 -0.00086819812067451165 -0.016815427543155816 0 -0.00087418246666407233 -0.016726182667177108 0 -0.00078268778733901008 -0.016840336478818892 0 -0.00043806610361830548 -0.015586691663413782 0 -0.00048527245852341663 -0.01559128090290287 0 -0.00046914405205016957 -0.015584722620178527 0 -0.00048527245852341663 -0.01559128090290287 0 -0.00051353031352163563 -0.015568849574366024 0 -0.00046914405205016957 -0.015584722620178527 0 -0.00085216111166023969 -0.016733521908524032 0 -0.0011697188736554118 -0.016614900014078868 0 -0.00087854685680433962 -0.016663696402209362 0 -0.00073007008073130541 -0.016478055933283303 0 -0.001136624101723111 -0.016350907111674823 0 -0.0011344291996176128 -0.017252245239851756 0 -0.0011697188736554118 -0.016614900014078868 0 -0.00094920018604239902 -0.016803825384277229 0 -0.00087418246666407233 -0.016726182667177108 0 -0.00096401309987301698 -0.016610639583871385 0 -0.00073007008073130541 -0.016478055933283303 0 -0.001136624101723111 -0.016350907111674823 0 -0.0010012869752658764 -0.016124292963636034 0 -0.0011697188736554118 -0.016614900014078868 0 -0.0012340481127335562 -0.015933817802674419 0 -0.001136624101723111 -0.016350907111674823 0 -0.0010012869752658764 -0.016124292963636034 0 -0.0012006677521281526 -0.015906603438579928 0 -0.0010012869752658764 -0.016124292963636034 0 -0.00079760407922928398 -0.015931481995868673 0 -0.0012006677521281526 -0.015906603438579928 0 -0.00061404334984733967 -0.016012233483506298 0 -0.00070715298543672696 -0.015715442213334676 0 -0.00045114280103369751 -0.015067428764535285 0 -0.00042882154687139172 -0.015304474114974678 0 -0.00051353031352163563 -0.015568849574366024 0 -0.00049421608483987689 -0.015537005438551377 0 -0.00046914405205016957 -0.015584722620178527 0 -0.00048527245852341663 -0.01559128090290287 0 -0.00060209739058330128 -0.015546941005300406 0 -0.00051353031352163563 -0.015568849574366024 0 -0.00073007008073130541 -0.016478055933283303 0 -0.0010012869752658764 -0.016124292963636034 0 -0.00079760407922928398 -0.015931481995868673 0 -0.00060209739058330128 -0.015546941005300406 0 -0.00051353031352163563 -0.015568849574366024 0 -0.00049421608483987689 -0.015537005438551377 0 -0.0017818351701987664 -0.017340899541946616 0 -0.0023483018987980864 -0.017443464900817027 0 -0.0021860949521211267 -0.017028440598100346 0 -0.0025517662528763774 -0.016815263438917448 0 -0.0021860949521211267 -0.017028440598100346 0 -0.0022790027427139156 -0.016665698776907458 0 -0.0026012491239114665 -0.017150547210781349 0 -0.0023483018987980864 -0.017443464900817027 0 -0.0021860949521211267 -0.017028440598100346 0 -0.0021860949521211267 -0.017028440598100346 0 -0.001717468348416463 -0.016970499961612255 0 -0.0019366611085765829 -0.016657236162689621 0 -0.0017818351701987664 -0.017340899541946616 0 -0.0013447577124449991 -0.017560502987446325 0 -0.0013448344797617126 -0.016884786376145471 0 -0.0013448344797617126 -0.016884786376145471 0 -0.001717468348416463 -0.016970499961612255 0 -0.0019366611085765829 -0.016657236162689621 0 -0.0017818351701987664 -0.017340899541946616 0 -0.0013448344797617126 -0.016884786376145471 0 -0.001717468348416463 -0.016970499961612255 0 -0.0017818351701987664 -0.017340899541946616 0 -0.0021860949521211267 -0.017028440598100346 0 -0.001717468348416463 -0.016970499961612255 0 -0.0011697188736554118 -0.016614900014078868 0 -0.0017931365852027921 -0.016065226159953448 0 -0.0013448344797617126 -0.016884786376145471 0 -0.0019366611085765829 -0.016657236162689621 0 -0.0017565570750462907 -0.016193293527849258 0 -0.0012167797372597301 -0.016673964595271828 0 -0.0017833954403750564 -0.015920745692498756 0 -0.0012604583048271049 -0.01603459282508897 0 -0.0021860949521211267 -0.017028440598100346 0 -0.0019366611085765829 -0.016657236162689621 0 -0.0022790027427139156 -0.016665698776907458 0 -0.0019366611085765829 -0.016657236162689621 0 -0.0022790027427139156 -0.016665698776907458 0 -0.0021899608532854136 -0.016233178760598134 0 -0.0019366611085765829 -0.016657236162689621 0 -0.0021899608532854136 -0.016233178760598134 0 -0.0017565570750462907 -0.016193293527849258 0 -0.0025090814200150083 -0.01655339549805122 0 -0.0022790027427139156 -0.016665698776907458 0 -0.0021899608532854136 -0.016233178760598134 0 -0.0017931365852027921 -0.016065226159953448 0 -0.0023263189005124406 -0.015278921103664005 0 -0.0024225627219590273 -0.015805236740019352 0 -0.0021899608532854136 -0.016233178760598134 0 -0.0017565570750462907 -0.016193293527849258 0 -0.0016913527716652134 -0.015513111158731017 0 -0.0017833954403750564 -0.015920745692498756 0 -0.0023550294094024393 -0.015242883297725496 0 -0.0024225627219590273 -0.015805236740019352 0 -0.0017565570750462907 -0.016193293527849258 0 -0.0023550294094024393 -0.015242883297725496 0 -0.0028727198209992418 -0.016009225184249621 0 -0.0024225627219590273 -0.015805236740019352 0 -0.0021899608532854136 -0.016233178760598134 0 -0.0016913527716652134 -0.015513111158731017 0 -0.0012604583048271049 -0.01603459282508897 0 -0.0012937829202476579 -0.015376690751927363 0 -0.0016913527716652134 -0.015513111158731017 0 -0.0017833954403750564 -0.015920745692498756 0 -0.0012604583048271049 -0.01603459282508897 0 -0.0016913527716652134 -0.015513111158731017 0 -0.0017428097587940861 -0.015017067444734158 0 -0.0023550294094024393 -0.015242883297725496 0 -0.0016913527716652134 -0.015513111158731017 0 -0.0017428097587940861 -0.015017067444734158 0 -0.0012937829202476579 -0.015376690751927363 0 -0.0012780893450368785 -0.014826822822312246 0 -0.0017428097587940861 -0.015017067444734158 0 -0.0012937829202476579 -0.015376690751927363 0 -0.0021263741679233205 -0.014669257076105717 0 -0.0017428097587940861 -0.015017067444734158 0 -0.0023550294094024393 -0.015242883297725496 0 -0.00060821926811972728 -0.015352854106660947 0 -0.00049421608483987689 -0.015537005438551377 0 -0.00047935001364502036 -0.015081124658543379 0 -0.00045114280103369751 -0.015067428764535285 0 -0.00048120158705868286 -0.014649512310551387 0 -0.00041455177203806898 -0.014605921373753133 0 -0.00045649326159792245 -0.014257762981220522 0 -0.0003001026176362257 -0.014383761150833594 0 -0.00060209739058330128 -0.015546941005300406 0 -0.00060821926811972728 -0.015352854106660947 0 -0.00085783845683566173 -0.015183161516274867 0 -0.00060209739058330128 -0.015546941005300406 0 -0.00060821926811972728 -0.015352854106660947 0 -0.00049421608483987689 -0.015537005438551377 0 -0.00079760407922928398 -0.015931481995868673 0 -0.0010409191310909414 -0.015608906073947859 0 -0.00085783845683566173 -0.015183161516274867 0 -0.00079760407922928398 -0.015931481995868673 0 -0.0012006677521281526 -0.015906603438579928 0 -0.0010409191310909414 -0.015608906073947859 0 -0.0012340481127335562 -0.015933817802674419 0 -0.001281629274065063 -0.015445796593166734 0 -0.00070715298543672696 -0.015715442213334676 0 -0.0008399653305719057 -0.015208240150233152 0 -0.0012006677521281526 -0.015906603438579928 0 -0.0010409191310909414 -0.015608906073947859 0 -0.0012937829202476579 -0.015376690751927363 0 -0.0010409191310909414 -0.015608906073947859 0 -0.00085783845683566173 -0.015183161516274867 0 -0.0012937829202476579 -0.015376690751927363 0 -0.0012780893450368785 -0.014826822822312246 0 -0.00085783845683566173 -0.015183161516274867 0 -0.0012937829202476579 -0.015376690751927363 0 -0.0008912987667683063 -0.014707226271792075 0 -0.0012780893450368785 -0.014826822822312246 0 -0.00085783845683566173 -0.015183161516274867 0 -0.0008912987667683063 -0.014707226271792075 0 -0.00085783845683566173 -0.015183161516274867 0 -0.00047935001364502036 -0.015081124658543379 0 -0.00060821926811972728 -0.015352854106660947 0 -0.00085783845683566173 -0.015183161516274867 0 -0.00047935001364502036 -0.015081124658543379 0 -0.00034902579277458132 -0.014116807540981548 0 -0.00032854500437590233 -0.014254858157357201 0 -0.0001968140115746522 -0.014214078430530281 0 -0.00034902579277458132 -0.014116807540981548 0 -0.00045649326159792245 -0.014257762981220522 0 -0.00032854500437590233 -0.014254858157357201 0 -0.0001968140115746522 -0.014214078430530281 0 -0.0003001026176362257 -0.014383761150833594 0 -0.00013809543785342612 -0.014415118428041605 0 -0.00045649326159792245 -0.014257762981220522 0 -0.00032854500437590233 -0.014254858157357201 0 -0.0003001026176362257 -0.014383761150833594 0 -0.00032854500437590233 -0.014254858157357201 0 -0.0001968140115746522 -0.014214078430530281 0 -0.0003001026176362257 -0.014383761150833594 0 -0.0003001026176362257 -0.014383761150833594 0 -0.00013809543785342612 -0.014415118428041605 0 -0.00025783671907572404 -0.014543610677637242 0 -0.00013809543785342612 -0.014415118428041605 0 -0.00025783671907572404 -0.014543610677637242 0 -0.00010642832732022395 -0.014590156031090026 0 -0.00041455177203806898 -0.014605921373753133 0 -0.0003001026176362257 -0.014383761150833594 0 -0.00025783671907572404 -0.014543610677637242 0 7.251730447728797e-05 -0.014474325543422336 0 0.0001656551252496768 -0.014683797300208648 0 2.8799453157832852e-05 -0.014622502365783841 0 -0.00010642832732022395 -0.014590156031090026 0 7.251730447728797e-05 -0.014474325543422336 0 2.8799453157832852e-05 -0.014622502365783841 0 -0.00013809543785342612 -0.014415118428041605 0 -0.00010642832732022395 -0.014590156031090026 0 7.251730447728797e-05 -0.014474325543422336 0 -0.00013809543785342612 -0.014415118428041605 0 7.251730447728797e-05 -0.014474325543422336 0 -1.5392893161991691e-05 -0.014302176031784379 0 7.251730447728797e-05 -0.014474325543422336 0 -1.5392893161991691e-05 -0.014302176031784379 0 0.00016768410480916043 -0.01429210283312844 0 -0.0001968140115746522 -0.014214078430530281 0 -0.00013809543785342612 -0.014415118428041605 0 -1.5392893161991691e-05 -0.014302176031784379 0 -0.0001968140115746522 -0.014214078430530281 0 -1.5392893161991691e-05 -0.014302176031784379 0 5.1473423301067504e-05 -0.014165955077181882 0 -1.5392893161991691e-05 -0.014302176031784379 0 5.1473423301067504e-05 -0.014165955077181882 0 0.00016768410480916043 -0.01429210283312844 0 0.0002417106550702086 -0.01415422843487851 0 0.00033191057460392888 -0.01426535482575067 0 0.00016768410480916043 -0.01429210283312844 0 5.1473423301067504e-05 -0.014165955077181882 0 0.0002417106550702086 -0.01415422843487851 0 0.00016768410480916043 -0.01429210283312844 0 0.00046994193809191055 -0.014104775968546838 0 0.0002417106550702086 -0.01415422843487851 0 0.00033191057460392888 -0.01426535482575067 0 0.00033191057460392888 -0.01426535482575067 0 0.00016768410480916043 -0.01429210283312844 0 0.00027774893940089233 -0.014428837298912825 0 0.00033191057460392888 -0.01426535482575067 0 0.00049521205400820793 -0.014348463407498645 0 0.00027774893940089233 -0.014428837298912825 0 0.00042397052249967739 -0.013948238373925436 0 0.00068597261747063156 -0.014139495855007116 0 0.00046994193809191055 -0.014104775968546838 0 0.00033191057460392888 -0.01426535482575067 0 0.00049521205400820793 -0.014348463407498645 0 0.00046994193809191055 -0.014104775968546838 0 0.00075032083688741957 -0.014327966448529695 0 0.00049521205400820793 -0.014348463407498645 0 0.00049521205400820793 -0.014348463407498645 0 0.00027774893940089233 -0.014428837298912825 0 0.00040069775102447968 -0.014598578765163255 0 0.00049521205400820793 -0.014348463407498645 0 0.00059829329308266237 -0.014517751452867718 0 0.00040069775102447968 -0.014598578765163255 0 0.00075032083688741957 -0.014327966448529695 0 0.00049521205400820793 -0.014348463407498645 0 0.00059829329308266237 -0.014517751452867718 0 7.251730447728797e-05 -0.014474325543422336 0 0.00027774893940089233 -0.014428837298912825 0 0.0001656551252496768 -0.014683797300208648 0 0.00027774893940089233 -0.014428837298912825 0 0.0001656551252496768 -0.014683797300208648 0 0.00040069775102447968 -0.014598578765163255 0 7.251730447728797e-05 -0.014474325543422336 0 0.00016768410480916043 -0.01429210283312844 0 0.00027774893940089233 -0.014428837298912825 0 0.0001656551252496768 -0.014683797300208648 0 0.00034031077155718948 -0.014805554985166622 0 0.00040069775102447968 -0.014598578765163255 0 0.0001656551252496768 -0.014683797300208648 0 0.00034031077155718948 -0.014805554985166622 0 0.00011844083140323684 -0.014874039629874854 0 0.00062996301785109038 -0.014743244057485306 0 0.00034031077155718948 -0.014805554985166622 0 0.00052936167983021589 -0.014946022220485255 0 0.00062996301785109038 -0.014743244057485306 0 0.00034031077155718948 -0.014805554985166622 0 0.00040069775102447968 -0.014598578765163255 0 0.00062996301785109038 -0.014743244057485306 0 0.00059829329308266237 -0.014517751452867718 0 0.00040069775102447968 -0.014598578765163255 0 0.00034031077155718948 -0.014805554985166622 0 0.00052936167983021589 -0.014946022220485255 0 0.00028082928815496166 -0.015042465859608271 0 0.00052436642185061549 -0.015154448808334732 0 0.00052936167983021589 -0.014946022220485255 0 0.00028082928815496166 -0.015042465859608271 0 0.00028082928815496166 -0.015042465859608271 0 4.6154528874283759e-06 -0.015065062805749093 0 0.00011844083140323684 -0.014874039629874854 0 0.00034031077155718948 -0.014805554985166622 0 0.00028082928815496166 -0.015042465859608271 0 0.00011844083140323684 -0.014874039629874854 0 4.6154528874283759e-06 -0.015065062805749093 0 0.00011844083140323684 -0.014874039629874854 0 -7.2720223226068416e-05 -0.014911178163321727 0 4.6154528874283759e-06 -0.015065062805749093 0 -7.2720223226068416e-05 -0.014911178163321727 0 -0.00020583939144536612 -0.014998373657042863 0 -0.00030181468703940271 -0.015220965132367146 0 4.6154528874283759e-06 -0.015065062805749093 0 -0.00020583939144536612 -0.014998373657042863 0 -0.00030181468703940271 -0.015220965132367146 0 -0.0004016347747633572 -0.015000025850387991 0 -0.00020583939144536612 -0.014998373657042863 0 -0.0004016347747633572 -0.015000025850387991 0 -0.00020583939144536612 -0.014998373657042863 0 -0.00024728149443749981 -0.014772866970600313 0 -7.2720223226068416e-05 -0.014911178163321727 0 -0.00020583939144536612 -0.014998373657042863 0 -0.00024728149443749981 -0.014772866970600313 0 -0.00041455177203806898 -0.014605921373753133 0 -0.0004016347747633572 -0.015000025850387991 0 -0.00024728149443749981 -0.014772866970600313 0 -0.00041455177203806898 -0.014605921373753133 0 -0.00025783671907572404 -0.014543610677637242 0 -0.00024728149443749981 -0.014772866970600313 0 -0.00025783671907572404 -0.014543610677637242 0 -0.00010642832732022395 -0.014590156031090026 0 -0.00024728149443749981 -0.014772866970600313 0 -0.00010642832732022395 -0.014590156031090026 0 -0.00024728149443749981 -0.014772866970600313 0 -1.7474926309408043e-05 -0.014743134055760459 0 -0.00010642832732022395 -0.014590156031090026 0 2.8799453157832852e-05 -0.014622502365783841 0 -1.7474926309408043e-05 -0.014743134055760459 0 0.0001656551252496768 -0.014683797300208648 0 2.8799453157832852e-05 -0.014622502365783841 0 -1.7474926309408043e-05 -0.014743134055760459 0 0.00011844083140323684 -0.014874039629874854 0 -7.2720223226068416e-05 -0.014911178163321727 0 -1.7474926309408043e-05 -0.014743134055760459 0 0.0001656551252496768 -0.014683797300208648 0 0.00011844083140323684 -0.014874039629874854 0 -1.7474926309408043e-05 -0.014743134055760459 0 -7.2720223226068416e-05 -0.014911178163321727 0 -0.00024728149443749981 -0.014772866970600313 0 -1.7474926309408043e-05 -0.014743134055760459 0 
</DataArray>
</PointData>
<CellData Scalars="region_id,cross_section_updated," Vectors="" Tensors="stress,">
<DataArray type="Float64" Name="region_id" format="ascii">
5 6 5 5 5 5 5 6 5 5 6 5 6 5 6 5 5 5 5 6 5 5 6 5 5 6 5 6 5 5 5 5 5 6 5 6 5 5 6 5 5 5 5 5 5 5 5 5 5 5 5 5 5 5 5 5 5 5 5 5 5 6 5 5 5 5 5 6 5 5 5 5 5 5 5 6 5 5 5 5 5 5 5 5 5 5 5 5 5 5 5 5 5 5 5 5 5 5 5 5 5 5 5 5 5 5 5 5 5 5 5 5 6 5 6 5 6 5 5 6 5 5 6 5 5 5 5 6 5 5 6 5 5 5 5 5 5 5 5 5 5 5 5 5 5 6 5 5 5 5 5 6 5 5 5 5 5 5 5 5 6 6 5 5 5 5 6 5 5 5 5 5 5 6 5 5 5 5 5 5 5 5 5 5 5 5 6 5 5 5 5 5 6 5 5 5 5 5 5 5 5 5 5 5 5 5 5 5 5 5 5 5 5 5 5 5 5 5 5 5 5 5 5 5 5 5 5 5 5 5 5 5 5 5 6 5 5 6 5 5 6 5 5 5 5 5 5 5 5 5 5 5 5 5 5 5 5 5 5 6 5 5 5 6 5 5 5 5 5 5 5 5 5 5 5 5 5 5 5 6 5 5 5 5 5 6 5 5 5 5 6 5 5 5 5 5 5 5 5 5 5 5 5 5 5 6 5 5 5 6 5 5 5 5 5 5 5 5 5 5 5 5 5 5 6 6 5 5 5 5 5 6 5 5 6 6 5 5 6 5 5 5 5 5 5 5 5 5 5 5 5 5 5 5 6 5 6 6 5 5 5 5 5 5 5 6 5 5 5 5 5 6 5 5 5 5 6 5 5 5 5 5 5 5 5 5 6 5 5 5 5 5 5 6 5 5 5 5 5 5 5 6 5 5 5 5 5 5 5 5 5 5 5 5 5 6 5 5 6 5 5 5 5 5 5 5 6 5 5 5 5 5 5 6 5 5 6 5 5 5 5 6 5 5 5 5 5 5 5 5 5 5 5 5 5 5 5 5 5 5 5 5 5 5 5 5 5 5 5 5 5 5 6 5 5 5 5 5 5 5 5 5 5 6 5 5 5 6 5 5 5 5 5 5 5 5 5 5 5 5 5 5 5 5 5 5 5 5 5 5 5 5 5 5 5 5 5 5 5 5 5 5 5 5 5 5 5 5 5 5 5 6 6 5 5 5 5 6 6 5 6 5 5 5 5 5 6 5 5 5 5 5 5 5 5 5 5 5 6 5 5 5 6 5 6 6 5 5 5 5 5 6 5 5 5 6 5 5 6 5 5 5 6 6 5 5 5 5 5 6 5 5 5 5 5 5 6 5 5 5 5 5 5 5 5 5 5 5 5 5 5 5 5 5 5 5 6 5 5 5 5 5 5 5 5 5 5 5 5 5 5 5 5 6 5 5 5 5 5 6 6 5 5 5 6 5 5 5 5 5 5 5 6 5 5 6 5 6 5 5 5 5 5 5 5 5 5 5 5 5 5 5 5 5 5 5 5 5 5 5 5 5 5 6 5 5 5 5 6 6 5 5 5 5 6 5 5 5 5 5 5 5 5 5 5 5 5 5 5 5 6 5 5 5 5 5 5 5 5 5 6 5 5 5 5 5 5 5 5 5 5 5 6 5 5 5 5 5 6 5 5 6 5 5 5 5 5 5 5 5 5 5 5 6 5 6 5 5 5 5 5 5 5 5 5 5 5 5 5 5 5 5 6 5 6 5 5 5 5 6 5 5 5 5 5 5 6 5 5 5 6 5 5 5 6 6 5 5 6 5 6 6 5 5 6 6 5 5 5 6 5 5 5 5 5 5 5 5 5 5 5 6 6 5 5 5 5 6 6 6 5 5 5 5 5 5 5 5 6 5 5 5 5 5 5 5 5 5 5 6 5 5 5 5 5 5 5 5 6 5 5 5 6 5 6 5 5 5 6 5 5 6 6 5 6 6 6 5 6 5 5 5 5 5 6 5 6 5 5 5 6 5 5 6 5 5 6 5 6 5 5 5 5 5 5 5 6 5 5 5 5 6 5 5 5 5 5 5 6 6 5 5 6 6 5 6 5 5 5 6 5 5 5 5 6 6 6 6 5 6 5 5 5 5 5 6 6 6 6 5 5 5 6 6 5 6 6 6 5 6 6 5 6 6 6 5 5 5 6 5 6 6 5 5 5 5 5 6 5 6 5 6 5 5 6 5 6 5 5 5 6 5 5 6 5 6 5 5 6 6 5 5 6 5 6 5 5 6 6 5 5 6 5 5 5 6 6 5 5 6 5 5 5 5 5 6 5 5 5 6 5 5 5 6 5 5 5 5 5 5 6 5 5 6 5 5 5 5 5 5 5 5 6 6 5 5 5 5 5 5 5 6 5 5 5 5 6 5 5 5 5 5 5 5 6 5 5 5 5 5 5 5 6 5 5 5 6 5 5 5 5 6 5 6 6 5 5 5 6 6 6 5 5 6 6 5 5 5 5 6 5 5 5 5 5 5 5 5 5 5 5 5 5 6 5 5 5 5 5 5 6 5 5 5 5 5 5 6 5 5 5 6 5 5 5 5 5 5 5 5 5 6 6 6 5 5 5 5 5 5 5 5 5 5 5 5 5 5 5 5 6 5 5 6 5 5 5 5 5 5 5 5 5 5 5 5 5 5 6 5 5 5 5 5 5 5 5 5 5 5 5 5 6 5 5 6 6 5 5 6 5 5 6 5 5 6 5 5 5 5 6 5 5 5 5 5 5 5 5 5 5 5 5 5 6 6 6 5 6 5 6 5 5 5 5 5 5 5 5 6 5 6 5 5 5 5 5 5 5 5 5 5 5 5 5 5 5 5 5 5 5 5 5 5 5 5 5 5 5 6 5 5 5 5 5 5 5 5 5 5 5 5 5 6 5 5 5 5 5 5 5 5 5 6 6 5 5 5 5 6 5 6 5 5 5 5 5 5 6 6 5 5 5 5 5 5 5 5 5 5 5 5 5 5 5 5 5 5 5 5 5 5 5 5 6 5 6 5 6 5 5 5 5 5 5 6 5 5 6 5 5 5 5 5 5 5 5 5 5 6 5 5 5 5 5 5 6 5 5 5 5 5 5 5 6 5 5 5 5 5 5 5 5 5 5 5 5 5 5 5 5 5 5 5 5 5 5 6 5 5 5 5 5 5 5 5 5 5 5 5 5 5 5 5 5 5 5 5 5 5 6 5 5 5 6 5 5 5 5 5 5 6 5 6 5 5 5 5 5 5 5 5 6 5 6 5 5 5 6 5 5 5 6 5 5 5 5 6 6 5 5 5 5 5 5 5 5 5 5 5 5 5 5 5 5 5 5 5 5 5 6 5 5 5 5 5 5 6 5 6 5 5 5 5 5 5 5 5 5 5 5 5 5 5 5 5 5 5 5 5 5 5 5 5 5 5 5 5 5 5 5 5 6 6 5 6 5 5 5 6 5 5 5 6 5 6 5 5 5 5 5 5 5 6 5 6 5 5 5 5 5 6 5 6 5 5 5 6 5 5 5 5 5 5 5 5 5 5 5 5 5 5 5 5 5 6 5 6 5 5 6 5 5 5 5 5 5 5 5 5 5 5 5 5 5 6 5 5 5 5 5 5 5 6 5 5 5 5 5 5 5 6 5 5 5 5 5 5 5 5 5 6 5 6 5 5 5 5 5 5 5 5 5 5 5 5 5 5 5 5 5 5 5 5 5 5 5 5 5 5 5 5 6 5 5 5 5 5 5 5 5 5 5 5 5 5 5 5 5 5 5 5 6 5 5 5 5 6 5 5 6 5 5 5 5 5 5 5 5 5 5 5 5 5 5 5 5 5 6 5 5 6 5 5 5 5 5 5 5 5 5 5 5 5 5 5 5 6 5 5 5 5 5 5 5 5 5 5 5 5 5 5 5 5 5 5 5 5 5 5 5 5 5 5 6 5 6 5 5 5 5 5 5 5 5 5 6 5 5 5 5 6 5 5 6 5 5 6 5 5 5 5 5 5 6 5 5 5 5 5 5 5 5 5 5 5 5 5 5 5 5 5 5 5 5 5 5 5 5 5 5 5 5 5 5 5 5 5 5 5 5 5 5 5 5 5 5 5 5 5 5 5 5 5 5 5 5 5 5 5 5 5 5 5 5 5 5 5 5 5 5 5 5 6 5 5 5 5 5 5 5 5 5 5 6 5 5 5 6 5 6 6 5 5 5 5 5 5 5 5 5 5 5 5 5 5 5 5 5 5 5 6 5 5 6 5 5 6 5 6 5 6 5 5 5 5 5 6 5 5 5 5 5 5 5 5 5 5 5 5 5 5 5 5 5 5 5 5 5 5 5 5 5 5 5 5 5 5 5 6 5 5 5 6 5 5 5 5 5 5 5 5 5 5 5 5 5 5 5 5 5 5 5 5 5 5 6 5 6 5 5 5 6 5 5 5 5 5 5 5 5 5 5 5 5 5 5 5 5 5 5 5 5 5 5 5 5 5 5 5 5 5 5 5 5 5 5 5 6 5 5 5 5 5 5 5 5 5 6 5 5 5 5 6 5 5 5 5 5 5 6 5 6 5 5 5 5 5 6 5 5 5 5 5 6 5 5 5 6 5 5 5 6 5 5 5 6 5 5 5 5 6 5 5 6 5 5 6 5 5 6 5 5 6 5 5 5 5 5 5 5 5 5 5 5 6 5 5 5 5 5 5 6 5 5 5 6 5 5 5 6 5 6 5 5 5 6 5 5 5 5 5 5 5 5 5 5 5 5 5 5 5 5 5 5 5 5 5 5 5 5 5 5 6 5 5 5 6 5 5 6 5 6 5 5 5 5 6 6 5 5 6 5 5 5 5 5 5 5 5 6 6 5 5 5 5 5 6 5 5 5 5 5 5 6 5 5 5 5 5 5 6 5 5 5 5 5 5 5 5 5 5 5 5 5 6 6 5 5 5 5 6 5 6 5 5 5 5 5 5 5 5 6 5 5 5 5 5 5 5 5 5 6 5 5 5 6 5 5 6 6 5 6 5 6 5 5 5 5 5 5 5 5 5 5 5 5 5 5 6 5 5 5 5 6 5 5 5 6 5 5 5 5 5 6 6 5 5 5 5 5 5 5 5 5 5 5 5 5 5 5 5 5 5 5 5 5 5 5 5 5 5 5 5 5 5 5 5 5 5 5 5 5 5 5 5 5 5 5 5 5 5 5 5 5 5 6 5 5 5 5 5 5 5 5 5 5 5 5 5 6 5 5 5 5 5 5 5 5 5 5 5 5 5 5 5 5 5 5 5 5 6 5 5 5 6 5 6 5 5 5 6 5 5 5 5 5 5 5 5 5 5 5 5 5 5 5 5 5 5 5 5 6 5 6 5 5 5 6 5 5 6 5 5 5 6 6 5 5 6 6 5 5 5 5 5 5 5 5 5 5 5 5 5 5 6 5 5 5 5 6 5 5 5 5 5 5 5 5 5 5 5 6 5 5 5 6 5 5 5 5 5 5 5 5 5 5 5 5 5 5 5 5 5 5 5 5 5 5 5 5 6 5 5 6 5 6 6 5 5 5 6 5 5 5 5 5 5 5 5 5 5 5 5 5 5 5 6 5 5 5 5 5 5 5 5 5 5 5 5 5 5 6 5 5 6 5 5 6 5 5 6 5 5 6 5 5 5 5 5 5 5 5 5 5 5 5 5 5 6 6 5 5 5 5 6 5 5 5 5 5 6 5 5 5 6 5 5 5 5 5 5 5 6 6 5 5 6 5 5 5 6 5 6 5 6 5 6 5 5 5 5 5 5 5 5 5 6 5 5 6 6 5 5 5 5 5 5 5 5 5 5 5 6 5 5 5 5 6 5 5 5 6 6 5 5 5 6 6 5 5 5 5 6 5 6 5 5 5 5 6 5 6 6 5 5 5 5 5 5 5 5 6 5 5 5 6 5 5 6 5 5 6 6 5 6 6 5 5 5 5 6 5 6 5 5 5 5 5 6 6 5 5 6 5 5 5 6 5 5 5 6 5 6 5 5 5 5 5 6 6 5 5 5 5 5 5 5 5 5 6 5 5 5 5 5 5 5 5 5 6 5 5 5 5 5 5 5 5 6 5 5 5 5 6 5 5 6 6 5 5 5 6 6 5 5 5 5 6 5 5 5 5 5 5 5 5 5 5 5 5 5 5 5 6 6 6 6 5 5 6 5 5 6 6 5 5 5 5 6 6 5 5 5 6 5 5 5 6 5 5 5 6 5 5 5 5 5 5 5 5 6 5 6 5 5 6 5 5 5 5 5 5 5 6 5 5 5 5 6 5 5 5 5 6 6 5 5 5 5 6 5 5 5 5 5 6 5 5 5 5 6 5 5 5 5 5 5 5 6 5 5 5 5 5 6 5 5 6 5 5 5 5 5 5 6 5 5 5 5 5 6 5 5 5 6 5 5 5 5 5 5 5 6 5 5 6 5 6 5 5 5 5 5 5 5 5 5 5 5 6 5 5 5 5 5 5 5 5 6 5 5 5 5 5 5 5 5 5 6 5 5 5 6 5 6 5 5 5 5 6 5 5 5 5 5 5 5 5 5 6 5 5 5 6 5 5 5 6 5 5 5 5 6 5 5 5 5 6 5 5 5 5 5 5 5 5 5 5 5 5 5 5 5 5 5 5 5 6 5 6 5 5 5 5 5 5 5 5 5 5 5 5 6 5 6 5 5 5 5 5 5 6 6 6 5 5 5 5 5 5 5 5 5 5 6 5 5 6 5 5 5 6 5 5 5 5 5 5 5 5 5 5 6 5 5 5 6 6 5 6 5 5 5 5 5 5 5 5 6 5 6 5 5 5 5 5 5 5 5 5 6 5 5 5 5 6 5 5 5 5 5 5 6 5 5 5 5 5 5 5 5 6 5 6 5 6 5 6 5 5 5 5 5 5 5 5 6 5 5 5 5 5 6 5 5 5 5 6 5 5 5 6 5 5 5 5 5 5 5 6 5 5 5 5 5 5 6 5 5 5 6 5 5 5 5 5 5 5 5 5 5 5 5 5 5 5 6 5 5 5 5 5 5 5 5 6 5 5 5 5 5 5 5 5 5 5 5 5 5 5 6 5 5 6 5 5 5 6 5 6 6 5 5 5 5 6 5 6 5 5 5 5 5 5 5 5 5 6 6 5 5 5 6 6 5 5 6 6 5 6 5 5 6 5 6 5 5 5 5 5 5 5 5 5 5 6 5 6 5 5 5 6 5 6 5 5 6 5 6 6 5 6 5 5 6 5 5 5 6 6 6 6 5 6 5 6 5 5 5 5 5 5 5 5 6 5 5 5 5 5 5 5 5 5 5 6 6 5 6 5 5 5 5 5 5 5 6 5 6 5 5 5 5 5 5 6 5 6 5 5 6 5 5 6 5 5 5 6 5 5 5 5 6 6 5 6 5 5 5 5 6 6 5 5 5 5 5 5 5 5 5 5 5 5 5 6 5 5 5 5 5 5 5 5 6 5 5 5 5 5 5 5 5 5 5 6 5 5 6 6 5 5 5 6 5 5 5 5 5 5 5 6 5 5 5 5 6 5 5 6 5 5 5 5 5 5 5 5 5 5 6 5 5 5 5 6 6 5 5 6 6 5 5 5 5 5 6 5 5 5 5 5 6 6 5 5 6 5 5 5 6 6 5 5 5 6 6 6 5 5 5 6 5 6 5 5 5 5 5 5 5 5 5 5 5 5 5 5 5 5 6 6 6 5 5 5 5 5 5 5 5 5 5 5 5 5 5 5 5 5 5 5 5 6 5 6 5 5 5 5 5 5 6 5 5 5 5 5 5 5 5 5 5 5 5 6 5 5 5 5 5 5 5 5 5 5 6 6 5 5 5 5 5 5 6 5 5 5 6 5 5 5 6 5 5 5 5 5 5 6 5 6 5 6 5 5 5 6 6 5 5 5 6 5 5 5 5 5 5 6 5 5 5 5 6 5 6 5 5 5 6 5 5 6 5 5 5 6 5 5 5 5 5 6 5 5 6 6 6 5 5 5 5 5 5 5 5 6 5 6 5 5 5 5 5 5 5 5 5 5 5 6 5 5 6 5 5 5 5 5 5 5 5 5 5 6 5 5 5 5 5 5 6 5 5 6 5 5 5 5 5 6 5 5 5 5 5 5 6 5 5 5 5 5 5 6 6 6 5 5 5 6 5 5 5 5 6 5 5 6 5 6 5 5 6 5 5 5 5 5 5 6 5 5 5 5 6 6 6 5 5 5 5 5 5 5 5 5 5 6 5 5 5 5 5 5 5 5 5 5 5 5 5 6 5 5 5 5 5 5 5 5 5 5 5 5 5 5 5 5 5 5 5 5 5 5 5 5 5 5 5 5 5 6 5 5 5 5 5 5 5 5 5 5 5 5 5 5 5 5 5 5 5 5 5 5 6 5 5 5 5 5 5 5 5 5 6 5 5 6 5 5 5 6 5 5 6 5 5 5 5 5 5 5 5 5 5 6 5 5 5 5 5 5 5 6 5 5 5 6 5 5 5 5 5 5 5 6 5 6 6 5 5 5 5 6 6 5 5 5 5 5 5 5 5 5 5 5 5 5 5 5 5 5 5 5 5 5 5 5 5 5 5 5 5 6 5 5 5 6 5 5 5 6 5 5 5 6 5 5 5 6 5 5 5 5 5 5 5 5 5 5 5 5 6 5 5 6 6 5 5 5 5 5 5 5 5 5 5 5 6 5 5 5 6 6 6 6 5 5 5 5 5 5 5 5 5 6 5 6 5 5 5 6 5 5 6 5 6 5 5 5 5 5 5 5 5 6 5 5 5 6 5 5 6 5 5 5 6 5 6 5 5 5 5 5 5 5 5 5 5 5 5 5 5 5 5 6 5 5 5 5 5 5 5 5 5 5 5 5 5 5 5 5 5 5 6 6 6 5 5 5 5 5 5 5 5 5 5 5 6 5 5 5 6 6 5 6 5 5 5 6 5 6 6 5 5 5 5 5 5 5 5 5 5 5 5 6 5 5 5 5 5 6 5 5 5 5 5 5 6 6 5 5 5 6 5 5 5 5 5 5 5 5 5 5 5 5 5 5 5 5 5 5 5 6 5 5 5 6 5 5 5 5 6 6 5 5 5 5 5 5 5 5 5 5 5 5 5 5 5 5 5 5 5 6 5 5 5 6 5 5 5 5 6 5 5 5 5 6 5 6 6 5 6 5 5 5 5 5 5 5 5 6 5 6 5 5 6 5 5 6 5 5 5 5 5 5 6 5 5 5 5 6 5 5 5 5 5 5 5 5 6 5 5 6 5 6 5 5 6 6 6 5 5 5 6 5 5 5 5 6 5 5 5 5 6 6 5 5 5 5 5 5 5 5 5 5 5 6 5 5 5 5 5 5 5 5 5 5 5 5 5 5 5 5 5 5 5 5 5 5 5 5 5 5 5 5 5 5 5 6 6 5 6 5 5 5 5 6 5 5 5 5 6 6 6 6 5 5 5 5 5 6 5 5 6 5 6 5 5 5 5 5 5 5 6 5 5 5 5 5 5 5 5 5 6 5 5 5 6 5 6 5 5 5 5 6 5 5 6 5 6 5 5 6 5 5 6 5 6 5 5 5 6 5 5 5 5 5 5 5 5 5 5 5 5 5 5 5 5 5 5 5 5 5 5 5 5 5 5 5 5 5 5 5 5 5 5 5 5 5 5 5 5 5 5 5 5 5 5 5 5 5 5 5 5 5 5 5 5 5 5 5 5 5 5 5 5 5 5 5 6 5 5 5 5 5 5 5 5 5 5 5 6 5 5 5 6 5 5 5 5 5 5 5 5 5 5 5 5 5 5 5 5 5 5 5 5 5 5 5 5 5 5 5 5 5 5 5 5 5 5 5 5 5 5 5 6 6 5 5 5 5 5 5 5 5 6 5 6 6 5 5 5 5 5 5 5 5 5 5 5 5 5 5 5 5 5 5 5 5 5 5 5 5 5 5 5 5 5 5 5 5 5 5 5 5 5 6 5 5 5 6 6 5 5 6 5 5 5 5 5 5 6 5 5 5 5 5 5 5 6 5 5 5 5 5 5 5 6 5 5 5 5 6 5 5 5 6 6 6 5 5 5 5 5 5 6 5 6 5 5 5 6 6 6 5 5 5 5 5 6 5 5 5 5 5 6 6 5 5 5 5 5 5 5 5 5 5 5 5 5 5 5 5 5 5 5 5 5 5 5 5 5 6 5 5 5 5 5 5 5 6 5 6 6 5 5 5 6 5 5 5 5 5 5 5 5 5 5 5 5 5 6 5 5 5 5 5 5 5 5 5 5 5 5 5 5 5 5 5 5 5 5 5 5 5 5 5 5 6 5 5 5 5 5 5 5 5 5 5 5 5 5 5 5 5 5 5 6 5 5 5 5 6 5 5 5 5 5 5 5 5 5 5 5 5 5 5 5 5 5 5 5 5 5 5 5 5 5 5 5 5 5 5 5 5 5 5 5 5 5 6 5 5 5 5 6 5 5 5 5 5 5 6 5 5 5 5 5 5 6 5 5 5 5 5 5 6 5 6 6 5 5 5 6 5 5 5 5 5 5 6 5 6 5 5 5 5 5 5 5 5 6 5 6 5 5 5 6 5 5 5 6 5 5 5 5 5 5 5 5 5 5 6 5 5 5 5 5 6 5 5 5 6 5 5 5 5 5 5 5 5 5 6 5 5 5 5 5 5 5 5 5 5 5 5 5 5 5 5 5 5 5 5 5 5 5 5 5 5 5 5 5 5 5 5 5 5 5 5 5 5 5 5 5 5 5 6 5 5 5 5 5 5 5 5 5 5 5 6 6 5 5 5 6 6 5 5 6 5 5 5 5 5 6 6 5 5 5 5 5 6 5 5 5 5 5 6 5 5 5 6 5 5 5 5 5 5 5 5 5 5 5 5 5 5 6 5 6 5 5 5 5 5 5 5 5 5 6 5 5 5 5 6 5 5 5 6 5 5 5 5 5 5 6 5 5 5 5 5 5 6 5 5 5 5 5 5 5 5 5 5 6 5 6 5 5 5 5 5 5 5 6 5 5 5 5 5 5 5 5 5 5 6 5 5 5 6 5 5 5 5 5 5 5 5 5 5 5 5 5 5 5 5 5 5 5 5 6 5 5 5 5 5 5 5 5 5 5 5 5 5 5 6 5 5 6 5 5 5 6 5 5 5 5 5 5 5 5 5 5 5 5 5 5 5 5 6 6 5 5 5 6 5 5 5 5 5 5 5 5 6 5 5 5 5 5 6 5 5 5 5 6 5 5 5 6 5 5 5 6 6 5 5 5 5 5 5 5 6 5 5 5 6 5 5 5 5 6 5 5 5 5 5 5 5 5 6 5 5 5 5 5 5 5 5 5 5 5 5 5 5 5 5 5 5 5 5 6 5 5 5 5 5 6 5 5 5 5 6 5 5 5 5 5 5 5 5 5 5 6 5 5 5 5 5 5 5 6 5 5 5 5 5 5 6 5 5 5 5 5 5 5 5 5 5 5 5 5 5 5 6 5 5 5 5 5 5 5 5 5 5 6 5 5 5 6 5 5 5 5 5 5 5 5 5 5 5 5 5 5 5 5 5 5 5 5 5 5 5 5 5 6 5 5 6 5 5 5 5 5 5 6 5 5 5 5 5 5 5 5 5 5 5 6 6 5 5 5 5 5 6 5 6 5 5 5 5 5 5 5 6 5 5 5 5 5 5 5 5 5 5 5 5 5 5 5 5 5 5 6 5 5 6 5 5 5 6 5 6 5 5 5 5 5 6 6 5 5 5 6 5 6 5 5 5 5 5 5 5 5 5 5 5 5 5 5 5 5 5 5 5 5 5 5 5 6 5 5 6 5 5 5 5 5 6 5 5 5 5 5 5 5 5 5 5 5 5 5 5 6 5 6 5 6 6 5 5 5 5 5 6 6 5 5 5 5 5 5 5 5 5 5 5 5 5 5 5 5 5 6 5 5 5 5 5 5 5 6 5 5 5 5 5 5 5 5 5 5 5 5 5 5 5 5 5 5 6 5 5 5 5 5 5 5 5 5 5 5 5 5 5 5 5 5 5 5 5 5 5 6 5 6 6 5 6 6 5 5 5 5 5 6 5 5 6 5 5 5 5 6 6 5 5 6 6 5 5 5 5 6 6 5 5 5 5 5 5 5 5 6 6 5 5 5 5 5 5 5 5 5 5 5 5 5 6 5 6 5 5 6 5 5 6 6 5 5 5 6 6 5 5 6 5 5 5 6 5 5 6 5 5 5 5 5 5 5 5 5 5 5 6 5 5 5 5 5 5 6 5 6 6 5 5 5 5 5 6 5 5 5 5 5 5 5 5 5 6 5 5 5 5 5 6 5 5 5 5 5 5 5 5 5 5 5 5 5 5 5 5 5 5 5 5 6 5 5 5 5 5 5 5 5 5 6 5 5 5 6 5 5 5 6 5 5 5 5 6 5 5 5 5 6 6 5 5 6 6 5 5 5 5 5 5 5 5 5 5 6 5 5 5 5 6 5 5 5 6 5 5 5 5 5 6 5 5 5 5 5 5 5 5 6 5 6 5 5 5 5 5 5 5 6 5 5 6 5 5 5 6 5 5 5 5 5 5 5 5 5 6 5 5 5 5 5 5 5 5 6 5 5 5 5 5 5 5 6 6 5 5 6 5 5 6 5 5 6 5 5 5 6 5 6 5 5 5 6 5 6 5 6 6 5 5 5 5 5 5 6 5 5 5 5 6 5 5 5 5 5 5 5 5 5 5 5 6 5 5 5 5 5 5 6 5 5 5 6 6 5 6 5 5 5 5 5 5 5 5 6 5 6 6 5 5 5 5 5 5 6 5 5 5 5 5 5 5 6 5 5 5 5 5 5 5 5 5 6 6 5 5 5 5 6 5 5 5 5 5 6 5 5 6 5 5 5 5 6 5 5 5 5 5 6 6 5 5 5 5 6 5 5 5 5 5 5 5 5 5 5 5 5 5 5 5 5 5 5 5 5 5 5 5 5 5 5 5 5 5 5 5 5 5 5 5 5 5 5 5 5 5 5 5 5 5 5 5 5 5 5 5 5 5 6 5 5 5 5 6 6 5 6 5 5 5 5 5 5 5 5 5 5 5 5 5 5 5 5 5 5 5 5 5 5 5 5 5 5 5 5 5 5 5 5 6 5 6 5 5 5 6 5 5 5 5 6 5 5 5 6 5 5 6 5 5 5 5 6 6 5 5 5 6 5 5 5 5 6 5 6 5 5 5 5 5 6 5 5 5 5 5 5 6 5 5 5 5 6 5 5 6 5 5 6 5 5 5 5 5 5 5 5 5 5 5 5 5 5 5 6 5 5 5 5 6 5 5 5 6 5 5 5 6 5 5 5 5 5 5 5 5 5 5 5 5 6 5 5 5 5 5 5 5 5 5 5 5 5 5 5 5 5 5 5 6 5 5 5 5 6 5 6 5 5 6 5 6 6 5 5 5 6 5 6 5 6 6 5 5 6 5 5 5 5 6 5 5 5 6 5 5 5 5 5 5 5 5 5 5 6 5 6 6 5 5 6 5 5 5 5 6 5 5 6 5 5 5 5 5 6 5 6 5 5 5 5 6 5 5 5 5 5 5 5 6 5 5 5 5 6 6 5 5 5 5 5 6 6 5 5 5 5 5 5 5 5 6 5 5 5 5 5 5 5 6 5 6 5 5 5 6 5 5 6 5 5 6 5 5 5 5 5 6 5 5 6 5 5 5 5 5 5 5 5 6 6 5 5 6 5 5 5 6 5 5 6 5 6 5 5 5 6 5 5 6 5 6 5 6 6 6 5 6 5 6 5 5 6 5 5 6 5 5 5 5 5 5 5 5 6 6 5 5 5 5 5 5 5 6 6 5 5 5 5 5 5 5 5 6 5 5 5 5 6 5 5 5 5 5 6 5 5 5 5 5 5 6 5 5 5 5 5 5 6 5 5 5 5 5 5 5 5 5 5 5 5 6 5 5 5 5 6 5 5 5 6 5 5 5 5 6 5 5 6 5 5 5 5 5 5 5 5 5 5 5 5 6 5 5 5 5 5 5 5 6 5 5 5 5 5 5 5 6 5 5 5 6 5 6 5 5 5 5 5 5 5 5 5 5 5 5 5 5 5 5 5 5 5 5 5 5 6 5 5 5 5 5 5 5 5 5 5 5 5 5 5 5 6 5 5 5 5 5 5 5 5 5 6 5 5 5 5 5 5 5 5 6 5 5 5 5 6 5 5 6 5 5 6 5 6 6 6 5 5 5 5 5 5 5 6 5 5 5 5 5 5 5 5 5 5 5 5 5 5 5 5 5 5 5 5 5 6 5 6 5 5 5 5 5 5 5 5 5 6 5 5 5 5 5 5 5 5 6 5 5 6 6 5 5 5 5 5 5 5 5 5 5 5 5 5 5 6 5 5 5 5 5 5 5 5 5 5 5 6 5 5 5 6 5 5 5 5 5 5 6 5 5 5 5 5 5 5 6 6 5 5 5 5 6 6 6 6 5 5 6 5 5 6 5 5 5 5 5 6 5 5 5 6 6 5 5 5 6 5 6 5 6 5 6 5 5 5 5 5 5 6 5 5 6 6 6 5 5 6 5 6 5 6 6 5 5 5 5 5 5 5 5 5 6 5 6 5 5 5 5 6 6 5 5 5 6 6 6 5 5 6 5 6 5 5 5 5 6 5 6 5 6 6 5 5 6 5 6 5 5 5 5 5 5 5 5 5 5 5 6 5 5 6 5 6 5 5 5 6 5 6 5 5 6 5 6 5 5 5 6 6 5 5 5 5 5 5 6 5 5 5 5 5 5 5 5 5 5 5 6 5 6 5 5 5 5 5 5 5 6 5 5 5 5 5 5 5 6 5 5 5 5 6 5 5 5 5 5 5 5 5 5 5 5 5 5 5 5 5 5 5 5 5 5 5 5 5 5 6 5 5 5 5 5 5 5 5 5 5 6 5 6 5 5 6 5 5 5 6 5 5 5 6 5 5 5 6 5 5 6 5 5 6 6 6 5 5 6 6 5 5 5 5 6 5 5 5 5 5 5 5 5 5 6 5 5 5 5 5 5 5 5 5 5 5 5 5 5 6 5 5 5 5 5 5 5 5 5 5 6 5 5 5 5 5 6 6 5 5 5 5 5 5 5 5 5 5 5 5 6 6 5 5 5 5 5 5 5 5 5 5 6 5 5 5 5 5 5 5 5 5 5 5 5 5 5 5 5 5 5 5 6 5 5 5 5 5 5 5 5 5 5 5 5 5 6 5 5 5 5 5 6 5 5 5 5 5 5 5 5 5 5 5 5 5 5 5 5 5 5 6 5 5 5 6 5 5 5 5 5 5 5 5 6 5 5 5 5 5 5 5 5 6 6 6 5 5 6 5 5 5 5 5 5 5 5 5 5 5 5 5 5 5 5 5 5 5 6 5 5 5 5 5 5 5 6 5 5 5 5 5 5 5 5 5 6 5 5 5 5 6 5 5 5 6 5 5 5 5 5 5 5 5 5 5 5 5 5 5 5 5 5 5 6 5 5 5 5 5 5 5 5 6 5 5 5 5 5 6 5 5 6 5 5 5 5 5 5 5 6 6 5 5 5 6 5 5 5 6 5 6 5 5 6 5 5 5 5 5 5 5 5 5 5 5 5 5 5 5 5 5 5 6 5 5 5 5 5 5 5 6 5 5 5 5 5 5 5 5 6 5 5 5 5 5 5 5 5 5 5 5 5 5 5 5 5 6 5 6 5 5 5 5 6 5 5 5 5 5 5 5 5 6 5 5 6 5 6 5 6 5 5 5 5 6 5 6 5 5 5 5 6 5 5 5 5 6 5 5 5 5 5 5 5 5 5 5 5 5 5 5 5 5 5 5 5 5 5 5 5 6 5 6 5 5 5 6 5 5 5 6 5 5 6 5 5 5 5 5 5 5 5 5 5 5 5 5 5 5 5 5 5 6 5 5 6 5 5 6 5 5 6 5 5 5 5 5 5 5 5 5 5 5 5 5 5 5 5 5 5 5 5 5 5 5 5 6 5 5 5 5 6 5 5 5 5 6 5 6 5 5 5 6 5 5 5 6 5 5 5 6 5 5 5 5 5 5 5 5 5 5 5 6 5 5 6 6 5 5 5 5 5 5 6 5 5 5 6 6 5 5 6 5 5 5 5 5 5 5 5 5 6 5 6 5 5 6 5 5 5 5 5 5 5 5 5 5 6 5 5 5 5 5 5 5 5 6 5 6 5 5 5 6 5 5 5 5 5 5 5 5 5 5 5 5 5 6 5 5 5 5 5 5 5 5 5 5 5 5 5 5 5 5 6 5 5 5 5 5 5 6 5 5 5 5 5 5 5 5 5 5 5 5 5 6 5 5 5 6 5 5 6 6 6 5 5 6 5 6 6 5 6 5 6 5 5 5 5 5 5 5 5 5 5 5 5 5 5 5 5 6 5 5 5 5 5 6 6 5 6 5 5 5 6 6 5 5 5 5 5 5 6 5 6 5 5 5 6 5 5 6 5 6 5 5 5 5 5 5 5 5 6 5 6 5 5 5 5 5 5 6 5 5 5 5 6 5 5 5 5 5 5 6 5 6 5 5 6 5 5 5 6 5 6 5 5 6 6 5 5 6 5 5 5 5 5 5 5 5 5 5 5 5 5 5 5 5 5 5 6 5 5 5 5 5 5 6 5 5 5 6 5 5 5 5 5 5 5 5 5 5 5 6 5 5 5 5 6 5 6 5 5 5 5 5 5 5 5 5 5 5 5 6 6 5 5 5 5 5 5 5 5 5 5 5 5 5 5 5 5 5 5 5 5 5 5 5 5 5 5 5 5 5 5 5 5 5 5 5 5 5 5 5 5 5 5 5 5 5 5 5 5 5 5 5 5 5 5 5 5 5 5 5 5 5 5 5 6 5 5 6 5 5 6 5 5 5 5 6 5 5 5 6 6 5 5 5 6 5 6 5 5 5 5 5 5 6 5 5 6 5 6 5 5 5 5 6 5 5 5 5 6 6 5 5 5 6 5 6 5 5 5 5 5 5 5 5 5 5 5 5 5 5 5 5 5 5 6 5 5 6 5 5 5 5 6 6 5 5 5 5 6 5 5 6 6 5 5 5 6 5 5 5 6 5 5 5 5 5 5 5 5 6 5 6 6 5 5 6 5 6 5 5 5 6 6 5 5 5 6 5 5 5 6 6 5 5 6 5 5 5 6 5 5 5 5 5 5 5 5 6 6 5 5 5 5 5 5 5 5 5 5 5 5 5 5 5 5 5 5 5 5 5 5 5 5 5 5 5 5 6 5 5 5 5 5 5 5 5 5 5 5 5 5 5 6 5 5 5 5 5 5 5 5 6 5 5 5 6 5 5 5 5 5 5 6 5 5 5 6 5 5 6 5 5 6 5 5 6 5 6 5 5 5 5 5 5 5 5 6 6 5 5 5 5 5 5 5 5 5 5 5 5 6 5 5 5 5 5 5 5 5 5 5 5 5 5 5 5 5 5 6 6 5 6 5 5 6 5 5 6 5 5 6 5 5 5 6 5 6 6 5 5 6 5 5 5 5 5 5 5 5 5 6 5 5 5 6 5 5 5 5 5 5 6 5 6 5 5 5 5 5 5 6 5 5 5 5 5 5 6 5 5 5 5 6 5 5 5 5 5 5 5 5 5 5 5 5 6 5 5 6 5 5 5 5 5 5 6 5 5 5 5 5 6 5 5 5 5 5 5 6 5 5 5 5 5 5 5 5 5 5 5 5 5 6 5 5 5 5 5 5 5 5 5 5 5 6 5 6 6 5 5 6 5 5 6 5 5 6 6 5 5 5 5 5 5 6 5 5 6 6 5 5 5 5 5 5 5 6 6 5 5 6 6 5 5 6 5 6 5 5 5 6 6 5 6 5 5 5 5 5 5 5 5 5 5 5 5 5 5 6 5 5 5 6 5 5 5 5 5 5 6 5 5 5 6 5 5 6 5 5 5 5 5 6 5 5 5 5 5 5 5 6 5 5 6 5 5 6 5 6 5 5 5 5 6 5 5 5 5 6 5 5 5 5 5 6 5 6 5 5 5 5 5 5 5 5 5 5 5 6 5 5 5 5 5 6 5 5 5 6 5 5 5 5 6 5 5 5 5 5 5 6 5 5 5 6 5 5 5 5 5 5 6 5 6 5 5 5 5 5 6 5 5 5 5 5 5 5 5 5 5 5 5 5 5 5 5 5 5 5 5 5 5 5 5 6 6 5 6 5 5 5 5 5 5 5 6 5 5 5 5 5 5 5 5 6 5 5 6 5 5 5 5 5 5 5 5 5 5 5 5 5 6 5 5 6 5 5 6 5 5 6 5 6 5 5 5 5 5 5 6 5 5 5 5 5 5 5 5 5 5 5 5 5 5 5 5 5 5 5 5 6 5 5 5 5 6 5 5 6 5 5 6 5 5 5 5 5 6 5 5 5 5 5 5 5 5 5 5 5 5 5 5 5 5 5 5 5 5 5 5 6 5 5 5 5 5 5 5 5 5 5 5 5 5 5 5 5 5 5 6 5 5 5 5 6 5 5 5 5 5 6 5 5 5 5 5 5 5 5 5 5 5 5 5 5 5 5 5 6 5 5 5 5 6 5 5 5 5 5 6 5 6 5 5 5 5 5 6 5 5 6 5 5 5 5 5 5 5 5 5 5 5 5 5 5 5 5 5 5 6 5 5 5 6 5 5 5 5 5 6 6 5 5 5 5 6 5 5 6 5 5 5 5 6 5 5 5 5 5 5 5 6 5 5 5 5 5 5 5 5 5 5 5 5 5 5 5 5 5 5 5 5 5 5 5 5 5 5 5 5 5 5 5 5 5 5 6 5 5 6 5 5 5 5 5 5 5 5 5 5 6 5 5 5 5 5 5 5 5 5 5 5 5 5 5 5 5 5 5 5 5 5 5 6 5 6 5 5 5 6 5 5 5 5 5 5 5 5 5 5 5 5 5 5 5 5 5 5 5 5 5 5 5 5 5 5 5 5 5 5 5 5 5 5 5 6 5 5 6 5 5 5 5 5 5 5 5 5 5 5 5 6 5 5 5 5 5 5 5 5 5 5 5 5 6 6 5 6 5 6 5 5 5 5 5 5 5 5 5 5 6 5 5 5 5 5 5 5 5 6 5 5 6 5 5 5 5 6 6 5 5 5 5 5 5 6 5 6 5 5 5 5 5 5 6 5 6 5 5 5 6 5 5 5 6 5 5 5 6 5 5 5 5 5 5 5 5 5 5 5 5 5 5 5 6 5 6 5 5 5 5 6 6 5 5 5 5 5 5 5 5 5 5 5 5 5 5 5 5 6 5 6 5 5 5 5 6 5 5 5 5 5 5 5 5 5 5 5 6 5 5 5 6 5 5 5 5 6 5 5 5 6 5 5 6 5 5 6 5 5 5 6 5 5 5 5 5 5 5 5 5 5 6 5 5 5 5 5 5 6 5 6 5 6 5 5 6 5 5 5 5 5 6 6 5 6 5 5 6 5 5 5 5 5 5 5 5 5 5 5 5 5 5 5 5 5 5 5 5 5 5 5 5 5 5 5 5 5 5 5 5 5 5 5 5 6 5 5 5 5 5 5 5 6 5 5 5 5 5 5 5 5 5 5 5 5 5 5 5 6 5 5 5 5 5 5 5 5 5 5 5 5 5 5 5 5 5 5 5 5 5 5 5 5 5 5 5 5 5 5 5 5 6 5 5 5 5 5 5 5 6 5 5 5 5 5 5 5 5 6 5 5 5 6 5 5 5 5 5 6 5 5 5 6 5 5 5 5 5 5 5 6 6 5 5 5 5 6 5 5 5 5 5 5 6 5 5 5 5 5 5 5 5 5 5 5 5 5 5 5 5 5 5 5 5 5 5 5 5 5 6 6 6 6 5 5 5 5 5 6 5 5 5 5 5 5 5 5 5 5 5 5 5 5 5 5 5 5 5 5 5 5 5 5 5 5 5 5 5 5 5 5 5 5 5 5 5 5 5 5 5 5 5 5 5 6 5 5 6 5 5 5 5 5 5 5 5 5 5 5 5 5 5 5 5 6 6 5 5 5 5 5 5 5 5 5 5 5 5 6 5 5 5 5 5 5 5 5 5 5 6 5 5 6 6 5 5 5 6 5 5 5 5 5 5 5 5 6 5 5 5 5 5 6 5 5 5 5 5 6 5 5 5 5 5 5 5 5 5 5 5 5 5 6 5 5 5 5 5 5 5 5 5 5 5 5 5 5 6 5 5 5 5 5 5 5 6 5 5 5 5 5 5 5 5 5 5 5 5 5 5 5 5 5 5 5 5 5 5 5 5 5 5 5 5 5 5 5 5 5 5 5 5 5 5 5 6 5 5 5 5 5 5 5 6 5 5 5 5 5 5 5 5 5 5 5 5 5 5 6 6 6 5 5 5 6 5 5 6 5 5 5 6 5 5 6 5 5 5 5 6 5 6 5 6 5 5 6 5 5 5 5 6 5 5 5 5 5 5 5 6 5 5 5 5 6 5 5 6 5 5 5 6 6 5 5 5 5 5 6 5 6 5 5 5 5 5 5 5 5 5 5 5 5 5 5 5 5 5 5 5 5 5 5 5 5 5 5 5 5 6 5 5 5 6 5 5 5 5 5 5 5 5 5 5 5 5 5 5 5 5 6 5 6 6 5 5 5 5 5 6 5 5 5 5 6 5 5 5 5 5 5 5 5 5 5 5 5 6 5 5 5 6 5 5 5 6 5 5 6 5 6 5 6 5 5 5 6 5 6 5 5 5 6 5 6 5 5 6 5 5 6 5 5 5 5 5 5 5 5 5 6 5 5 6 5 5 5 6 5 5 5 5 5 5 5 5 6 5 6 5 5 5 6 5 6 5 6 6 5 5 6 5 5 6 5 5 5 6 5 5 5 5 5 5 6 6 5 6 6 5 6 6 5 5 5 5 5 5 5 5 5 5 6 5 5 5 5 5 6 5 5 5 5 5 6 5 6 5 5 5 5 5 6 5 5 5 5 5 5 5 5 5 6 6 5 5 6 6 5 6 5 6 6 5 5 6 5 6 5 5 5 5 5 5 5 5 5 5 5 5 6 5 5 5 5 5 5 5 5 5 5 5 5 5 5 5 5 5 5 5 5 5 5 5 5 5 5 5 5 5 6 5 5 5 5 6 5 5 5 5 5 5 5 5 5 5 5 5 5 5 6 5 6 5 6 5 5 5 5 5 5 5 6 5 5 5 5 6 5 6 5 5 5 5 5 6 5 5 5 5 5 5 5 6 5 5 6 5 5 5 5 5 5 5 5 6 5 6 5 5 5 5 6 5 5 5 5 5 6 5 5 5 6 5 5 5 5 5 5 5 5 5 5 5 5 5 5 5 5 5 6 5 5 5 5 5 5 5 5 5 5 5 5 5 5 5 5 6 5 5 5 5 5 6 5 5 5 5 5 6 5 5 5 6 5 5 5 6 5 5 6 5 6 5 6 5 5 5 5 5 5 5 6 5 5 5 5 5 6 5 5 6 5 6 5 5 5 5 6 5 5 5 5 6 5 5 5 5 5 5 5 5 5 5 5 5 5 5 5 5 5 5 6 5 5 6 5 5 5 5 5 5 5 5 5 5 5 6 5 5 5 5 5 5 5 5 5 5 5 5 5 5 5 5 5 5 6 5 5 5 5 6 5 5 5 5 5 5 5 5 5 5 5 5 5 5 5 5 5 5 5 5 5 5 5 5 5 6 6 5 5 5 6 5 5 5 6 5 5 5 5 5 5 5 5 5 6 5 5 5 5 5 5 5 5 5 5 5 5 5 5 5 5 5 5 5 5 5 5 5 5 5 5 5 5 5 5 5 5 5 5 5 5 5 5 5 5 5 5 5 5 5 5 5 5 5 5 5 5 5 5 6 5 5 5 6 5 5 5 5 5 5 6 5 6 5 5 5 5 5 5 5 5 6 5 5 6 5 5 5 5 5 5 5 5 5 5 5 5 5 5 5 5 5 5 5 5 6 5 5 5 6 5 5 5 5 5 5 5 5 5 5 5 5 5 5 6 5 6 5 5 6 6 5 5 5 5 5 5 5 6 5 5 5 5 5 5 5 5 5 6 5 5 5 5 6 5 5 6 6 5 6 5 6 5 5 5 5 6 5 5 5 5 5 6 5 5 6 5 6 6 5 5 5 5 5 5 5 5 5 5 5 5 5 5 5 5 5 5 5 5 5 5 5 5 5 5 5 5 5 5 5 5 5 5 5 5 5 5 5 5 5 5 5 5 5 6 5 6 5 5 5 5 5 6 6 5 5 5 5 5 5 5 5 5 6 5 5 5 5 5 6 5 5 5 5 5 5 5 5 5 6 5 5 6 5 6 6 5 5 5 5 5 5 5 5 5 6 6 5 5 5 5 5 6 5 5 5 5 5 5 5 5 5 5 5 5 5 5 5 5 6 5 5 5 5 5 5 5 5 5 5 5 6 5 5 5 6 5 5 5 5 6 5 6 5 5 5 5 5 5 5 5 5 5 5 5 5 5 5 5 5 5 5 5 5 5 5 5 5 5 5 5 5 5 5 5 5 5 5 5 5 5 5 5 5 5 5 5 5 5 5 5 5 5 6 5 5 5 5 5 5 5 6 5 5 5 5 5 5 6 5 5 6 5 5 5 5 5 5 5 5 5 5 5 6 5 6 6 5 5 5 6 5 6 6 5 5 6 6 5 5 6 6 5 5 6 5 5 5 5 5 5 6 5 6 6 5 6 5 6 6 6 5 5 5 6 5 5 6 5 5 5 5 5 5 5 5 5 5 5 5 5 5 5 6 5 6 5 5 5 5 5 5 5 5 5 5 5 5 5 5 5 5 5 5 5 5 6 6 5 5 5 5 5 5 5 5 5 5 5 5 5 5 6 5 5 5 5 5 6 5 5 5 5 5 5 5 5 5 5 5 5 6 6 5 5 5 5 5 5 5 5 5 5 5 5 5 5 5 5 5 5 5 5 5 5 5 5 6 5 5 5 5 5 6 5 5 5 5 5 5 5 5 5 5 5 5 5 5 6 5 5 5 5 5 5 5 5 5 5 5 5 5 6 5 5 5 5 5 5 6 5 5 5 5 5 5 5 5 5 5 5 5 5 6 6 5 5 5 5 6 5 5 5 5 6 6 5 6 5 5 6 5 5 5 6 5 5 5 6 5 5 6 6 5 5 5 6 5 5 5 6 5 5 5 5 5 6 6 6 5 5 5 6 6 5 5 5 5 6 5 5 5 5 6 5 5 5 5 5 5 6 5 5 6 5 5 6 5 5 5 5 5 6 6 5 5 5 6 5 5 6 5 5 5 5 5 5 5 5 5 5 5 5 5 5 6 6 5 5 5 5 5 5 5 6 5 5 5 6 5 5 6 5 6 5 5 5 5 5 5 5 5 5 6 5 5 5 5 5 5 6 5 5 5 6 5 5 5 5 5 6 6 6 5 5 6 5 5 5 5 5 6 5 5 5 6 5 5 5 5 5 5 6 6 6 5 5 5 5 5 5 6 5 5 5 5 5 5 5 5 5 5 5 5 5 5 5 5 5 5 5 5 5 6 5 5 6 5 5 6 5 5 5 5 5 6 5 5 6 5 6 6 5 5 5 5 5 5 5 5 5 5 6 5 5 5 5 5 5 5 5 5 5 5 5 5 5 5 5 6 5 5 5 6 5 5 6 5 5 5 5 5 5 5 5 5 5 5 5 5 5 5 5 6 5 5 5 5 5 5 5 5 5 5 6 6 5 5 5 5 6 5 6 6 6 5 5 5 5 5 5 6 6 5 5 5 5 5 5 5 6 5 5 5 5 6 5 5 6 5 6 6 6 5 5 5 5 5 6 6 5 6 5 5 5 5 5 5 5 5 5 5 6 5 6 5 5 5 5 5 6 5 5 6 5 6 5 5 5 5 5 5 6 5 5 5 6 5 5 5 5 5 5 5 5 5 5 5 5 6 5 5 5 5 5 5 5 5 5 5 6 5 5 5 5 5 5 5 5 5 6 5 5 5 6 5 5 5 5 5 6 5 5 5 5 5 5 5 5 5 5 5 5 5 6 5 5 5 5 5 5 6 5 5 5 6 5 6 5 5 5 6 5 5 5 6 6 5 5 5 6 6 6 5 5 5 5 5 6 5 5 5 6 5 5 5 6 5 5 5 5 5 5 5 5 5 5 6 5 5 5 5 5 5 5 5 5 5 5 5 5 5 5 5 5 5 5 5 5 5 5 5 5 5 5 5 5 5 5 5 6 6 5 6 5 5 5 5 5 6 5 6 5 5 5 5 5 5 6 5 5 6 5 5 6 5 5 5 6 6 5 5 5 5 5 6 5 5 5 5 5 5 5 5 6 5 5 5 5 5 5 5 5 6 5 5 5 5 6 5 5 5 6 5 5 5 5 6 5 6 6 5 5 6 5 5 5 5 5 5 5 5 5 5 5 5 5 5 6 5 5 5 5 6 5 5 5 6 5 5 5 5 5 5 5 5 5 5 5 5 5 6 6 5 6 5 6 5 5 6 5 5 5 5 5 5 5 5 5 5 5 5 5 5 5 5 5 5 5 5 5 5 5 5 5 5 5 5 5 5 5 6 5 5 5 6 5 5 5 5 6 5 5 5 5 6 6 5 5 5 5 5 5 6 5 5 5 5 6 5 5 5 5 5 5 5 6 5 5 5 5 5 5 5 5 5 6 5 5 6 5 5 5 5 5 5 5 5 6 5 5 6 5 5 5 5 5 5 5 6 5 5 5 6 6 5 6 5 6 5 5 5 5 6 6 5 5 5 6 5 6 5 5 6 5 5 6 6 5 5 5 5 5 5 5 5 5 5 5 5 6 5 5 5 5 5 5 6 5 5 5 5 5 5 5 5 5 5 5 6 5 5 5 5 5 6 6 5 5 5 5 5 5 5 5 5 5 5 5 5 5 5 5 5 5 5 5 5 5 5 5 5 5 5 6 5 5 5 5 5 5 5 5 5 5 5 5 5 5 5 5 5 5 5 5 5 5 5 5 5 5 5 5 5 5 5 5 
</DataArray>
<DataArray type="Float64" Name="stress" NumberOfComponents="9" format="ascii">
-542.49944016163715 278.11255874684139 0 278.11255874684139 2527.4217985837167 0 0 0 0 1.2573310100134178 -2.2401054113918804 0 -2.2401054113918804 5.6312982640043856 0 0 0 0 2.6121024991951742 -288.42390113313058 0 -288.42390113313058 3116.1413217825466 0 0 0 0 -580.66828445367889 -838.63139023959957 0 -838.63139023959957 3495.6450499992279 0 0 0 0 91.557936446962458 254.12490906071616 0 254.12490906071616 460.61264793009468 0 0 0 0 -0.14269612717799737 162.15785110925935 0 162.15785110925935 453.32858577843581 0 0 0 0 120.75343333656144 79.574286649847636 0 79.574286649847636 427.96653556477395 0 0 0 0 -1.2086658453499872 0.55253728219835807 0 0.55253728219835807 3.5517440490191916 0 0 0 0 26.178817873016953 -53.214257210718642 0 -53.214257210718642 109.82353549063555 0 0 0 0 -19.581156586738274 -45.257957201058161 0 -45.257957201058161 -107.28236211660987 0 0 0 0 -1.5557517748651482 1.2304028402289617 0 1.2304028402289617 3.9358797998163482 0 0 0 0 118.42882770446674 434.78563147022123 0 434.78563147022123 593.61360688258719 0 0 0 0 -13.169660114777059 14.655601615793643 0 14.655601615793643 -4.6282895055689721 0 0 0 0 -87.797152292347988 -158.59627320867912 0 -158.59627320867912 -26.663437156326836 0 0 0 0 2.6998743580083229 -11.211898378124147 0 -11.211898378124147 28.254445877874559 0 0 0 0 -92.555492230574146 -30.813111440751527 0 -30.813111440751527 91.342846975690918 0 0 0 0 -0.070303949704935295 -90.305847420837381 0 -90.305847420837381 -18.358924769694568 0 0 0 0 29.440996056484522 49.789951176513568 0 49.789951176513568 51.160882292373572 0 0 0 0 -17.205868276472984 -3.8698487901237968 0 -3.8698487901237968 12.129176827114861 0 0 0 0 -8.959096144347912 3.8267297814456356 0 3.8267297814456356 22.602739673231255 0 0 0 0 26.546331354978975 -68.135632993587933 0 -68.135632993587933 -15.695480115864484 0 0 0 0 -47.421739311228521 79.40075978335517 0 79.40075978335517 146.01671571425686 0 0 0 0 -15.486721717439483 17.378432009121383 0 17.378432009121383 -4.1676964315850711 0 0 0 0 -252.33210852615775 -103.50382767873816 0 -103.50382767873816 518.68044103040302 0 0 0 0 285.06091588443155 -225.23681057870272 0 -225.23681057870272 -288.1408712287448 0 0 0 0 -1.8009628797284449 -4.9934594034487816 0 -4.9934594034487816 30.415917389707943 0 0 0 0 -192.5855476930094 -45.212444783683168 0 -45.212444783683168 452.0007713730156 0 0 0 0 -3.0029394989055467 -0.42515397134871247 0 -0.42515397134871247 28.911385980766909 0 0 0 0 -34.260410536972032 1.6479648836284468 0 1.6479648836284468 22.292886603685474 0 0 0 0 -12.563007944067408 -46.364967231322225 0 -46.364967231322225 -495.49454451831116 0 0 0 0 340.01722730016206 145.78320627881476 0 145.78320627881476 -535.21264945261464 0 0 0 0 903.18530894461367 -428.45882486252231 0 -428.45882486252231 -305.74658272832312 0 0 0 0 -249.27661120257289 -258.10712645703461 0 -258.10712645703461 -330.47249533099239 0 0 0 0 2.4196849285413631 -2.4068030209276969 0 -2.4068030209276969 2.8808518469920728 0 0 0 0 633.58800605410602 -1000.2850756029875 0 -1000.2850756029875 830.34572687707259 0 0 0 0 1.7427231212544332 -3.7157412817640889 0 -3.7157412817640889 12.536899865772682 0 0 0 0 117.67241491202253 241.19318434906018 0 241.19318434906018 2238.7468639405561 0 0 0 0 -448.51570548394676 46.170922643577796 0 46.170922643577796 3477.4829891766421 0 0 0 0 0.56179231846214717 2.2252229101676519 0 2.2252229101676519 13.566112683537938 0 0 0 0 44.568731665826157 -275.01745457901779 0 -275.01745457901779 2043.2442818918789 0 0 0 0 -761.007409667959 849.0564191101148 0 849.0564191101148 3489.1454741111811 0 0 0 0 -857.45632903066291 209.71498248886564 0 209.71498248886564 3503.8554044038319 0 0 0 0 -766.5648082268043 764.9317535158425 0 764.9317535158425 2224.109782606407 0 0 0 0 -377.90010033940439 -64.064928649335343 0 -64.064928649335343 1441.9762810227876 0 0 0 0 244.63108060126473 1359.0395071563357 0 1359.0395071563357 1164.0815288466692 0 0 0 0 -278.98905326557804 -386.0670402111864 0 -386.0670402111864 259.85956971704582 0 0 0 0 -387.92690602657899 -455.25945881677035 0 -455.25945881677035 3492.8757525449851 0 0 0 0 485.35245715748681 -302.14680131342175 0 -302.14680131342175 1876.6385063560447 0 0 0 0 -634.77725666001584 134.87864695916869 0 134.87864695916869 2131.852783679511 0 0 0 0 -437.93061194206587 66.549193985665624 0 66.549193985665624 2150.8806917731326 0 0 0 0 101.36469631905112 -53.198460349616653 0 -53.198460349616653 1054.3100288168353 0 0 0 0 -35.765597334672009 -16.159208643306556 0 -16.159208643306556 1783.1003961039678 0 0 0 0 -16.057428529868275 66.313097247621045 0 66.313097247621045 1034.2921837266549 0 0 0 0 -235.92013579219676 -381.002406588952 0 -381.002406588952 1095.6110079652117 0 0 0 0 -505.1140390513583 -473.54697513823339 0 -473.54697513823339 96.431634449793819 0 0 0 0 -28.329463493194211 -111.87523961819716 0 -111.87523961819716 39.541573201087886 0 0 0 0 -662.47729088775793 -202.1104161360538 0 -202.1104161360538 207.57375343363674 0 0 0 0 -316.54387441936484 -568.68474881218026 0 -568.68474881218026 348.60549439911847 0 0 0 0 -148.47776892893069 233.24847847032288 0 233.24847847032288 932.39799388064421 0 0 0 0 -213.51363727421813 -832.5744515865008 0 -832.5744515865008 -998.63225224216148 0 0 0 0 -273.95181916621016 -201.73066046545136 0 -201.73066046545136 -168.73905393132736 0 0 0 0 -2.8597809710014594 -10.250789418481133 0 -10.250789418481133 12.659421885763294 0 0 0 0 -269.6046802682057 -463.98178442397329 0 -463.98178442397329 -268.89535217147204 0 0 0 0 98.787874090666264 -103.52453516933019 0 -103.52453516933019 17.790988553773786 0 0 0 0 159.43676643087792 -39.399560737139836 0 -39.399560737139836 73.216787142082467 0 0 0 0 81.09686994636354 43.279277639499924 0 43.279277639499924 244.09384221633081 0 0 0 0 -63.658886155939626 -154.97244576005323 0 -154.97244576005323 713.18839276801737 0 0 0 0 3.2073796948997195 -10.910706266529218 0 -10.910706266529218 6.5852221591060101 0 0 0 0 51.722394910836272 -274.36575419354995 0 -274.36575419354995 726.21981194766704 0 0 0 0 39.986983439464325 -364.23584855892113 0 -364.23584855892113 717.05953071995782 0 0 0 0 -39.609136733089372 -461.39483470444975 0 -461.39483470444975 1312.0401425056552 0 0 0 0 111.71719053107914 -673.23154062295089 0 -673.23154062295089 1343.8460596863442 0 0 0 0 207.95328545309758 -312.28631070161646 0 -312.28631070161646 440.85379083987209 0 0 0 0 248.28893956747459 -882.65237396847624 0 -882.65237396847624 236.21650787752878 0 0 0 0 300.08079310867043 -839.26361355763947 0 -839.26361355763947 -1509.994617875418 0 0 0 0 3.0461929109759041 -4.0797420254146175 0 -4.0797420254146175 2.5072528949357462 0 0 0 0 -56.978914084836376 -392.6774612516092 0 -392.6774612516092 2355.4730247810767 0 0 0 0 -53.424280683098083 -202.07589430937514 0 -202.07589430937514 939.53521283474402 0 0 0 0 374.16045332994219 -749.60170691346866 0 -749.60170691346866 1018.5197284273745 0 0 0 0 94.249717987642498 -324.61019832806778 0 -324.61019832806778 968.17446823712362 0 0 0 0 120.07072296735537 -249.48550111282839 0 -249.48550111282839 812.29818889981834 0 0 0 0 15.326873681690728 -442.641001095104 0 -442.641001095104 1315.2344725394651 0 0 0 0 -52.239062087149705 -85.106771603270317 0 -85.106771603270317 896.50564547477188 0 0 0 0 -74.983505103098764 -383.95765960144854 0 -383.95765960144854 2171.0534587402362 0 0 0 0 18.390218020306747 -333.97214415708004 0 -333.97214415708004 1331.3515733356944 0 0 0 0 -48.98845512918956 -408.10661286005416 0 -408.10661286005416 1348.0322662338731 0 0 0 0 -29.379839924471753 86.618477182979404 0 86.618477182979404 1125.6583072440681 0 0 0 0 15.789716840667438 -97.906466421452933 0 -97.906466421452933 1472.8150470849287 0 0 0 0 686.37091965922173 79.041911437416275 0 79.041911437416275 1488.684418932251 0 0 0 0 344.35944101641121 -297.79811987293942 0 -297.79811987293942 1356.9494295707336 0 0 0 0 935.77903831192089 -406.64777946097456 0 -406.64777946097456 1368.3620374166931 0 0 0 0 81.411003461130349 -502.41827588392334 0 -502.41827588392334 2286.7358983213853 0 0 0 0 440.43526772134169 -844.76450576301431 0 -844.76450576301431 1236.2482941759445 0 0 0 0 97.95578477423328 536.9037556964031 0 536.9037556964031 1799.204161039499 0 0 0 0 -178.34377346049325 -2.6577966867625946 0 -2.6577966867625946 1703.386991449559 0 0 0 0 20.38468396616959 -182.25303421753506 0 -182.25303421753506 1403.6745225244813 0 0 0 0 -71.358472894522606 -257.45906386103161 0 -257.45906386103161 1566.744527007264 0 0 0 0 -46.498046382179723 -174.42947302886751 0 -174.42947302886751 1308.2261462407187 0 0 0 0 -101.54223708583129 -155.45422232043893 0 -155.45422232043893 1401.3084033705527 0 0 0 0 -95.500204698350629 -32.639254863577662 0 -32.639254863577662 1205.8795884276842 0 0 0 0 -0.25905206765853195 -93.355588583868666 0 -93.355588583868666 976.2192626750184 0 0 0 0 -138.33248626067962 139.25649466516188 0 139.25649466516188 1011.8428326868816 0 0 0 0 -78.978405967841582 47.483848027943168 0 47.483848027943168 909.00402493307774 0 0 0 0 77.888450867950041 239.86165206249279 0 239.86165206249279 517.00996580120409 0 0 0 0 -71.377669517199308 80.312574554569437 0 80.312574554569437 604.26572826826668 0 0 0 0 25.178439292619395 130.673327596749 0 130.673327596749 618.87906634456886 0 0 0 0 0.18416704014608906 -76.612378089288001 0 -76.612378089288001 231.2726646487572 0 0 0 0 38.354566726600012 -84.275397462981346 0 -84.275397462981346 -94.759981266026443 0 0 0 0 -110.7919572622352 54.0716864579299 0 54.0716864579299 118.42579160415335 0 0 0 0 57.913008586470824 -45.507394318774459 0 -45.507394318774459 175.52967653069936 0 0 0 0 -432.9290076497673 -98.86126375371532 0 -98.86126375371532 101.48152324918919 0 0 0 0 -183.67993927277399 -203.16724666420032 0 -203.16724666420032 174.5792973456555 0 0 0 0 4.3748453244169578 -11.597641258252168 0 -11.597641258252168 25.3004305917745 0 0 0 0 242.1334260948372 246.80306065359764 0 246.80306065359764 -95.485375950767775 0 0 0 0 -2.9640490243817776 2.0809176885299649 0 2.0809176885299649 3.5268700588050024 0 0 0 0 -7.902788451739525 -51.304769800815848 0 -51.304769800815848 145.49232005504018 0 0 0 0 -1.7367495628126937 -3.1356900891004056 0 -3.1356900891004056 2.7853070623125973 0 0 0 0 -324.85678403761267 433.59849558103451 0 433.59849558103451 154.0867971246771 0 0 0 0 968.38319608140989 223.86008430045968 0 223.86008430045968 -132.54692039533984 0 0 0 0 2.3441937517973725 -5.0977306118307695 0 -5.0977306118307695 12.013009150084713 0 0 0 0 436.16022826307176 -764.85796498238915 0 -764.85796498238915 99.642149130784674 0 0 0 0 150.31215900084135 -460.68023764353711 0 -460.68023764353711 368.44491352622572 0 0 0 0 0.13834190682100422 -1.0669435729548091 0 -1.0669435729548091 0.95954716259916495 0 0 0 0 129.60343079734935 511.41859068272606 0 511.41859068272606 646.36729964436381 0 0 0 0 88.52779450747235 -28.354208871136052 0 -28.354208871136052 20.688475724920863 0 0 0 0 -94.024775394482788 -287.70282387864791 0 -287.70282387864791 1239.0018199389451 0 0 0 0 -229.90839812378223 148.71793443105344 0 148.71793443105344 1132.0733823014016 0 0 0 0 32.75295921661715 -46.917919368568903 0 -46.917919368568903 23.487275465148727 0 0 0 0 34.615104628201152 -97.848011839465471 0 -97.848011839465471 -272.03290375359211 0 0 0 0 205.60684357563332 235.59520522959065 0 235.59520522959065 591.34461535626906 0 0 0 0 -1.5888020340576094 -6.1070191569973673 0 -6.1070191569973673 17.184939932489574 0 0 0 0 125.06420973396507 205.41628516437777 0 205.41628516437777 2118.4891339005735 0 0 0 0 48.026093706594565 88.187649204483023 0 88.187649204483023 2559.7954768068739 0 0 0 0 -9.7389275204118348 117.07529565730511 0 117.07529565730511 1513.4790019127613 0 0 0 0 -74.534191334085449 -15.953679561247554 0 -15.953679561247554 2650.148322612542 0 0 0 0 -19.968956025042644 121.13460694423702 0 121.13460694423702 2767.795273864278 0 0 0 0 -213.24273053709086 -1067.8580108138381 0 -1067.8580108138381 3876.9492118147318 0 0 0 0 -233.4037869649303 -759.31168521272775 0 -759.31168521272775 2185.419405255825 0 0 0 0 -332.02713836645785 -414.36488163573813 0 -414.36488163573813 2347.025332808611 0 0 0 0 -0.21704370484542324 -427.40576957419034 0 -427.40576957419034 1237.0251391176862 0 0 0 0 -269.43917314837819 -1143.3117020141235 0 -1143.3117020141235 2715.4639856467584 0 0 0 0 -813.95045337275087 -1222.154054734634 0 -1222.154054734634 2725.6308106223587 0 0 0 0 -973.39938351857018 -1252.0816724739652 0 -1252.0816724739652 3497.9376482422849 0 0 0 0 249.44690990127305 529.36243216892808 0 529.36243216892808 3910.7037960941962 0 0 0 0 -649.30048658529086 165.73678697565629 0 165.73678697565629 5871.8426975935217 0 0 0 0 -0.7595488822713321 -6.4328316794622395 0 -6.4328316794622395 8.4976936393210281 0 0 0 0 -598.08474032176093 -674.14856831821089 0 -674.14856831821089 1089.5846992061361 0 0 0 0 -37.281434672675744 366.1785538472468 0 366.1785538472468 2701.352480981077 0 0 0 0 -375.9908015585637 94.753674331883303 0 94.753674331883303 3499.4010967371578 0 0 0 0 210.75703672158332 226.8663941432701 0 226.8663941432701 3263.8445300012827 0 0 0 0 75.703514232516 20.571720917825587 0 20.571720917825587 3043.5059578710789 0 0 0 0 2.7889399527019147 -14.540573418570403 0 -14.540573418570403 13.086546742053486 0 0 0 0 178.88680666321864 44.775516114670609 0 44.775516114670609 3147.0486073176362 0 0 0 0 -29.517977658791324 -22.525318526451883 0 -22.525318526451883 3380.8110695984215 0 0 0 0 -22.429222718364144 -212.44699261982169 0 -212.44699261982169 3893.5604822354571 0 0 0 0 308.12616755297176 -391.2431123128481 0 -391.2431123128481 3135.2950108575606 0 0 0 0 -222.24542860638758 169.35880300376448 0 169.35880300376448 2916.7327417626875 0 0 0 0 -43.90785669714478 -203.39312333871203 0 -203.39312333871203 -323.55302073549683 0 0 0 0 35.03223568072849 60.680286507718847 0 60.680286507718847 2959.5728285025762 0 0 0 0 319.83197398931077 -168.71657190503174 0 -168.71657190503174 2975.2951619227097 0 0 0 0 26.326345556987583 -38.411273219231504 0 -38.411273219231504 14.922964090331824 0 0 0 0 5.5257110929090363 6.0897145889816784 0 6.0897145889816784 -12.793404313390425 0 0 0 0 20.00294624498747 -60.347022928588558 0 -60.347022928588558 -167.71925259685668 0 0 0 0 -129.50099105609115 -278.81280734208849 0 -278.81280734208849 -179.22022249582369 0 0 0 0 89.780262053871411 -585.61926692168345 0 -585.61926692168345 -795.64061262181895 0 0 0 0 -130.85066189192366 -229.80823546886677 0 -229.80823546886677 -298.10492081174743 0 0 0 0 13.644474834612883 -25.389424676720552 0 -25.389424676720552 6.2541122307149593 0 0 0 0 90.505633991113427 -253.72838536323252 0 -253.72838536323252 -1696.1841922332223 0 0 0 0 191.2889749463402 16.343632962481934 0 16.343632962481934 2950.4263029472349 0 0 0 0 -10.80916898831947 -305.2489060270309 0 -305.2489060270309 3355.278439871523 0 0 0 0 -143.56943514902355 16.888831568969181 0 16.888831568969181 3918.2054118642809 0 0 0 0 -197.92037784833565 317.61100618835553 0 317.61100618835553 3026.6644449970627 0 0 0 0 190.66310791959168 788.27783762454055 0 788.27783762454055 3363.9966227270052 0 0 0 0 8.5986568093895492 -12.407953231821523 0 -12.407953231821523 10.735258980600449 0 0 0 0 410.15060879649309 -66.15007676256937 0 -66.15007676256937 1356.7708584066277 0 0 0 0 94.778876032924273 690.99405148502592 0 690.99405148502592 3499.7427873371635 0 0 0 0 -41.307643362370072 -136.34981864217843 0 -136.34981864217843 1857.5101442598445 0 0 0 0 422.23844726913148 -67.87377670033311 0 -67.87377670033311 1857.5768932946085 0 0 0 0 105.52009776067644 406.28931685246789 0 406.28931685246789 1800.1112694294425 0 0 0 0 113.78977188814679 -36.047722442133818 0 -36.047722442133818 2942.5940214625152 0 0 0 0 198.9026906880863 313.55897172846016 0 313.55897172846016 2089.8365738582652 0 0 0 0 -312.73448877458304 167.63652682508109 0 167.63652682508109 2048.2452830559305 0 0 0 0 212.6696144950966 843.02448622298834 0 843.02448622298834 3500.0092762219397 0 0 0 0 96.922791082998856 606.43289034148256 0 606.43289034148256 1231.9254043224792 0 0 0 0 317.38371120460192 99.958618470969668 0 99.958618470969668 1203.291433377206 0 0 0 0 457.91160610426004 236.81270575652889 0 236.81270575652889 831.58831808916148 0 0 0 0 5.3217620004037309 -3.7311032043399166 0 -3.7311032043399166 6.4266409319913151 0 0 0 0 358.5606616980981 -321.1977509623357 0 -321.1977509623357 1965.0137942581423 0 0 0 0 87.332868020125261 281.60521157887706 0 281.60521157887706 1983.1787535081094 0 0 0 0 294.87664590510894 -76.497042984792643 0 -76.497042984792643 1099.3439014388205 0 0 0 0 -274.06649674490347 213.92923532934037 0 213.92923532934037 4826.2035644121715 0 0 0 0 73.345461300317083 -619.44791918229748 0 -619.44791918229748 3211.1060013085626 0 0 0 0 3.4833354225776354 -8.2362881957542413 0 -8.2362881957542413 3.9214467713954058 0 0 0 0 67.027689530538055 -948.84921917278007 0 -948.84921917278007 -637.46950279013254 0 0 0 0 82.658632593996117 -890.27044275124354 0 -890.27044275124354 296.48233488719416 0 0 0 0 -2.2380060706473159 -975.34744156262968 0 -975.34744156262968 302.18621279951185 0 0 0 0 134.12454406112943 -965.71256021943555 0 -965.71256021943555 236.18208080418117 0 0 0 0 -120.1720072982223 -472.17256240672577 0 -472.17256240672577 199.87431884698162 0 0 0 0 -221.85418836838562 -174.846533638658 0 -174.846533638658 500.56907976069124 0 0 0 0 -29.618203596270632 -266.09251981123816 0 -266.09251981123816 468.97772627757331 0 0 0 0 264.07575650397098 -469.85642422217825 0 -469.85642422217825 610.01668772565608 0 0 0 0 -140.55470230652099 -150.08809937470505 0 -150.08809937470505 667.44667024422324 0 0 0 0 9.3279504302028613 -72.025086277808441 0 -72.025086277808441 628.2416545052256 0 0 0 0 -189.82924184306648 18.515913908515358 0 18.515913908515358 643.83549961689823 0 0 0 0 -136.04505406847488 -101.00667008601522 0 -101.00667008601522 443.05152188443753 0 0 0 0 -240.67877604965861 -156.84246383677237 0 -156.84246383677237 452.64158895307628 0 0 0 0 -93.493738614251924 14.514578373054974 0 14.514578373054974 482.83697776170357 0 0 0 0 135.66752331942007 -128.27804555481998 0 -128.27804555481998 196.0769293680496 0 0 0 0 -83.020152471501888 27.482792225204321 0 27.482792225204321 493.79962548670301 0 0 0 0 -173.7300174125653 -258.48619330012298 0 -258.48619330012298 258.20308177293919 0 0 0 0 -55.425920635923831 -149.47486291889072 0 -149.47486291889072 293.79011127771082 0 0 0 0 -263.26448297696697 -330.31376554624876 0 -330.31376554624876 135.02516969556746 0 0 0 0 -167.32584708082368 -363.49837023577857 0 -363.49837023577857 -124.12296647933545 0 0 0 0 -241.2888203344819 -371.45647790619842 0 -371.45647790619842 164.0294518562805 0 0 0 0 -257.88916014257666 -267.24126713888836 0 -267.24126713888836 -1.2507091609077179 0 0 0 0 -316.33106454191375 -532.37953692157316 0 -532.37953692157316 -45.296003026363906 0 0 0 0 -139.44586428249477 -466.39151485395269 0 -466.39151485395269 -282.98343554742314 0 0 0 0 -138.45408259448232 -202.16150852429564 0 -202.16150852429564 -104.60337310498289 0 0 0 0 -207.84070418666215 -296.41089235455001 0 -296.41089235455001 -91.941754772449713 0 0 0 0 -158.70965797519966 -155.6195966901214 0 -155.6195966901214 -69.601566719560651 0 0 0 0 -145.45129196308881 -191.12726960055443 0 -191.12726960055443 -99.665653324322193 0 0 0 0 -199.16391583420045 -254.01113685146993 0 -254.01113685146993 113.65929761673033 0 0 0 0 -250.33383243292792 -231.37810602591344 0 -231.37810602591344 169.92861008062027 0 0 0 0 -312.56676662710134 -380.05869077946772 0 -380.05869077946772 292.6203696418379 0 0 0 0 -306.05895123702339 -431.46253164709924 0 -431.46253164709924 68.736477217891661 0 0 0 0 -190.3777510555235 -386.34273674369069 0 -386.34273674369069 83.857086815740331 0 0 0 0 -64.904456075084909 -368.06332734326497 0 -368.06332734326497 -39.318710602383362 0 0 0 0 61.012135390701587 -238.60687730669451 0 -238.60687730669451 26.842697981905076 0 0 0 0 -252.5532554402771 -338.25510580943956 0 -338.25510580943956 184.80460244196729 0 0 0 0 -265.87219101323558 -237.17106068372414 0 -237.17106068372414 -455.75836386777519 0 0 0 0 -514.74665454053502 -588.37557291836492 0 -588.37557291836492 80.145036170135427 0 0 0 0 -488.08140201498918 -52.331313128845068 0 -52.331313128845068 179.886955690381 0 0 0 0 -840.53035734708465 -273.95200745950569 0 -273.95200745950569 292.44328709873662 0 0 0 0 -596.20047367021743 -532.35795881071681 0 -532.35795881071681 -375.84153393187262 0 0 0 0 -6.5791782180362581 1.2380089951556954 0 1.2380089951556954 10.086501732227376 0 0 0 0 -23.090505960788505 10.898922067353851 0 10.898922067353851 42.334463089939163 0 0 0 0 18.879946110625724 56.191930338448401 0 56.191930338448401 73.969367208832409 0 0 0 0 -3.4350782249533149 0.75231022137082704 0 0.75231022137082704 17.826050073507758 0 0 0 0 191.52382118997275 -331.66036426554092 0 -331.66036426554092 286.88841561504523 0 0 0 0 168.24006695405683 300.34089192988722 0 300.34089192988722 454.56139635421277 0 0 0 0 0.41262626958702775 -1.3711881101577958 0 -1.3711881101577958 5.7590186947477378 0 0 0 0 25.435601836364185 -309.0478259921365 0 -309.0478259921365 668.58038751609274 0 0 0 0 -208.13758274191423 30.212228908509132 0 30.212228908509132 652.26672513414087 0 0 0 0 -282.63462396597879 -186.14595937239574 0 -186.14595937239574 142.21692295049434 0 0 0 0 98.646573511623501 30.244865577187738 0 30.244865577187738 -237.75308427265554 0 0 0 0 -115.03812401873984 -39.456621498335153 0 -39.456621498335153 228.18538157036528 0 0 0 0 106.87378931487183 196.80029368103715 0 196.80029368103715 -4.5962549453979591 0 0 0 0 -134.97724156659478 -189.55559307590738 0 -189.55559307590738 66.573747306189034 0 0 0 0 551.88727782969727 -284.85350535561156 0 -284.85350535561156 77.454807130096015 0 0 0 0 411.53930230090555 182.14437025006919 0 182.14437025006919 -4.028490987373516 0 0 0 0 -746.16990635647903 15.022499288312247 0 15.022499288312247 160.6415262324299 0 0 0 0 -481.16809228836422 53.019032962134588 0 53.019032962134588 -151.9414986402553 0 0 0 0 -483.48887365099017 98.865113337771618 0 98.865113337771618 177.95909180497983 0 0 0 0 -155.17527754483922 199.5886058885153 0 199.5886058885153 117.37022039660951 0 0 0 0 -277.92445880729156 259.0103932369675 0 259.0103932369675 155.7446539480361 0 0 0 0 -386.06169573386705 51.029892035701778 0 51.029892035701778 128.41442684648337 0 0 0 0 -233.3636535855901 305.75388271241536 0 305.75388271241536 323.08920679567382 0 0 0 0 -531.62064670921245 153.1181023731915 0 153.1181023731915 77.200320818257751 0 0 0 0 -617.31172565975294 -139.53526236583639 0 -139.53526236583639 103.9368057580723 0 0 0 0 -0.46382434919687721 -3.3382079133925906 0 -3.3382079133925906 45.591781321471558 0 0 0 0 -845.13114182791787 -105.40802753675962 0 -105.40802753675962 234.0734707822412 0 0 0 0 -475.65790877359939 -267.09376219967271 0 -267.09376219967271 32.654509559448343 0 0 0 0 -602.68968567624142 -198.51930873856327 0 -198.51930873856327 -3.0163032077180105 0 0 0 0 -4.212312481626368 -3.2260438559519748 0 -3.2260438559519748 53.119932667639603 0 0 0 0 -374.61988545071836 -181.46946865264181 0 -181.46946865264181 147.30952127796263 0 0 0 0 -431.65055403211636 127.11951321881861 0 127.11951321881861 309.6689822976623 0 0 0 0 -631.87004567524491 -207.73410971914745 0 -207.73410971914745 395.18635002843803 0 0 0 0 -110.06513153410197 404.99517331337847 0 404.99517331337847 724.89406319714908 0 0 0 0 -65.304795655647467 -143.30702138732158 0 -143.30702138732158 483.62205157818971 0 0 0 0 -425.15733241690418 -33.091020862189907 0 -33.091020862189907 514.53563268699509 0 0 0 0 315.80192116227863 -214.38685194451682 0 -214.38685194451682 469.81328819574992 0 0 0 0 -54.434510196741485 -103.56000668990055 0 -103.56000668990055 437.03188512512133 0 0 0 0 -97.014833597829863 105.45082760795685 0 105.45082760795685 1197.0036392277252 0 0 0 0 1103.6458814956059 915.94645739590487 0 915.94645739590487 796.2055230865808 0 0 0 0 131.32796776926898 319.59068487376499 0 319.59068487376499 292.70808213196869 0 0 0 0 365.12088134998066 227.77946366530159 0 227.77946366530159 263.19524343599915 0 0 0 0 -292.93574287174579 54.226466845051618 0 54.226466845051618 277.54214810945268 0 0 0 0 -124.50715717827006 297.82296513552137 0 297.82296513552137 232.86813983081083 0 0 0 0 98.517571127128576 219.91526440728921 0 219.91526440728921 157.51546561723808 0 0 0 0 -6.4901493990034202 2.0640460879846003 0 2.0640460879846003 23.723025782684942 0 0 0 0 492.19686774646652 263.66015476213943 0 263.66015476213943 142.65909000503598 0 0 0 0 -1089.866526988194 -131.37227991081181 0 -131.37227991081181 218.64222492654517 0 0 0 0 -210.90701724123437 157.75515445307246 0 157.75515445307246 138.77396821559159 0 0 0 0 -150.52487032133467 -231.28685642282653 0 -231.28685642282653 282.73384908861772 0 0 0 0 -394.39030169600119 61.234848827622045 0 61.234848827622045 122.49540200294723 0 0 0 0 -0.14187814540010102 1.0092463082819876 0 1.0092463082819876 8.9472274804405743 0 0 0 0 -886.93850411228277 -504.45397271738329 0 -504.45397271738329 604.16512951604818 0 0 0 0 250.31849926322167 202.87312711241157 0 202.87312711241157 554.49605200947553 0 0 0 0 -254.40113357009795 82.233956475469313 0 82.233956475469313 994.54120458098623 0 0 0 0 -119.02320206008312 -127.24587557976702 0 -127.24587557976702 186.46492883711471 0 0 0 0 1.18286720221802 -0.32113655157053245 0 -0.32113655157053245 0.90133132075962408 0 0 0 0 -330.40511991462404 -133.7963489802969 0 -133.7963489802969 610.55633658921579 0 0 0 0 -189.75159818712359 15.481419012983679 0 15.481419012983679 629.05836022520089 0 0 0 0 -56.656565872784881 37.42036343617292 0 37.42036343617292 569.89638407465827 0 0 0 0 -33.238208237273057 -47.778073567322281 0 -47.778073567322281 568.61000635765959 0 0 0 0 51.452590059962404 -34.257903720375907 0 -34.257903720375907 417.72455657896353 0 0 0 0 58.808137081644702 -3.4460237404146028 0 -3.4460237404146028 536.91471066584927 0 0 0 0 -149.50821960168878 -48.452635626716074 0 -48.452635626716074 919.49049599940554 0 0 0 0 35.51281059052144 76.363350093721237 0 76.363350093721237 435.41221045644943 0 0 0 0 133.48166464210726 91.193455204898783 0 91.193455204898783 145.65369747660588 0 0 0 0 22.071893810041615 0.22977830952186196 0 0.22977830952186196 66.301987773753353 0 0 0 0 -204.11818470179901 120.95067187358654 0 120.95067187358654 168.3618865726603 0 0 0 0 99.756922080403285 33.406099222434932 0 33.406099222434932 55.084761297985096 0 0 0 0 131.85794508945565 168.1371429742203 0 168.1371429742203 139.29512092970253 0 0 0 0 106.55495304006467 219.00387703040178 0 219.00387703040178 269.25533193748561 0 0 0 0 -0.64190571067974567 0.33281397168016724 0 0.33281397168016724 1.9589768962149492 0 0 0 0 234.90146999479668 275.16692999030056 0 275.16692999030056 255.01320739981747 0 0 0 0 353.04232777815241 395.63028083101381 0 395.63028083101381 236.62614126358494 0 0 0 0 -109.27340516526306 178.1041407315679 0 178.1041407315679 90.769730186337256 0 0 0 0 -0.52196469272025503 0.54321276096105464 0 0.54321276096105464 0.90365048261440961 0 0 0 0 284.37325543140753 312.43048523473408 0 312.43048523473408 248.08871467155404 0 0 0 0 -171.03468669964991 -8.0677019179784111 0 -8.0677019179784111 9.7391139941064466 0 0 0 0 -297.14330608360206 130.53637317969697 0 130.53637317969697 18.16039478177845 0 0 0 0 -192.32777052537153 -152.34683845594191 0 -152.34683845594191 -229.47650363553839 0 0 0 0 150.83176406825714 308.36243441706029 0 308.36243441706029 83.845205318728404 0 0 0 0 -535.26182939763089 261.2570310281435 0 261.2570310281435 -124.92447143993923 0 0 0 0 -593.66171890868713 59.251715560934826 0 59.251715560934826 232.93870768554916 0 0 0 0 -456.37628565274508 31.538703027984411 0 31.538703027984411 -16.504173406676273 0 0 0 0 -467.9183372317666 53.823387768978137 0 53.823387768978137 147.82441853527416 0 0 0 0 -203.7731584875074 97.725044376522192 0 97.725044376522192 -14.266619821224594 0 0 0 0 -460.50660394590727 -0.31307956368618761 0 -0.31307956368618761 172.59902299844543 0 0 0 0 -479.64661515210082 64.341681331658037 0 64.341681331658037 -37.852418165610288 0 0 0 0 -822.12041600952944 0.28606748965103179 0 0.28606748965103179 151.73272358218674 0 0 0 0 104.4056096402519 244.53648699581026 0 244.53648699581026 167.99947955309835 0 0 0 0 -0.066542431548427511 -7.9962776047707678 0 -7.9962776047707678 10.500216471058366 0 0 0 0 -14.260882194084548 3.413014775428536 0 3.413014775428536 21.274197656253676 0 0 0 0 -43.822667448527994 -12.909202072754852 0 -12.909202072754852 11.378269695342169 0 0 0 0 -128.50770356408975 140.14930649545568 0 140.14930649545568 221.15847532337102 0 0 0 0 104.92809161693768 235.90255091454287 0 235.90255091454287 183.61049900409125 0 0 0 0 -23.374432017289507 -14.948009157160413 0 -14.948009157160413 3.959494678369083 0 0 0 0 -23.442596093365719 -11.810130340140631 0 -11.810130340140631 15.508809818318696 0 0 0 0 -17.907663794584955 -7.954983673032757 0 -7.954983673032757 21.518936874278751 0 0 0 0 -423.93444783592327 82.567610641617648 0 82.567610641617648 50.323183712680475 0 0 0 0 -29.69179946150885 -19.515913874574835 0 -19.515913874574835 14.578150405461201 0 0 0 0 -4.178267683246081 -6.5604596156372352 0 -6.5604596156372352 9.7168761517531834 0 0 0 0 -8.1784752225508193 -7.2352114199692608 0 -7.2352114199692608 -3.3016565995098404 0 0 0 0 107.85686311371592 -123.98794579178502 0 -123.98794579178502 23.227725589691545 0 0 0 0 224.3624001494677 -236.07358231151011 0 -236.07358231151011 234.92706230905605 0 0 0 0 -2.5472884213369547 -2.0592021981888777 0 -2.0592021981888777 -0.37752716703965916 0 0 0 0 -106.54310113421343 -190.13175375218998 0 -190.13175375218998 406.10799182654591 0 0 0 0 -28.545525201374858 -108.10929867145023 0 -108.10929867145023 262.60637336457148 0 0 0 0 111.87859212451622 -144.08832209557295 0 -144.08832209557295 215.42597986583132 0 0 0 0 61.938223405627468 -46.197208336299809 0 -46.197208336299809 198.97128455451457 0 0 0 0 10.057920296960219 -94.001624985394301 0 -94.001624985394301 238.52538646306493 0 0 0 0 30.029049520035187 -114.4522971593542 0 -114.4522971593542 204.73240555560915 0 0 0 0 20.817536333557655 -131.23720253963256 0 -131.23720253963256 212.70036712716683 0 0 0 0 -125.49405158850823 -64.490682570911304 0 -64.490682570911304 125.37217665271601 0 0 0 0 -134.06256810423747 -52.408939303953957 0 -52.408939303953957 214.53402595879743 0 0 0 0 -7.9151247193804011 -100.97136650519678 0 -100.97136650519678 156.28405301820021 0 0 0 0 -11.229385850165272 -25.80666865684907 0 -25.80666865684907 134.82594447496376 0 0 0 0 -66.60338594976929 -116.40130000494537 0 -116.40130000494537 207.28340085537639 0 0 0 0 -24.935351044034178 -66.322919400699902 0 -66.322919400699902 256.77629410245572 0 0 0 0 -4.4014446701839915 -92.432534846739145 0 -92.432534846739145 151.63155071869551 0 0 0 0 -28.348659462466941 -17.293265900068945 0 -17.293265900068945 18.118424404543475 0 0 0 0 -26.713224801374576 -19.245742250522596 0 -19.245742250522596 -4.8497265565234216 0 0 0 0 -79.797608460241463 -101.56717517785728 0 -101.56717517785728 150.87952307747673 0 0 0 0 -16.280769582299598 -3.4851095374417014 0 -3.4851095374417014 11.621032167390979 0 0 0 0 -33.080801637111172 5.2620161902454043 0 5.2620161902454043 39.456061975301793 0 0 0 0 -28.260656275033398 -79.033285977508058 0 -79.033285977508058 127.23223795252852 0 0 0 0 -91.541514345650285 83.022313259411021 0 83.022313259411021 30.455867940370808 0 0 0 0 -203.82039948766396 -12.281640873581637 0 -12.281640873581637 124.84120877543273 0 0 0 0 -262.09418143907533 134.49575643157732 0 134.49575643157732 71.831414934022177 0 0 0 0 -42.222826477827084 35.54601004041433 0 35.54601004041433 53.737383630388649 0 0 0 0 14.956974240607792 -120.64898112707306 0 -120.64898112707306 334.4704194139922 0 0 0 0 9.8482681604718891 -214.0758986437213 0 -214.0758986437213 66.634214462435921 0 0 0 0 -2.3896075978550604 8.2972851501758953 0 8.2972851501758953 15.584892928384676 0 0 0 0 105.15471632073468 -22.158216087613255 0 -22.158216087613255 18.641838371284393 0 0 0 0 -34.534688283772994 -12.181146046397771 0 -12.181146046397771 51.610248585770023 0 0 0 0 -16.426235514354403 13.510826286597876 0 13.510826286597876 33.493925565999234 0 0 0 0 -33.628718602815752 -0.82362152135465294 0 -0.82362152135465294 25.464759759306617 0 0 0 0 -36.364428784315351 20.650026705930941 0 20.650026705930941 31.520885116384306 0 0 0 0 -12.942981569892719 1.7881145940614971 0 1.7881145940614971 32.000870829520721 0 0 0 0 -61.11465671293854 11.579910894524801 0 11.579910894524801 84.494900781384786 0 0 0 0 52.956110198379065 51.5428162580356 0 51.5428162580356 94.550088641699404 0 0 0 0 -27.734375095054475 2.0249084725219291 0 2.0249084725219291 -32.949725124955876 0 0 0 0 -32.75483685779659 15.146116441948834 0 15.146116441948834 -11.581763475347543 0 0 0 0 -2.0184741565485513 -2.1553576789403905 0 -2.1553576789403905 -1.5915771790632505 0 0 0 0 283.9884700788391 408.20776775374088 0 408.20776775374088 138.63658259647491 0 0 0 0 -48.919533544926708 96.325010718865087 0 96.325010718865087 -51.173034102132078 0 0 0 0 -312.95296379322826 -477.44326543142961 0 -477.44326543142961 1208.755890771994 0 0 0 0 59.018755089451929 -399.14913513724332 0 -399.14913513724332 508.62066830620461 0 0 0 0 -43.718075124944335 -29.205929335847031 0 -29.205929335847031 -33.310522189276526 0 0 0 0 -48.241604320825445 -28.544523358621518 0 -28.544523358621518 255.43912166738301 0 0 0 0 -328.76674272890523 83.627329235561774 0 83.627329235561774 793.66546597835259 0 0 0 0 -192.33376270074677 181.26238940112671 0 181.26238940112671 459.48923340652254 0 0 0 0 -250.23030631219899 376.1878320738324 0 376.1878320738324 257.34110171539942 0 0 0 0 -0.22132123299032447 1.8053116195652308 0 1.8053116195652308 10.506365288653228 0 0 0 0 -365.3890525594079 261.52862692571216 0 261.52862692571216 599.86367328658525 0 0 0 0 757.64630396697976 -777.42767621274106 0 -777.42767621274106 806.57991198054515 0 0 0 0 -447.99749983895344 446.54206048628112 0 446.54206048628112 186.70835764327785 0 0 0 0 -458.72783447874207 390.27275163814738 0 390.27275163814738 23.888415215944406 0 0 0 0 352.04636136424233 -896.85436600910907 0 -896.85436600910907 961.16478343512426 0 0 0 0 173.34223865281388 3.8428991818218492 0 3.8428991818218492 426.67893199651371 0 0 0 0 6.1853723749159819 -2.535434010681513 0 -2.535434010681513 2.1196574342640417 0 0 0 0 89.690869062420006 132.68503896862967 0 132.68503896862967 517.78913942187864 0 0 0 0 31.350965457229961 169.25625762711934 0 169.25625762711934 615.62175180585473 0 0 0 0 21.606565871498645 184.91265784304051 0 184.91265784304051 692.45745228705346 0 0 0 0 197.7157367696002 267.01004549588106 0 267.01004549588106 650.1545104464094 0 0 0 0 1.7750496364607187 252.08131973860509 0 252.08131973860509 773.23426909645059 0 0 0 0 269.62912873974864 28.847587332464173 0 28.847587332464173 896.14851970121526 0 0 0 0 190.67045998137684 197.19701513017571 0 197.19701513017571 541.48276856652228 0 0 0 0 2.8431455830909313 -1.2897425526993231 0 -1.2897425526993231 1.8817575082623392 0 0 0 0 -13.803906642926222 -154.85412325696961 0 -154.85412325696961 1274.9694122164947 0 0 0 0 67.169657187229689 -260.03371768233774 0 -260.03371768233774 1411.2908763129963 0 0 0 0 -0.27382616302336582 2.5014317536831925 0 2.5014317536831925 1422.4074746601691 0 0 0 0 249.16749117761805 -125.19711510598427 0 -125.19711510598427 1332.8381325103505 0 0 0 0 0.16142524558846971 -169.34157740594674 0 -169.34157740594674 1327.4209075852268 0 0 0 0 12.38416068480689 -159.65024412291496 0 -159.65024412291496 1331.6314419640112 0 0 0 0 44.050414189024167 -274.81212480477734 0 -274.81212480477734 1402.645966901182 0 0 0 0 45.85264389045858 -309.00590694361017 0 -309.00590694361017 1312.7604495243577 0 0 0 0 158.24867395581668 168.79414892306067 0 168.79414892306067 462.7207615202642 0 0 0 0 204.9102870168237 -116.4206475773226 0 -116.4206475773226 1134.4649094474735 0 0 0 0 84.859635648020003 -361.27677810453315 0 -361.27677810453315 1380.9400753704467 0 0 0 0 232.1103861291391 -238.78949874914179 0 -238.78949874914179 959.31037151170312 0 0 0 0 453.82440237141844 -232.97606926363733 0 -232.97606926363733 1270.9422053480957 0 0 0 0 2.4056145231828259 -0.65577336635953998 0 -0.65577336635953998 1.5907835903842624 0 0 0 0 54.825615352854925 126.22632605242688 0 126.22632605242688 439.40989087520211 0 0 0 0 36.150731367776871 130.28278396929818 0 130.28278396929818 483.62390499035246 0 0 0 0 4.760223098029094 -1.8073432320809104 0 -1.8073432320809104 1.8745531513792457 0 0 0 0 56.149985665963726 173.62458285191678 0 173.62458285191678 577.20232161878084 0 0 0 0 14.157415323297684 95.779651265584107 0 95.779651265584107 648.36932296744635 0 0 0 0 69.054266274239737 -31.224751597204886 0 -31.224751597204886 774.55353697283863 0 0 0 0 28.523368191739564 46.061262622650247 0 46.061262622650247 498.76732030542917 0 0 0 0 60.013020477320708 142.76006422152386 0 142.76006422152386 461.22970139843528 0 0 0 0 29.174641767120562 -16.397340416759107 0 -16.397340416759107 484.5843588795251 0 0 0 0 80.009604438534552 -3.3389703642460518 0 -3.3389703642460518 528.30706882818777 0 0 0 0 3.3758722514253634 -1.8197473789151957 0 -1.8197473789151957 1.6507861337789222 0 0 0 0 100.54591242479 -51.433645828099543 0 -51.433645828099543 590.77672310134221 0 0 0 0 204.37292425993678 -7.7988951114311931 0 -7.7988951114311931 497.01042394297929 0 0 0 0 170.10966834048168 121.16153084456164 0 121.16153084456164 437.90606707274856 0 0 0 0 117.02477685199528 102.63381358225161 0 102.63381358225161 478.68148557709355 0 0 0 0 -12.62969735582692 43.95677823251026 0 43.95677823251026 829.36553293839097 0 0 0 0 157.45128014363218 42.433408822733327 0 42.433408822733327 570.62031238188501 0 0 0 0 0.040964273577156263 -0.034094161051854144 0 -0.034094161051854144 1.2351339424593561 0 0 0 0 168.8679128962608 218.65603836051014 0 218.65603836051014 599.84636821557319 0 0 0 0 72.923258508798867 94.260229602368781 0 94.260229602368781 398.50113559511374 0 0 0 0 5.3762567480051073 -1.7664430301186655 0 -1.7664430301186655 1.6718402328748425 0 0 0 0 53.029375906082095 166.60994968790692 0 166.60994968790692 442.74222083744826 0 0 0 0 16.225973311181576 148.34861608658684 0 148.34861608658684 479.32717054859677 0 0 0 0 57.80396781713398 81.17405978142051 0 81.17405978142051 719.98050766412052 0 0 0 0 132.55178136093633 108.45663415147283 0 108.45663415147283 411.27178602492495 0 0 0 0 2.1585264654802279 -0.36080564768249701 0 -0.36080564768249701 0.97946787551927628 0 0 0 0 71.188676674249336 157.80785675710649 0 157.80785675710649 568.77780390223779 0 0 0 0 48.397639618060452 127.44627383451007 0 127.44627383451007 543.05386382437428 0 0 0 0 131.18398371111607 132.08332902617258 0 132.08332902617258 525.2369425627403 0 0 0 0 53.844096303965216 127.75336444732238 0 127.75336444732238 542.86647051012551 0 0 0 0 140.36583267483837 149.54582918661981 0 149.54582918661981 407.13631224202982 0 0 0 0 126.3954531968152 208.62128968279285 0 208.62128968279285 467.588460835148 0 0 0 0 137.64050224187758 213.86683569674642 0 213.86683569674642 410.75368999608963 0 0 0 0 143.76152675163655 215.58930037563914 0 215.58930037563914 392.30392135621514 0 0 0 0 126.70247261177127 215.38512145780624 0 215.38512145780624 437.26457292136911 0 0 0 0 64.94309350320691 -112.86847242127988 0 -112.86847242127988 269.45175029642996 0 0 0 0 168.45881840776474 226.2894189881772 0 226.2894189881772 53.812722993701755 0 0 0 0 169.82726851217103 163.22732993117825 0 163.22732993117825 243.1455120591163 0 0 0 0 189.48623816145869 -47.182514005384292 0 -47.182514005384292 300.86755171482218 0 0 0 0 167.83235708513075 -63.432825181735097 0 -63.432825181735097 483.22255815625249 0 0 0 0 168.68206333214812 122.52020539827936 0 122.52020539827936 431.86245868557671 0 0 0 0 165.07814249926128 203.50462900143975 0 203.50462900143975 342.56845540879294 0 0 0 0 153.2950030538766 227.60310367593775 0 227.60310367593775 311.59721447140328 0 0 0 0 118.14500232335581 322.82359614901361 0 322.82359614901361 390.47271094418829 0 0 0 0 120.73230930879311 264.4258539011862 0 264.4258539011862 384.23515373677947 0 0 0 0 103.32006679643837 296.35053134783811 0 296.35053134783811 344.24987255507585 0 0 0 0 71.727999186374518 302.13661659320496 0 302.13661659320496 387.66786386185504 0 0 0 0 122.10633980706882 253.05196822738435 0 253.05196822738435 455.68618502073514 0 0 0 0 131.52211539368193 247.67050256628136 0 247.67050256628136 391.29003013497277 0 0 0 0 119.78284277495368 263.4001341235271 0 263.4001341235271 383.1933267631739 0 0 0 0 98.369330512096894 261.75468624613859 0 261.75468624613859 398.97921637145919 0 0 0 0 111.89209230003667 277.80148312326492 0 277.80148312326492 374.44417854511266 0 0 0 0 173.77333092552135 234.30602763374918 0 234.30602763374918 288.50862432249414 0 0 0 0 -3.6220258732316157 -4.5867517163424054 0 -4.5867517163424054 4.7387082072091289 0 0 0 0 206.62156133398298 266.64792747507818 0 266.64792747507818 359.90922459459398 0 0 0 0 208.86074568392257 282.08437787717048 0 282.08437787717048 351.79650638017483 0 0 0 0 -4.1737829696061137 -1.5233030459097563 0 -1.5233030459097563 9.1055071869147355 0 0 0 0 282.51809221869667 339.1710514134611 0 339.1710514134611 417.57922261068597 0 0 0 0 135.09600923734263 255.10762366692143 0 255.10762366692143 549.66429212513322 0 0 0 0 137.50162956148074 255.15847294007108 0 255.15847294007108 526.33519199166039 0 0 0 0 74.176782190395897 226.02322593949066 0 226.02322593949066 694.22112429342815 0 0 0 0 208.52727114800945 344.35483878885498 0 344.35483878885498 630.80989384860732 0 0 0 0 108.32267197105898 210.83652220539807 0 210.83652220539807 591.67164300218064 0 0 0 0 65.310754532766168 167.52134419505092 0 167.52134419505092 553.62370387287228 0 0 0 0 425.57235974210948 639.40205943358887 0 639.40205943358887 894.18093260002024 0 0 0 0 94.135519764567789 332.16603159031729 0 332.16603159031729 837.0924057251832 0 0 0 0 236.77497459866771 338.55313878668312 0 338.55313878668312 551.98103169510432 0 0 0 0 -0.91074650598553442 0.37808232907269712 0 0.37808232907269712 2.8883318841226355 0 0 0 0 0.0017290446454516295 0.70671452057285933 0 0.70671452057285933 4.9308697654778371 0 0 0 0 -0.10907595748476484 1.5058838392069447 0 1.5058838392069447 5.6416841621394269 0 0 0 0 -0.62905649291474963 -1.3266252743560472 0 -1.3266252743560472 5.3884106972545851 0 0 0 0 -3.0706084750330449 -0.52527563116808551 0 -0.52527563116808551 6.3854890237952873 0 0 0 0 296.06437218643521 410.47382785395439 0 410.47382785395439 556.36634654391673 0 0 0 0 2.5603350029550991 0.36347371836745879 0 0.36347371836745879 5.5349982897932932 0 0 0 0 0.48704953792668815 2.5215683645437821 0 2.5215683645437821 9.9036011418356793 0 0 0 0 -0.0032459134263006879 0.63968591937373276 0 0.63968591937373276 6.8944024499942316 0 0 0 0 -0.10219705795029288 5.2946475995122455 0 5.2946475995122455 19.269241963993409 0 0 0 0 0.013571208425712467 0.91732748007780174 0 0.91732748007780174 10.531881933755358 0 0 0 0 -0.97375118818825257 3.6633841476977977 0 3.6633841476977977 17.330842698051129 0 0 0 0 -1.5520610760915288 -11.51685728210748 0 -11.51685728210748 -0.64708749270357657 0 0 0 0 5.6291164178932345 0.5355110844320734 0 0.5355110844320734 4.9894716680419151 0 0 0 0 8.4558564607689135 4.4109815499614342 0 4.4109815499614342 14.365892848305521 0 0 0 0 13.933282769468628 21.603649223732646 0 21.603649223732646 45.78214834901155 0 0 0 0 15.720876407156224 -4.3088848136901561 0 -4.3088848136901561 10.494978882488795 0 0 0 0 9.2134411342897202 9.6382753487705486 0 9.6382753487705486 19.547720897662202 0 0 0 0 -0.0065973768988253868 5.5609816755059001 0 5.5609816755059001 36.572047661058605 0 0 0 0 4.9900938704996793 12.731870030964274 0 12.731870030964274 36.478283479737001 0 0 0 0 5.7423496187105219 5.455659034603741 0 5.455659034603741 45.142668151071121 0 0 0 0 6.1306742848130344 14.791547176420863 0 14.791547176420863 44.554514377057785 0 0 0 0 0.022166706942513995 9.3184087742587653 0 9.3184087742587653 55.160263743571704 0 0 0 0 13.60414517155337 21.777976169832982 0 21.777976169832982 66.531388151175634 0 0 0 0 8.4275617798039519 1.0568689899682795 0 1.0568689899682795 65.526807982852915 0 0 0 0 -0.55303439533714638 18.624949370205286 0 18.624949370205286 82.368688821654359 0 0 0 0 1.4338131518374908 12.393139870553568 0 12.393139870553568 53.859978625216172 0 0 0 0 0.77970251719232486 8.7779652319150046 0 8.7779652319150046 55.26739935360456 0 0 0 0 -1.88819502747298 12.546037515673561 0 12.546037515673561 62.635169520799536 0 0 0 0 1.2194799276041708 27.79886163930496 0 27.79886163930496 101.04824457645009 0 0 0 0 -6.9140607750595304 -11.895601712014468 0 -11.895601712014468 73.994041113721323 0 0 0 0 6.1852695674524476 9.5506309773736575 0 9.5506309773736575 31.326072783806012 0 0 0 0 -0.22476583077401474 16.502519668549212 0 16.502519668549212 45.246153675427195 0 0 0 0 2.4538869321288046 7.6750472826461191 0 7.6750472826461191 63.634563057879859 0 0 0 0 5.8815881935880103 26.717363801530155 0 26.717363801530155 47.474490030024754 0 0 0 0 12.810934553004444 24.937308793490956 0 24.937308793490956 17.987116973774391 0 0 0 0 15.222664646428527 22.168136948923348 0 22.168136948923348 16.667844599418459 0 0 0 0 8.3071078691431257 8.3024459742300678 0 8.3024459742300678 30.183450207194255 0 0 0 0 20.937836568780316 22.880625100893667 0 22.880625100893667 16.355906021446572 0 0 0 0 14.709598579567615 24.118409934475494 0 24.118409934475494 17.777949708150118 0 0 0 0 15.024638161271058 24.684970751255605 0 24.684970751255605 17.747441804327536 0 0 0 0 8.2249128391929851 27.739377673206036 0 27.739377673206036 17.539260425241082 0 0 0 0 -0.041838267523562678 3.3424477256485261 0 3.3424477256485261 -2.3384283286577556 0 0 0 0 17.9097423256677 27.348618606709351 0 27.348618606709351 7.3540437736810418 0 0 0 0 0.014590255360960556 5.3623553310098941 0 5.3623553310098941 -1.4791017135867151 0 0 0 0 -0.038499868167380227 17.053546518043731 0 17.053546518043731 70.551772109498415 0 0 0 0 -12.838593896366216 -12.192668875552044 0 -12.192668875552044 11.591772999076056 0 0 0 0 20.621633619243514 40.546465964755043 0 40.546465964755043 43.220857377258653 0 0 0 0 -0.015843291154085573 0.031989067670217253 0 0.031989067670217253 0.46350608628722512 0 0 0 0 0.88983438695849593 -2.0710830976968708 0 -2.0710830976968708 2.9546833218061579 0 0 0 0 4.911894764387398 -21.996370369561191 0 -21.996370369561191 26.611150337994331 0 0 0 0 39.547659045690537 77.52667973230291 0 77.52667973230291 57.987222566138371 0 0 0 0 -31.298585984597366 5.0019673670758493 0 5.0019673670758493 87.681867715313274 0 0 0 0 -42.197745000137502 40.692307926816284 0 40.692307926816284 11.567019737907685 0 0 0 0 0.27251001742272329 -0.47192337638389148 0 -0.47192337638389148 1.8404592185067941 0 0 0 0 -2.5215871956066329 -0.14658346412159773 0 -0.14658346412159773 25.876166688176625 0 0 0 0 -20.466923281087929 -20.319588867052516 0 -20.319588867052516 34.738488175149541 0 0 0 0 -4.7362099853569921 -3.983677344912735 0 -3.983677344912735 6.5329645789892652 0 0 0 0 -16.907401825999841 5.3158776824493543 0 5.3158776824493543 26.879634480108507 0 0 0 0 26.820976256349809 -0.18263657680290635 0 -0.18263657680290635 -76.313855438231258 0 0 0 0 -56.050903245748202 -24.011663335833873 0 -24.011663335833873 30.171139313286403 0 0 0 0 0.10734504800825562 32.140167848898272 0 32.140167848898272 49.259419382504348 0 0 0 0 -3.1696689653531394 -26.259642909339163 0 -26.259642909339163 31.993771507230122 0 0 0 0 -3.0108159756244244 1.1165141982516573 0 1.1165141982516573 21.013225813165548 0 0 0 0 10.207507910927006 2.8500198927431484 0 2.8500198927431484 1.3987754174777365 0 0 0 0 0.24865438803482931 10.180019697720127 0 10.180019697720127 28.219823351639207 0 0 0 0 16.867206227411351 10.571112385085144 0 10.571112385085144 9.570393984002294 0 0 0 0 12.10556128452529 12.333887740278442 0 12.333887740278442 18.94832429699818 0 0 0 0 33.059281720108245 7.6003941792732803 0 7.6003941792732803 20.015387482038932 0 0 0 0 10.913701895257862 6.4349520571704488 0 6.4349520571704488 -1.8244338074946427 0 0 0 0 -8.2095444760422218 13.04780804568145 0 13.04780804568145 11.454573750794225 0 0 0 0 -7.6123371238281337 -12.014113115401415 0 -12.014113115401415 6.5961591689665511 0 0 0 0 3.9402582859005975 126.62283397780266 0 126.62283397780266 146.34377188007056 0 0 0 0 13.982238948495624 -26.655605188900608 0 -26.655605188900608 27.531623529677745 0 0 0 0 -10.993860703662406 -27.587142678494274 0 -27.587142678494274 13.714501670227037 0 0 0 0 0.033080817659029038 -0.44015896659371379 0 -0.44015896659371379 1.3618403144394051 0 0 0 0 64.133110655195267 36.714182787363825 0 36.714182787363825 41.923294211352186 0 0 0 0 31.002618830638724 -56.133046252107306 0 -56.133046252107306 -5.1748815714236116 0 0 0 0 -6.7825240460415444 1.0814141626542551 0 1.0814141626542551 -8.5177537662602845 0 0 0 0 -1.1644381862101605 0.19416404005565369 0 0.19416404005565369 3.5166114176824834 0 0 0 0 -1.0689993344927871 6.5433823400817346 0 6.5433823400817346 5.7597104814121849 0 0 0 0 3.1476990491667483 10.170288993182311 0 10.170288993182311 13.379077876982976 0 0 0 0 -2.3936074143337929 1.7396834194799382 0 1.7396834194799382 17.097590743149738 0 0 0 0 -19.42874421355117 -19.31199037042461 0 -19.31199037042461 33.562571914866567 0 0 0 0 -16.914484086539801 -18.886401752817619 0 -18.886401752817619 31.17153112826054 0 0 0 0 -14.792476837845015 -28.516087865944428 0 -28.516087865944428 66.998914395808242 0 0 0 0 -154.26151146433301 -21.164490575381933 0 -21.164490575381933 452.74469802121166 0 0 0 0 -64.292903332770948 146.6816859410319 0 146.6816859410319 430.34543985605706 0 0 0 0 -4.0048397178956057 0.22507752264122871 0 0.22507752264122871 16.807933443577667 0 0 0 0 -4.3145620337095352 8.9635337754880311 0 8.9635337754880311 23.155020685546333 0 0 0 0 -6.3601638108852114 3.501976985426154 0 3.501976985426154 24.545423781994032 0 0 0 0 -0.54827740898372213 7.8481054849689826 0 7.8481054849689826 17.80796084474423 0 0 0 0 -2.6922415145922733 4.2755901892653156 0 4.2755901892653156 16.24985919984249 0 0 0 0 44.07212407246368 60.976161068276269 0 60.976161068276269 95.758909569092793 0 0 0 0 50.791506135914915 -0.26402406523993704 0 -0.26402406523993704 -34.655870861399308 0 0 0 0 1.0799943885157894 8.4918352151772183 0 8.4918352151772183 12.633414134043988 0 0 0 0 13.573278837597513 21.580384702683659 0 21.580384702683659 13.913697577816492 0 0 0 0 -0.23182892882925898 2.2289122532383772 0 2.2289122532383772 34.455909369222354 0 0 0 0 -0.40197476467886872 -45.390072527162374 0 -45.390072527162374 100.2151768131007 0 0 0 0 -5.1600074320671041 -1.5822412368793835 0 -1.5822412368793835 13.626349931909147 0 0 0 0 -0.37657156471740294 3.0054721667676176 0 3.0054721667676176 2.1163453159300616 0 0 0 0 56.606743568594084 146.90038287058997 0 146.90038287058997 212.84299462725176 0 0 0 0 -34.775573707767222 -9.6997586818179116 0 -9.6997586818179116 33.255853303617187 0 0 0 0 -60.946193817933533 -16.680422220706532 0 -16.680422220706532 37.316316910582827 0 0 0 0 -53.334251285466451 11.746409207407851 0 11.746409207407851 39.335382165532792 0 0 0 0 -18.255401315520686 17.776411692786496 0 17.776411692786496 35.043626310689433 0 0 0 0 -5.1340328608636048 -2.9742507827870099 0 -2.9742507827870099 11.919393201745038 0 0 0 0 -6.8569412905311466 -22.691473679889896 0 -22.691473679889896 12.539369454614643 0 0 0 0 -20.947150530949557 84.055423761499696 0 84.055423761499696 213.71904813472065 0 0 0 0 -7.099973161406794 -0.87934638580190949 0 -0.87934638580190949 18.4664225239394 0 0 0 0 71.537642309965577 132.36595192116511 0 132.36595192116511 198.21768760112718 0 0 0 0 128.54945449107686 232.83561976638157 0 232.83561976638157 299.41454634751426 0 0 0 0 46.306606560557839 233.76799399458105 0 233.76799399458105 348.01981166244514 0 0 0 0 -4.773528592370246 -2.3226497961551047 0 -2.3226497961551047 11.140073167949424 0 0 0 0 104.61292744617595 187.0951678204874 0 187.0951678204874 271.87760862621508 0 0 0 0 -5.02367314894353 207.53035809568837 0 207.53035809568837 623.37126815626107 0 0 0 0 -12.240734642184634 114.56917171104578 0 114.56917171104578 272.15751805210311 0 0 0 0 2.8968529212381782 191.06313454806514 0 191.06313454806514 417.11721848335583 0 0 0 0 78.178348979436123 290.45285768182475 0 290.45285768182475 408.52244801301276 0 0 0 0 152.12942736073535 421.55972617052976 0 421.55972617052976 535.71789218478079 0 0 0 0 15.681861800487923 285.39976012342595 0 285.39976012342595 470.17079856643977 0 0 0 0 -21.842523528314359 -250.35749923298135 0 -250.35749923298135 985.13232078076544 0 0 0 0 163.53090285312828 625.24637125407025 0 625.24637125407025 1207.6740688482096 0 0 0 0 85.591625824221865 338.7252149024207 0 338.7252149024207 377.53833928306994 0 0 0 0 793.11209466773289 445.68926143801218 0 445.68926143801218 373.53303366570617 0 0 0 0 -158.62044475561061 10.015382574274554 0 10.015382574274554 1173.068836585262 0 0 0 0 -585.71292377535724 875.289156788931 0 875.289156788931 620.40793201077759 0 0 0 0 -177.54414524301774 -973.00807182185235 0 -973.00807182185235 997.39919623464812 0 0 0 0 89.012846414605065 -439.51311016343243 0 -439.51311016343243 25.511346831586025 0 0 0 0 -521.95842520019869 467.17921679941355 0 467.17921679941355 1765.2018675845902 0 0 0 0 -544.15472327022007 -127.84541088227706 0 -127.84541088227706 1974.7213104136026 0 0 0 0 -621.99794010638675 -579.23457087296129 0 -579.23457087296129 278.03996728672064 0 0 0 0 -518.66747256483904 837.03432467214589 0 837.03432467214589 1312.6634189874603 0 0 0 0 -1.9593175823279587 -3.8137197081423153 0 -3.8137197081423153 12.330859889507821 0 0 0 0 -604.27097641045691 -184.84832366394585 0 -184.84832366394585 1111.7797945975035 0 0 0 0 -123.95511438649692 175.58086029913102 0 175.58086029913102 555.51822742375953 0 0 0 0 -249.97692662735983 162.07065761552076 0 162.07065761552076 595.60707198940509 0 0 0 0 -17.860131266950361 -3.3765075817500474 0 -3.3765075817500474 -201.07800710343872 0 0 0 0 3.6921094820670532 -175.34432308129908 0 -175.34432308129908 1155.9942435122503 0 0 0 0 509.54398225755085 949.71394244769908 0 949.71394244769908 893.18626997970568 0 0 0 0 -146.45304279526408 158.47534210485173 0 158.47534210485173 1462.5953276407308 0 0 0 0 93.325431827586954 470.65965116979351 0 470.65965116979351 413.05802325284458 0 0 0 0 -17.030932367144487 604.942329884012 0 604.942329884012 344.48438411395182 0 0 0 0 149.90338523288125 322.44947855072496 0 322.44947855072496 19.689884211577009 0 0 0 0 70.404270189861464 581.83847015562333 0 581.83847015562333 340.20672346802894 0 0 0 0 49.235431460444914 524.29777948712581 0 524.29777948712581 246.52322365903819 0 0 0 0 221.47513776759305 748.99538173000474 0 748.99538173000474 671.5666347683582 0 0 0 0 134.75760797199382 522.96456603072875 0 522.96456603072875 246.41974331964411 0 0 0 0 165.38884127837491 -107.05275571880338 0 -107.05275571880338 699.18270217060603 0 0 0 0 -41.425493613798608 287.78381892469042 0 287.78381892469042 -375.80187055030547 0 0 0 0 -0.9000083864152284 -2.4622186668340191 0 -2.4622186668340191 -1.1385295153626913 0 0 0 0 379.6637616644698 295.31266767311172 0 295.31266767311172 229.40743595264212 0 0 0 0 133.86913369957648 537.88105766223725 0 537.88105766223725 -4.0082512992084958 0 0 0 0 -131.31274401012251 399.95972681566491 0 399.95972681566491 451.67050192585157 0 0 0 0 -40.02475798325122 35.700178593018791 0 35.700178593018791 62.281188609191304 0 0 0 0 -92.094199975302217 91.604912010756379 0 91.604912010756379 -27.104052125436283 0 0 0 0 -7.069141321619469 -1.108093855865576 0 -1.108093855865576 6.5068256048167825 0 0 0 0 8.6863087450711625 15.557473573748808 0 15.557473573748808 20.180106688222111 0 0 0 0 -38.194080341464087 73.05478937762382 0 73.05478937762382 142.58562333339069 0 0 0 0 77.99716982919108 2.3144625723580248 0 2.3144625723580248 99.58748043786909 0 0 0 0 10.366934130376194 -83.974324737697316 0 -83.974324737697316 304.54029666932183 0 0 0 0 4.4031880937266044 5.3450763493118245 0 5.3450763493118245 7.7154194970129879 0 0 0 0 905.60441152259273 360.97661418069583 0 360.97661418069583 123.8466323621542 0 0 0 0 48.122968672492789 -58.354604099724384 0 -58.354604099724384 6.621654277361813 0 0 0 0 91.906946594842339 -109.24827664057011 0 -109.24827664057011 460.38178952925955 0 0 0 0 111.25014130061504 -110.39881997751945 0 -110.39881997751945 334.58494210422214 0 0 0 0 -24.916690861084817 -57.094144464899728 0 -57.094144464899728 834.26826476497808 0 0 0 0 98.783991868941939 -232.39850153898078 0 -232.39850153898078 760.64354258292587 0 0 0 0 60.52287411261193 -194.2883912121697 0 -194.2883912121697 689.70224521678756 0 0 0 0 18.138556058866467 31.624719355348475 0 31.624719355348475 37.143909557138812 0 0 0 0 -78.760182063551383 -136.26081980941308 0 -136.26081980941308 685.92237365515939 0 0 0 0 10.149819998438034 -77.603203717309952 0 -77.603203717309952 492.49725001458137 0 0 0 0 5.070039213575134 7.5657169431963354 0 7.5657169431963354 7.3828829185288214 0 0 0 0 172.23221924162999 -848.8853403918547 0 -848.8853403918547 1165.2986347293554 0 0 0 0 10.738896581138217 9.587172763817307 0 9.587172763817307 11.140057812211268 0 0 0 0 192.21974960080024 579.36761879792175 0 579.36761879792175 28.413768928709032 0 0 0 0 8.144982003412224 222.33165202868986 0 222.33165202868986 -167.68790352324868 0 0 0 0 -300.13796356649254 -24.02428532907652 0 -24.02428532907652 147.12763564290435 0 0 0 0 -106.24097279970738 -73.432899997584173 0 -73.432899997584173 -33.111886246828362 0 0 0 0 -74.308878373329208 19.780954822083004 0 19.780954822083004 193.24184818653157 0 0 0 0 32.839831200775734 361.54991887301003 0 361.54991887301003 402.29170251463074 0 0 0 0 -186.21171132110521 434.20707078852865 0 434.20707078852865 578.37705065723276 0 0 0 0 -65.053126672719372 114.82390373750241 0 114.82390373750241 183.72754430570058 0 0 0 0 -46.620496407082101 -29.179381944588386 0 -29.179381944588386 267.91243492138165 0 0 0 0 -78.944396990729729 115.92240547614347 0 115.92240547614347 420.09361944539705 0 0 0 0 -28.928267234712621 -143.5662147559342 0 -143.5662147559342 435.43561872723512 0 0 0 0 -56.650655149496743 -54.437605734608951 0 -54.437605734608951 227.89530127967009 0 0 0 0 -23.007709135803452 -177.35573597837356 0 -177.35573597837356 226.14687436431996 0 0 0 0 -260.89652205048878 -13.073780839738902 0 -13.073780839738902 838.60047446889803 0 0 0 0 3.074907932465976 -354.18705119585502 0 -354.18705119585502 663.06720263327588 0 0 0 0 -514.17610266005431 -7.1717881047225092 0 -7.1717881047225092 914.64375521650072 0 0 0 0 -174.20147050118067 84.639964829548262 0 84.639964829548262 742.69542739616008 0 0 0 0 -351.21203157553509 266.3943111677072 0 266.3943111677072 1219.4870716185542 0 0 0 0 -344.95013104885584 363.97032290266361 0 363.97032290266361 701.21681492661082 0 0 0 0 -550.86650087018279 630.38146056706319 0 630.38146056706319 949.20675187814049 0 0 0 0 -609.98196166113485 1120.89850935906 0 1120.89850935906 716.27476348433993 0 0 0 0 -313.84102517153224 777.15637001610594 0 777.15637001610594 1039.9574905795889 0 0 0 0 205.60873557865762 1006.0818741608309 0 1006.0818741608309 331.50107525241037 0 0 0 0 -312.31928916631296 828.8195902932348 0 828.8195902932348 536.51207758157398 0 0 0 0 -162.6523234862816 1355.0836335288986 0 1355.0836335288986 48.683327249076683 0 0 0 0 2.8066251491668162 -5.2812713561876024 0 -5.2812713561876024 18.158186194316158 0 0 0 0 -195.4443972845404 21.986615079982585 0 21.986615079982585 58.279015136286034 0 0 0 0 914.04787293542086 -1566.903898379911 0 -1566.903898379911 337.18362361213894 0 0 0 0 436.29563257044663 172.56142885396821 0 172.56142885396821 4.4080076668906258 0 0 0 0 50.811951804027672 187.66899273478339 0 187.66899273478339 978.687942394743 0 0 0 0 7.2359087547075882 1.3951699236097994 0 1.3951699236097994 4.8194585256912603 0 0 0 0 5.367572633489111 -3.7839780912935481 0 -3.7839780912935481 13.319293120191446 0 0 0 0 -83.598978227632188 4.2591838674416067 0 4.2591838674416067 40.867175782288541 0 0 0 0 25.232256297643403 19.236902824828576 0 19.236902824828576 319.11139523714883 0 0 0 0 3.0978946978632393 53.42176312450465 0 53.42176312450465 16.439411358507641 0 0 0 0 -193.53745144108723 734.63910290271451 0 734.63910290271451 377.35321675897285 0 0 0 0 8.826706068210509 7.3435007265832866 0 7.3435007265832866 10.672857754269614 0 0 0 0 3.1190600495831462 -30.993750836119524 0 -30.993750836119524 41.136418170470279 0 0 0 0 93.71287745415475 -13.655484142276691 0 -13.655484142276691 37.878732608864084 0 0 0 0 63.700427514248531 66.373282833068515 0 66.373282833068515 -0.96818784468632657 0 0 0 0 88.153486160985722 -77.010233136825264 0 -77.010233136825264 211.90198046341538 0 0 0 0 167.18866634250475 -122.60834532433364 0 -122.60834532433364 121.51936082754401 0 0 0 0 89.979217446448544 -157.02381008132147 0 -157.02381008132147 215.13296171888942 0 0 0 0 -12.862594686374564 -93.462845892441692 0 -93.462845892441692 205.67752444883808 0 0 0 0 -15.263513129008402 44.290640980674652 0 44.290640980674652 -10.773556997963169 0 0 0 0 -35.45335796019117 220.95194772870309 0 220.95194772870309 232.27872023826058 0 0 0 0 123.02364953144763 389.8799575819794 0 389.8799575819794 408.7900720633188 0 0 0 0 -77.848195046284729 214.04014461443512 0 214.04014461443512 599.18832514340465 0 0 0 0 -113.96329205689619 -4.7242361527096364 0 -4.7242361527096364 522.44068267150578 0 0 0 0 -27.811732733910162 34.168097491063236 0 34.168097491063236 442.60432996995951 0 0 0 0 13.37434860671533 224.31408707171067 0 224.31408707171067 1271.009588669287 0 0 0 0 155.13447419216391 -391.52152992894116 0 -391.52152992894116 635.29125419531192 0 0 0 0 1.3832063514810282 -2.1339699580919245 0 -2.1339699580919245 4.9082308144085971 0 0 0 0 341.00143281752139 462.08606232414604 0 462.08606232414604 1447.6198598005867 0 0 0 0 217.25736534188354 -223.61094319762196 0 -223.61094319762196 76.909830174943636 0 0 0 0 334.6848951076106 159.76170803610512 0 159.76170803610512 1542.2808261224709 0 0 0 0 698.56771274868072 321.86660561224926 0 321.86660561224926 516.83462461046292 0 0 0 0 338.3507038337716 435.0930808615667 0 435.0930808615667 540.00407724379875 0 0 0 0 268.3944206567985 233.85861775454032 0 233.85861775454032 216.54128247848712 0 0 0 0 597.93179729611438 123.88614328799667 0 123.88614328799667 -44.247949144337326 0 0 0 0 -201.11266835729967 -5.1323630555907584 0 -5.1323630555907584 719.50266879484116 0 0 0 0 434.58093878342356 348.28001623073942 0 348.28001623073942 467.62116548071208 0 0 0 0 1.3029897278291538 2.1149933378605681 0 2.1149933378605681 2.4073893775812962 0 0 0 0 65.511045899508517 505.520089186306 0 505.520089186306 951.56557680345577 0 0 0 0 320.40438523012676 652.38321109350363 0 652.38321109350363 594.78136205262854 0 0 0 0 73.079766670802584 476.31932363459055 0 476.31932363459055 825.17741360409491 0 0 0 0 97.817418935587682 -102.37454965926372 0 -102.37454965926372 132.75312234718876 0 0 0 0 166.17292468202456 20.869837324382388 0 20.869837324382388 -82.777730529473047 0 0 0 0 39.17085215579857 2.8317224748643639 0 2.8317224748643639 -43.937468819334754 0 0 0 0 -81.141994497857269 127.60335476323962 0 127.60335476323962 -27.3793244936478 0 0 0 0 -1.4853847325139071 23.03620430321098 0 23.03620430321098 -8.1404405723224045 0 0 0 0 -16.673709476489762 21.659803323178494 0 21.659803323178494 3.3885789349224069 0 0 0 0 18.910716386918395 -11.844634565884917 0 -11.844634565884917 -22.76682232877647 0 0 0 0 319.44297530077591 -54.475170869467547 0 -54.475170869467547 -108.76671076828643 0 0 0 0 1.9176701718313005 3.3522306213133248 0 3.3522306213133248 4.2855371863801679 0 0 0 0 168.46095106156153 -96.954537207864632 0 -96.954537207864632 -42.957881500573421 0 0 0 0 428.55311943796812 139.50638150577288 0 139.50638150577288 -53.127974713934236 0 0 0 0 173.41074665060376 297.50071140134241 0 297.50071140134241 191.73992298718076 0 0 0 0 147.03277661994218 104.96497639330482 0 104.96497639330482 7.6547751265607076 0 0 0 0 135.24529143125841 43.03580842422889 0 43.03580842422889 -25.967918226902839 0 0 0 0 1.0045802223111999 5.5248571559646251 0 5.5248571559646251 -0.17744499447383077 0 0 0 0 37.931313609555446 212.33475476353487 0 212.33475476353487 -185.0350832077238 0 0 0 0 77.969618848400216 103.17841978815704 0 103.17841978815704 -128.12396539154724 0 0 0 0 3.1056173726994181 15.289597490591454 0 15.289597490591454 2.6486181314643886 0 0 0 0 -12.027027556921269 17.814144186544581 0 17.814144186544581 78.287464848544914 0 0 0 0 30.491131491259694 62.111512721792678 0 62.111512721792678 19.208123572607292 0 0 0 0 104.77833176072232 222.91700189123367 0 222.91700189123367 -44.407957669172902 0 0 0 0 -13.247330511746327 115.12411895627156 0 115.12411895627156 50.407628247012326 0 0 0 0 81.999668128532278 131.10580149043381 0 131.10580149043381 -3.9609291493634373 0 0 0 0 -8.5900103996847292 168.45081252310047 0 168.45081252310047 -12.983015143970988 0 0 0 0 48.110818746391146 237.26423721469837 0 237.26423721469837 68.039621775445994 0 0 0 0 184.97526736825239 259.75144728476153 0 259.75144728476153 70.29691606356937 0 0 0 0 -95.40647571095451 -6.7142586157024198 0 -6.7142586157024198 79.01481810194673 0 0 0 0 -89.860570637436922 1.3966544475624687 0 1.3966544475624687 42.529189548673457 0 0 0 0 -37.288802898758718 -69.598447666619904 0 -69.598447666619904 42.344354134780588 0 0 0 0 -11.669699610261986 -0.84087466176441694 0 -0.84087466176441694 22.366540042571955 0 0 0 0 -49.537245723550768 32.738008025749878 0 32.738008025749878 51.809419578523375 0 0 0 0 1.3839515965328832 10.712484783970496 0 10.712484783970496 20.613814357585056 0 0 0 0 -124.7605628633396 108.48370535654249 0 108.48370535654249 142.10513011393778 0 0 0 0 -106.2351425673728 57.605794189570588 0 57.605794189570588 54.701031122873246 0 0 0 0 -82.091098423928997 -47.559188450915826 0 -47.559188450915826 174.28934766977909 0 0 0 0 28.619224527522306 129.96043962112526 0 129.96043962112526 333.91917644099158 0 0 0 0 -50.080241159664638 9.3183456969927647 0 9.3183456969927647 155.23499942976196 0 0 0 0 562.49534705729957 128.05151310253132 0 128.05151310253132 295.61813992886164 0 0 0 0 85.96039791615749 -153.24553786409524 0 -153.24553786409524 236.10806296442206 0 0 0 0 165.33201452155345 98.810579183547816 0 98.810579183547816 344.20775915348713 0 0 0 0 -24.310139523681528 -29.529769586119073 0 -29.529769586119073 97.308920620387653 0 0 0 0 -44.329518115994688 -73.14812093807268 0 -73.14812093807268 103.63141639985952 0 0 0 0 90.628090936132025 -85.80658064313684 0 -85.80658064313684 2.8646967089516693 0 0 0 0 -36.934792757039759 -16.332939390405954 0 -16.332939390405954 -33.536343118910736 0 0 0 0 69.685504961851393 32.163179583156307 0 32.163179583156307 -15.743421033839695 0 0 0 0 8.3954236940378451 14.14177549067972 0 14.14177549067972 -47.74630514853925 0 0 0 0 21.999205797259151 -5.3072275903468835 0 -5.3072275903468835 -33.034643898063223 0 0 0 0 -17.126100823232719 -56.637418653765053 0 -56.637418653765053 -59.609981362744293 0 0 0 0 -12.861118806072117 1.8918782988903615 0 1.8918782988903615 19.39029311582081 0 0 0 0 -14.972457925392519 9.0009095891591642 0 9.0009095891591642 34.901981847942807 0 0 0 0 -7.3086111968686245 3.0864329910712627 0 3.0864329910712627 9.9759083020146306 0 0 0 0 -7.940308266792556 -2.1071669683224172 0 -2.1071669683224172 28.113610572574544 0 0 0 0 -18.371211855670936 -3.3829162877518684 0 -3.3829162877518684 34.029045358089206 0 0 0 0 -30.818038119391076 -56.999800585628691 0 -56.999800585628691 -11.485420238619554 0 0 0 0 -21.110389690521799 -2.6757274604897248 0 -2.6757274604897248 30.241168156935601 0 0 0 0 -11.841333432973929 -7.035553621880652 0 -7.035553621880652 22.116336924682969 0 0 0 0 -68.18087153523652 -117.20394287423642 0 -117.20394287423642 8.8541807245492237 0 0 0 0 51.318214174442005 38.374141024374694 0 38.374141024374694 -18.171494796799379 0 0 0 0 -13.254064200340963 42.05082117983693 0 42.05082117983693 -7.2157022978135501 0 0 0 0 31.190738909793822 -0.63182336629688507 0 -0.63182336629688507 21.201007494149962 0 0 0 0 -3.6462378846456431 -12.756562969760125 0 -12.756562969760125 5.2502025753201451 0 0 0 0 6.4122023492861899 13.61656348976976 0 13.61656348976976 12.916483186214464 0 0 0 0 -0.79030141277114563 -0.7668962872771985 0 -0.7668962872771985 6.4276464712817187 0 0 0 0 -13.730178010605187 6.3947006013258942 0 6.3947006013258942 19.667397051583976 0 0 0 0 -2.6071828003282462 17.2271626865695 0 17.2271626865695 16.223412805305998 0 0 0 0 1.3156101485727731 2.9218473532164353 0 2.9218473532164353 18.122656848048791 0 0 0 0 -5.1730343919696793 0.96624555066843953 0 0.96624555066843953 20.775868900208309 0 0 0 0 -10.001264892521021 7.064653714573069 0 7.064653714573069 35.228149436312378 0 0 0 0 -20.203070520938354 -7.4117247205358581 0 -7.4117247205358581 15.76701559664798 0 0 0 0 15.075013344296508 -1.0721382405808981 0 -1.0721382405808981 19.604954248439753 0 0 0 0 -6.9733506493051003 -5.451440127448052 0 -5.451440127448052 15.731417345477865 0 0 0 0 -4.5961817886265122 1.62492183512407 0 1.62492183512407 9.8975764025589399 0 0 0 0 -3.7105006449307893 2.6740332346817013 0 2.6740332346817013 32.346065204939805 0 0 0 0 -4.3551041043665464 0.77639879021444358 0 0.77639879021444358 15.313107352529187 0 0 0 0 -1.4966129443335241 3.5940506933345517 0 3.5940506933345517 2.5750265981499751 0 0 0 0 -10.294071727019286 3.5824753069055078 0 3.5824753069055078 21.360114208247978 0 0 0 0 -5.0640125065246204 4.4221388950136742 0 4.4221388950136742 17.509881303846726 0 0 0 0 -1.7129524174669513 3.5374281411812376 0 3.5374281411812376 11.825490259281381 0 0 0 0 -1.5766991576156215 2.215841923825792 0 2.215841923825792 8.2372004105272936 0 0 0 0 9.4688939645284336 6.8796749876055401 0 6.8796749876055401 4.0846990491254473 0 0 0 0 -1.2663092109850744 2.7462899356590356 0 2.7462899356590356 5.2579567578214323 0 0 0 0 -2.5653787954749969 1.4499719186147573 0 1.4499719186147573 9.2063610922821795 0 0 0 0 3.6690908223176848 11.667711896385299 0 11.667711896385299 4.341718706447864 0 0 0 0 -0.11393934257171168 -16.633056015263719 0 -16.633056015263719 5.3470296069426695 0 0 0 0 -3.1363896472303168 3.1429938784058322 0 3.1429938784058322 22.314794115285622 0 0 0 0 -2.253335694619504 0.14755502781494556 0 0.14755502781494556 3.4433729879150903 0 0 0 0 -42.401164825482738 44.639424719076487 0 44.639424719076487 28.587711550186214 0 0 0 0 7.4006645715726336 -1.14852515210805 0 -1.14852515210805 18.00332141128456 0 0 0 0 1.9247428135745395 7.3991922147906735 0 7.3991922147906735 13.212085187697085 0 0 0 0 -42.319912390124955 -15.436519191644038 0 -15.436519191644038 29.175538254057756 0 0 0 0 -4.4516426900213446 -16.169014945553499 0 -16.169014945553499 32.029356514452957 0 0 0 0 -4.4893721143512177 -5.4557997128349598 0 -5.4557997128349598 30.942340849345783 0 0 0 0 -10.065475687783874 22.56664985124371 0 22.56664985124371 15.331583501676505 0 0 0 0 -14.598783977487074 5.750004454588634 0 5.750004454588634 33.544313487473119 0 0 0 0 -42.057697412218658 16.488956418652378 0 16.488956418652378 29.853779047851276 0 0 0 0 -12.014334697072627 -4.1179138086445164 0 -4.1179138086445164 -32.043604527094431 0 0 0 0 4.6944968078985312 20.606881719373632 0 20.606881719373632 15.266853909241036 0 0 0 0 -13.119053212046008 -0.80730067197899302 0 -0.80730067197899302 17.589948693392358 0 0 0 0 -2.4279740616564234 8.7827418815992928 0 8.7827418815992928 13.840485963341855 0 0 0 0 -9.6408017684647405 5.7920351092561759 0 5.7920351092561759 7.8592113187769428 0 0 0 0 -29.899757937068898 -41.419945836976694 0 -41.419945836976694 6.0011270982358838 0 0 0 0 -41.224272555308289 35.965088760539402 0 35.965088760539402 44.479257263767067 0 0 0 0 34.781362661343678 34.843867615665658 0 34.843867615665658 -7.7365329532294709 0 0 0 0 -11.923881962829432 -5.0698429332556429 0 -5.0698429332556429 27.460286729461671 0 0 0 0 -1.1688090918508252 -0.74453982055348433 0 -0.74453982055348433 -0.0010639159493308625 0 0 0 0 -1.1747306108081972 0.61738240784782761 0 0.61738240784782761 6.3837227440666169 0 0 0 0 -19.285279775696836 -41.765621044010913 0 -41.765621044010913 1.3964860569394659 0 0 0 0 -15.967244414820016 4.1209219266311266 0 4.1209219266311266 34.939621879333572 0 0 0 0 -14.910353895213575 -37.701963184583292 0 -37.701963184583292 -0.037224719184450805 0 0 0 0 21.272757007372093 -41.388741640519584 0 -41.388741640519584 -1.0846107481484069 0 0 0 0 4.6603297711972118 0.49228827614570037 0 0.49228827614570037 11.488610831198457 0 0 0 0 -6.6188834375425358 -4.3944094333419343 0 -4.3944094333419343 14.966921142531646 0 0 0 0 53.317315547961016 -56.215755448331038 0 -56.215755448331038 64.345259176923719 0 0 0 0 9.8580526952339369 6.0934873749210965 0 6.0934873749210965 17.51118367924937 0 0 0 0 0.084955366705006696 -0.71593413772760073 0 -0.71593413772760073 0.92931980052868557 0 0 0 0 -84.960756568108991 -34.714275176847877 0 -34.714275176847877 94.766946520685451 0 0 0 0 -30.225680120907782 -5.5676414706249489 0 -5.5676414706249489 31.585051137619303 0 0 0 0 -62.987175669954013 -14.727674320034566 0 -14.727674320034566 94.577169433274094 0 0 0 0 -44.843750577515038 57.870759128847567 0 57.870759128847567 -4.1499944345778204 0 0 0 0 -114.74876684133051 68.587461339782749 0 68.587461339782749 133.35236782221546 0 0 0 0 -60.063391726040663 -21.488457918290806 0 -21.488457918290806 107.54574925774068 0 0 0 0 -77.303818333994172 -48.469660358410692 0 -48.469660358410692 193.26643443852663 0 0 0 0 -119.82354928603672 35.306399427288852 0 35.306399427288852 218.01541072259715 0 0 0 0 46.69490590726673 -64.089990992928506 0 -64.089990992928506 242.95989290820415 0 0 0 0 13.454017274048056 47.237503836811811 0 47.237503836811811 242.77795836545579 0 0 0 0 0.10373079546697461 -0.24915980373549473 0 -0.24915980373549473 2.1762242731074934 0 0 0 0 13.816117058795044 55.340845688639092 0 55.340845688639092 137.72598880770965 0 0 0 0 30.220354335564934 -2.297361490142066 0 -2.297361490142066 189.40322779683629 0 0 0 0 -0.5454541439157623 31.391534633061383 0 31.391534633061383 159.07908449246315 0 0 0 0 28.506949155624625 2.9670006130181719 0 2.9670006130181719 196.58754225254961 0 0 0 0 28.398110176187174 33.991954684839584 0 33.991954684839584 140.68759616588068 0 0 0 0 -7.9412168142073369 7.9509110694707488 0 7.9509110694707488 247.8634153137973 0 0 0 0 -5.3532399164813853 -3.5100581516480815 0 -3.5100581516480815 149.27541259286227 0 0 0 0 11.658280236019777 20.543024945203797 0 20.543024945203797 132.93963068284211 0 0 0 0 3.5259435026124741 -0.67499993605434838 0 -0.67499993605434838 0.91940705936904255 0 0 0 0 36.95875924138187 35.826836348824145 0 35.826836348824145 101.33809069560812 0 0 0 0 9.7412137881472063 1.3042583571441355 0 1.3042583571441355 -2.189440276066307 0 0 0 0 -1.277627076546878 9.8676777632790618 0 9.8676777632790618 3.6172817638580455 0 0 0 0 0.05097007636804074 0.058006200432110688 0 0.058006200432110688 0.048436882259522918 0 0 0 0 -3.1208326920809668 -3.549254664376349 0 -3.549254664376349 6.9418671865423676 0 0 0 0 -1.3836519989698131 0.058799028581319135 0 0.058799028581319135 6.6081320022415753 0 0 0 0 -4.0319706791278804 -2.4388200232642703 0 -2.4388200232642703 16.888912774789787 0 0 0 0 -4.3260395418510598 3.1260514956811676 0 3.1260514956811676 16.462128703053168 0 0 0 0 -1.2431000753572334 31.607010002127936 0 31.607010002127936 74.26914568268694 0 0 0 0 -10.949163313548384 6.7184778391156996 0 6.7184778391156996 67.882220884318599 0 0 0 0 -21.195908524250626 30.287600042458507 0 30.287600042458507 79.770230279995303 0 0 0 0 -7.8543168229371076 31.403810911997425 0 31.403810911997425 92.246849855200708 0 0 0 0 -0.68862395922178044 42.685374003936658 0 42.685374003936658 47.656929737533005 0 0 0 0 -4.6138930709604793 21.175653444124407 0 21.175653444124407 22.383891651944708 0 0 0 0 8.1896566359534972 23.307940330712881 0 23.307940330712881 13.185730331080777 0 0 0 0 -6.1875444772444039 19.352012939932234 0 19.352012939932234 54.040772022885079 0 0 0 0 3.0648484397519855 21.906876136993915 0 21.906876136993915 41.838725881849875 0 0 0 0 -3.4360004568719535 13.789629708197403 0 13.789629708197403 6.9684764891732129 0 0 0 0 30.134671380932559 35.455621145898476 0 35.455621145898476 -36.557414742514084 0 0 0 0 1.5602688352515852 15.761308604127265 0 15.761308604127265 20.679259124244986 0 0 0 0 -1.7590312628166629 22.380697271924873 0 22.380697271924873 42.185161975416122 0 0 0 0 0.093476086835153183 1.1591466678146389 0 1.1591466678146389 -73.470620952748504 0 0 0 0 -32.451638026701943 8.9049735211301595 0 8.9049735211301595 5.4360000294982456 0 0 0 0 -27.112533903795338 36.23396657950434 0 36.23396657950434 137.89326017101121 0 0 0 0 -59.369060704037338 -24.241039706230367 0 -24.241039706230367 160.09909718239214 0 0 0 0 -1.597388878416323 13.28098306449019 0 13.28098306449019 42.345447259036462 0 0 0 0 52.946028613884664 98.593105753257987 0 98.593105753257987 8.85194147627044 0 0 0 0 -6.3720120734720309 22.049464055345616 0 22.049464055345616 61.694108701014613 0 0 0 0 26.106737513701773 26.165283428017574 0 26.165283428017574 63.419084905792261 0 0 0 0 -61.104519105157124 74.2859549918212 0 74.2859549918212 53.176334276649868 0 0 0 0 91.13694304039366 73.762507872088463 0 73.762507872088463 -1.9998752495448571 0 0 0 0 -2.8591399125250421 7.9779589787143443 0 7.9779589787143443 2.9642773797985456 0 0 0 0 -8.7035504576899712 10.733907388188527 0 10.733907388188527 44.657907945402258 0 0 0 0 -1.7465529135391762 13.717153622896149 0 13.717153622896149 7.3043248122557998 0 0 0 0 -3.2385459651910944 5.1944829760066682 0 5.1944829760066682 5.599039175792214 0 0 0 0 -7.7140687653702997 9.6292769038191182 0 9.6292769038191182 40.994924940765486 0 0 0 0 -15.78962322723936 21.707101293832238 0 21.707101293832238 -28.23200931064639 0 0 0 0 1.4284302352846932 3.8661280760813739 0 3.8661280760813739 1.2775657223481858 0 0 0 0 12.437079454558216 13.199019012576173 0 13.199019012576173 -2.2345193808068871 0 0 0 0 1.247802505532186 4.5633743505556765 0 4.5633743505556765 -3.3917741666799373 0 0 0 0 -8.0446133998205482 -11.253838132033707 0 -11.253838132033707 136.18775814012042 0 0 0 0 27.293666982005789 -19.86725349893095 0 -19.86725349893095 100.92351093899924 0 0 0 0 -10.765961122686065 8.1507334522466408 0 8.1507334522466408 44.757618305156939 0 0 0 0 -9.1914472989374758 9.0186516377871158 0 9.0186516377871158 45.040838500397513 0 0 0 0 19.670271868264535 -18.203527628240408 0 -18.203527628240408 -9.0551335017953534 0 0 0 0 -4.9392373477203364 -5.2228846505313413 0 -5.2228846505313413 75.474979025195353 0 0 0 0 -53.275312375707472 -50.777074820660346 0 -50.777074820660346 32.915531357837608 0 0 0 0 -12.347518641026697 -4.6665760429876002 0 -4.6665760429876002 27.24211589180112 0 0 0 0 -1.2674952056286202 -1.1864625083544524 0 -1.1864625083544524 55.340721597749507 0 0 0 0 22.419729630076972 17.066852123699391 0 17.066852123699391 41.494190492419875 0 0 0 0 -6.5724245943065398 -2.1874589402723359 0 -2.1874589402723359 69.834400323277805 0 0 0 0 -14.245730010797161 0.96840066981349082 0 0.96840066981349082 73.410719587438507 0 0 0 0 -2.3509408835983372 3.8614265848138984 0 3.8614265848138984 12.962163346286957 0 0 0 0 -58.333800424522451 0.39523931068652018 0 0.39523931068652018 82.59627375958371 0 0 0 0 -20.910455728708257 -19.361404613242485 0 -19.361404613242485 76.26666280032623 0 0 0 0 -16.934514510837289 4.5450151205950533 0 4.5450151205950533 81.324706119801704 0 0 0 0 -15.824978314039981 -3.1884042894089362 0 -3.1884042894089362 74.878865491871693 0 0 0 0 -6.9217455741663798 1.9726924380956916 0 1.9726924380956916 72.123941924764949 0 0 0 0 -11.202293640438256 1.621398319817672 0 1.621398319817672 79.260696331577492 0 0 0 0 -3.3562426756204395 -1.9257040829106415 0 -1.9257040829106415 14.259359475162221 0 0 0 0 -16.419038637909786 -1.5247861871128752 0 -1.5247861871128752 47.490022034162848 0 0 0 0 -1.3423866620822764 -11.085230266381586 0 -11.085230266381586 14.054381054884288 0 0 0 0 7.6162022553689894 3.3759487949719187 0 3.3759487949719187 70.61223997126217 0 0 0 0 -5.6605008610529595 -22.413801773652754 0 -22.413801773652754 12.777081842865101 0 0 0 0 -3.6096039498187693 2.8880449162510615 0 2.8880449162510615 7.640214431322164 0 0 0 0 -15.316311793512796 -4.1343992226466071 0 -4.1343992226466071 50.240114240936236 0 0 0 0 -7.8202417617072193 -9.2028011975227599 0 -9.2028011975227599 40.960197106505973 0 0 0 0 -10.428481278910112 1.3744129754268215 0 1.3744129754268215 50.912143231835216 0 0 0 0 -12.78731661839538 -2.0836508177089854 0 -2.0836508177089854 46.591069032787345 0 0 0 0 -9.675433051126447 8.06361733853646 0 8.06361733853646 50.050219052252942 0 0 0 0 -7.3355851579998088 3.8908301221699588 0 3.8908301221699588 31.195770212889684 0 0 0 0 -17.799379170484372 -1.7513623000304506 0 -1.7513623000304506 43.838033102190821 0 0 0 0 -19.758283771211154 0.65621866320998379 0 0.65621866320998379 51.311017939748126 0 0 0 0 -17.61747130664935 0.34624168125083088 0 0.34624168125083088 46.918960757431705 0 0 0 0 -13.823013223734165 1.2788024993551517 0 1.2788024993551517 35.943465849559288 0 0 0 0 -6.5423516814268199 0.32418744306036196 0 0.32418744306036196 42.042172610813026 0 0 0 0 -13.37568062232361 -11.074871793744791 0 -11.074871793744791 44.791762761811086 0 0 0 0 -0.70129809533008824 5.8806370904165277 0 5.8806370904165277 51.495780903831204 0 0 0 0 -3.3466385535871481 0.96113363311375721 0 0.96113363311375721 36.361552212682739 0 0 0 0 -11.770147279465164 2.3414658633846557 0 2.3414658633846557 36.084146193403285 0 0 0 0 -6.5364187808135936 0.12235162123212717 0 0.12235162123212717 33.910049777797894 0 0 0 0 -16.306963504679857 -6.3292348857239631 0 -6.3292348857239631 33.996734746877337 0 0 0 0 -17.904687495603866 -3.4224093456577975 0 -3.4224093456577975 31.34462793241255 0 0 0 0 -4.9766736431338359 9.9766403745961725 0 9.9766403745961725 47.087734830809495 0 0 0 0 -9.6349810739775421 7.7776490714022657 0 7.7776490714022657 41.060854996962007 0 0 0 0 -18.459975843709799 -0.52578318805899471 0 -0.52578318805899471 33.602796511666384 0 0 0 0 -10.371847342668001 6.0655980961930567 0 6.0655980961930567 39.352153240929738 0 0 0 0 -12.952298981715689 -0.33730067607631042 0 -0.33730067607631042 69.833285275153742 0 0 0 0 -0.9711559829749703 0.014112660295481305 0 0.014112660295481305 72.773855327577024 0 0 0 0 -7.029884289515774 -1.4324002120372086 0 -1.4324002120372086 38.839945577613179 0 0 0 0 -8.3047447024000576 6.8302875850640703 0 6.8302875850640703 41.735525173891801 0 0 0 0 -13.992200778700862 -8.5065606037314865 0 -8.5065606037314865 30.923647464351234 0 0 0 0 -15.929577552240517 -8.030374053036212 0 -8.030374053036212 30.924676559698128 0 0 0 0 -4.1703358597240614 -11.459890829189604 0 -11.459890829189604 34.442461861787024 0 0 0 0 -8.2498709577750056 7.6683164729164659 0 7.6683164729164659 34.072617820401064 0 0 0 0 -9.023693408609688 1.9990968232450541 0 1.9990968232450541 28.861800166334433 0 0 0 0 -4.9436639379900491 -2.5001925612901648 0 -2.5001925612901648 19.933132725489713 0 0 0 0 -8.1515508271299648 -5.7520761389570794 0 -5.7520761389570794 67.125320187000995 0 0 0 0 -11.612502984855908 -10.012037271812886 0 -10.012037271812886 62.824999973521699 0 0 0 0 -15.926490828602255 -2.9997460890153889 0 -2.9997460890153889 41.998872876574751 0 0 0 0 -0.90278163344404705 -8.906656319706137 0 -8.906656319706137 53.730600494472029 0 0 0 0 -3.335750568277847 -26.447349502919941 0 -26.447349502919941 35.358615486759334 0 0 0 0 -29.252035952572442 -4.8315009280195227 0 -4.8315009280195227 39.795642073688214 0 0 0 0 -10.435581259886362 -7.3270274157188808 0 -7.3270274157188808 83.874071738076509 0 0 0 0 -3.886070402448536 -6.6115619490115485 0 -6.6115619490115485 35.015186508457035 0 0 0 0 -2.7071490846994188 4.5929681117830281 0 4.5929681117830281 26.852284862023438 0 0 0 0 -16.185763055858843 0.70584968552429928 0 0.70584968552429928 22.343716801813571 0 0 0 0 -24.88361688634177 -3.6756161626399262 0 -3.6756161626399262 33.606976558003225 0 0 0 0 -26.028818988339481 -5.1196857403811009 0 -5.1196857403811009 37.766737226229452 0 0 0 0 -10.876231742415996 -12.41087583943451 0 -12.41087583943451 74.518593989734484 0 0 0 0 20.30203983687079 10.826437079245807 0 10.826437079245807 39.619443959280034 0 0 0 0 3.193422943855432 -1.1080767584289344 0 -1.1080767584289344 -3.1913516531600266 0 0 0 0 6.4508583834705675 -7.5342671678963349 0 -7.5342671678963349 29.98033055596877 0 0 0 0 -33.454493388890342 -72.051771627530798 0 -72.051771627530798 9.2879945578279148 0 0 0 0 -70.543076162260604 -1.8161835457431152 0 -1.8161835457431152 36.74758798093535 0 0 0 0 -15.336066741339891 11.977380439348053 0 11.977380439348053 61.378018038954906 0 0 0 0 221.31198536840702 11.618043488819239 0 11.618043488819239 -172.18187596114149 0 0 0 0 -15.439073561664827 -51.676213145025031 0 -51.676213145025031 123.22390046677174 0 0 0 0 -3.937069305164604 4.8449729035351581 0 4.8449729035351581 36.412248003390971 0 0 0 0 19.759542119946673 46.729375891678501 0 46.729375891678501 166.95910729121169 0 0 0 0 -2.2114684762011789 5.9573367082179978 0 5.9573367082179978 56.097153954555637 0 0 0 0 102.27573081864102 151.52467043448996 0 151.52467043448996 290.37848550270428 0 0 0 0 -2.7475800875775653 14.927114603848167 0 14.927114603848167 37.593799825089903 0 0 0 0 30.431612567625052 -14.653718888115691 0 -14.653718888115691 1.1490309430082561 0 0 0 0 24.091662311743733 21.134883268386233 0 21.134883268386233 45.381343090710288 0 0 0 0 -8.8758250446759313 -84.497757458443132 0 -84.497757458443132 11.741338035567026 0 0 0 0 2.3596789001915113 4.6557517661931342 0 4.6557517661931342 68.226277332054451 0 0 0 0 -2.7388735010430914 -0.84073365218804952 0 -0.84073365218804952 41.698646142027656 0 0 0 0 -15.124379903729277 -17.39255030239292 0 -17.39255030239292 1.6157139920687769 0 0 0 0 23.804931551758472 21.373705809677062 0 21.373705809677062 61.097637883372954 0 0 0 0 -23.713165755280215 -7.6052343939409184 0 -7.6052343939409184 46.056416098421323 0 0 0 0 -4.5219527043178092 -4.9879787189251115 0 -4.9879787189251115 36.192709149279082 0 0 0 0 27.293738284046185 -3.4170294590767298 0 -3.4170294590767298 19.838575309877342 0 0 0 0 -24.387872513384536 -7.4419729383262165 0 -7.4419729383262165 38.948133430196322 0 0 0 0 -2.7085572696771232 1.6641684742257254 0 1.6641684742257254 44.138270875748248 0 0 0 0 -26.18778478776585 -7.9060456768020231 0 -7.9060456768020231 39.851096353115281 0 0 0 0 -10.766499363716182 -16.956035296765062 0 -16.956035296765062 48.144560662995403 0 0 0 0 -32.863936394312418 -16.312091381881373 0 -16.312091381881373 40.957317019376205 0 0 0 0 -155.02370633123064 87.649715653646126 0 87.649715653646126 311.9980012839369 0 0 0 0 -0.19793814558225242 10.250339600977231 0 10.250339600977231 5.3796422992422706 0 0 0 0 0.25101918667250445 4.3273856819832446 0 4.3273856819832446 38.690647346769822 0 0 0 0 -25.059207362967754 -9.1226908748867572 0 -9.1226908748867572 40.35482649198093 0 0 0 0 20.637130816588979 21.532776658801595 0 21.532776658801595 63.771492964820936 0 0 0 0 -8.35582094484983 0.82870265645995289 0 0.82870265645995289 41.853692321302489 0 0 0 0 -11.47772470226937 17.983192348634475 0 17.983192348634475 8.2908569801365957 0 0 0 0 -1.9193994952624065 -0.53895402734450748 0 -0.53895402734450748 6.6372869989676815 0 0 0 0 -21.110781929814948 1.9909943177008245 0 1.9909943177008245 63.017575094694621 0 0 0 0 19.510538068905589 25.449894684366882 0 25.449894684366882 58.017669042747002 0 0 0 0 -16.115343533938766 -19.762824202319905 0 -19.762824202319905 51.119468426790149 0 0 0 0 -3.0212324690917391 -1.2612590495375073 0 -1.2612590495375073 37.94973719816366 0 0 0 0 2.7945155121597054 -1.7119510394113604 0 -1.7119510394113604 33.189539051818429 0 0 0 0 84.345153397782269 75.41228952613892 0 75.41228952613892 38.890146955222008 0 0 0 0 0.41044857116700051 -1.1298449167511952 0 -1.1298449167511952 1.8635838417062871 0 0 0 0 -28.149311520795891 -2.3320563489942288 0 -2.3320563489942288 45.66167362347187 0 0 0 0 -10.752905750921855 -2.9448821054393193 0 -2.9448821054393193 21.18004646141344 0 0 0 0 -57.156668667603299 88.883650758871227 0 88.883650758871227 66.660019662973355 0 0 0 0 -1.3017998386948193 -1.973965778812186 0 -1.973965778812186 46.055581430064137 0 0 0 0 0.012556169415787632 3.5953170045958913 0 3.5953170045958913 36.855356814422976 0 0 0 0 -11.534932287690822 41.478111193974655 0 41.478111193974655 39.395176902951789 0 0 0 0 -0.1428106366247448 23.038613963653916 0 23.038613963653916 6.5742104568416835 0 0 0 0 -2.9486110728419122 -0.97030718020182505 0 -0.97030718020182505 50.614541545700831 0 0 0 0 -51.300273835189728 -12.463968780706637 0 -12.463968780706637 115.85844476759667 0 0 0 0 35.743743303855808 11.974701385370281 0 11.974701385370281 85.974919852349558 0 0 0 0 -24.48490028006654 -36.315265980527329 0 -36.315265980527329 179.7238954725799 0 0 0 0 -27.550066225487171 -24.632839105193852 0 -24.632839105193852 182.05946128561118 0 0 0 0 -7.1336079750736872 68.088048150669692 0 68.088048150669692 -32.867970861247159 0 0 0 0 1.3238891930202392 0.066129239262195938 0 0.066129239262195938 -0.5439838371134158 0 0 0 0 18.067080337701555 13.653679789358648 0 13.653679789358648 -30.369914271330344 0 0 0 0 -4.721090820025438 48.441975235335121 0 48.441975235335121 136.2409777494031 0 0 0 0 34.273549526303213 -189.35679249890381 0 -189.35679249890381 43.289655802593188 0 0 0 0 -0.91739567181326032 1.9090637494832912 0 1.9090637494832912 68.086715557186608 0 0 0 0 -141.88454286035517 12.268970170786815 0 12.268970170786815 182.42637373303296 0 0 0 0 1.7207433769754061 -0.40943993322434835 0 -0.40943993322434835 42.075882433084189 0 0 0 0 42.758334130424828 7.6935969235128141 0 7.6935969235128141 41.351513370856992 0 0 0 0 1.3878864232177959 -4.4944465203520281 0 -4.4944465203520281 7.2540543382709188 0 0 0 0 -23.443417209318795 -4.6255595723123406 0 -4.6255595723123406 22.512191971716675 0 0 0 0 -19.604856891166492 21.658123319607512 0 21.658123319607512 200.03941127672442 0 0 0 0 192.22430286320014 -47.607008469909488 0 -47.607008469909488 79.862762291115359 0 0 0 0 31.265261769119206 69.288092662001873 0 69.288092662001873 71.905055346411245 0 0 0 0 -23.308460059797653 -90.687408367935859 0 -90.687408367935859 130.40343182405195 0 0 0 0 -213.75190434205979 29.24871715073823 0 29.24871715073823 294.38331598353398 0 0 0 0 -0.13401217372555346 2.034672922438407 0 2.034672922438407 65.933978009032586 0 0 0 0 -40.511256966804467 19.636265157019807 0 19.636265157019807 49.711966255210427 0 0 0 0 197.42822408478514 58.464302155480254 0 58.464302155480254 -213.67972511356493 0 0 0 0 -1.4994055759344278 -4.0787234232782161 0 -4.0787234232782161 62.492639371805978 0 0 0 0 -146.37494114467196 -132.77209895487556 0 -132.77209895487556 255.74061689831433 0 0 0 0 -20.362208382729932 -3.0354608002273267 0 -3.0354608002273267 71.08720601387904 0 0 0 0 36.899613176127787 9.7352969918683812 0 9.7352969918683812 31.919091353061958 0 0 0 0 -4.8728861573836184 -19.867063295212574 0 -19.867063295212574 11.82492832254502 0 0 0 0 16.44391759347775 -14.730223830822069 0 -14.730223830822069 49.793935191264609 0 0 0 0 17.284349980299112 -16.496560834049887 0 -16.496560834049887 52.492490037257085 0 0 0 0 42.852759857154524 -25.706967999241897 0 -25.706967999241897 52.933246517332009 0 0 0 0 48.078882125367727 58.262352412079053 0 58.262352412079053 100.14409603297827 0 0 0 0 0.6410942072264687 -2.5824881304956193 0 -2.5824881304956193 1.6669727515213424 0 0 0 0 2.4575084405822309 -0.83850570355500054 0 -0.83850570355500054 0.47084974154822135 0 0 0 0 62.661722003912587 4.9615233376771357 0 4.9615233376771357 32.790528056691983 0 0 0 0 27.582021939885635 -18.28420771277888 0 -18.28420771277888 120.19379204912912 0 0 0 0 31.18331103270998 -3.1406149896101851 0 -3.1406149896101851 125.96802903905336 0 0 0 0 33.148225938485666 63.599165132407506 0 63.599165132407506 51.610880098651251 0 0 0 0 -52.88851974903605 26.427905280230334 0 26.427905280230334 49.148331917749601 0 0 0 0 101.45549391636314 -3.2615636577174882 0 -3.2615636577174882 61.054244744751486 0 0 0 0 -21.470584156188124 -28.275716007621668 0 -28.275716007621668 165.31899781606626 0 0 0 0 -0.66112905113711129 -1.0873663996071343 0 -1.0873663996071343 -1.6325897125966833 0 0 0 0 -22.300891042785224 -34.352419135764649 0 -34.352419135764649 169.57148447160944 0 0 0 0 -31.220700836478045 50.192856140936783 0 50.192856140936783 37.218488368074759 0 0 0 0 -15.850604488126464 31.925692934528342 0 31.925692934528342 7.5790011200879235 0 0 0 0 -39.131902186260959 4.8547545009168971 0 4.8547545009168971 62.326547059019504 0 0 0 0 1.6220846357224037 0.56574297045858657 0 0.56574297045858657 -0.086935906970239785 0 0 0 0 -33.97067346476797 -4.9100830136885634 0 -4.9100830136885634 113.54836699263979 0 0 0 0 -16.686629914297555 12.845379751961445 0 12.845379751961445 65.016544718298974 0 0 0 0 -6.5913354372037247 -39.42518064527394 0 -39.42518064527394 82.795129923739296 0 0 0 0 -3.8795294220867618 21.199462648874032 0 21.199462648874032 123.84054152179306 0 0 0 0 28.128318966175812 88.433117340959143 0 88.433117340959143 184.85181495899087 0 0 0 0 3.1229532793536237 14.747127839087625 0 14.747127839087625 125.0270633934997 0 0 0 0 -7.6654409915172437 -22.341663879469706 0 -22.341663879469706 171.08190429540991 0 0 0 0 1.3744920270960543 0.10820178476897979 0 0.10820178476897979 -0.53489440067525607 0 0 0 0 -0.57887155816092672 88.124390416909591 0 88.124390416909591 -22.885657814129445 0 0 0 0 22.509141344885165 22.298702106221754 0 22.298702106221754 -34.635974851378705 0 0 0 0 30.229996490249619 18.554517042575753 0 18.554517042575753 65.245475824965979 0 0 0 0 23.68932052148125 7.2653739674642566 0 7.2653739674642566 48.35213058226509 0 0 0 0 43.533444153791095 24.97011510257289 0 24.97011510257289 28.453770994878141 0 0 0 0 1.1689905364362403 59.526676607318223 0 59.526676607318223 72.794095141412981 0 0 0 0 -29.891205396705573 -0.85968855771352537 0 -0.85968855771352537 159.85786219811416 0 0 0 0 -9.1693238438381002 -7.248429513711443 0 -7.248429513711443 56.277540926797258 0 0 0 0 -71.093662234709427 -83.310941109131818 0 -83.310941109131818 31.477093025969225 0 0 0 0 -36.609654379436051 -25.929873616749319 0 -25.929873616749319 37.084375259335502 0 0 0 0 31.377189166383687 -28.795350130734732 0 -28.795350130734732 27.178026063222205 0 0 0 0 1.3536262935996763 1.6262858040959713 0 1.6262858040959713 1.1302314101030788 0 0 0 0 -105.198146009217 35.417658593985834 0 35.417658593985834 18.25921828315461 0 0 0 0 -52.437897951470404 2.7263134112945409 0 2.7263134112945409 18.64136397902621 0 0 0 0 -44.935995676596349 -10.606790871028352 0 -10.606790871028352 42.328459341631969 0 0 0 0 -9.2038986424959148 -56.888344469327421 0 -56.888344469327421 23.302267591345299 0 0 0 0 -4.09624154021457 -2.8118459904956978 0 -2.8118459904956978 10.28901320406527 0 0 0 0 46.960580370833441 34.011143294437716 0 34.011143294437716 51.992280797785497 0 0 0 0 -11.969801612889356 -6.7182564742367816 0 -6.7182564742367816 54.455162476779208 0 0 0 0 -2.7854404458755671 4.0167913848001291 0 4.0167913848001291 29.608662351472248 0 0 0 0 -8.1644520733149193 -4.0888114165572915 0 -4.0888114165572915 33.037505274405703 0 0 0 0 -8.1442294741099204 -8.5944470794784138 0 -8.5944470794784138 34.648382600484183 0 0 0 0 -14.717408946028172 0.10427130442985799 0 0.10427130442985799 41.758074657525867 0 0 0 0 -5.7806667309183508 -5.1745271084254512 0 -5.1745271084254512 31.048251676889834 0 0 0 0 -10.116739409386245 -9.410487139361976 0 -9.410487139361976 16.814687580925298 0 0 0 0 -11.779966278732262 -13.36249471865932 0 -13.36249471865932 48.535866208297989 0 0 0 0 9.438615976000392 1.7001029289531289 0 1.7001029289531289 44.716506380396822 0 0 0 0 5.9096364139093396 14.677967184208683 0 14.677967184208683 88.471790386796783 0 0 0 0 0.53859534115259178 -9.7160417697294008 0 -9.7160417697294008 3.2437031803894101 0 0 0 0 -1.067300954112504 -1.3057800446150623 0 -1.3057800446150623 -0.29161803937493858 0 0 0 0 -57.650041833438536 41.175242777051608 0 41.175242777051608 33.537188004163909 0 0 0 0 -132.83920685974385 -10.753947371347749 0 -10.753947371347749 86.313972459291108 0 0 0 0 -11.986868106774182 -2.1722108489193488 0 -2.1722108489193488 61.071893221904247 0 0 0 0 -8.0179621994093395 4.6270096305233892 0 4.6270096305233892 52.089044796593953 0 0 0 0 -3.7890873693483158 -0.23136123212825055 0 -0.23136123212825055 13.06455356976744 0 0 0 0 -14.72587559850831 -38.393303151056898 0 -38.393303151056898 35.129235559827066 0 0 0 0 -33.077306515420332 -23.783578997972654 0 -23.783578997972654 52.392252850762816 0 0 0 0 -49.29154444842743 -93.588314350527071 0 -93.588314350527071 -52.5273735913579 0 0 0 0 -125.53154043045447 -92.587462343683001 0 -92.587462343683001 87.194481149141211 0 0 0 0 -50.431796956622293 6.2843876257902593 0 6.2843876257902593 88.307355605567864 0 0 0 0 -90.517121509149874 -33.930433667902435 0 -33.930433667902435 125.33244374676724 0 0 0 0 -88.177847324009122 -48.686667000238685 0 -48.686667000238685 48.821901040748344 0 0 0 0 -70.634036267998908 -25.58036126299703 0 -25.58036126299703 69.616476484770828 0 0 0 0 -88.223747035560791 0.88833008089568466 0 0.88833008089568466 30.094850213557947 0 0 0 0 -81.203447583649449 2.6149042239121627 0 2.6149042239121627 29.122205910651246 0 0 0 0 -84.044979915564454 -1.6987611313670641 0 -1.6987611313670641 89.492738630680833 0 0 0 0 -51.493387945971051 -17.846150632343779 0 -17.846150632343779 73.966454298206372 0 0 0 0 -26.185745173022724 -12.62563281095936 0 -12.62563281095936 71.081523240769457 0 0 0 0 0.62424105539826713 -1.4823809274738551 0 -1.4823809274738551 3.0519011764704373 0 0 0 0 166.0113617603586 -87.745019833986589 0 -87.745019833986589 -83.023942737896505 0 0 0 0 12.927732297706143 79.683437886307729 0 79.683437886307729 287.85392686293926 0 0 0 0 91.465755780801146 -183.99712629296118 0 -183.99712629296118 162.60665448053987 0 0 0 0 -0.039230081676591227 70.212932274793275 0 70.212932274793275 261.69001999467582 0 0 0 0 -72.715439902646622 122.01312439297908 0 122.01312439297908 248.38981516050217 0 0 0 0 174.39870659419392 -17.483857903867829 0 -17.483857903867829 256.22145834265393 0 0 0 0 0.10801277040956558 0.029161688578540179 0 0.029161688578540179 -0.01269567140107597 0 0 0 0 -0.99243824461066055 -2.1357269146246836 0 -2.1357269146246836 14.289475537869293 0 0 0 0 0.044426722598956477 -16.39384969908382 0 -16.39384969908382 15.786104763537878 0 0 0 0 304.99330099796771 -81.307309329044074 0 -81.307309329044074 -70.752504715972464 0 0 0 0 12.523074905978556 3.353149548564943 0 3.353149548564943 -8.2444474326039199 0 0 0 0 14.994452902429131 8.538384913779737 0 8.538384913779737 -36.401786092035763 0 0 0 0 -25.377970674956487 0.68964613415300846 0 0.68964613415300846 8.410772587354586 0 0 0 0 -0.30292176813305582 -0.81950076452500298 0 -0.81950076452500298 -1.1328300206112942 0 0 0 0 11.829376272441145 -19.445001539896452 0 -19.445001539896452 1.9689741100883111 0 0 0 0 -0.06311312977494693 -15.99892026648627 0 -15.99892026648627 -4.6350891460024286 0 0 0 0 13.302789787347514 -10.990988970297622 0 -10.990988970297622 -26.830977176556189 0 0 0 0 -0.11055070682844426 -0.069814679637147492 0 -0.069814679637147492 0.093155989202472256 0 0 0 0 -8.2575876144728682 -25.974409036356519 0 -25.974409036356519 -57.032929795532255 0 0 0 0 4.8879136508762713 -81.715924993441149 0 -81.715924993441149 71.10844576969248 0 0 0 0 84.719896176433508 40.007161355802964 0 40.007161355802964 -83.442957943897454 0 0 0 0 101.49348867410825 -65.984442602485615 0 -65.984442602485615 -5.2353233737667324 0 0 0 0 52.667175437647984 -79.993346685936558 0 -79.993346685936558 40.98885169645655 0 0 0 0 35.382072781047782 -120.16587028704089 0 -120.16587028704089 22.707806482409069 0 0 0 0 -49.289670005298831 -143.23514797876123 0 -143.23514797876123 8.6664291087072343 0 0 0 0 -18.719100706756763 -66.154732660252193 0 -66.154732660252193 189.50842329877196 0 0 0 0 -13.608284425250645 -39.679170987204998 0 -39.679170987204998 53.410312651820277 0 0 0 0 0.98441376949488468 -1.6529632897619706 0 -1.6529632897619706 -0.99773893039458983 0 0 0 0 -0.39632029931334894 -0.94667813193035499 0 -0.94667813193035499 -1.4215902824922608 0 0 0 0 -2.0326791332620795 -2.2480130646957548 0 -2.2480130646957548 -2.6268955715898699 0 0 0 0 33.740927749846563 -4.3046796198104857 0 -4.3046796198104857 29.875799187997472 0 0 0 0 13.88776972797433 13.849212873043143 0 13.849212873043143 48.371055960262311 0 0 0 0 -12.604024332035586 -21.612953149815439 0 -21.612953149815439 49.545090277373674 0 0 0 0 14.85455497649194 -3.9559583318477962 0 -3.9559583318477962 -19.644752942913328 0 0 0 0 -11.354387449693494 -32.49386726362718 0 -32.49386726362718 31.807413428701693 0 0 0 0 -1.2696176182863468 -22.506271296821069 0 -22.506271296821069 41.634944118879503 0 0 0 0 -21.613654501650473 -33.909396794504573 0 -33.909396794504573 34.327243617051863 0 0 0 0 -15.385264553629785 -25.089583876080724 0 -25.089583876080724 46.63096336502349 0 0 0 0 3.1492027818308799 -27.558168692848994 0 -27.558168692848994 22.74455165702966 0 0 0 0 6.0826552034405097 -19.094267613065313 0 -19.094267613065313 34.852048350825498 0 0 0 0 16.605601942591392 -11.347453699883772 0 -11.347453699883772 23.171524326884537 0 0 0 0 -0.70001529017967812 -24.150048201074242 0 -24.150048201074242 32.268301729782252 0 0 0 0 -5.7388713611819426 -16.210786638806894 0 -16.210786638806894 33.30503296678944 0 0 0 0 -0.0082105478041188101 -8.58104255696162 0 -8.58104255696162 43.381314539001323 0 0 0 0 -10.029218460241601 -31.421162342783646 0 -31.421162342783646 52.666683062838274 0 0 0 0 -10.598064248511013 9.0214710573600314 0 9.0214710573600314 54.35653678044514 0 0 0 0 -0.020919567743828738 -0.079883644071443882 0 -0.079883644071443882 0.48436981348629615 0 0 0 0 -6.4359522376652194 7.1345786808124103 0 7.1345786808124103 20.652278749643301 0 0 0 0 -0.0036161995386740577 -3.4060360997900716 0 -3.4060360997900716 1.9891028408383136 0 0 0 0 -0.057745738970425516 -0.044096952175262771 0 -0.044096952175262771 0.94980532113942218 0 0 0 0 -40.478254577812713 2.8229901882132253 0 2.8229901882132253 19.38529763778206 0 0 0 0 -12.836413564142294 0.10852638154847227 0 0.10852638154847227 1.1059206635400187 0 0 0 0 0.37400992262686827 -16.910884785058443 0 -16.910884785058443 64.70026015509211 0 0 0 0 18.347740489055894 -31.521543467562879 0 -31.521543467562879 46.883354322140804 0 0 0 0 36.905509087179894 31.032425687517389 0 31.032425687517389 41.562438753040624 0 0 0 0 -0.010306908250669267 -13.539520414764411 0 -13.539520414764411 40.125678024662193 0 0 0 0 -0.88830965336662615 -23.851797013958276 0 -23.851797013958276 -3.3902622872701613 0 0 0 0 11.590613514449682 10.330838312538617 0 10.330838312538617 6.510447033069795 0 0 0 0 -10.767831419400277 23.397839258854219 0 23.397839258854219 10.925753870797053 0 0 0 0 12.577590724238025 15.450806622071468 0 15.450806622071468 31.624281887532561 0 0 0 0 28.174233200548628 26.78273487003753 0 26.78273487003753 17.086335087260522 0 0 0 0 13.210604783680393 11.582276660381467 0 11.582276660381467 34.646287462077453 0 0 0 0 43.901812504277629 -16.067085428300743 0 -16.067085428300743 56.193517314983183 0 0 0 0 3.2186269201978757 17.721405132149812 0 17.721405132149812 91.49827904576523 0 0 0 0 -0.70037536246735432 2.2305658877131691 0 2.2305658877131691 4.1273061777360454 0 0 0 0 13.820115747261525 36.937401188974036 0 36.937401188974036 76.428322465064412 0 0 0 0 -1.7833706037519761 2.8792570815057843 0 2.8792570815057843 58.263343246653676 0 0 0 0 5.35214038142826 16.407278890408634 0 16.407278890408634 26.683803883242945 0 0 0 0 13.989898588571748 36.605025341530563 0 36.605025341530563 46.958639664779184 0 0 0 0 4.6844660384830643 15.042670131937484 0 15.042670131937484 73.00160498583864 0 0 0 0 2.6325129573616977 9.5928976994473487 0 9.5928976994473487 58.78044267903897 0 0 0 0 15.618222219573322 5.5778577111414052 0 5.5778577111414052 29.596581038305885 0 0 0 0 -3.960160280988001 -4.330108071299037 0 -4.330108071299037 32.205214565154165 0 0 0 0 -2.9423841595815503 10.014433888187341 0 10.014433888187341 27.881649325659964 0 0 0 0 2.9255926542866746 0.43307255008403445 0 0.43307255008403445 50.569033153820783 0 0 0 0 3.5091831594438361 5.1451955568190897 0 5.1451955568190897 33.793390238404754 0 0 0 0 14.647326067692745 4.1581053511908976 0 4.1581053511908976 29.688475674935034 0 0 0 0 11.016714747106107 4.9302011675754329 0 4.9302011675754329 23.824444436293561 0 0 0 0 1.9530855841922432 -1.8855007223187101 0 -1.8855007223187101 8.904409746950023 0 0 0 0 -1.9772112991593076 -6.3397210906878172 0 -6.3397210906878172 28.289508119312814 0 0 0 0 3.5804184940623145 1.1523024196649203 0 1.1523024196649203 22.195981639160891 0 0 0 0 0.32780935026552704 9.7152005329598694 0 9.7152005329598694 9.9740952641430454 0 0 0 0 4.1539696076984169 7.843030129491865 0 7.843030129491865 22.737681106165809 0 0 0 0 11.061671031132278 30.414786228837329 0 30.414786228837329 13.151040733268019 0 0 0 0 -0.066229582801412334 9.5246297588782909 0 9.5246297588782909 5.906661248569435 0 0 0 0 -0.03710524044997765 7.915242257867277 0 7.915242257867277 6.9377210551522097 0 0 0 0 -1.5713068098119152 7.6721169217562419 0 7.6721169217562419 25.189663410070352 0 0 0 0 11.718720116309498 9.5324910206909408 0 9.5324910206909408 -0.51784517776104622 0 0 0 0 5.0067454746996782 20.096650862754473 0 20.096650862754473 18.14922936460647 0 0 0 0 5.5865468055756224 31.76964046015928 0 31.76964046015928 -17.397788299844251 0 0 0 0 13.051693141447416 14.620225200938876 0 14.620225200938876 46.596815058874199 0 0 0 0 -0.092112341744018833 0.43045347839898795 0 0.43045347839898795 10.510896159167544 0 0 0 0 -30.267012548203184 70.601329681339848 0 70.601329681339848 130.69757522498548 0 0 0 0 73.779605470128445 28.553240871584421 0 28.553240871584421 -19.607504475221504 0 0 0 0 13.169444578473076 5.1976029737197678 0 5.1976029737197678 -22.935831528338895 0 0 0 0 -19.949831979495684 48.602967410100973 0 48.602967410100973 242.85888389070385 0 0 0 0 1.212750520939522 -1.1022168679353115 0 -1.1022168679353115 0.071186658592921059 0 0 0 0 -5.0580603037124092 -2.0056608505110489 0 -2.0056608505110489 -4.32996673022717 0 0 0 0 -8.1528423843101621 19.700648465950508 0 19.700648465950508 195.29250744117599 0 0 0 0 23.480672686342018 41.036333875694254 0 41.036333875694254 111.05852508192766 0 0 0 0 -9.0797258189139143 -8.0823153354522219 0 -8.0823153354522219 111.26608488088823 0 0 0 0 64.591837821661443 20.961094727150339 0 20.961094727150339 57.017398793497705 0 0 0 0 -23.971086219393896 -50.838476384869864 0 -50.838476384869864 70.049813368546893 0 0 0 0 21.436620991436939 73.432089444744634 0 73.432089444744634 189.21471616021881 0 0 0 0 -32.342403349931828 -4.7928448255261173 0 -4.7928448255261173 49.182031805306906 0 0 0 0 17.091338477549471 -35.540083508734824 0 -35.540083508734824 14.037045645272883 0 0 0 0 -8.2155625121167759 -31.419697020726744 0 -31.419697020726744 85.367919337492367 0 0 0 0 -35.87829548163154 -15.79330579967791 0 -15.79330579967791 87.777826369259856 0 0 0 0 -25.56463008495848 -36.187765585607849 0 -36.187765585607849 77.180708371124638 0 0 0 0 40.568134777172133 -19.303344911222666 0 -19.303344911222666 23.255585718245129 0 0 0 0 -6.4073415586553564 -5.7107665995506238 0 -5.7107665995506238 0.44941588736034532 0 0 0 0 0.0022319051133829482 -0.92917262008521107 0 -0.92917262008521107 3.8375161107268525 0 0 0 0 1.3591843990687658 1.5050234571129408 0 1.5050234571129408 -5.3906935469912298 0 0 0 0 -37.728350783091173 -7.1277717558987206 0 -7.1277717558987206 139.07430029589159 0 0 0 0 7.0598041454795535 22.367221616941606 0 22.367221616941606 29.926986794115038 0 0 0 0 3.1153733751363291 41.943513408157742 0 41.943513408157742 42.326595781094511 0 0 0 0 -10.904275833828867 -5.4408993453437091 0 -5.4408993453437091 52.606215745928466 0 0 0 0 -24.699274370777403 -25.921031807229156 0 -25.921031807229156 67.305746165075107 0 0 0 0 -37.307608522765349 -2.5671274813939817 0 -2.5671274813939817 81.152581449146965 0 0 0 0 -26.836819181487954 62.236570284832851 0 62.236570284832851 56.085366567538586 0 0 0 0 45.808780556988495 -31.494429169285922 0 -31.494429169285922 402.63375238320441 0 0 0 0 150.57959011702894 -9.9818401561561814 0 -9.9818401561561814 289.41013884384301 0 0 0 0 182.30327681033486 149.39237513094895 0 149.39237513094895 -24.037797175658852 0 0 0 0 158.28803700794197 73.842176459693292 0 73.842176459693292 273.49859915701745 0 0 0 0 -170.9805583939501 73.062629059853521 0 73.062629059853521 21.819833836166254 0 0 0 0 2.9892833008752557 9.7684494374061792 0 9.7684494374061792 27.659507073494055 0 0 0 0 101.41933950778548 301.08656929182143 0 301.08656929182143 616.71581367024919 0 0 0 0 -0.46211455828379755 0.74135150361411828 0 0.74135150361411828 2.9785270797679431 0 0 0 0 -23.452660698136242 28.035611117629742 0 28.035611117629742 250.88090858505257 0 0 0 0 88.329664626277008 83.596542711633447 0 83.596542711633447 276.13554814017152 0 0 0 0 22.577553670464113 -21.835773041239008 0 -21.835773041239008 288.81749214492811 0 0 0 0 44.417034339440761 -2.6546390773110033 0 -2.6546390773110033 231.64960140177209 0 0 0 0 30.155756045443923 -10.209352559795661 0 -10.209352559795661 183.42791958062844 0 0 0 0 10.405513395620801 -79.105264890044964 0 -79.105264890044964 262.53394732780362 0 0 0 0 62.106275307353826 -10.856599687064772 0 -10.856599687064772 249.64839274005499 0 0 0 0 78.155515658991476 -55.531003205360776 0 -55.531003205360776 174.53858734743699 0 0 0 0 49.174506086019392 -72.646413403988845 0 -72.646413403988845 157.14614136609089 0 0 0 0 52.839581722531875 -89.707732979814864 0 -89.707732979814864 343.81942775069001 0 0 0 0 16.943406686586059 3.2176514901148039 0 3.2176514901148039 538.46042972003306 0 0 0 0 74.661904218479776 -21.49037814618714 0 -21.49037814618714 293.06536486057576 0 0 0 0 -71.245485857066456 4.8812037834702551 0 4.8812037834702551 543.39783343355521 0 0 0 0 0.60048908333942563 111.65425025550485 0 111.65425025550485 695.01553403904472 0 0 0 0 -42.060251677626184 -101.43127113270771 0 -101.43127113270771 924.94567259762152 0 0 0 0 21.266140349138823 -102.6224302947785 0 -102.6224302947785 837.50701568850855 0 0 0 0 107.26872470285343 -69.032073338694772 0 -69.032073338694772 412.2462504232883 0 0 0 0 116.61582152480241 -315.07973547773054 0 -315.07973547773054 134.22754077486934 0 0 0 0 -148.75337114475042 -147.26725544382407 0 -147.26725544382407 1232.0054323475156 0 0 0 0 -161.89379878832096 -58.037030490819234 0 -58.037030490819234 827.56321923297264 0 0 0 0 704.32489151543086 -292.81496018016242 0 -292.81496018016242 562.74547260197687 0 0 0 0 450.19551850214339 198.27228593845575 0 198.27228593845575 650.58203988468631 0 0 0 0 201.69595407554516 -357.40311794698073 0 -357.40311794698073 1366.8633478956026 0 0 0 0 83.554033459472521 -62.312600109494269 0 -62.312600109494269 712.43454462679802 0 0 0 0 194.16654871200808 427.2540033038099 0 427.2540033038099 944.37960005481523 0 0 0 0 169.35795141099879 80.557948874158683 0 80.557948874158683 261.72924121668802 0 0 0 0 154.83440549040733 -521.1789535396847 0 -521.1789535396847 914.51228172076389 0 0 0 0 1.1518483184188444 3.2198920443468246 0 3.2198920443468246 11.360500255579744 0 0 0 0 208.2210322551357 246.31731693769851 0 246.31731693769851 127.7964108521528 0 0 0 0 -42.861473476336869 110.02245169353523 0 110.02245169353523 616.62671477843242 0 0 0 0 66.81232016933518 -68.91192976212551 0 -68.91192976212551 748.55903074388152 0 0 0 0 159.37142231564394 253.90768771704052 0 253.90768771704052 520.78938417308359 0 0 0 0 -191.19755576467469 24.035885566918296 0 24.035885566918296 602.10808801795054 0 0 0 0 -82.734953238383241 85.049660202263112 0 85.049660202263112 606.65225080113669 0 0 0 0 -6.6235995014785658 166.08403946259205 0 166.08403946259205 274.45189486503887 0 0 0 0 -194.63990717098568 -13.695951480792701 0 -13.695951480792701 150.62252271025545 0 0 0 0 -58.133564284969225 22.949370028835347 0 22.949370028835347 316.01044224488123 0 0 0 0 130.69485996638468 157.24870320538867 0 157.24870320538867 125.45237033836474 0 0 0 0 38.728983691140911 111.69621019467422 0 111.69621019467422 -211.70043075643662 0 0 0 0 -63.164240175723535 267.4551647134349 0 267.4551647134349 -190.21732117472692 0 0 0 0 -43.907368978771046 73.332744876050356 0 73.332744876050356 85.121338785842454 0 0 0 0 1.0430956332018191 1.3327635150124379 0 1.3327635150124379 -1.0840873775533311 0 0 0 0 457.56392087432823 -64.933690165858252 0 -64.933690165858252 -0.019563704417123517 0 0 0 0 -120.95989816190649 -10.439642375533595 0 -10.439642375533595 -72.238953832179959 0 0 0 0 303.02118459030498 117.92829173702694 0 117.92829173702694 210.91233446668775 0 0 0 0 193.51105066933269 -9.3293935066103586 0 -9.3293935066103586 79.509856188997219 0 0 0 0 192.39644451624508 -145.67229546200315 0 -145.67229546200315 63.372188084471418 0 0 0 0 155.84579226409005 85.393334670350214 0 85.393334670350214 -132.06156591918443 0 0 0 0 124.60836865739657 117.99552223156752 0 117.99552223156752 18.084999082182321 0 0 0 0 81.597599947708659 286.16032394226659 0 286.16032394226659 -59.599750393657814 0 0 0 0 156.35235577944968 56.066820753047466 0 56.066820753047466 -324.59544040135552 0 0 0 0 1.7463166999656394 3.4184552614220074 0 3.4184552614220074 0.54994456343502662 0 0 0 0 -1.5993353012149356 1.0375082235123259 0 1.0375082235123259 1.5632991985000924 0 0 0 0 45.750360786854799 62.151066687937146 0 62.151066687937146 60.316137237953626 0 0 0 0 212.35493986049642 32.04601664510119 0 32.04601664510119 -516.4161426638907 0 0 0 0 11.251050648974342 -9.8244095512535523 0 -9.8244095512535523 69.231943611711131 0 0 0 0 29.546225521518863 -43.860397397780048 0 -43.860397397780048 102.37312104243551 0 0 0 0 6.7334688896547199 5.3766895870578804 0 5.3766895870578804 2.5789559382646567 0 0 0 0 170.50482683788027 125.85788358407652 0 125.85788358407652 -122.87738997017186 0 0 0 0 2.9197115740598676 1.5663799466037727 0 1.5663799466037727 0.97249787452863545 0 0 0 0 293.15863687389174 -122.74260050277212 0 -122.74260050277212 -8.4732444971700716 0 0 0 0 338.11396077490281 -10.237962213913818 0 -10.237962213913818 -258.82482648388122 0 0 0 0 185.30505210686533 35.045795439274571 0 35.045795439274571 -70.266884574369215 0 0 0 0 1.6064344735229952 11.280440745665175 0 11.280440745665175 6.77132732994869 0 0 0 0 0.061694730306044221 2.1910660061527665 0 2.1910660061527665 9.1962047698120841 0 0 0 0 -138.38367558712162 37.017295547195317 0 37.017295547195317 -136.58155239122971 0 0 0 0 2.1274503437725443 2.9128398628256846 0 2.9128398628256846 1.6696040146652897 0 0 0 0 4.2425094533176235 5.669156825885783 0 5.669156825885783 4.845201462085619 0 0 0 0 11.819512139651124 -11.846656437316824 0 -11.846656437316824 70.92672376646334 0 0 0 0 -14.973467652490058 -7.1616241153273954 0 -7.1616241153273954 108.40133761971606 0 0 0 0 -17.309641889183808 19.195157008454057 0 19.195157008454057 93.543433985372076 0 0 0 0 -39.104735738390445 5.0504316715309869 0 5.0504316715309869 102.27335605887765 0 0 0 0 -11.083696815953772 -41.117180571614881 0 -41.117180571614881 114.25047181314903 0 0 0 0 -74.963423183014129 -68.2200643539895 0 -68.2200643539895 68.589037905459463 0 0 0 0 64.008214469138693 -3.4982121539177342 0 -3.4982121539177342 81.447211397073147 0 0 0 0 -27.492972815794928 13.759966729523626 0 13.759966729523626 108.60008229837558 0 0 0 0 -125.41752451749926 60.318931809056039 0 60.318931809056039 91.518014129326843 0 0 0 0 -191.33022807083034 -67.124544082280636 0 -67.124544082280636 631.99442607716946 0 0 0 0 230.53815320827744 141.38738991028094 0 141.38738991028094 135.31863685370683 0 0 0 0 275.13203550115213 24.75818854110355 0 24.75818854110355 -0.23724703007519565 0 0 0 0 30.848096794648882 17.369061096254995 0 17.369061096254995 157.37536874429384 0 0 0 0 25.937068187182376 13.270654364524034 0 13.270654364524034 272.38355126898887 0 0 0 0 134.65673880656459 26.345742255762815 0 26.345742255762815 -2.5590285907501311 0 0 0 0 135.75477718291404 15.026633797899649 0 15.026633797899649 79.792436522384833 0 0 0 0 63.375303815586449 -15.702868035613733 0 -15.702868035613733 74.848359595022885 0 0 0 0 115.94957873096064 -71.443282390852573 0 -71.443282390852573 133.94391321391208 0 0 0 0 172.40647328640989 -37.273668664673323 0 -37.273668664673323 20.393349313936938 0 0 0 0 211.68750276889659 -150.2528580381462 0 -150.2528580381462 -182.72480406859992 0 0 0 0 178.81440657087842 -117.49110846555709 0 -117.49110846555709 228.72573196065741 0 0 0 0 120.24357105108083 190.11443832653595 0 190.11443832653595 -161.031907093256 0 0 0 0 53.575795965456564 -42.801870616176075 0 -42.801870616176075 -11.12654945276708 0 0 0 0 -55.037102704547578 177.66112316061441 0 177.66112316061441 -36.157247878406451 0 0 0 0 0.9507125653908588 4.9459087017627397 0 4.9459087017627397 18.084877493496968 0 0 0 0 -199.07759318807348 142.38895170526428 0 142.38895170526428 -11.288387337252061 0 0 0 0 7.7723604061956699 12.632470985100378 0 12.632470985100378 25.408585641493659 0 0 0 0 -33.692525580609072 62.467245897544785 0 62.467245897544785 -93.340218387736968 0 0 0 0 1.2837396071418876 3.3712457225134358 0 3.3712457225134358 3.653949284203021 0 0 0 0 83.157993464600622 39.559282840077458 0 39.559282840077458 -101.00582765698209 0 0 0 0 -264.42355931389284 167.65306044065051 0 167.65306044065051 304.18564983068791 0 0 0 0 -153.16465928411344 80.276859823970881 0 80.276859823970881 37.786832271643789 0 0 0 0 -127.31835182667783 144.51914343587259 0 144.51914343587259 -69.265075646744208 0 0 0 0 -69.68385244768433 4.9396904992931923 0 4.9396904992931923 -10.445546695858866 0 0 0 0 -7.8360911906418664 -1.7548982037161522 0 -1.7548982037161522 -27.526090518458659 0 0 0 0 -2.5978077196468554 -2.4783600342171086 0 -2.4783600342171086 7.0632876250025109 0 0 0 0 -22.008967885211575 155.74910423671895 0 155.74910423671895 145.15243225116137 0 0 0 0 -41.664676019446233 -86.353486308300489 0 -86.353486308300489 187.4147365183926 0 0 0 0 6.3619986405682702 15.150853395434943 0 15.150853395434943 35.369114427227302 0 0 0 0 -89.850876797465389 60.126049374753961 0 60.126049374753961 20.363648556603948 0 0 0 0 -97.894390121095057 39.688809905599555 0 39.688809905599555 86.909260231792359 0 0 0 0 -97.769621705241661 39.797151272534848 0 39.797151272534848 -17.757639883991715 0 0 0 0 -103.42794812025204 -263.0011676182603 0 -263.0011676182603 -364.65535197893041 0 0 0 0 64.3009268743333 -7.5284540356515208 0 -7.5284540356515208 96.113209136412479 0 0 0 0 47.671624924256321 -40.48058489564778 0 -40.48058489564778 172.29981148973093 0 0 0 0 39.492199079230886 -50.478813320118206 0 -50.478813320118206 53.6283315353121 0 0 0 0 49.43539445028 -94.877657316596924 0 -94.877657316596924 33.502444268971885 0 0 0 0 55.136468746257378 27.913635777033051 0 27.913635777033051 -27.899791466285023 0 0 0 0 -37.228834133985401 53.236132391202773 0 53.236132391202773 5.2881316321791019 0 0 0 0 1.5638193392929622 3.2149746739845586 0 3.2149746739845586 5.6348577847796406 0 0 0 0 16.079405351808418 -24.854140412978268 0 -24.854140412978268 -9.5986244692576292 0 0 0 0 37.645352611547423 7.5776648937826394 0 7.5776648937826394 -0.38392213911026829 0 0 0 0 35.159686742304075 3.5963555229100166 0 3.5963555229100166 31.732354244000817 0 0 0 0 77.881984202689182 -14.1657398364041 0 -14.1657398364041 -1.2997151969284459 0 0 0 0 16.82982410491968 31.473163743756231 0 31.473163743756231 -11.77845924754547 0 0 0 0 61.83603683150659 -8.0710642546218878 0 -8.0710642546218878 -3.5473471549157694 0 0 0 0 3.2732359615264137 5.2788498835722635 0 5.2788498835722635 7.9993774772376796 0 0 0 0 43.512456482777452 9.501306868822212 0 9.501306868822212 -38.634012551814521 0 0 0 0 33.207020176364495 6.0020043493732373 0 6.0020043493732373 -3.9530399848117668 0 0 0 0 7.3580435253652468 3.0930763043088518 0 3.0930763043088518 11.05511168259909 0 0 0 0 -12.921083258671047 52.431148275544103 0 52.431148275544103 22.81236344669378 0 0 0 0 62.488064284329084 11.753822831101388 0 11.753822831101388 -20.873149105342236 0 0 0 0 -9.605532230967583 15.669940288355065 0 15.669940288355065 -21.439349851705629 0 0 0 0 -33.154484692367078 39.667409277545175 0 39.667409277545175 53.6915902464998 0 0 0 0 5.5889460353668863 11.172917417329051 0 11.172917417329051 16.42870600752433 0 0 0 0 -26.081334883419828 59.402823529559555 0 59.402823529559555 32.961996174963133 0 0 0 0 -18.853703873966879 -21.189017887158116 0 -21.189017887158116 -42.771861105644348 0 0 0 0 21.957831479384367 -9.5292656949477532 0 -9.5292656949477532 8.4630867017185665 0 0 0 0 44.650346255525619 -18.786262667843403 0 -18.786262667843403 12.177139020201139 0 0 0 0 50.08537931179535 -20.184469718173204 0 -20.184469718173204 9.4250239602970396 0 0 0 0 54.134759402423015 -16.5800834433212 0 -16.5800834433212 2.2144097321797744 0 0 0 0 53.118605755776343 -13.540031813713085 0 -13.540031813713085 -1.0767023416337906 0 0 0 0 45.569869860236395 -14.485370997648715 0 -14.485370997648715 7.728991922194723 0 0 0 0 58.815226280828028 -14.818175739917933 0 -14.818175739917933 -0.925104228105738 0 0 0 0 56.072914301992796 -14.08844405887703 0 -14.08844405887703 3.960224164846295 0 0 0 0 56.544147435199193 -5.0380778470298537 0 -5.0380778470298537 -4.8942124823006452 0 0 0 0 69.545166153286118 -22.114884945183803 0 -22.114884945183803 6.4094600230373544 0 0 0 0 61.795030102751753 -16.530672273513119 0 -16.530672273513119 -2.8135612744772516 0 0 0 0 52.923839561062891 -32.152515436982412 0 -32.152515436982412 0.065717569668777287 0 0 0 0 39.011523051405277 -30.656898268758596 0 -30.656898268758596 -6.4554072768805781 0 0 0 0 44.508543765485001 -20.825484076814973 0 -20.825484076814973 3.1269598349754233 0 0 0 0 48.199045982861207 -22.288115773677418 0 -22.288115773677418 -2.909942916074499 0 0 0 0 44.52626459711928 -24.379342346976046 0 -24.379342346976046 0.48327641086325457 0 0 0 0 44.869415995584859 -22.480176451332227 0 -22.480176451332227 5.9706872167935217 0 0 0 0 21.145107296710648 -34.73135530624495 0 -34.73135530624495 -27.910161712698027 0 0 0 0 9.4476553865174537 -42.101149771384371 0 -42.101149771384371 9.2938309238797956 0 0 0 0 23.542362121814904 -26.166927550677428 0 -26.166927550677428 1.3179721123560739 0 0 0 0 -0.67433851835528369 -0.29404580009573777 0 -0.29404580009573777 -0.69617788180276108 0 0 0 0 -41.805673101398838 5.3997788222304735 0 5.3997788222304735 30.133367103146156 0 0 0 0 -40.308881953211994 -53.298399607573629 0 -53.298399607573629 11.012406882908181 0 0 0 0 -109.44009337962893 -55.811467121853639 0 -55.811467121853639 75.05607442643668 0 0 0 0 9.1632870411943372 -1.1845266994387202 0 -1.1845266994387202 -12.773703895421022 0 0 0 0 16.087002146126963 -17.312260791035442 0 -17.312260791035442 23.207764542077712 0 0 0 0 16.341271787871506 -71.459511139448296 0 -71.459511139448296 60.410594169639808 0 0 0 0 29.935851818583728 -18.333346350524039 0 -18.333346350524039 81.15491543015014 0 0 0 0 2.5172922312350465 -71.109402493468224 0 -71.109402493468224 66.291745153430384 0 0 0 0 -3.367456516772279 -88.71777603802775 0 -88.71777603802775 81.389315442345833 0 0 0 0 42.084802071851641 -26.215216141706151 0 -26.215216141706151 88.126051652729075 0 0 0 0 31.293586039833144 -56.930388105416569 0 -56.930388105416569 131.07765216493408 0 0 0 0 76.421487598307408 -32.839703789112718 0 -32.839703789112718 85.604405981433047 0 0 0 0 50.627917487688137 -18.896714345681175 0 -18.896714345681175 183.53196219997881 0 0 0 0 90.598348576882472 -33.895107046080739 0 -33.895107046080739 70.460525012221865 0 0 0 0 52.121664073594729 -20.500705514576111 0 -20.500705514576111 69.934738572018205 0 0 0 0 72.282567471941888 -37.525419549725029 0 -37.525419549725029 24.785655955332913 0 0 0 0 53.38776349383852 -7.584744287833928 0 -7.584744287833928 17.475053467082034 0 0 0 0 66.594254096325756 -9.2325137984469166 0 -9.2325137984469166 26.052546069178788 0 0 0 0 63.040014129941937 -44.896605080820336 0 -44.896605080820336 37.159141591765547 0 0 0 0 -3.6382775339307045 -3.563653949970103 0 -3.563653949970103 56.188348099876748 0 0 0 0 -1.5572330755897497 16.709310432264374 0 16.709310432264374 66.390073420232511 0 0 0 0 24.639021513931993 1.6757493488744331 0 1.6757493488744331 41.127567908348283 0 0 0 0 -6.9530035803247259 -10.896623714419029 0 -10.896623714419029 22.513909225369687 0 0 0 0 23.739427518115917 -3.5091964171006111 0 -3.5091964171006111 34.281698418406449 0 0 0 0 -125.22468177327301 -72.918265996890113 0 -72.918265996890113 138.09580241811273 0 0 0 0 60.220036880792577 38.677942647291275 0 38.677942647291275 90.337298326063319 0 0 0 0 -9.3110095566178472 -17.429909922095273 0 -17.429909922095273 50.918335938825251 0 0 0 0 52.478686709033127 -11.246292342168999 0 -11.246292342168999 -4.285663893148012 0 0 0 0 -17.772687080859214 -74.604973440126741 0 -74.604973440126741 365.36613558557292 0 0 0 0 56.84484439283915 224.87392949972491 0 224.87392949972491 351.5990761412441 0 0 0 0 -11.063085844631132 -10.162085266318172 0 -10.162085266318172 6.2778507386974525 0 0 0 0 14.75118044357032 39.296464169816318 0 39.296464169816318 -84.878084766141001 0 0 0 0 -9.0792017511116683 -147.39410855847564 0 -147.39410855847564 -8.6240088292874475 0 0 0 0 -4.4842180272165519 -7.6887646591626151 0 -7.6887646591626151 27.77199240409999 0 0 0 0 150.26203404809758 -107.38203757418887 0 -107.38203757418887 9.9918991235826979 0 0 0 0 -4.85105731573017 -3.7405034862415718 0 -3.7405034862415718 11.205681342335559 0 0 0 0 -72.115508082487963 -113.48682495128833 0 -113.48682495128833 156.27531759451085 0 0 0 0 -10.261332887526805 100.06337932279985 0 100.06337932279985 25.773231986062456 0 0 0 0 -43.934538931782072 -170.61557618228107 0 -170.61557618228107 88.143901022926002 0 0 0 0 -21.601380664114345 -126.94728843893608 0 -126.94728843893608 6.8714736687397817 0 0 0 0 -28.274341920677898 -63.777642738462418 0 -63.777642738462418 56.477483784587093 0 0 0 0 -27.135219789705815 -67.671571934259191 0 -67.671571934259191 -58.305606050793358 0 0 0 0 -124.12999809238499 -70.888270124713017 0 -70.888270124713017 74.135405027232991 0 0 0 0 -52.495737642532958 -207.17183333311914 0 -207.17183333311914 -67.94619548087212 0 0 0 0 1.205840646948424 -1.3627450005996451 0 -1.3627450005996451 1.7070174237867519 0 0 0 0 6.3836293295444193 69.384708399257761 0 69.384708399257761 131.82776319885215 0 0 0 0 2.3503031297956252 -3.9835588391239938 0 -3.9835588391239938 5.675121447582697 0 0 0 0 -120.81258899419436 -112.12867733455732 0 -112.12867733455732 -20.762455010479243 0 0 0 0 -2.2016287818992168 8.7392686106468318 0 8.7392686106468318 77.916122858004201 0 0 0 0 8.8785829852831739 -10.449919070621036 0 -10.449919070621036 92.43826468638872 0 0 0 0 -8.2121551906342471 -8.7450097042673107 0 -8.7450097042673107 44.737042036035149 0 0 0 0 -23.884620839562103 10.941425986830836 0 10.941425986830836 95.945191512975725 0 0 0 0 -20.881491869297406 0.56869693996304704 0 0.56869693996304704 96.702598852105439 0 0 0 0 44.100935668845523 -16.052023616543011 0 -16.052023616543011 11.333280240583917 0 0 0 0 -2.0782188161566975 3.4483309620329621 0 3.4483309620329621 29.277738356000896 0 0 0 0 -40.858621468981482 -21.643208614923878 0 -21.643208614923878 130.74914984655697 0 0 0 0 -13.598580689749724 -10.312071591521089 0 -10.312071591521089 86.841233629247654 0 0 0 0 -80.528613699083962 8.018979730686624 0 8.018979730686624 13.597926208436547 0 0 0 0 16.652248528551354 24.001213700912558 0 24.001213700912558 70.291790560704612 0 0 0 0 4.2958816373563158 -6.4637413031919415 0 -6.4637413031919415 8.2274927508597102 0 0 0 0 -0.19997297799632996 -0.38949258619698313 0 -0.38949258619698313 3.5059864034305672 0 0 0 0 -109.13088949982557 -54.988273379663042 0 -54.988273379663042 105.93771926095815 0 0 0 0 -104.31983446591903 -35.904193063293405 0 -35.904193063293405 49.986274757455249 0 0 0 0 -146.73016172179223 25.787578102466796 0 25.787578102466796 114.9305847405667 0 0 0 0 -239.2292156622957 33.974273471424567 0 33.974273471424567 137.38852778233286 0 0 0 0 -153.71707249927161 -5.4155673289006927 0 -5.4155673289006927 155.34043044184 0 0 0 0 -80.370414588692483 9.3471948490769137 0 9.3471948490769137 169.07794537531208 0 0 0 0 -85.49447666775086 -27.015050896260618 0 -27.015050896260618 67.436679287617153 0 0 0 0 -35.033446626540012 -89.161501380383015 0 -89.161501380383015 132.53069548184976 0 0 0 0 -7.2510471218688508 -10.233267637579274 0 -10.233267637579274 160.84704623549624 0 0 0 0 -68.004759069069678 93.913776541941843 0 93.913776541941843 263.96538395571588 0 0 0 0 30.012576243160311 -79.967385017514061 0 -79.967385017514061 224.68186636162864 0 0 0 0 42.160815660987971 31.520647315823908 0 31.520647315823908 293.25757316715681 0 0 0 0 45.350521896081695 100.53487292228513 0 100.53487292228513 449.6098460338435 0 0 0 0 -15.879143847097339 234.53963135099366 0 234.53963135099366 413.63121142635191 0 0 0 0 -197.8438063777412 104.87033727297603 0 104.87033727297603 304.42480096233203 0 0 0 0 -60.667958572076259 108.46713163903223 0 108.46713163903223 259.89118845192934 0 0 0 0 -239.16518846311374 81.11652141839113 0 81.11652141839113 299.53721968247555 0 0 0 0 -56.793770751297984 79.129234903551605 0 79.129234903551605 94.717117705509736 0 0 0 0 -141.05320314281028 -85.758840270308156 0 -85.758840270308156 160.97033007412392 0 0 0 0 -78.650841647076049 -72.190186790466214 0 -72.190186790466214 226.59236687111479 0 0 0 0 -139.96254475712203 88.448988932850625 0 88.448988932850625 11.197217552644361 0 0 0 0 -1.7614449600181832 0.098374728768302333 0 0.098374728768302333 0.0010331128483773711 0 0 0 0 -246.24454734524596 -27.587420004078808 0 -27.587420004078808 248.91727288218317 0 0 0 0 -113.6964848511825 4.725016589374718 0 4.725016589374718 253.23594059454263 0 0 0 0 -103.56599670447122 17.615377007285133 0 17.615377007285133 220.57566200062865 0 0 0 0 -125.4037861013494 13.624486855426767 0 13.624486855426767 246.83532829434989 0 0 0 0 -87.305833500499375 2.7184000891138567 0 2.7184000891138567 234.21889328328689 0 0 0 0 -25.346424901580122 -0.73809398820321803 0 -0.73809398820321803 170.7178250958732 0 0 0 0 2.8367508413782163 34.706784090444017 0 34.706784090444017 93.58228130403765 0 0 0 0 -76.903918310291147 28.134530722731597 0 28.134530722731597 165.25229992217282 0 0 0 0 -4.3243203500970733 -2.5771495163435176 0 -2.5771495163435176 18.424068023314181 0 0 0 0 -42.190444152223108 36.41397035724367 0 36.41397035724367 154.31923199455014 0 0 0 0 -12.896635728461206 -13.927300499730336 0 -13.927300499730336 64.360503089164922 0 0 0 0 41.147128098844405 34.00325415901716 0 34.00325415901716 320.58643187365033 0 0 0 0 33.395549625672857 -1.3791909936317097 0 -1.3791909936317097 255.12676270413522 0 0 0 0 5.8136127904483601 -8.5418617624141007 0 -8.5418617624141007 470.61436301828508 0 0 0 0 43.58449612014374 -26.184688125449611 0 -26.184688125449611 329.53105124413287 0 0 0 0 65.55855895611171 -39.462158588800094 0 -39.462158588800094 194.36956637656658 0 0 0 0 48.91253710674664 -13.2642515405023 0 -13.2642515405023 323.84898129475005 0 0 0 0 79.515833182512154 23.011032212873943 0 23.011032212873943 182.11239225097052 0 0 0 0 46.048975574875271 -41.342968702985672 0 -41.342968702985672 76.601644583186726 0 0 0 0 30.068140163148591 -30.712647071227821 0 -30.712647071227821 165.54346417134548 0 0 0 0 112.7648222261804 47.822762891808452 0 47.822762891808452 207.34804769853326 0 0 0 0 58.875125490277583 -44.728550915368942 0 -44.728550915368942 172.33700283499093 0 0 0 0 40.297834669402903 58.497503747385508 0 58.497503747385508 364.59494262373664 0 0 0 0 101.61857124992935 164.15560796895443 0 164.15560796895443 381.97317816945542 0 0 0 0 59.340610139710229 40.385354415592587 0 40.385354415592587 246.99530829316427 0 0 0 0 112.25543152738251 179.59384451416508 0 179.59384451416508 404.29195281400098 0 0 0 0 233.1468727932338 11.14351631120735 0 11.14351631120735 240.16634812676239 0 0 0 0 539.88485212797787 283.51958414514047 0 283.51958414514047 421.78707463109095 0 0 0 0 225.49925706144609 -40.884520541483653 0 -40.884520541483653 560.40868565870005 0 0 0 0 -88.736467109396244 391.27230857490849 0 391.27230857490849 850.92216305766669 0 0 0 0 -245.15830352433886 101.55322840603822 0 101.55322840603822 594.16241235022062 0 0 0 0 -136.9598400510082 -30.239839860459547 0 -30.239839860459547 706.27623593572207 0 0 0 0 -136.8907692680973 165.6357522756698 0 165.6357522756698 627.35103916845219 0 0 0 0 -256.01596866273621 202.43500583770856 0 202.43500583770856 711.42135838013598 0 0 0 0 86.223110994549643 -14.328014470232119 0 -14.328014470232119 469.47662622956341 0 0 0 0 -123.97693478289534 356.79254249811879 0 356.79254249811879 248.42970276619599 0 0 0 0 50.165865102102771 -60.568881278827575 0 -60.568881278827575 -59.768342589302847 0 0 0 0 -97.754266464701232 218.18645151997816 0 218.18645151997816 -162.06800374815066 0 0 0 0 -82.465738893595244 190.31205269000384 0 190.31205269000384 -415.35902331131274 0 0 0 0 35.127672633215298 -5.7855337102691919 0 -5.7855337102691919 -9.1129506691140705 0 0 0 0 -160.87731267288859 -17.712768765344663 0 -17.712768765344663 -0.63280051121751058 0 0 0 0 1.7463941883254721 9.3318745237129122 0 9.3318745237129122 4.6991525427988048 0 0 0 0 -1.5000035364116959 1.8563829792383828 0 1.8563829792383828 0.34631317772051773 0 0 0 0 -183.59988899499393 257.22194755145847 0 257.22194755145847 164.5172643432179 0 0 0 0 -0.79929273964530889 -0.011618998057215002 0 -0.011618998057215002 -1.6971710077755446 0 0 0 0 -165.98667372284342 229.69292094421553 0 229.69292094421553 152.82883948779818 0 0 0 0 48.45151337571383 53.42629330867203 0 53.42629330867203 -30.406794785815691 0 0 0 0 -18.176935154280443 -121.49333976943672 0 -121.49333976943672 414.43006195033377 0 0 0 0 0.65494694923211916 1.8143249022326202 0 1.8143249022326202 4.3726037931795574 0 0 0 0 556.12330599810036 344.2087322441007 0 344.2087322441007 94.015015035947727 0 0 0 0 96.78188622908101 345.29831126647332 0 345.29831126647332 691.57942267220278 0 0 0 0 114.05397676182929 32.668302301068252 0 32.668302301068252 69.82846660320331 0 0 0 0 -1.2313889600803933 3.8523509333940815 0 3.8523509333940815 0.79812665059099075 0 0 0 0 54.483440812191702 65.999036441194676 0 65.999036441194676 66.300896494166409 0 0 0 0 2.6512947895676149 6.8106055226777915 0 6.8106055226777915 8.1694492509816961 0 0 0 0 7.4434190849185029 43.372141737460424 0 43.372141737460424 -119.74813449766953 0 0 0 0 -10.569690341668775 93.153034312643285 0 93.153034312643285 -29.477735402446342 0 0 0 0 32.453945472095256 31.42198000422286 0 31.42198000422286 -4.8361081851408017 0 0 0 0 3.889538813362833 -13.374429572886584 0 -13.374429572886584 77.317179712916186 0 0 0 0 -28.869246476384319 60.14026701228704 0 60.14026701228704 57.957267589346884 0 0 0 0 -73.890286071021222 86.39650370297295 0 86.39650370297295 1.5675669790161919 0 0 0 0 -26.693447112527135 22.162229671197565 0 22.162229671197565 -30.006083997374787 0 0 0 0 0.13457267970279529 1.8107172694007758 0 1.8107172694007758 3.981617608840665 0 0 0 0 -18.720523999109105 10.499048683673209 0 10.499048683673209 -0.16109745296853362 0 0 0 0 3.0936497639570519 3.3793411478928599 0 3.3793411478928599 2.2283192259787583 0 0 0 0 -14.768554392685701 43.732279229811411 0 43.732279229811411 -50.077723374130073 0 0 0 0 -223.922807387528 181.72322622550723 0 181.72322622550723 -46.451744685038648 0 0 0 0 -130.78711856918835 115.87163503793272 0 115.87163503793272 -0.12801901187049225 0 0 0 0 -5.8713677510831985 12.070583838520179 0 12.070583838520179 -1.4086503582584555 0 0 0 0 -7.2548417523844364 10.020466689610657 0 10.020466689610657 0.57375973761281784 0 0 0 0 1.6653107313842688 4.0649240609124639 0 4.0649240609124639 3.0503775282169698 0 0 0 0 -26.659512921584735 61.561759783824073 0 61.561759783824073 -31.561135888701756 0 0 0 0 1.9043915303998398 4.8051901947993585 0 4.8051901947993585 5.2675150368401518 0 0 0 0 -218.51666339209055 138.85589096312469 0 138.85589096312469 131.50777146288056 0 0 0 0 -33.427452903797587 278.67565691591335 0 278.67565691591335 98.051856914738892 0 0 0 0 -178.58510321554201 221.89259450575264 0 221.89259450575264 86.768533618494985 0 0 0 0 -5.3560506945377586 45.106712035584188 0 45.106712035584188 208.47325730182013 0 0 0 0 -94.753606093651342 84.448891850077416 0 84.448891850077416 159.15200188089875 0 0 0 0 -147.07156891036266 123.88308416279233 0 123.88308416279233 229.99453047473799 0 0 0 0 -114.52805166125108 73.160226947418778 0 73.160226947418778 225.21858970433095 0 0 0 0 -131.1944192266044 83.486095162087622 0 83.486095162087622 269.60465669784389 0 0 0 0 -118.57937271664446 81.188156232377878 0 81.188156232377878 238.91740455180297 0 0 0 0 71.384650926449694 169.04158964162616 0 169.04158964162616 173.8275763136985 0 0 0 0 105.0206769689471 284.45157465290231 0 284.45157465290231 284.1474022801799 0 0 0 0 63.293841912643757 196.55766871636206 0 196.55766871636206 253.8500625087363 0 0 0 0 -79.484456267554265 123.61064161747981 0 123.61064161747981 285.5809138532386 0 0 0 0 -27.062892196573102 117.1002899266623 0 117.1002899266623 238.09178232256454 0 0 0 0 -22.146534910676834 193.84343920020865 0 193.84343920020865 318.51602618608013 0 0 0 0 65.573116839515365 229.95553089692385 0 229.95553089692385 295.06243298583831 0 0 0 0 88.033942869252769 268.05512605512195 0 268.05512605512195 307.65079477529116 0 0 0 0 82.967831488177126 272.09289983054077 0 272.09289983054077 356.74257937843413 0 0 0 0 154.01428733378515 249.63537796702553 0 249.63537796702553 297.77288959673751 0 0 0 0 128.25755412598221 21.43640191635177 0 21.43640191635177 -277.84312174649494 0 0 0 0 -25.416031403519924 42.958740927952817 0 42.958740927952817 42.316157622746687 0 0 0 0 0.08323784578306892 1.0988568771538567 0 1.0988568771538567 -0.67345124198105744 0 0 0 0 27.245351993043641 115.06444397866562 0 115.06444397866562 208.30620777944569 0 0 0 0 -4.2586153347835465 41.136398952151737 0 41.136398952151737 211.52384960423504 0 0 0 0 227.88085986469468 -66.177624435204962 0 -66.177624435204962 85.050161888068942 0 0 0 0 84.822423082325258 123.24118602841554 0 123.24118602841554 107.78221112096981 0 0 0 0 -2.4913395989422238 42.763847061560696 0 42.763847061560696 211.34846180188859 0 0 0 0 -410.10285184393376 279.19567012100742 0 279.19567012100742 263.84252514121181 0 0 0 0 -243.17204529993836 22.21757637578412 0 22.21757637578412 217.49487910235985 0 0 0 0 -225.81711832026258 142.38409726389364 0 142.38409726389364 114.89405029259797 0 0 0 0 -112.29148040202244 -30.495541109245096 0 -30.495541109245096 258.43117723418254 0 0 0 0 -252.69011532890522 127.82972229283041 0 127.82972229283041 388.70733507698606 0 0 0 0 -102.67164379527244 123.31484322396682 0 123.31484322396682 275.02541076103807 0 0 0 0 -54.994931965820044 306.62968900959731 0 306.62968900959731 298.43375345774984 0 0 0 0 -39.551784821189415 -38.638833606959452 0 -38.638833606959452 98.380494506345713 0 0 0 0 -17.613083942894761 -30.609525761991904 0 -30.609525761991904 101.12765583595319 0 0 0 0 -211.2966364405161 48.291134458202578 0 48.291134458202578 209.39075227317517 0 0 0 0 -81.077433638305934 -32.657213652870269 0 -32.657213652870269 194.23646699097571 0 0 0 0 -355.19961768501935 174.10400440500598 0 174.10400440500598 196.59016859960684 0 0 0 0 -119.76405274912617 110.3267356073784 0 110.3267356073784 156.01086894702166 0 0 0 0 -253.91027243506664 125.06882419296016 0 125.06882419296016 210.04261115092231 0 0 0 0 -5.8196076472632479 39.177827508135671 0 39.177827508135671 212.26371987328136 0 0 0 0 78.478711406853904 3.8561423269475199 0 3.8561423269475199 77.959574611111748 0 0 0 0 51.698752802931267 16.053509589188252 0 16.053509589188252 293.67687838629718 0 0 0 0 198.6995907833375 -85.461954083857563 0 -85.461954083857563 196.97413520817372 0 0 0 0 -65.830303945388664 72.013753912287939 0 72.013753912287939 167.273129926205 0 0 0 0 58.527688947635397 -11.281469310348257 0 -11.281469310348257 273.55776324646104 0 0 0 0 77.506280028260164 -64.165694852229535 0 -64.165694852229535 263.00141479452031 0 0 0 0 -269.12632708381403 86.566071885497877 0 86.566071885497877 336.20127843735827 0 0 0 0 -6.5576033539972798 38.535067166284747 0 38.535067166284747 212.01412110941726 0 0 0 0 -67.071738647341817 -21.414771826974174 0 -21.414771826974174 234.01727613535695 0 0 0 0 -80.414390744747237 182.32473112163643 0 182.32473112163643 523.69305731524219 0 0 0 0 6.1314189045788225 -194.03862475531059 0 -194.03862475531059 445.68757244266817 0 0 0 0 -13.711988784141734 -346.05273947601381 0 -346.05273947601381 1151.214732343753 0 0 0 0 230.55441714780059 -74.267764879610695 0 -74.267764879610695 314.85648924553243 0 0 0 0 85.09661425424963 58.871165757685958 0 58.871165757685958 892.52622609483296 0 0 0 0 28.50647895999434 75.668141096030013 0 75.668141096030013 0.75211913728708168 0 0 0 0 0.99982675203643079 2.7711479795682834 0 2.7711479795682834 3.9688113058069519 0 0 0 0 -27.645108337621082 -35.348599761526202 0 -35.348599761526202 159.28426228708304 0 0 0 0 -21.00779895195501 -35.392143873394161 0 -35.392143873394161 214.6591211570103 0 0 0 0 -13.492387082152618 -87.326520592283487 0 -87.326520592283487 153.14506089430506 0 0 0 0 -59.575607577728533 -23.564093272763785 0 -23.564093272763785 128.22402029414297 0 0 0 0 -37.889166112473049 7.2339254709295346 0 7.2339254709295346 32.507666565259569 0 0 0 0 3.8164120702026594 -11.889527566258039 0 -11.889527566258039 -49.937664336132002 0 0 0 0 -20.290819338638357 -87.049299459868053 0 -87.049299459868053 16.282042264680058 0 0 0 0 -53.683706705893883 -60.29855801859776 0 -60.29855801859776 147.06359950211117 0 0 0 0 -46.563501014107771 -7.7812201573938182 0 -7.7812201573938182 -12.792595830080245 0 0 0 0 1.2958976463927803 2.8535591539442926 0 2.8535591539442926 4.0582520693149888 0 0 0 0 -121.25955529069756 74.732141104007951 0 74.732141104007951 12.060530376533279 0 0 0 0 0.33786696358517876 0.01672792324045691 0 0.01672792324045691 -0.34649244146371672 0 0 0 0 -33.805772255390913 28.088689256634098 0 28.088689256634098 41.113032122823824 0 0 0 0 -41.311848156853763 -12.462111576129416 0 -12.462111576129416 166.43909245687792 0 0 0 0 16.964917871118587 1.994145206268513 0 1.994145206268513 61.469922283233416 0 0 0 0 -3.2763938846352971 33.625922269403873 0 33.625922269403873 217.41264080110523 0 0 0 0 32.132551020370101 -52.051838913057509 0 -52.051838913057509 214.27199262377005 0 0 0 0 -12.923659864919216 -42.068916651898689 0 -42.068916651898689 161.86049259897209 0 0 0 0 5.5471183491393958 -46.583193446975201 0 -46.583193446975201 264.51957724735416 0 0 0 0 -20.12773324045645 -26.212239822485571 0 -26.212239822485571 265.47819685610193 0 0 0 0 6.8093858263738412 -6.7788413587568357 0 -6.7788413587568357 254.94537588870799 0 0 0 0 37.484718018814135 -19.921709074024875 0 -19.921709074024875 260.54885443138119 0 0 0 0 -30.375330030584422 -32.006460663127655 0 -32.006460663127655 287.86183464097121 0 0 0 0 3.397772535879426 -11.048386031129667 0 -11.048386031129667 292.77408219104723 0 0 0 0 -22.903306755681186 -13.002359324155805 0 -13.002359324155805 303.42682140574107 0 0 0 0 20.552739129815166 15.419865827200738 0 15.419865827200738 303.41364003958978 0 0 0 0 -37.631748111708021 -4.566172190981888 0 -4.566172190981888 304.37550329927035 0 0 0 0 -17.407959730585276 23.52092282234571 0 23.52092282234571 338.97315096196689 0 0 0 0 -45.781857181777809 -41.395228289528859 0 -41.395228289528859 262.63922028047818 0 0 0 0 -38.277814456780163 -46.60399683228934 0 -46.60399683228934 264.98254859223198 0 0 0 0 -57.696168945022748 -24.560274722528447 0 -24.560274722528447 340.46118997259691 0 0 0 0 -26.758626601042579 -74.842501903525772 0 -74.842501903525772 335.36295511930439 0 0 0 0 -57.510357684281416 -84.160939338748904 0 -84.160939338748904 288.0881058100349 0 0 0 0 -46.62223837334659 -28.466492924362683 0 -28.466492924362683 301.85113724930898 0 0 0 0 -44.051856635055174 -66.04621241482846 0 -66.04621241482846 442.80777005196433 0 0 0 0 -64.361033177101717 69.911719287608321 0 69.911719287608321 442.26088950760641 0 0 0 0 -46.447779186694561 49.67519180367799 0 49.67519180367799 324.6672825329224 0 0 0 0 4.9587894330563813 58.279502680923542 0 58.279502680923542 326.10482362576272 0 0 0 0 -15.222603411184991 -20.918008941569497 0 -20.918008941569497 609.99168663768432 0 0 0 0 10.263667456379608 240.94704177501899 0 240.94704177501899 386.85886393644614 0 0 0 0 0.61258365503313872 3.3160789328857732 0 3.3160789328857732 7.8097754723175044 0 0 0 0 -181.81255979064645 -698.04324305467799 0 -698.04324305467799 757.73582661310616 0 0 0 0 16.297977546826587 132.17185236058322 0 132.17185236058322 34.216130350563617 0 0 0 0 -302.79637956364604 -149.29209673701553 0 -149.29209673701553 988.05516724748759 0 0 0 0 15.677527797841321 313.1823735872058 0 313.1823735872058 522.3800639389874 0 0 0 0 476.07048459378711 11.102525671164585 0 11.102525671164585 139.63809409334135 0 0 0 0 -199.99040905143102 340.47941811523197 0 340.47941811523197 108.66356177484067 0 0 0 0 -239.18978566950136 -93.750866973292432 0 -93.750866973292432 18.614550517453608 0 0 0 0 454.32282083246417 -91.815607508712446 0 -91.815607508712446 255.82330687411377 0 0 0 0 72.156535802935196 80.652669008937664 0 80.652669008937664 181.74190884474774 0 0 0 0 72.436007075365978 -63.693819241940218 0 -63.693819241940218 214.53168304083738 0 0 0 0 62.027013285437533 -39.626816108824642 0 -39.626816108824642 337.96000819565768 0 0 0 0 107.38826337435376 -161.24656151204363 0 -161.24656151204363 542.02064133832755 0 0 0 0 265.65530619351966 271.84771759285888 0 271.84771759285888 178.34924779699577 0 0 0 0 -5.0231910624279408 216.59745112867313 0 216.59745112867313 417.33057373421843 0 0 0 0 -82.633179779506463 137.72321149563732 0 137.72321149563732 356.19949014357962 0 0 0 0 644.48487782550728 326.44911461845004 0 326.44911461845004 179.3544632423459 0 0 0 0 -94.31639137345519 228.13802836109062 0 228.13802836109062 556.22236001761621 0 0 0 0 192.65823462739172 96.499406077204185 0 96.499406077204185 62.74924388990803 0 0 0 0 -119.91277332797199 -555.4039076873396 0 -555.4039076873396 228.47836765589818 0 0 0 0 0.0047749616513965698 0.032929946152504996 0 0.032929946152504996 8.9331115234978142 0 0 0 0 -416.95088621819127 -299.83039721650385 0 -299.83039721650385 276.79110114354808 0 0 0 0 805.20259638270454 473.9583654528642 0 473.9583654528642 243.52959502887916 0 0 0 0 -259.24467751486691 15.386995349814356 0 15.386995349814356 -62.866061841938063 0 0 0 0 103.86513859892648 24.067908851016341 0 24.067908851016341 33.085364350736199 0 0 0 0 -0.40940979187108795 5.4155235511894713 0 5.4155235511894713 21.294888321982896 0 0 0 0 -1085.5324451745028 17.677363051217071 0 17.677363051217071 232.40808289248889 0 0 0 0 -668.77733712274403 355.56279372868266 0 355.56279372868266 277.5515134948655 0 0 0 0 -5.6281097783663405 -3.6708330599108834 0 -3.6708330599108834 4.6280446331951026 0 0 0 0 41.777291367858197 58.338164403006431 0 58.338164403006431 -8.1945878814331081 0 0 0 0 95.496443694113168 75.082799468606254 0 75.082799468606254 65.145243205190127 0 0 0 0 110.87986843094404 62.332134035090348 0 62.332134035090348 60.901785142710651 0 0 0 0 94.958765934175972 69.421575519786529 0 69.421575519786529 80.108559049803262 0 0 0 0 107.51283802162106 73.644456798012925 0 73.644456798012925 38.484227955956158 0 0 0 0 31.953000595931371 50.900041649346349 0 50.900041649346349 33.885201455105289 0 0 0 0 80.442267158759023 71.211518176746154 0 71.211518176746154 -1.8795276895871211 0 0 0 0 100.0725155125383 112.85456581191647 0 112.85456581191647 41.835375758988448 0 0 0 0 64.720353653315897 121.59702740896432 0 121.59702740896432 40.193744514613172 0 0 0 0 142.96297833264089 154.72545349185373 0 154.72545349185373 77.509054853757334 0 0 0 0 96.777597698855971 149.97984201468898 0 149.97984201468898 100.42580155339965 0 0 0 0 22.998210947478128 105.52966099964465 0 105.52966099964465 17.262084553722161 0 0 0 0 39.720228798896642 84.201713601911251 0 84.201713601911251 -1.8970170344064172 0 0 0 0 71.501972022677364 96.348856412497298 0 96.348856412497298 13.439454289871264 0 0 0 0 -8.3752788963556668 63.773842171180149 0 63.773842171180149 15.537222231829674 0 0 0 0 -31.355450931918313 63.862864742685815 0 63.862864742685815 1.4611200209239996 0 0 0 0 33.199854867558315 77.965236961113419 0 77.965236961113419 -2.1809326220154617 0 0 0 0 -0.69690718748345404 5.6459827407467236 0 5.6459827407467236 20.548618262400812 0 0 0 0 -591.99500306134541 488.26651343268895 0 488.26651343268895 93.453246180295537 0 0 0 0 -104.70696351736751 55.788305741600198 0 55.788305741600198 23.524275563046103 0 0 0 0 1.3283316638603411 5.5355853494346832 0 5.5355853494346832 5.1082536916897237 0 0 0 0 -14.689998764454003 4.0713620201387926 0 4.0713620201387926 -16.065907613772652 0 0 0 0 -444.18162579693035 474.99090300876196 0 474.99090300876196 -172.08075643072061 0 0 0 0 -359.76975024829153 201.41320246589748 0 201.41320246589748 -380.80565221652432 0 0 0 0 -58.969638980153832 85.761102693707926 0 85.761102693707926 -23.966335979350333 0 0 0 0 -6.2525615684038485 44.488398062516239 0 44.488398062516239 -14.286661185384219 0 0 0 0 -41.391875707719009 71.603459531816952 0 71.603459531816952 -52.149377583910791 0 0 0 0 -39.22239075311154 63.222479619505066 0 63.222479619505066 -30.225194445681154 0 0 0 0 -58.935040303376013 83.204123167652526 0 83.204123167652526 6.3940196835173992 0 0 0 0 -38.033884005325774 87.257103642797432 0 87.257103642797432 -5.7292926558475301 0 0 0 0 42.453879315155064 107.45800713978724 0 107.45800713978724 -50.418769817288194 0 0 0 0 22.205648045395719 103.83488903983516 0 103.83488903983516 -15.528573534107636 0 0 0 0 345.47849328187345 -136.8709864094493 0 -136.8709864094493 8.7538664125640935 0 0 0 0 -54.153799929245906 -53.769832208317894 0 -53.769832208317894 87.741931667886092 0 0 0 0 -54.788343603611793 -12.43818479060792 0 -12.43818479060792 -44.397549093841008 0 0 0 0 -51.134050399504986 -4.1183683833442046 0 -4.1183683833442046 186.75056415440486 0 0 0 0 0.35498506727275991 0.66101872865902145 0 0.66101872865902145 1.781272940109389 0 0 0 0 -50.750523434559909 43.629630340628864 0 43.629630340628864 171.88913748235063 0 0 0 0 386.77530117467836 157.34391769177182 0 157.34391769177182 -98.078680909318791 0 0 0 0 49.175229188295816 291.93152406320405 0 291.93152406320405 254.72789303009085 0 0 0 0 -56.110304632068619 106.34871370534347 0 106.34871370534347 -63.699130321474513 0 0 0 0 -364.41461655967532 172.40590145946362 0 172.40590145946362 -41.083794598234817 0 0 0 0 -458.23810518494884 470.41376055744513 0 470.41376055744513 -12.560003993327314 0 0 0 0 -356.79277633260062 257.09877256264554 0 257.09877256264554 96.309592731025077 0 0 0 0 -66.605874395610954 125.10897348826256 0 125.10897348826256 37.756701064223307 0 0 0 0 -42.240323067825557 223.53064504179747 0 223.53064504179747 -48.087584959088417 0 0 0 0 -186.15938108728761 55.301016524974784 0 55.301016524974784 -40.872315530887136 0 0 0 0 -197.96825945971796 292.12249354323285 0 292.12249354323285 -37.103943086826121 0 0 0 0 -645.58249139093255 -34.001663178260856 0 -34.001663178260856 -205.33855672672507 0 0 0 0 -34.076972899199973 148.79493668526084 0 148.79493668526084 -221.62383162993501 0 0 0 0 76.663122606714296 122.0264701887354 0 122.0264701887354 -56.360870703972978 0 0 0 0 -15.601793681316849 8.9511205485123355 0 8.9511205485123355 93.870261335141549 0 0 0 0 35.400228698275896 37.62171701288753 0 37.62171701288753 -74.152204731755774 0 0 0 0 107.41344384652257 -24.782978600106617 0 -24.782978600106617 -71.007164585284045 0 0 0 0 -50.527223546767345 20.655698446176757 0 20.655698446176757 -0.82447764213975461 0 0 0 0 -84.670129748743193 137.50092328294795 0 137.50092328294795 -83.806156429585826 0 0 0 0 -173.84637598127983 87.9228054033224 0 87.9228054033224 -50.813117295312622 0 0 0 0 -280.73361856417068 202.24900535260531 0 202.24900535260531 -57.714423468969471 0 0 0 0 -123.70724365372399 141.25945693278959 0 141.25945693278959 -104.51197076390235 0 0 0 0 -51.095387681219563 144.35119841539199 0 144.35119841539199 -114.67827855267296 0 0 0 0 -39.410360870243494 -33.531855818461736 0 -33.531855818461736 22.978104110538425 0 0 0 0 -10.336604557844566 72.779644468620745 0 72.779644468620745 -2.8467189590028283 0 0 0 0 -264.19096908054712 330.27901762448164 0 330.27901762448164 -136.20820397534214 0 0 0 0 2.6559512379137455 7.3121593237869087 0 7.3121593237869087 16.181772627974482 0 0 0 0 -311.89622162902833 128.41253202393705 0 128.41253202393705 26.770515488962701 0 0 0 0 0.17372962859465213 3.1318174995482746 0 3.1318174995482746 7.447393915011947 0 0 0 0 36.433199820591653 -20.8054317803917 0 -20.8054317803917 0.70965543811064435 0 0 0 0 -114.60217071842817 21.168398419486493 0 21.168398419486493 -43.460483681638607 0 0 0 0 -74.119721699857564 115.47373771818548 0 115.47373771818548 -24.878663406004307 0 0 0 0 59.384592016649549 81.71734042720891 0 81.71734042720891 -79.400564828291408 0 0 0 0 -15.034053330512506 50.909291631275892 0 50.909291631275892 -25.301710187415665 0 0 0 0 14.305980401285524 93.209205370289737 0 93.209205370289737 12.949456554175413 0 0 0 0 -86.338365207356219 -2.2627289473971359 0 -2.2627289473971359 -18.851278475684012 0 0 0 0 -83.780078187689924 161.56760077639422 0 161.56760077639422 -104.07492601274407 0 0 0 0 -466.71236913972098 222.45593311535549 0 222.45593311535549 112.55603583803895 0 0 0 0 -0.081841383634736697 1.9114642914030018 0 1.9114642914030018 8.4719037056701794 0 0 0 0 -56.88540479848939 102.433860493937 0 102.433860493937 148.72574919628096 0 0 0 0 45.037327144440269 -115.53181174028373 0 -115.53181174028373 471.22368193965121 0 0 0 0 12.547424440436771 28.862528261707496 0 28.862528261707496 29.342882798245228 0 0 0 0 -406.26652462933998 -291.72867109368462 0 -291.72867109368462 652.86184849456458 0 0 0 0 -0.29707230417792996 -0.39945424776497696 0 -0.39945424776497696 4.4986665351744755 0 0 0 0 26.18058287327267 -39.705826152506233 0 -39.705826152506233 63.23956134760283 0 0 0 0 188.35634856868 251.30887062728198 0 251.30887062728198 418.52823187110334 0 0 0 0 0.30463111685119415 1.3369451375527404 0 1.3369451375527404 4.5426571534555933 0 0 0 0 56.106498189168178 -10.417222045498193 0 -10.417222045498193 -135.47823180363775 0 0 0 0 -97.466617428878635 13.772431951177623 0 13.772431951177623 643.44783080156503 0 0 0 0 1.8791100606065747 5.0040803360502579 0 5.0040803360502579 11.150303926457021 0 0 0 0 -90.429140178866874 93.789941505063325 0 93.789941505063325 20.758645471056298 0 0 0 0 111.19008668967649 -6.9216508382772872 0 -6.9216508382772872 -65.515347247286627 0 0 0 0 193.85732340938375 -119.56058253543824 0 -119.56058253543824 174.60485275349674 0 0 0 0 224.24661642743422 -20.437567106079769 0 -20.437567106079769 220.45078528324666 0 0 0 0 55.964923230409113 -100.24031164935604 0 -100.24031164935604 183.23301708157078 0 0 0 0 175.92018094759214 -111.59220109578814 0 -111.59220109578814 167.09095009614612 0 0 0 0 0.88163820864632214 0.90402193845437218 0 0.90402193845437218 1.3151936326195557 0 0 0 0 -64.051627657012432 29.995053571638437 0 29.995053571638437 693.94659832718753 0 0 0 0 305.1251031287411 -239.74737278027078 0 -239.74737278027078 609.46782672866107 0 0 0 0 317.98528048466687 -25.564661109427107 0 -25.564661109427107 397.34692200061227 0 0 0 0 178.28050866143894 14.541342840509969 0 14.541342840509969 131.45300158072507 0 0 0 0 376.1047355155406 -121.09990085295976 0 -121.09990085295976 156.8502642875701 0 0 0 0 267.18849978810795 127.00889229841323 0 127.00889229841323 134.82941581853356 0 0 0 0 306.58371470224029 -27.234707765323719 0 -27.234707765323719 12.683625304059206 0 0 0 0 198.23818391178884 64.510709015389693 0 64.510709015389693 -22.991870647872929 0 0 0 0 158.89401251426807 28.222900558684387 0 28.222900558684387 -29.217069284685749 0 0 0 0 84.46103262178076 124.56878792586622 0 124.56878792586622 -38.624067050059239 0 0 0 0 142.55980998943687 31.266965472553011 0 31.266965472553011 22.46045400737512 0 0 0 0 197.02022501850115 0.70224835841963795 0 0.70224835841963795 10.541079508169787 0 0 0 0 138.61595623934681 -55.755589430457235 0 -55.755589430457235 92.689842367223264 0 0 0 0 172.87257594748007 -74.846760551629359 0 -74.846760551629359 88.282321194034921 0 0 0 0 94.510354006468333 -24.860545463178369 0 -24.860545463178369 71.1754754656763 0 0 0 0 90.915032034623437 -22.306644704862606 0 -22.306644704862606 88.384061844449207 0 0 0 0 91.427284366399363 -7.3262883753204733 0 -7.3262883753204733 93.429450168002404 0 0 0 0 96.494456724149131 -9.3670083055453688 0 -9.3670083055453688 80.863426733811139 0 0 0 0 128.47362065184871 30.504612787354858 0 30.504612787354858 35.859025541504707 0 0 0 0 60.061509417060734 61.130339166924387 0 61.130339166924387 58.179389435981193 0 0 0 0 75.633076539889771 40.425782500666458 0 40.425782500666458 85.674643117623418 0 0 0 0 92.943665459528347 59.485409292974055 0 59.485409292974055 55.372140297005899 0 0 0 0 64.361181038872019 13.517482469393372 0 13.517482469393372 78.69318838140839 0 0 0 0 68.933147418203362 16.592642346532784 0 16.592642346532784 80.707534939481775 0 0 0 0 91.21502607495313 98.947690142494139 0 98.947690142494139 -26.734404515814646 0 0 0 0 63.999916454162303 116.77537518077952 0 116.77537518077952 -16.521679971308572 0 0 0 0 56.172050671174929 73.993864217975215 0 73.993864217975215 -10.139521582470479 0 0 0 0 86.512157966066297 102.03418839651977 0 102.03418839651977 8.9957418435135423 0 0 0 0 135.97926745443237 59.206152646198461 0 59.206152646198461 -2.2461582515670671 0 0 0 0 119.69217661917173 42.602797743297288 0 42.602797743297288 20.595965591041931 0 0 0 0 71.082106634537922 112.83969384983311 0 112.83969384983311 43.002257269709844 0 0 0 0 95.078320349722446 82.916923738021623 0 82.916923738021623 34.380964343256892 0 0 0 0 69.364346437731001 113.17002716648813 0 113.17002716648813 61.497282539408843 0 0 0 0 74.6299011286319 133.80348537023201 0 133.80348537023201 21.05244365207102 0 0 0 0 82.315348771350273 92.823470265630476 0 92.823470265630476 14.259546462413709 0 0 0 0 112.19696381662652 176.48130638320708 0 176.48130638320708 110.81781521207472 0 0 0 0 71.63392972758129 153.68435091997924 0 153.68435091997924 105.84335961053057 0 0 0 0 68.60468122979546 137.33191836405058 0 137.33191836405058 65.395971556848394 0 0 0 0 45.66914410816571 128.78446268983703 0 128.78446268983703 152.44857375671199 0 0 0 0 74.497196767091737 83.284095513951343 0 83.284095513951343 87.418755281518315 0 0 0 0 24.318921653633879 92.30046456954824 0 92.30046456954824 94.834629133644739 0 0 0 0 34.410285512898554 64.632721635001417 0 64.632721635001417 129.03301362706134 0 0 0 0 -20.802625103091486 49.720946843086949 0 49.720946843086949 125.13143319036408 0 0 0 0 -70.469186237105532 24.755006927672184 0 24.755006927672184 189.55748781952875 0 0 0 0 -3.8178882395559413 87.347602516935808 0 87.347602516935808 191.06933797458169 0 0 0 0 -8.8602016751883639 107.8658258091441 0 107.8658258091441 146.63617013015914 0 0 0 0 -5.897603244840866 146.38654186085705 0 146.38654186085705 234.36135334565961 0 0 0 0 6.9179153136610694 160.31255805656303 0 160.31255805656303 246.52377018069728 0 0 0 0 54.257225834791825 20.391854039424288 0 20.391854039424288 88.383072064155385 0 0 0 0 51.188360927102622 15.909480164103343 0 15.909480164103343 82.473794389275099 0 0 0 0 23.549651430177619 42.678621871205905 0 42.678621871205905 85.959801790601546 0 0 0 0 22.612250044438042 3.1607346252790194 0 3.1607346252790194 89.161452726054904 0 0 0 0 -16.000803772483778 24.339490485012448 0 24.339490485012448 149.39115810491558 0 0 0 0 10.00677923143212 -3.4562790412854838 0 -3.4562790412854838 107.2792330475977 0 0 0 0 53.736101425462948 -14.69183153838128 0 -14.69183153838128 74.902257812080279 0 0 0 0 38.098409989127504 -21.002054274250327 0 -21.002054274250327 73.069591953067629 0 0 0 0 26.698975326609798 -38.384123911494953 0 -38.384123911494953 79.696783404314829 0 0 0 0 -33.439428767973368 -21.489445445535694 0 -21.489445445535694 105.36628813546662 0 0 0 0 -16.658333681374643 -22.399561127208585 0 -22.399561127208585 19.957217606772247 0 0 0 0 25.460251294356567 8.9146831293744526 0 8.9146831293744526 46.857502061103105 0 0 0 0 -23.779384181446403 -24.538149007715106 0 -24.538149007715106 95.199872821113331 0 0 0 0 77.239609500768893 -45.509547411258154 0 -45.509547411258154 83.07672333561959 0 0 0 0 63.606676460038216 18.480764257808232 0 18.480764257808232 132.84489216144266 0 0 0 0 32.391553774556996 -14.300580026355647 0 -14.300580026355647 124.02852991989357 0 0 0 0 67.116073294369244 96.430171551830512 0 96.430171551830512 250.64689076954073 0 0 0 0 71.646694187167668 83.568326896470126 0 83.568326896470126 88.248157778624318 0 0 0 0 -18.387384798189487 -22.335376207947775 0 -22.335376207947775 48.702490487674368 0 0 0 0 23.057076297209278 80.218248302242728 0 80.218248302242728 34.98350996055288 0 0 0 0 1.0464304774844244 2.121186706172737 0 2.121186706172737 3.2368139366231992 0 0 0 0 90.169870953255668 198.46301533140741 0 198.46301533140741 -64.63562396397586 0 0 0 0 -68.822457046791897 -16.993897666665816 0 -16.993897666665816 -65.539256177445168 0 0 0 0 108.62015917329154 254.29150206536633 0 254.29150206536633 62.902132643637515 0 0 0 0 38.620932316640392 199.56937461068492 0 199.56937461068492 395.54406938853299 0 0 0 0 26.303380335041311 64.652196515979711 0 64.652196515979711 106.28432097225004 0 0 0 0 39.099379868050164 -39.21505856860631 0 -39.21505856860631 336.62163094829998 0 0 0 0 110.81471731846887 -43.624021070660547 0 -43.624021070660547 265.30566360355078 0 0 0 0 17.665521624347093 79.602858686422223 0 79.602858686422223 251.62573843925406 0 0 0 0 84.53242212800069 -107.73033351281174 0 -107.73033351281174 211.08416739617246 0 0 0 0 -73.373128309358435 29.434371277848641 0 29.434371277848641 9.8427138944988712 0 0 0 0 3.2363400714992316 5.4618041527437589 0 5.4618041527437589 7.1546597329513926 0 0 0 0 -106.69708035910321 87.735033929841961 0 87.735033929841961 15.2336665901571 0 0 0 0 21.908941646724998 39.129889058819572 0 39.129889058819572 -11.009952512455129 0 0 0 0 21.438787823319799 -69.804439175487943 0 -69.804439175487943 -31.51057157807918 0 0 0 0 -0.7624630577487892 0.46534333118801596 0 0.46534333118801596 2.4396855848788412 0 0 0 0 67.996950780900079 -145.81388380332373 0 -145.81388380332373 308.11683624033139 0 0 0 0 -1.0240657998723677 0.91681835627837405 0 0.91681835627837405 1.5934831602104638 0 0 0 0 5.7918686581507757 7.4751891349850546 0 7.4751891349850546 7.1492578976557617 0 0 0 0 14.750500737371112 -5.9124363639168678 0 -5.9124363639168678 -52.288044341010846 0 0 0 0 -30.149796836430596 -1.2373487925070776 0 -1.2373487925070776 14.245526573150983 0 0 0 0 17.718814791756813 -45.922843913284851 0 -45.922843913284851 -4.8637280151061759 0 0 0 0 -68.067524562378821 37.889964900063205 0 37.889964900063205 42.718743765110958 0 0 0 0 -95.149029103762587 -34.463746161837435 0 -34.463746161837435 97.623020240338064 0 0 0 0 -73.701542383210835 36.885363879725105 0 36.885363879725105 31.266177352238174 0 0 0 0 -24.423358434949478 0.34488031435262201 0 0.34488031435262201 113.7925589526576 0 0 0 0 -40.504126755165998 -2.6855154367665364 0 -2.6855154367665364 119.88495996071606 0 0 0 0 -24.897577300221201 -60.782679687818245 0 -60.782679687818245 -8.08344651596326 0 0 0 0 -47.293389105278038 -60.41925056477703 0 -60.41925056477703 158.49272800405924 0 0 0 0 -55.998363196276841 34.069971269090729 0 34.069971269090729 176.83302559458843 0 0 0 0 -80.288832957747218 99.09754486914062 0 99.09754486914062 425.42888786485219 0 0 0 0 -105.59787872489687 44.812185570785914 0 44.812185570785914 312.48117768691645 0 0 0 0 -18.317832766730135 -324.97349804726218 0 -324.97349804726218 -352.32419154561831 0 0 0 0 -92.331481632533723 -309.88133362912072 0 -309.88133362912072 -120.98611113033712 0 0 0 0 -111.65662878248622 -186.59288224084685 0 -186.59288224084685 354.70332694298793 0 0 0 0 -415.64634087425839 -181.96966300480517 0 -181.96966300480517 977.78268460304594 0 0 0 0 331.90036093604795 617.30465206077815 0 617.30465206077815 869.88966054593584 0 0 0 0 436.95396984520994 581.62507970088814 0 581.62507970088814 520.35528005340848 0 0 0 0 5.4359225342274247 10.689717367950724 0 10.689717367950724 14.227255328508331 0 0 0 0 23.662471603365702 -28.870713760828039 0 -28.870713760828039 78.450305992313361 0 0 0 0 -47.755162378245586 18.893760197108804 0 18.893760197108804 30.453529074402468 0 0 0 0 -3.9532632747483305 1.6741276177202273 0 1.6741276177202273 3.7190878923557977 0 0 0 0 18.743986091545608 -53.618643574677961 0 -53.618643574677961 120.19973870154536 0 0 0 0 0.033003916607412975 -0.77207945436384762 0 -0.77207945436384762 -5.6116821676567952 0 0 0 0 0.77370801534590328 2.4981455438701774 0 2.4981455438701774 2.5284985933167867 0 0 0 0 -9.8872176378908989 44.126334887891517 0 44.126334887891517 -295.64790573826394 0 0 0 0 0.17086126853749306 -0.75994044716261389 0 -0.75994044716261389 -3.5845213978394836 0 0 0 0 -217.41051187016637 -107.46879981563734 0 -107.46879981563734 -78.603450683401206 0 0 0 0 7.7635355344890371 12.048121611581479 0 12.048121611581479 10.100597402483164 0 0 0 0 34.863874706984916 43.310849571623294 0 43.310849571623294 200.51889736920384 0 0 0 0 -96.625289015579824 33.539819485612043 0 33.539819485612043 219.46853073456987 0 0 0 0 14.098564942665917 -40.840669534662084 0 -40.840669534662084 -5.5733193526848481 0 0 0 0 -8.0161005245190609 -48.053218890754579 0 -48.053218890754579 18.676966973750496 0 0 0 0 -21.064174014637501 -37.847210263564193 0 -37.847210263564193 10.828655848039489 0 0 0 0 -1.3057744764868691 0.29097584776078556 0 0.29097584776078556 -0.023277917167589646 0 0 0 0 -2.9850116504044308 -29.978114998403271 0 -29.978114998403271 150.58112119243242 0 0 0 0 -10.114583056536958 -20.577719439695102 0 -20.577719439695102 142.0835048431527 0 0 0 0 3.4960357003396894 -32.968817278042025 0 -32.968817278042025 -11.08686056051738 0 0 0 0 -60.173967247523251 -61.640977937474872 0 -61.640977937474872 171.64087827252752 0 0 0 0 40.255723384829935 -61.102703280612786 0 -61.102703280612786 171.61918356768018 0 0 0 0 -1.519139279171668 -33.210257126747365 0 -33.210257126747365 188.57762002879463 0 0 0 0 -6.2390324036254015 -39.659255131071973 0 -39.659255131071973 207.5518970701587 0 0 0 0 -9.0041748417743293 -26.803884196493527 0 -26.803884196493527 243.51193248767595 0 0 0 0 -5.6778647881360484 -34.938685026023904 0 -34.938685026023904 206.47669413443884 0 0 0 0 7.6401628792364136 -66.174070926011154 0 -66.174070926011154 197.23868791758741 0 0 0 0 70.304705153446776 -121.92231924514908 0 -121.92231924514908 175.76459922116555 0 0 0 0 55.685847129859212 -67.083165763670877 0 -67.083165763670877 84.977871981140197 0 0 0 0 17.991662756368896 -20.967638902488034 0 -20.967638902488034 93.232106524372284 0 0 0 0 1.9826483779388582 -56.902687097260696 0 -56.902687097260696 164.81094708971523 0 0 0 0 7.5450803424764672 -37.70545239747662 0 -37.70545239747662 133.65147167764462 0 0 0 0 -9.1713162868272775 -38.62733203378184 0 -38.62733203378184 243.19812282645353 0 0 0 0 -8.8909906317057903 -52.201687697971465 0 -52.201687697971465 211.37605853109017 0 0 0 0 9.0605505260773498 -66.194818494667743 0 -66.194818494667743 197.22159397104429 0 0 0 0 7.461731678009528 -59.672000361326354 0 -59.672000361326354 278.00560507772479 0 0 0 0 38.399168786179871 -51.276368626994554 0 -51.276368626994554 252.73726107791299 0 0 0 0 5.2539184410661619 -34.143115102686352 0 -34.143115102686352 275.91307412683182 0 0 0 0 29.067462568592873 -29.623445699789542 0 -29.623445699789542 217.16471664506207 0 0 0 0 29.250579198647756 -28.324146058906081 0 -28.324146058906081 182.14926681181532 0 0 0 0 4.9506802553787566 -37.554339463649853 0 -37.554339463649853 238.60142832723795 0 0 0 0 -7.4437309570830621 -44.937810412757244 0 -44.937810412757244 234.45436002739166 0 0 0 0 -9.5748605363060051 -50.136186855822018 0 -50.136186855822018 263.49898105250031 0 0 0 0 45.252473884668234 -79.439431135472773 0 -79.439431135472773 152.35065208443712 0 0 0 0 63.424782699852585 -31.131184385511915 0 -31.131184385511915 102.51244501156361 0 0 0 0 56.722384017439254 -47.840719783669783 0 -47.840719783669783 169.67618726668422 0 0 0 0 39.396574868749326 34.547453725463697 0 34.547453725463697 297.16292983506264 0 0 0 0 -42.631971663094191 -106.36138816265066 0 -106.36138816265066 210.18231411355828 0 0 0 0 -0.44055239492443166 -0.5398162317005053 0 -0.5398162317005053 4.2178521952877759 0 0 0 0 -42.311769495922363 -73.882518591569351 0 -73.882518591569351 371.7999367226588 0 0 0 0 3.574694702727129 -198.1716926533694 0 -198.1716926533694 199.6328836612131 0 0 0 0 20.121249334987169 -74.200466620479233 0 -74.200466620479233 -7.6781377103706063 0 0 0 0 -0.94653277475862252 -0.053510428455580961 0 -0.053510428455580961 8.9404847143155823 0 0 0 0 -297.1771414187192 137.62851204264086 0 137.62851204264086 167.60729107953625 0 0 0 0 -329.13640349158709 -38.195823018370604 0 -38.195823018370604 104.0675066378403 0 0 0 0 114.37075345126868 -10.705678779436994 0 -10.705678779436994 90.044910434619851 0 0 0 0 0.69824881646127324 -138.83174415766524 0 -138.83174415766524 114.07388344873175 0 0 0 0 171.80398614158548 -146.7980946078693 0 -146.7980946078693 16.265149425179857 0 0 0 0 31.629537350810097 -42.701324024491015 0 -42.701324024491015 87.263224803944311 0 0 0 0 167.55949243866283 -27.514684114427091 0 -27.514684114427091 19.3563263064475 0 0 0 0 146.38275887070085 2.4772755685332868 0 2.4772755685332868 -17.084991358320849 0 0 0 0 141.91832050712037 0.4448872485815798 0 0.4448872485815798 26.174648034266284 0 0 0 0 0.76215770507496927 62.817340684510825 0 62.817340684510825 11.878909329073295 0 0 0 0 88.090679961294882 28.496669816832309 0 28.496669816832309 32.414516406236373 0 0 0 0 46.694426393888534 8.2278023294207969 0 8.2278023294207969 105.49261471712089 0 0 0 0 50.719129171250643 -5.3450548852239308 0 -5.3450548852239308 88.526894584198544 0 0 0 0 79.017071233286515 1.2102259013349794 0 1.2102259013349794 24.688873942107875 0 0 0 0 -21.363737567405224 -68.575288877309546 0 -68.575288877309546 -14.571685322636988 0 0 0 0 44.158476245184829 -65.076726479602584 0 -65.076726479602584 -90.071971613160528 0 0 0 0 25.651970172813435 -54.821854882019522 0 -54.821854882019522 8.0611728785429477 0 0 0 0 45.790164035048292 2.5299803763065256 0 2.5299803763065256 28.488299094454419 0 0 0 0 -33.135583286571091 -65.251697496699649 0 -65.251697496699649 -15.203428107133732 0 0 0 0 -0.19039678914123215 -30.650528790176395 0 -30.650528790176395 -44.53413116572483 0 0 0 0 8.0759790027268537 -84.841882941484471 0 -84.841882941484471 -7.7242411838810767 0 0 0 0 36.197762031879392 -39.922989265590559 0 -39.922989265590559 -42.179790853099917 0 0 0 0 24.468146551783072 -8.3486616005386338 0 -8.3486616005386338 12.895290160095096 0 0 0 0 17.150274652804001 -2.6571501056555462 0 -2.6571501056555462 36.885093650807903 0 0 0 0 13.639300730889421 -14.683253492159292 0 -14.683253492159292 22.334773441561858 0 0 0 0 -25.524881897044907 -81.469565552171616 0 -81.469565552171616 0.36435754352442018 0 0 0 0 -546.56038775423303 -213.66411106638225 0 -213.66411106638225 972.17513575062958 0 0 0 0 2550.2710712279131 -505.82442190232541 0 -505.82442190232541 856.02741719700953 0 0 0 0 -1.305351028069051 -3.0432599038916965 0 -3.0432599038916965 10.654114236475941 0 0 0 0 -119.42790927677561 -73.712821263924411 0 -73.712821263924411 1.6236561931541473 0 0 0 0 18.671468329939671 -106.85973760183583 0 -106.85973760183583 -38.060477411670945 0 0 0 0 -17.786689562293759 -42.498148868251519 0 -42.498148868251519 9.7504294415168715 0 0 0 0 -76.317583643372927 -140.6121878842448 0 -140.6121878842448 -26.883295891381749 0 0 0 0 -70.599976839910596 -152.33818660446809 0 -152.33818660446809 -5.8533318006948321 0 0 0 0 -223.64882648314597 -89.219079733084754 0 -89.219079733084754 30.038950822112383 0 0 0 0 -53.624753803521344 -17.335761941121746 0 -17.335761941121746 39.652321316094458 0 0 0 0 79.790124873370587 -3.8904220577014712 0 -3.8904220577014712 15.65189067568059 0 0 0 0 42.334162851184374 -53.312548004862947 0 -53.312548004862947 0.30050374803761315 0 0 0 0 44.209606785583674 -60.821578632142518 0 -60.821578632142518 15.500023871201392 0 0 0 0 72.778082733504561 26.179095912414141 0 26.179095912414141 176.93823188488841 0 0 0 0 135.59165208141712 25.315953734572986 0 25.315953734572986 43.391689352408093 0 0 0 0 87.458913423232843 -82.228414385036842 0 -82.228414385036842 7.4266151873716808 0 0 0 0 94.43837638721925 27.42591685817888 0 27.42591685817888 176.66198074503427 0 0 0 0 -161.68135443363553 -171.11738831730963 0 -171.11738831730963 5.5433027832941661 0 0 0 0 72.758462951529509 -76.704998862269349 0 -76.704998862269349 -67.031612781581089 0 0 0 0 31.079751911502171 13.482495220778446 0 13.482495220778446 148.46383116697689 0 0 0 0 -10.663455526216239 -112.75209542671632 0 -112.75209542671632 420.05113817385882 0 0 0 0 288.87713997389619 5.1598121399943011 0 5.1598121399943011 123.23412058053555 0 0 0 0 128.26233207566656 176.59235555381179 0 176.59235555381179 447.99053785869819 0 0 0 0 16.455031280792355 -148.07471548814624 0 -148.07471548814624 671.0009134978759 0 0 0 0 17.273029178475113 -118.17570615964092 0 -118.17570615964092 286.98299098705957 0 0 0 0 29.832038457733688 -10.272131192679581 0 -10.272131192679581 397.34871283602024 0 0 0 0 32.974687139659181 -6.5165799169758429 0 -6.5165799169758429 217.45662596345346 0 0 0 0 37.294750732880857 -36.072393362209823 0 -36.072393362209823 278.56373307715148 0 0 0 0 48.291787181267864 -17.958310605581801 0 -17.958310605581801 223.87874519714796 0 0 0 0 51.345095486230548 -7.3865248825701997 0 -7.3865248825701997 208.01208770073299 0 0 0 0 49.811096766972696 0.18914131425276537 0 0.18914131425276537 175.92761018809779 0 0 0 0 77.213371513462334 46.209694055666205 0 46.209694055666205 115.98181612263579 0 0 0 0 60.786505002682134 13.861283405881068 0 13.861283405881068 188.40887828654377 0 0 0 0 87.10129147923908 34.933487541829436 0 34.933487541829436 81.825193920823892 0 0 0 0 90.521455332692994 70.195629689078416 0 70.195629689078416 197.14468866751486 0 0 0 0 27.367301804311865 -255.75265608687187 0 -255.75265608687187 725.19843389769085 0 0 0 0 14.315779059669694 -46.324086651191465 0 -46.324086651191465 486.81845367404094 0 0 0 0 362.01269493905937 -173.04294197112188 0 -173.04294197112188 589.21138807048555 0 0 0 0 -0.63337636321230883 1.2387354586787147 0 1.2387354586787147 1.0431954027043275 0 0 0 0 598.82287574393922 -641.16496308895876 0 -641.16496308895876 251.05753772958997 0 0 0 0 105.97318425440608 -387.78073162490909 0 -387.78073162490909 816.12704625091283 0 0 0 0 6.0233148579809495 -337.06761203278438 0 -337.06761203278438 520.01056899115792 0 0 0 0 102.41882346879902 -330.06059012690093 0 -330.06059012690093 412.40763651317684 0 0 0 0 34.137298184617975 -266.17991878083922 0 -266.17991878083922 419.74423276682501 0 0 0 0 136.52065043103812 -8.7376778167381417 0 -8.7376778167381417 87.516295357811032 0 0 0 0 -16.210773508383909 -275.25938483564096 0 -275.25938483564096 465.44345043435169 0 0 0 0 90.858631583002079 -166.20138971465349 0 -166.20138971465349 60.448695861938177 0 0 0 0 -5.5446392631728258 -6.305067556539143 0 -6.305067556539143 167.62910140874737 0 0 0 0 -15.637331291182656 25.614112369328126 0 25.614112369328126 79.342926344325122 0 0 0 0 12.219643192972399 138.6384712092331 0 138.6384712092331 116.27421498821423 0 0 0 0 -30.539537323373224 4.8118794561451068 0 4.8118794561451068 -63.095599815627793 0 0 0 0 -227.1731303165916 201.49543538715807 0 201.49543538715807 391.73282316096447 0 0 0 0 -109.83107080226091 65.338081930123735 0 65.338081930123735 -32.917967848712578 0 0 0 0 -0.64235159829964594 -3.1260200945100394 0 -3.1260200945100394 22.953643522409443 0 0 0 0 -47.735601464311458 -60.335123455399298 0 -60.335123455399298 153.70389545020589 0 0 0 0 98.539537464326827 33.939178364591498 0 33.939178364591498 213.92596035733004 0 0 0 0 18.246173982753817 -124.35359296970273 0 -124.35359296970273 310.20019347933703 0 0 0 0 176.53303728293986 -59.637635370680073 0 -59.637635370680073 143.87087427843289 0 0 0 0 48.662463758879881 -118.04655289100629 0 -118.04655289100629 61.348663997836411 0 0 0 0 17.423949163911061 -69.083949148527608 0 -69.083949148527608 146.69409840760636 0 0 0 0 3.2388420181066286 -35.104079640716179 0 -35.104079640716179 19.179536242926687 0 0 0 0 -48.113174361075153 -82.731161788877216 0 -82.731161788877216 258.99842630644707 0 0 0 0 -0.85516923811075074 -32.204033639144924 0 -32.204033639144924 1.6747491980271789 0 0 0 0 -18.71936479300382 -117.5382663966011 0 -117.5382663966011 296.16420507286966 0 0 0 0 -116.13183029915001 -63.573243798273325 0 -63.573243798273325 316.91422374451213 0 0 0 0 -29.282204417717367 -62.063741642708919 0 -62.063741642708919 263.47262842273267 0 0 0 0 -0.88640764445744935 -10.962716581798304 0 -10.962716581798304 187.04360288415046 0 0 0 0 -79.667268969382803 -6.2529143737629056 0 -6.2529143737629056 307.98879384564498 0 0 0 0 -5.8008779184883679 -33.696087126645679 0 -33.696087126645679 52.71829175605896 0 0 0 0 3.8187484193858836 -14.985362966235698 0 -14.985362966235698 164.36933740707173 0 0 0 0 3.5168078268679892 -8.1733056651210063 0 -8.1733056651210063 165.12761560877607 0 0 0 0 9.7215966493456563 -30.822532972339104 0 -30.822532972339104 140.86692531320296 0 0 0 0 -12.690695733713255 -8.1951761923992308 0 -8.1951761923992308 200.66615457554326 0 0 0 0 -3.6075097460925463 17.478991404816043 0 17.478991404816043 112.26914649723767 0 0 0 0 -18.144724660032619 33.010154594219202 0 33.010154594219202 67.905818301772001 0 0 0 0 3.6418846147151953 -13.485324887440584 0 -13.485324887440584 153.79595881991554 0 0 0 0 -33.825530676387189 41.215511984737532 0 41.215511984737532 126.42737355879945 0 0 0 0 -26.13883395966559 5.1688243032622267 0 5.1688243032622267 141.5793491835866 0 0 0 0 0.8869437526258821 -15.114142614432453 0 -15.114142614432453 19.671299182699812 0 0 0 0 8.4935830594158688 62.870215361388546 0 62.870215361388546 46.825170826690737 0 0 0 0 -9.9043610111539238 -11.416854539904307 0 -11.416854539904307 211.32043969948427 0 0 0 0 -3.7952709624378258 -9.1530625322520791 0 -9.1530625322520791 185.12758855208085 0 0 0 0 -2.0861609426935033 1.2996552911242816 0 1.2996552911242816 -0.51733101262090031 0 0 0 0 4.5819027973739139 -7.8239572934653552 0 -7.8239572934653552 164.11963029176695 0 0 0 0 3.5653316301986706 10.960861382809526 0 10.960861382809526 186.75507865259715 0 0 0 0 3.4039202122321512 14.230804821374477 0 14.230804821374477 139.00355822176789 0 0 0 0 0.61517442554928081 -18.251693140764161 0 -18.251693140764161 48.50623751404467 0 0 0 0 4.7218787459696614 -10.254180661728242 0 -10.254180661728242 182.04233687401575 0 0 0 0 8.452478433968281 -9.8009750988803717 0 -9.8009750988803717 169.42389711512078 0 0 0 0 5.5748406159773367 -15.633567744538595 0 -15.633567744538595 203.84431163703812 0 0 0 0 -15.648037397530061 6.3926127210033883 0 6.3926127210033883 120.62309690304392 0 0 0 0 -13.00279697003756 12.360069268295408 0 12.360069268295408 147.40345280742559 0 0 0 0 5.9946062331421217 -17.854760462583727 0 -17.854760462583727 187.68256681048024 0 0 0 0 -16.626490312120865 25.178266626163804 0 25.178266626163804 192.77153590854323 0 0 0 0 -12.494339209226649 10.572091400626652 0 10.572091400626652 152.47946460486568 0 0 0 0 -10.322214651712784 2.651291410158592 0 2.651291410158592 167.50181658741076 0 0 0 0 -1.8187933675784507 9.8348784777308538 0 9.8348784777308538 269.23083298975871 0 0 0 0 -9.37282825466216 34.079105384234275 0 34.079105384234275 214.18212812496699 0 0 0 0 3.1101000360201851 7.330771748972893 0 7.330771748972893 266.92728626202552 0 0 0 0 -6.4170996286210311 -28.293991897828846 0 -28.293991897828846 229.65915156531173 0 0 0 0 2.4329435608341399 -1.8893786524131055 0 -1.8893786524131055 49.78529161347651 0 0 0 0 39.1474644827465 -8.7760622469577356 0 -8.7760622469577356 178.38574289045607 0 0 0 0 28.251915934689464 -18.31027470889012 0 -18.31027470889012 347.16686561885945 0 0 0 0 1.3987537954867351 1.956205842571741 0 1.956205842571741 -3.5076552497394324 0 0 0 0 5.9983740840683311 17.608608718321648 0 17.608608718321648 291.41441158539419 0 0 0 0 -5.4633340727898769 -5.7899528730322345 0 -5.7899528730322345 293.723377934788 0 0 0 0 50.604780374455459 92.328270663687363 0 92.328270663687363 245.82553541754714 0 0 0 0 115.99899140399498 2.2021421582103358 0 2.2021421582103358 222.74887441333726 0 0 0 0 48.973885609615536 76.022345720659814 0 76.022345720659814 148.51984961873768 0 0 0 0 -0.10851365579242156 -128.6521431576034 0 -128.6521431576034 179.62127420519573 0 0 0 0 85.709602115034102 -66.159263694753918 0 -66.159263694753918 172.76688026294505 0 0 0 0 -25.218671932322309 -96.059787844689254 0 -96.059787844689254 167.17653102145198 0 0 0 0 7.5017358382401653 -34.844157929834182 0 -34.844157929834182 214.42342352208971 0 0 0 0 8.2694377640158336 -12.67875622437532 0 -12.67875622437532 189.2736700862215 0 0 0 0 -35.243902699052569 -95.304132854362251 0 -95.304132854362251 61.754425769068803 0 0 0 0 -1.938122381951827 -0.38867337480661668 0 -0.38867337480661668 28.411020908224828 0 0 0 0 -15.421633681657795 -3.0414944379556346 0 -3.0414944379556346 258.5714876336724 0 0 0 0 100.38101982641865 -17.079378001632676 0 -17.079378001632676 159.43483056902187 0 0 0 0 13.173938718704164 -105.28069706794213 0 -105.28069706794213 121.32069509216944 0 0 0 0 -8.9272142180287943 -152.99563266451446 0 -152.99563266451446 168.44800542769553 0 0 0 0 -97.225474301699165 -88.967178312049782 0 -88.967178312049782 267.85956462505055 0 0 0 0 -121.81947459419131 -31.714742311870395 0 -31.714742311870395 143.45242752948434 0 0 0 0 -12.398755575227066 9.0380201282086148 0 9.0380201282086148 104.39223455368692 0 0 0 0 -112.6455215264769 135.84155731156284 0 135.84155731156284 220.71346896384313 0 0 0 0 -60.660277616579918 170.25450657718676 0 170.25450657718676 19.025810923697918 0 0 0 0 -51.671314528377025 56.640391851865843 0 56.640391851865843 70.910919782749261 0 0 0 0 -12.89006486863995 3.7314695134721134 0 3.7314695134721134 102.57659724911163 0 0 0 0 -2.3193708256898162 -36.688224871624016 0 -36.688224871624016 -11.467887049923036 0 0 0 0 -60.709551509144148 5.9764363726790179 0 5.9764363726790179 108.91742989373824 0 0 0 0 -370.92987261661892 102.2112004095693 0 102.2112004095693 637.48086016034358 0 0 0 0 -21.432943308454377 25.278658243832385 0 25.278658243832385 89.217995000599217 0 0 0 0 -31.716624288214916 49.797520444487418 0 49.797520444487418 93.392927960710949 0 0 0 0 -14.809609098768489 28.410729326946893 0 28.410729326946893 92.259452100907566 0 0 0 0 739.13860666513938 339.45755358864335 0 339.45755358864335 -716.49865518523438 0 0 0 0 627.85110473912209 -242.02181341721734 0 -242.02181341721734 800.30736495888777 0 0 0 0 160.69262641324167 -1420.2493659730826 0 -1420.2493659730826 932.93947747898346 0 0 0 0 -2.4430854416349916 0.66636464593026545 0 0.66636464593026545 9.9564782011440229 0 0 0 0 495.73123627062159 -871.23617540858686 0 -871.23617540858686 675.30013740507275 0 0 0 0 81.843032137297996 76.246937987209094 0 76.246937987209094 21.197966308798641 0 0 0 0 155.60727341989332 -526.36268955030391 0 -526.36268955030391 1161.6591786062745 0 0 0 0 -577.44275840409682 -1006.2824876840095 0 -1006.2824876840095 1455.4006995705568 0 0 0 0 1482.9688552834814 -374.08556360784132 0 -374.08556360784132 1036.3794899924833 0 0 0 0 1224.2590003587502 -109.1814034289273 0 -109.1814034289273 765.63346652724431 0 0 0 0 190.29416364943427 7.6575945130753098 0 7.6575945130753098 -30.394463707430987 0 0 0 0 82.038904311046281 101.34300619614805 0 101.34300619614805 246.72748669644352 0 0 0 0 -303.34607964975271 33.19410607197733 0 33.19410607197733 145.31405715169967 0 0 0 0 -144.51429329253369 182.47226233355468 0 182.47226233355468 219.66090908853221 0 0 0 0 178.20539091045612 32.443373996822629 0 32.443373996822629 -68.410521990765119 0 0 0 0 182.88538447141036 76.678939523291774 0 76.678939523291774 75.828641874257301 0 0 0 0 234.73630608992244 12.489323790185153 0 12.489323790185153 51.733767559577245 0 0 0 0 193.62779411289375 -220.14156372043362 0 -220.14156372043362 614.99034580340958 0 0 0 0 -0.1667848456891079 -216.05128780208179 0 -216.05128780208179 1027.8773539158719 0 0 0 0 675.47487297673069 -587.94877959872247 0 -587.94877959872247 820.94227954899543 0 0 0 0 96.120235823389521 8.7952777051032172 0 8.7952777051032172 679.27431061281823 0 0 0 0 390.97087709651169 -546.54774766613264 0 -546.54774766613264 325.06016262236517 0 0 0 0 208.86545426351989 77.640340374535072 0 77.640340374535072 15.416437815176323 0 0 0 0 595.49065100632924 -779.6227120884796 0 -779.6227120884796 539.11249145756301 0 0 0 0 -308.92591963092491 491.80920797701401 0 491.80920797701401 -150.15532349511341 0 0 0 0 49.975894061717554 -657.81581329685287 0 -657.81581329685287 824.01120030636957 0 0 0 0 120.43956064079975 -368.04861432206235 0 -368.04861432206235 798.10128928722406 0 0 0 0 136.41945694597962 -624.51745453824697 0 -624.51745453824697 931.07097663078457 0 0 0 0 98.860003027170023 -540.82320625700959 0 -540.82320625700959 777.92301291954936 0 0 0 0 -147.45656098514883 -634.2020030223357 0 -634.2020030223357 944.47765371910646 0 0 0 0 0.95170971188253617 4.0716928198844187 0 4.0716928198844187 8.0134315573859283 0 0 0 0 -64.644018350086753 -879.54323145068702 0 -879.54323145068702 959.00845593525446 0 0 0 0 240.9883515748561 -913.81363666995458 0 -913.81363666995458 875.87807405830245 0 0 0 0 -78.419552050109814 -22.16512904008232 0 -22.16512904008232 -150.25828619436652 0 0 0 0 6.6904370053791027 10.473260526492155 0 10.473260526492155 15.874551636528054 0 0 0 0 -11.267625432655905 3.5572341208448961 0 3.5572341208448961 98.96684809501312 0 0 0 0 -4.2468509384816571 23.218304642148723 0 23.218304642148723 92.170140874563003 0 0 0 0 -12.412993403532226 8.3201119417266742 0 8.3201119417266742 110.39923766679499 0 0 0 0 -31.259848936163507 28.337043206964154 0 28.337043206964154 106.9184768403793 0 0 0 0 -19.689097751512357 27.763229130287044 0 27.763229130287044 81.717526798364986 0 0 0 0 9.6720880236412086 6.3341048261354445 0 6.3341048261354445 104.43792422357546 0 0 0 0 10.40889169215734 10.207582471599835 0 10.207582471599835 95.397689806646667 0 0 0 0 -66.246537498964244 140.93329980911221 0 140.93329980911221 -51.936359642961179 0 0 0 0 -80.349281766508284 64.8791061407901 0 64.8791061407901 -1.2402332095552993 0 0 0 0 8.2073839196050109 18.465455022894048 0 18.465455022894048 15.161045587687227 0 0 0 0 -31.707648510074549 36.665126637977409 0 36.665126637977409 37.430614428510495 0 0 0 0 129.48615124421281 -251.5339215652657 0 -251.5339215652657 229.61034052919422 0 0 0 0 112.60492981277889 -234.91297683622543 0 -234.91297683622543 595.33665123785613 0 0 0 0 1.9396731254188389 2.2342496610394562 0 2.2342496610394562 17.919110362643181 0 0 0 0 138.98499061443999 -212.02481796640859 0 -212.02481796640859 124.74252574266575 0 0 0 0 58.092417664174718 -319.36015286368274 0 -319.36015286368274 499.24327341096068 0 0 0 0 754.68849855012922 201.66646253286308 0 201.66646253286308 174.73956923099468 0 0 0 0 309.57924035586711 -506.73125086079381 0 -506.73125086079381 425.34404211606306 0 0 0 0 259.28108213064297 -402.79896598291816 0 -402.79896598291816 236.10481955386058 0 0 0 0 134.92848633371523 200.02212460400187 0 200.02212460400187 282.73579691499617 0 0 0 0 -33.159498989449276 -65.599768574888003 0 -65.599768574888003 357.28461399102162 0 0 0 0 12.416051418375901 -242.51528616549331 0 -242.51528616549331 987.2403341848476 0 0 0 0 0.1378856307913644 -3.1844097603723451 0 -3.1844097603723451 8.4160559672191084 0 0 0 0 1.9357976907764731 0.37926232346078415 0 0.37926232346078415 21.006568905502832 0 0 0 0 -8.5246003124748313 -3.940279645332339 0 -3.940279645332339 30.106989442749182 0 0 0 0 87.604634842331507 -15.237891372162267 0 -15.237891372162267 16.611300209304318 0 0 0 0 48.828690691494558 -13.300890467689896 0 -13.300890467689896 -20.035280596028315 0 0 0 0 -4.6794497052651423 -10.425088275485905 0 -10.425088275485905 23.474622439738596 0 0 0 0 11.616210142219643 51.818177550194378 0 51.818177550194378 70.414232551389432 0 0 0 0 1.9792008805328081 2.1959386860281995 0 2.1959386860281995 -3.2521566577559895 0 0 0 0 -7.7813206327828084 17.933497111218458 0 17.933497111218458 33.720680229896971 0 0 0 0 116.25588119615668 81.377526085185309 0 81.377526085185309 49.322542111505754 0 0 0 0 26.607954614055416 116.17058202352928 0 116.17058202352928 148.3965929132828 0 0 0 0 -52.422655920797297 46.910776687123871 0 46.910776687123871 87.700227925015497 0 0 0 0 -127.22183200491145 4.5763968680912512 0 4.5763968680912512 308.08819462270185 0 0 0 0 -35.78952467768022 -87.524861650137609 0 -87.524861650137609 279.66320604326029 0 0 0 0 -1.682859465109706 -0.88395284700999355 0 -0.88395284700999355 0.53352335184791855 0 0 0 0 -81.142863896026029 139.6189979114497 0 139.6189979114497 69.303218771092361 0 0 0 0 74.386742512011551 -81.246785578376148 0 -81.246785578376148 158.05451796895795 0 0 0 0 4.0056444429137628 5.1713233179616509 0 5.1713233179616509 226.78576988556597 0 0 0 0 -3.6091426500543093 16.841132886613195 0 16.841132886613195 -37.969299284850422 0 0 0 0 -32.159886543158791 -9.536318202248367 0 -9.536318202248367 239.40544639519794 0 0 0 0 -6.9408005452514772 16.238060609641252 0 16.238060609641252 250.18096743273782 0 0 0 0 0.26555598914367806 1.2524018059134647 0 1.2524018059134647 0.77705641994944585 0 0 0 0 27.60732058832491 29.494643862344674 0 29.494643862344674 235.52273385394074 0 0 0 0 -133.65037304548594 57.79675770124868 0 57.79675770124868 142.22689317443292 0 0 0 0 -1.3312581841892097 -69.600373554727412 0 -69.600373554727412 -7.3232093309925403 0 0 0 0 74.596262494635084 -77.479691181710223 0 -77.479691181710223 42.448110331577482 0 0 0 0 -161.8078124032636 -68.223106269640994 0 -68.223106269640994 131.66654842491698 0 0 0 0 39.682731984560178 46.165972219700052 0 46.165972219700052 135.11540664217318 0 0 0 0 -34.221815600700211 8.1072442644726834 0 8.1072442644726834 18.470284987037303 0 0 0 0 -18.609208049792414 -54.173786796156492 0 -54.173786796156492 21.93283533186127 0 0 0 0 17.916314467320717 -209.90004886543466 0 -209.90004886543466 292.32768276480056 0 0 0 0 89.221856501358161 -297.23915574003331 0 -297.23915574003331 -29.634664454153608 0 0 0 0 318.72913692133261 -231.41558811296272 0 -231.41558811296272 267.04618098159699 0 0 0 0 18.285105590680587 -204.95025724395236 0 -204.95025724395236 507.26885978609789 0 0 0 0 227.17767392051292 -180.57638656595373 0 -180.57638656595373 99.615925115009304 0 0 0 0 -1.3687123527063003 1.0398182721303222 0 1.0398182721303222 34.498822746508552 0 0 0 0 -4.1755776597020482 -4.6855626023135102 0 -4.6855626023135102 1.0979031341446444 0 0 0 0 61.893690698821445 -81.627549534337504 0 -81.627549534337504 298.7185931859276 0 0 0 0 17.06281768353324 -218.31536809905447 0 -218.31536809905447 392.76743316664943 0 0 0 0 133.87421768433342 -415.08811574504216 0 -415.08811574504216 -195.97767974699673 0 0 0 0 -40.402514122026332 -40.12279416412639 0 -40.12279416412639 12.814409304937726 0 0 0 0 28.074559530768617 -47.47613283596489 0 -47.47613283596489 30.780408653238837 0 0 0 0 74.863122696242499 -78.898139950491895 0 -78.898139950491895 11.332949303279747 0 0 0 0 15.533564642093086 -43.313143082149139 0 -43.313143082149139 27.688932874993711 0 0 0 0 -66.642594919063868 -87.661747339057911 0 -87.661747339057911 78.756258758439799 0 0 0 0 -145.66588678861717 -49.175690642670816 0 -49.175690642670816 259.159599878476 0 0 0 0 -15.447613632699358 88.654242330114357 0 88.654242330114357 207.10459776034622 0 0 0 0 19.731769852848629 61.202743746427586 0 61.202743746427586 108.94781744301144 0 0 0 0 1.7973679666229145 37.946567321996554 0 37.946567321996554 106.53021932338652 0 0 0 0 10.747227396165727 51.829732695490748 0 51.829732695490748 92.281489164510276 0 0 0 0 16.40559936032696 46.448540115579817 0 46.448540115579817 5.5855611172446515 0 0 0 0 19.535324127178683 28.565795162998256 0 28.565795162998256 45.663172342938196 0 0 0 0 -12.084237654037878 16.144314975482075 0 16.144314975482075 3.2845406573634008 0 0 0 0 -3.7628279238961113 10.936122625134885 0 10.936122625134885 -25.607085694566194 0 0 0 0 -21.317131628557945 26.466061077364429 0 26.466061077364429 85.519267434210633 0 0 0 0 -14.610212929304907 40.294145397801913 0 40.294145397801913 88.617786066417466 0 0 0 0 -40.829587497354623 39.4673729439819 0 39.4673729439819 147.21862059811247 0 0 0 0 -45.726055994863145 17.513362732244786 0 17.513362732244786 116.25402248457249 0 0 0 0 -0.16404828696340701 6.3512050346762408 0 6.3512050346762408 96.28403524672467 0 0 0 0 -13.907390897835285 12.528358874638798 0 12.528358874638798 107.85308294781134 0 0 0 0 -9.5314773151136478 18.714386830302828 0 18.714386830302828 83.903340490287519 0 0 0 0 -10.00141635343607 18.064167018266744 0 18.064167018266744 107.80916665750556 0 0 0 0 -3.5170986352051159 15.486347114391407 0 15.486347114391407 -1.6456754531588587 0 0 0 0 -1.3405463386470728 27.46840115867235 0 27.46840115867235 72.140655532981327 0 0 0 0 1.1785130823218424 20.660939665234764 0 20.660939665234764 84.257126008073101 0 0 0 0 4.3105361018442636 13.615242176412721 0 13.615242176412721 78.82545849330927 0 0 0 0 6.2909140149747458 15.605135056849406 0 15.605135056849406 16.237671474799129 0 0 0 0 2.5986041523356107 20.270621838266379 0 20.270621838266379 69.984429772506701 0 0 0 0 11.137993027718039 14.314663657860365 0 14.314663657860365 19.372959709951829 0 0 0 0 1.3451900996106301 7.7455665196980217 0 7.7455665196980217 64.124105523410833 0 0 0 0 0.49308883780698665 1.9953373282959035 0 1.9953373282959035 4.771354415786881 0 0 0 0 -0.32105356477950409 10.679608497492154 0 10.679608497492154 76.96795353066409 0 0 0 0 -4.4866718765365556 -1.0066399106581532 0 -1.0066399106581532 79.861381774120019 0 0 0 0 76.714775041278699 -104.91877731343993 0 -104.91877731343993 -29.87200023294281 0 0 0 0 -0.076163764552294566 -33.582770767323311 0 -33.582770767323311 34.834304805050508 0 0 0 0 -8.191495838848823 0.057267152711574454 0 0.057267152711574454 120.68744857008278 0 0 0 0 0.39984852558063722 -10.569436188612599 0 -10.569436188612599 105.10977460498543 0 0 0 0 0.73208109339338989 -6.8432966686232248 0 -6.8432966686232248 118.4463886508529 0 0 0 0 -19.492337442528878 -5.9220636112877401 0 -5.9220636112877401 133.94547719636466 0 0 0 0 -5.2482544051636069 -24.348793739722169 0 -24.348793739722169 139.64606815247316 0 0 0 0 26.827863811202405 137.85311771828856 0 137.85311771828856 231.14519947139343 0 0 0 0 -6.4421078744862825 -79.099688524132944 0 -79.099688524132944 175.56731386041793 0 0 0 0 5.516198079491005 41.391295555022225 0 41.391295555022225 357.2324086233566 0 0 0 0 22.403482119312685 185.10112732072594 0 185.10112732072594 547.36909181833107 0 0 0 0 -17.011216267200325 -11.494213190107985 0 -11.494213190107985 457.3855225375446 0 0 0 0 15.092132514511832 0.1323705358299776 0 0.1323705358299776 131.60569220030447 0 0 0 0 25.331398258031186 -117.51438454927847 0 -117.51438454927847 69.940748760127462 0 0 0 0 20.423667437764379 68.041329688530823 0 68.041329688530823 38.074582268116501 0 0 0 0 -383.38552399870923 -31.347037408675533 0 -31.347037408675533 43.897123059781734 0 0 0 0 0.4606914875216882 -9.6620788908937332 0 -9.6620788908937332 6.4194157956158335 0 0 0 0 -81.899644540729469 100.45964512457999 0 100.45964512457999 99.757307759857213 0 0 0 0 28.743237870285157 332.00273803554956 0 332.00273803554956 478.19345105919638 0 0 0 0 -80.122901787301089 -220.94257559290418 0 -220.94257559290418 941.99314295751174 0 0 0 0 151.03339182461059 -216.427021962445 0 -216.427021962445 468.58218811452389 0 0 0 0 5.4712147078922193 -3.0657793152619277 0 -3.0657793152619277 15.374582045381089 0 0 0 0 23.022737651153875 -85.865657660338911 0 -85.865657660338911 720.48990225407761 0 0 0 0 -84.632051793327037 152.68000858230425 0 152.68000858230425 1185.6907693340327 0 0 0 0 -94.744433398209367 545.98297636328789 0 545.98297636328789 195.57086840760894 0 0 0 0 -2.4088451855310637 -4.9738222494765836 0 -4.9738222494765836 17.09073387297278 0 0 0 0 222.04780955632305 -390.55093679510173 0 -390.55093679510173 584.92505500942934 0 0 0 0 337.4121529988206 -222.72986282266356 0 -222.72986282266356 283.09687789657619 0 0 0 0 64.381189506990268 -141.84624747291309 0 -141.84624747291309 310.16267803517985 0 0 0 0 310.15600803559937 -149.55363764519279 0 -149.55363764519279 265.5493399053812 0 0 0 0 122.07965582665929 24.569035340842674 0 24.569035340842674 -63.820406892595201 0 0 0 0 41.031938250227405 -43.26701416175537 0 -43.26701416175537 71.044735228511826 0 0 0 0 14.527834256448024 -4.2652493568508305 0 -4.2652493568508305 -12.703859278436056 0 0 0 0 145.57998086360749 -107.06608606560621 0 -107.06608606560621 312.81967745866859 0 0 0 0 115.19340227765497 -113.94983393594157 0 -113.94983393594157 287.39221923624427 0 0 0 0 104.3924359840712 -147.105251934634 0 -147.105251934634 296.9757132101804 0 0 0 0 100.70502022322762 -146.37256790675747 0 -146.37256790675747 340.34852131654043 0 0 0 0 120.22656267184357 -100.29967475734884 0 -100.29967475734884 323.47703227699094 0 0 0 0 141.33562472423364 -143.56341769685969 0 -143.56341769685969 363.77615666125985 0 0 0 0 211.0082541140473 -202.88787223469262 0 -202.88787223469262 365.33639742102241 0 0 0 0 72.084035946052609 -132.00792203409947 0 -132.00792203409947 243.01441317648278 0 0 0 0 55.720149139040586 -112.61613156799285 0 -112.61613156799285 225.93399204993329 0 0 0 0 35.322078268131008 -81.420516249010689 0 -81.420516249010689 286.36527628169279 0 0 0 0 37.071354903671818 -85.911557217888912 0 -85.911557217888912 226.00839419756085 0 0 0 0 55.925262889773876 -77.311852171347709 0 -77.311852171347709 258.19031257202732 0 0 0 0 54.783788382626881 -73.293681620958523 0 -73.293681620958523 330.75881577664404 0 0 0 0 40.26717415782332 -36.064891051093582 0 -36.064891051093582 281.55746204813477 0 0 0 0 57.510426089262182 -24.676051042231848 0 -24.676051042231848 230.08728093412356 0 0 0 0 41.003205714394426 -50.326352614123607 0 -50.326352614123607 213.7290221619478 0 0 0 0 189.1807322392724 -147.50395359539107 0 -147.50395359539107 344.97902648808667 0 0 0 0 77.287056428314827 -100.34385253337678 0 -100.34385253337678 430.70989983686013 0 0 0 0 101.86262149948743 -70.099963395521627 0 -70.099963395521627 293.18733030412113 0 0 0 0 49.231529294855136 -36.232436092141143 0 -36.232436092141143 332.04906596906949 0 0 0 0 77.341317569589592 -38.59815512924979 0 -38.59815512924979 353.85264716790698 0 0 0 0 102.39649910784647 144.28758972247306 0 144.28758972247306 249.02291580125166 0 0 0 0 65.613191075679367 -5.1981112649137913 0 -5.1981112649137913 394.49658335241838 0 0 0 0 72.693047431079322 -5.3990139773668488 0 -5.3990139773668488 201.15161952540802 0 0 0 0 66.031915746629238 29.782662244906533 0 29.782662244906533 257.34023044265632 0 0 0 0 102.84465925351105 75.122130267205648 0 75.122130267205648 163.35409771490231 0 0 0 0 107.54026456051474 34.811296126495108 0 34.811296126495108 122.22299863610533 0 0 0 0 39.16450495889876 -24.057248323282693 0 -24.057248323282693 140.05553900609812 0 0 0 0 49.158308393484731 11.286411290213437 0 11.286411290213437 198.2795994184271 0 0 0 0 46.407813172292663 1.6797074984351639 0 1.6797074984351639 248.63240108620084 0 0 0 0 90.027314961281263 13.355626557624419 0 13.355626557624419 69.309516722481931 0 0 0 0 81.289989384553337 42.118407025240231 0 42.118407025240231 81.664635810710024 0 0 0 0 112.59785541340898 -7.9256009498421918 0 -7.9256009498421918 -9.3120388960815035 0 0 0 0 159.60204848216381 87.172303584477049 0 87.172303584477049 24.494235017271421 0 0 0 0 113.03590591004468 36.964437047587126 0 36.964437047587126 45.06477782955335 0 0 0 0 130.21481839632179 2.2432292704834254 0 2.2432292704834254 -16.153739366360242 0 0 0 0 -128.07279027025413 -53.585007982311708 0 -53.585007982311708 26.465855228190776 0 0 0 0 123.26982643707015 -6.9017553915327881 0 -6.9017553915327881 -24.355509028973756 0 0 0 0 25.789661021586653 -82.772005223509041 0 -82.772005223509041 -17.336762826162158 0 0 0 0 82.638830095071171 -89.194183972445899 0 -89.194183972445899 -125.62877034302073 0 0 0 0 193.06033380507142 41.613102187926415 0 41.613102187926415 -90.104414506742614 0 0 0 0 136.99945475245295 32.407133632790647 0 32.407133632790647 -40.364983010804281 0 0 0 0 105.98827633447218 204.3398950349947 0 204.3398950349947 82.363953780513839 0 0 0 0 102.17819206051718 214.33075414136692 0 214.33075414136692 239.42000069655478 0 0 0 0 28.108608090791677 199.57941386468883 0 199.57941386468883 236.48312266665744 0 0 0 0 26.799928386493775 221.97275945161527 0 221.97275945161527 432.19185263605323 0 0 0 0 97.827920086958329 77.675272772976314 0 77.675272772976314 239.16195743008575 0 0 0 0 -230.69288983647129 476.92048112960765 0 476.92048112960765 1050.0429884948462 0 0 0 0 532.39593388089452 456.63119299032405 0 456.63119299032405 -427.468099620266 0 0 0 0 404.03535799715246 279.84385541061056 0 279.84385541061056 -406.6327254071075 0 0 0 0 -3.1886867023399148 -1.2044968705043573 0 -1.2044968705043573 12.08939952687841 0 0 0 0 -458.93800737283891 -649.57896877903841 0 -649.57896877903841 -1169.4705789134605 0 0 0 0 -347.17997739431667 52.576377295918064 0 52.576377295918064 194.91998667178268 0 0 0 0 -149.79107950337129 -252.815040043919 0 -252.815040043919 -165.03081781545188 0 0 0 0 154.09788965305233 -165.71743810508997 0 -165.71743810508997 -453.68729342799634 0 0 0 0 -20.400899970310661 -16.717600073554877 0 -16.717600073554877 81.502352936135139 0 0 0 0 -102.92507326197665 -20.811703224826488 0 -20.811703224826488 69.175960104184924 0 0 0 0 63.924071116147388 -10.360198497146484 0 -10.360198497146484 31.052131069736788 0 0 0 0 19.397184440758792 -42.253791252420342 0 -42.253791252420342 9.4575626728474163 0 0 0 0 96.777425422500528 -40.020008321051137 0 -40.020008321051137 -41.738749141106382 0 0 0 0 -7.0676346370892134 -94.250631041795714 0 -94.250631041795714 -14.108186917954299 0 0 0 0 -21.423016790355177 -8.8645423427733476 0 -8.8645423427733476 83.104247811832465 0 0 0 0 -13.510079897381729 -20.884974040629459 0 -20.884974040629459 57.859083717456087 0 0 0 0 -18.581531310974242 -12.32569481729297 0 -12.32569481729297 69.718408331948922 0 0 0 0 -1.4295746887826297 2.8240517124414311 0 2.8240517124414311 10.918520521952786 0 0 0 0 -23.131319089534372 -17.712828211238957 0 -17.712828211238957 87.556747186637949 0 0 0 0 -10.947793886578438 -6.0162025545942015 0 -6.0162025545942015 98.130881363758817 0 0 0 0 129.27203063046181 43.664101017151552 0 43.664101017151552 -96.018188350717537 0 0 0 0 10.809786910645926 -1.5032352510170313 0 -1.5032352510170313 -71.342575140355621 0 0 0 0 -45.693692747345267 -62.357551609049551 0 -62.357551609049551 101.10977395041846 0 0 0 0 86.502284617323312 -8.8889114110352239 0 -8.8889114110352239 -93.736192660755478 0 0 0 0 143.53305444563739 58.881266526543186 0 58.881266526543186 -70.57817559815885 0 0 0 0 76.471990622405428 21.985604254703503 0 21.985604254703503 -88.678415589900396 0 0 0 0 35.941025761425408 -34.138043979331997 0 -34.138043979331997 -100.24240231700242 0 0 0 0 97.378668570241416 28.268746439902088 0 28.268746439902088 -19.647513243486173 0 0 0 0 97.775072012893361 40.498094038142881 0 40.498094038142881 32.215838894553599 0 0 0 0 43.64401521030959 23.533463373343693 0 23.533463373343693 90.210065898700122 0 0 0 0 81.905864748503518 2.5842029683626606 0 2.5842029683626606 -10.474042084912071 0 0 0 0 69.098494952053443 -13.647855097216961 0 -13.647855097216961 -4.1827934569737408 0 0 0 0 103.34637551207834 4.4665182952812756 0 4.4665182952812756 -11.091729839390609 0 0 0 0 94.470349441436156 -17.965994581129053 0 -17.965994581129053 -6.5441442849114537 0 0 0 0 100.70721948253777 -9.5377001884044148 0 -9.5377001884044148 0.60707072049262933 0 0 0 0 92.670405585329718 2.8131366046291078 0 2.8131366046291078 9.5577202494896483 0 0 0 0 88.567270418625412 -11.620591651693758 0 -11.620591651693758 -18.195616651064483 0 0 0 0 45.692529856740293 -8.3617509192990838 0 -8.3617509192990838 -34.452258479945158 0 0 0 0 -1.6088716087469948 6.0558101457118809 0 6.0558101457118809 23.519103161225246 0 0 0 0 -34.222876900591132 82.615986572171551 0 82.615986572171551 10.392420399715775 0 0 0 0 233.08974275524452 -423.69410896326735 0 -423.69410896326735 318.93013406891987 0 0 0 0 708.24352050149355 -167.86214171358915 0 -167.86214171358915 107.45650398459111 0 0 0 0 -27.172914750081123 19.765370678837677 0 19.765370678837677 86.978548067039753 0 0 0 0 -115.8367255223402 51.637674922490987 0 51.637674922490987 74.397108840586043 0 0 0 0 -28.658190866050486 5.6797833626642564 0 5.6797833626642564 84.637841719356672 0 0 0 0 213.15451538841694 -266.0360298421283 0 -266.0360298421283 325.6806433378224 0 0 0 0 153.30317992293385 -100.04854758136935 0 -100.04854758136935 288.45853994940262 0 0 0 0 -55.482284589966312 73.525634899937458 0 73.525634899937458 73.080958160688169 0 0 0 0 1.8582746193789603 14.290018556091955 0 14.290018556091955 32.331222342821491 0 0 0 0 -55.627895908470236 -1.8207673443175736 0 -1.8207673443175736 99.395305488578742 0 0 0 0 51.528272180650674 15.024407789045654 0 15.024407789045654 58.639850935724098 0 0 0 0 13.489091960953374 1.7386626725310634 0 1.7386626725310634 165.4326289971068 0 0 0 0 28.939856680495723 -1.1059011052857386 0 -1.1059011052857386 87.167853323873715 0 0 0 0 -5.8793886671810469 -18.682810166523268 0 -18.682810166523268 145.32976277694979 0 0 0 0 23.297404576489726 -26.981138355575695 0 -26.981138355575695 130.04876780850464 0 0 0 0 36.041610137770476 -47.680014687866787 0 -47.680014687866787 163.05406373096866 0 0 0 0 44.324681710531877 -79.111352864245418 0 -79.111352864245418 185.62447301556676 0 0 0 0 21.34355903832784 -56.756613809007831 0 -56.756613809007831 196.7753795919416 0 0 0 0 24.751679958102613 -42.40580427779787 0 -42.40580427779787 235.43794047483243 0 0 0 0 27.787584951169265 -82.577989763565711 0 -82.577989763565711 231.66406339104287 0 0 0 0 71.105183520819992 -124.4213721898559 0 -124.4213721898559 280.12007429846562 0 0 0 0 54.357310221421358 -74.45322361048602 0 -74.45322361048602 218.25676851601747 0 0 0 0 47.865014079805405 -110.69947549350036 0 -110.69947549350036 233.69310752200545 0 0 0 0 31.537174350956775 -79.567477720993338 0 -79.567477720993338 162.01771060410829 0 0 0 0 20.050229839638632 -79.680489976220997 0 -79.680489976220997 219.55465060830466 0 0 0 0 23.969699584617047 -76.897972292026679 0 -76.897972292026679 110.16233677882337 0 0 0 0 -1.3612423318900255 -29.616248820708279 0 -29.616248820708279 175.60643224900559 0 0 0 0 -1.5416974337822467 -76.237399361518328 0 -76.237399361518328 224.51033529507549 0 0 0 0 26.141640836744045 21.858608630849631 0 21.858608630849631 31.633656537196657 0 0 0 0 9.1508158475572756 6.872169607292598 0 6.872169607292598 31.083098541843697 0 0 0 0 186.0172947957326 83.056512568531616 0 83.056512568531616 182.32281582335418 0 0 0 0 5.6068896993882653 5.2772232915659245 0 5.2772232915659245 -13.510555107571037 0 0 0 0 -56.205002248930214 86.947485361295549 0 86.947485361295549 -101.69256182129175 0 0 0 0 -127.29918884975632 -23.679161686650332 0 -23.679161686650332 443.03393608541592 0 0 0 0 -227.21606308525224 -145.58998475324188 0 -145.58998475324188 384.744370241262 0 0 0 0 36.017790986205434 -46.929283084680868 0 -46.929283084680868 6.9069103021603961 0 0 0 0 298.96374860832384 -167.0138731162715 0 -167.0138731162715 -176.90669216074457 0 0 0 0 54.851383138583515 -40.422182880294713 0 -40.422182880294713 93.55007774275191 0 0 0 0 31.029460498500992 -42.565622586745789 0 -42.565622586745789 -13.101366075699243 0 0 0 0 14.164805913955206 -66.454247022760683 0 -66.454247022760683 230.45483931557101 0 0 0 0 37.514021135178609 -75.749196523255705 0 -75.749196523255705 78.826152792935318 0 0 0 0 44.423049592762254 -66.206679787486792 0 -66.206679787486792 228.30049312355186 0 0 0 0 10.980925030527787 -2.0057352948436247 0 -2.0057352948436247 15.640461615010047 0 0 0 0 -3.5191388539414561 -4.7854525856838848 0 -4.7854525856838848 14.662712675673419 0 0 0 0 15.857535161714054 32.573225683171586 0 32.573225683171586 0.9371569641152746 0 0 0 0 84.486734207851441 -22.06248529279037 0 -22.06248529279037 90.598931265368265 0 0 0 0 8.8197567184164516 9.2847204252014919 0 9.2847204252014919 4.9017394657649618 0 0 0 0 2.8415281816540081 -3.2333245892822191 0 -3.2333245892822191 1.555334190936442 0 0 0 0 -14.112770886921936 -16.248301788367826 0 -16.248301788367826 101.76399379124996 0 0 0 0 12.245619187951434 -34.839833660684235 0 -34.839833660684235 52.46839461628042 0 0 0 0 10.57434066489775 -675.88407940637899 0 -675.88407940637899 3500.6363536683748 0 0 0 0 -83.840229227902341 -615.60333325474494 0 -615.60333325474494 3482.6079086725658 0 0 0 0 -128.17472651117438 -663.54824875468785 0 -663.54824875468785 3498.0031523685975 0 0 0 0 164.67876367548962 -533.96424148313326 0 -533.96424148313326 1119.6422340997269 0 0 0 0 5.310199686661818 29.130000604451197 0 29.130000604451197 60.407974686226225 0 0 0 0 -397.42083699362524 300.44404522066543 0 300.44404522066543 1956.8100397999788 0 0 0 0 -455.53813845192883 751.40978381504101 0 751.40978381504101 3500.8888278538725 0 0 0 0 -383.27240218919383 226.38762061878106 0 226.38762061878106 1931.8805643985324 0 0 0 0 -8.6647735146483669 -48.178472284954751 0 -48.178472284954751 784.77091940525133 0 0 0 0 46.424283464035568 376.76987886855386 0 376.76987886855386 1196.4332206470353 0 0 0 0 277.17498096276904 -158.80869702365635 0 -158.80869702365635 -95.335535351150611 0 0 0 0 228.33921263112464 108.85516594549881 0 108.85516594549881 33.970498392842273 0 0 0 0 35.778511265122965 -31.850536624300169 0 -31.850536624300169 4.2198984013516636 0 0 0 0 36.793151112180112 9.5689849782902456 0 9.5689849782902456 15.277158977634826 0 0 0 0 40.446913196727792 -31.62514988201292 0 -31.62514988201292 -50.152325510029186 0 0 0 0 -250.10741008589866 -133.8738733227583 0 -133.8738733227583 145.16229295451194 0 0 0 0 -12.800601765358124 -198.42414160478074 0 -198.42414160478074 -28.95051626823988 0 0 0 0 22.218701913546905 -40.163903132837028 0 -40.163903132837028 61.002561883523313 0 0 0 0 -312.02078182121477 49.721072711938177 0 49.721072711938177 4.6128717164137925 0 0 0 0 27.880974160983897 -556.21203706184315 0 -556.21203706184315 66.22388373596641 0 0 0 0 -197.69656203470277 65.759484536469245 0 65.759484536469245 195.26495473571413 0 0 0 0 51.802028146703378 9.0803745738230646 0 9.0803745738230646 121.02291259860431 0 0 0 0 344.05297412504524 183.58805224816751 0 183.58805224816751 202.26785444709822 0 0 0 0 -50.65883838287391 118.54895075759123 0 118.54895075759123 282.42732735177924 0 0 0 0 12.29663769341505 111.05768790838283 0 111.05768790838283 268.2575266577478 0 0 0 0 -44.349603797189047 130.25907117933457 0 130.25907117933457 260.34827995486194 0 0 0 0 241.28267435731806 98.332325602786568 0 98.332325602786568 138.21742655229173 0 0 0 0 291.47481753432658 -263.63440750837071 0 -263.63440750837071 486.49698558187811 0 0 0 0 -262.7198917578844 -54.449363015533891 0 -54.449363015533891 469.14134491468212 0 0 0 0 15.437759445018218 -29.044512537957999 0 -29.044512537957999 53.234586749815207 0 0 0 0 -255.01007810452666 -331.34518624473276 0 -331.34518624473276 -40.73450533371215 0 0 0 0 683.42310871381437 1390.4989237144673 0 1390.4989237144673 1887.9809129597688 0 0 0 0 576.68967280167851 1717.9489841093737 0 1717.9489841093737 3491.248034483855 0 0 0 0 9.1746204382294678 -11.4593744822253 0 -11.4593744822253 21.349636322260608 0 0 0 0 2690.7983640530474 -1494.3915714967115 0 -1494.3915714967115 265.19063259048562 0 0 0 0 1273.9271849394809 -2835.484188000326 0 -2835.484188000326 2779.9303447722195 0 0 0 0 636.76962251661314 68.017376993120706 0 68.017376993120706 -96.590700322551129 0 0 0 0 200.88409377938513 -1188.5203433488168 0 -1188.5203433488168 1627.5125407491487 0 0 0 0 1190.937575934681 -1079.2878496874382 0 -1079.2878496874382 771.66761843863787 0 0 0 0 713.93878768800926 -2565.5659884249471 0 -2565.5659884249471 3491.7118084960907 0 0 0 0 93.295422894314015 -1823.4809789419669 0 -1823.4809789419669 2611.5767005052912 0 0 0 0 1056.1704295098525 -2347.7871689381282 0 -2347.7871689381282 1911.6308563325001 0 0 0 0 -347.83460452177724 -1884.9505394207154 0 -1884.9505394207154 3501.3787862685108 0 0 0 0 181.25167786809544 -1138.8226242996316 0 -1138.8226242996316 1509.6307460518583 0 0 0 0 371.49365313658211 -511.47643113524464 0 -511.47643113524464 697.86287587248808 0 0 0 0 -104.95071561748944 -546.43698953543208 0 -546.43698953543208 1743.3794144799704 0 0 0 0 190.31958572571739 -266.91258685200592 0 -266.91258685200592 558.50147891025154 0 0 0 0 117.96220190133045 94.980340032921958 0 94.980340032921958 214.16755204752553 0 0 0 0 197.08872564252033 -241.45720046481438 0 -241.45720046481438 230.45936897861611 0 0 0 0 -72.134681106311575 -131.65927854404072 0 -131.65927854404072 737.49405859458057 0 0 0 0 339.37850927374393 -520.9400199330604 0 -520.9400199330604 -103.47794322245261 0 0 0 0 137.43113587042035 44.362754105437659 0 44.362754105437659 49.682323744054202 0 0 0 0 152.60938241501458 252.97562399375647 0 252.97562399375647 908.85068646636682 0 0 0 0 612.8351981055871 4.9816022092077219 0 4.9816022092077219 -166.27890956630773 0 0 0 0 -29.506901875298354 11.77755930100875 0 11.77755930100875 52.499633674529605 0 0 0 0 81.920755133892271 -182.34008358726331 0 -182.34008358726331 -208.28678332008818 0 0 0 0 216.94604500455853 30.903626865795754 0 30.903626865795754 -296.2668494248577 0 0 0 0 -6.4445707040067646 -60.638201341248589 0 -60.638201341248589 -49.847416861532963 0 0 0 0 2.6827620122434528 2.4991785285392094 0 2.4991785285392094 14.001224667493803 0 0 0 0 32.331562064306127 237.86233181460256 0 237.86233181460256 -92.586658378230482 0 0 0 0 58.294536657838762 52.460354534916249 0 52.460354534916249 52.61874927555948 0 0 0 0 -0.70424680444835275 -0.16446144415754271 0 -0.16446144415754271 3.4736325663094827 0 0 0 0 60.344137123938708 165.41809888371955 0 165.41809888371955 -286.64304538996379 0 0 0 0 6.3498281273395518 -23.717689368490689 0 -23.717689368490689 64.218179882484677 0 0 0 0 1.7943167446884143 -6.6221522677664648 0 -6.6221522677664648 16.091920806840648 0 0 0 0 -221.97078303401577 -403.98791582840835 0 -403.98791582840835 -67.061422422154692 0 0 0 0 -8.5780202612586436 -1.0338641200064558 0 -1.0338641200064558 59.855101872618889 0 0 0 0 1.3949413501186427 -61.334854189392217 0 -61.334854189392217 -370.12449667826445 0 0 0 0 -2.6695570925753822 4.7163288878182827 0 4.7163288878182827 41.437248114072609 0 0 0 0 -199.92959132780743 -13.16236260851656 0 -13.16236260851656 124.49302210289716 0 0 0 0 -72.881419849695703 91.79438999363083 0 91.79438999363083 20.473558151412362 0 0 0 0 -46.751382052837471 -43.177903273988704 0 -43.177903273988704 159.12693245446371 0 0 0 0 90.119945108098591 -59.091486997295306 0 -59.091486997295306 -103.41255958815236 0 0 0 0 -41.345562500972846 190.8147408850582 0 190.8147408850582 254.32614371944055 0 0 0 0 49.489932558752287 153.95299463258652 0 153.95299463258652 243.7414755102327 0 0 0 0 -58.201017894085453 141.08499219217265 0 141.08499219217265 251.95152458405573 0 0 0 0 8.8566983424948376 33.892274573302529 0 33.892274573302529 357.59806576213305 0 0 0 0 -15.566743773597636 -46.310900374379344 0 -46.310900374379344 117.79224389846058 0 0 0 0 97.839875029564155 82.311081317282515 0 82.311081317282515 169.38191541447668 0 0 0 0 -96.805032274612131 -71.173977658159856 0 -71.173977658159856 201.21511028307214 0 0 0 0 45.507208687248976 -119.67586631864651 0 -119.67586631864651 206.99356056765464 0 0 0 0 -111.31198566389412 47.418164200595129 0 47.418164200595129 83.373808969306992 0 0 0 0 -69.923755244057247 -110.84289718072614 0 -110.84289718072614 3.9695751913959612 0 0 0 0 -289.18279313735957 -181.80126282965011 0 -181.80126282965011 155.54131548034275 0 0 0 0 5.2434219777443394 -16.131984389116646 0 -16.131984389116646 44.045423870304724 0 0 0 0 -702.87233289647691 -338.81617539591252 0 -338.81617539591252 957.04469768591025 0 0 0 0 183.04833403905445 98.868975069516182 0 98.868975069516182 331.3024225499662 0 0 0 0 176.00484075727672 -289.00069056224311 0 -289.00069056224311 198.82173498336397 0 0 0 0 14.511333381461554 -66.410106285597067 0 -66.410106285597067 122.70119793406775 0 0 0 0 -26.362677700918312 -29.053317527284889 0 -29.053317527284889 -70.945805983075843 0 0 0 0 122.02903749958114 -342.75957386812297 0 -342.75957386812297 179.3059868853743 0 0 0 0 897.54068127243158 -432.29325976840937 0 -432.29325976840937 6.2255867229978321 0 0 0 0 261.21015299570217 -674.20793409397811 0 -674.20793409397811 212.84932276748077 0 0 0 0 -46.353978983846901 -416.9254700521642 0 -416.9254700521642 161.63721112590429 0 0 0 0 513.53444997145198 -235.33924326664783 0 -235.33924326664783 -50.751457025210129 0 0 0 0 659.6546106429405 -871.74090097034787 0 -871.74090097034787 420.57184073817916 0 0 0 0 168.87093153328533 -824.12218054628465 0 -824.12218054628465 744.24184124264866 0 0 0 0 337.21953444134306 -591.31258088380127 0 -591.31258088380127 191.38825303476824 0 0 0 0 -138.63196108077818 -664.72189249285475 0 -664.72189249285475 661.85080815122274 0 0 0 0 2.2230680522691344 -4.5023076473715058 0 -4.5023076473715058 16.436336307376688 0 0 0 0 -27.766511660728639 144.33677587425478 0 144.33677587425478 422.74317710087053 0 0 0 0 -288.32540159885889 2619.8690089786965 0 2619.8690089786965 575.74024090672901 0 0 0 0 13.125893989967679 -12.771827482958201 0 -12.771827482958201 17.74550001787809 0 0 0 0 157.54098437499579 -30.557777155153644 0 -30.557777155153644 3.3309661762555152 0 0 0 0 -1.2116748447601822 -5.2580761655402739 0 -5.2580761655402739 62.947205482103982 0 0 0 0 13.513538873671795 -6.0457865377723339 0 -6.0457865377723339 7.1523812693398847 0 0 0 0 -479.09505504502226 223.75923860432295 0 223.75923860432295 1350.2649988293033 0 0 0 0 264.31588600379587 790.87362497636559 0 790.87362497636559 1127.3110370470522 0 0 0 0 0.75372372297384871 -4.0192282522637583 0 -4.0192282522637583 9.2740220723341977 0 0 0 0 102.52781732074391 -346.80931962375701 0 -346.80931962375701 797.24212298517034 0 0 0 0 28.626864216604645 -275.68453268436463 0 -275.68453268436463 740.11218530734448 0 0 0 0 6.1193268021486951 -1.2802518916267129 0 -1.2802518916267129 -0.12827230588797439 0 0 0 0 337.22794274648186 -66.471705836967942 0 -66.471705836967942 -38.205767516056767 0 0 0 0 202.99114273758642 35.493375326558521 0 35.493375326558521 -76.829088477634741 0 0 0 0 217.27044012304839 -303.53955351130872 0 -303.53955351130872 453.52794300834711 0 0 0 0 106.89330426559991 276.35785306644118 0 276.35785306644118 457.95167504417248 0 0 0 0 -39.118849099232193 151.62344311312842 0 151.62344311312842 360.04091514318475 0 0 0 0 295.09182607945331 -243.31090659367771 0 -243.31090659367771 576.86260726466423 0 0 0 0 -59.277665208162944 156.72000497927809 0 156.72000497927809 472.78561706494202 0 0 0 0 -26.013021714061779 -147.07659758700851 0 -147.07659758700851 -58.918735371145203 0 0 0 0 -23.444901254409842 -160.8713863548389 0 -160.8713863548389 -33.93877984326096 0 0 0 0 -174.12708161565661 301.41929929053146 0 301.41929929053146 156.61596400540654 0 0 0 0 -44.31043538709082 184.99776532990401 0 184.99776532990401 260.63516497891499 0 0 0 0 -357.72468979918267 284.90266786582026 0 284.90266786582026 370.64966141238699 0 0 0 0 -284.33537604030926 172.87893904692004 0 172.87893904692004 505.97864691315846 0 0 0 0 -224.25174109936506 -18.363103067762012 0 -18.363103067762012 162.59950957178336 0 0 0 0 -0.81001730509586212 -0.22824112378958272 0 -0.22824112378958272 4.9997377168208299 0 0 0 0 -14.799722348080579 28.096728540869094 0 28.096728540869094 -20.31957643645373 0 0 0 0 -66.912991141751263 -31.266006326495699 0 -31.266006326495699 518.37248988966167 0 0 0 0 250.26209428398579 -49.663041327909013 0 -49.663041327909013 -16.872484273335431 0 0 0 0 -229.52048864202152 375.33476322819513 0 375.33476322819513 792.62575149660802 0 0 0 0 209.06792249123464 -194.41178598064653 0 -194.41178598064653 139.43643550524575 0 0 0 0 -58.196849941244842 15.098617176590041 0 15.098617176590041 145.86310279610089 0 0 0 0 258.47587309296796 -317.83739193128531 0 -317.83739193128531 517.46198483271291 0 0 0 0 -388.56556318506762 -401.01433428748908 0 -401.01433428748908 -34.112460190521347 0 0 0 0 -106.85697644378979 211.65292177417064 0 211.65292177417064 451.05075768206427 0 0 0 0 -81.524427391688732 246.27929735721443 0 246.27929735721443 -240.61610965565893 0 0 0 0 89.80662941285118 -96.297455727348279 0 -96.297455727348279 115.27785187355403 0 0 0 0 -65.379126200579165 10.389189376446559 0 10.389189376446559 117.77859680226497 0 0 0 0 141.43393493666372 -130.15229687457759 0 -130.15229687457759 80.749658950575395 0 0 0 0 -106.26727036459124 229.52202399934367 0 229.52202399934367 -250.03678737211146 0 0 0 0 -35.236375123534913 20.55122086710363 0 20.55122086710363 -8.8801113494166657 0 0 0 0 12.174822989474869 6.1578044796484512 0 6.1578044796484512 55.597130981695329 0 0 0 0 31.719825019245036 -13.617988698591944 0 -13.617988698591944 124.58067522442434 0 0 0 0 95.273392508512188 -3.6977645338156435 0 -3.6977645338156435 51.148260790763743 0 0 0 0 -52.381737557087945 -68.744391977167993 0 -68.744391977167993 48.211835982871662 0 0 0 0 90.235183670392871 187.00520847508005 0 187.00520847508005 -235.29727515129787 0 0 0 0 49.233647637983722 -10.123416303937773 0 -10.123416303937773 -25.212251949760116 0 0 0 0 -10.496298375510378 23.769951851061705 0 23.769951851061705 -17.821933851028462 0 0 0 0 -125.70498907987985 331.22562624814645 0 331.22562624814645 283.81739921366795 0 0 0 0 0.68836929409272152 0.78947090912573703 0 0.78947090912573703 0.69212055608206291 0 0 0 0 -0.75984696650653838 0.76271361367769508 0 0.76271361367769508 -6.9136639909862074 0 0 0 0 10.560737356440768 15.440832175773949 0 15.440832175773949 -17.504128329827154 0 0 0 0 -172.45001820934522 188.79611819813587 0 188.79611819813587 -193.2046606788571 0 0 0 0 -24.660446749647278 23.785763418679764 0 23.785763418679764 21.673706423871263 0 0 0 0 -8.1808849925964751 15.83366670690296 0 15.83366670690296 -9.0833314551695423 0 0 0 0 2.2348921250618332 6.2506752537520924 0 6.2506752537520924 -16.184520487931309 0 0 0 0 -67.207185148645294 255.46027317022015 0 255.46027317022015 -194.61019326352459 0 0 0 0 1.9127132808335627 2.7656604183487459 0 2.7656604183487459 -3.1568762110340844 0 0 0 0 -15.866150583334274 38.730925024970446 0 38.730925024970446 -446.27643205415609 0 0 0 0 0.22053471548885639 14.842270961221789 0 14.842270961221789 -10.729495992853309 0 0 0 0 1.0164457091304939 8.3798325314510294 0 8.3798325314510294 -18.209344721763046 0 0 0 0 -12.568187544143797 21.897833337758794 0 21.897833337758794 1.3055450388487273 0 0 0 0 8.2681529371584475 85.296933498520957 0 85.296933498520957 -29.632951394016345 0 0 0 0 -2.1706078117235723 10.444288748929454 0 10.444288748929454 5.9989453570551161 0 0 0 0 -46.10312178062577 34.954149274666634 0 34.954149274666634 101.15958851296818 0 0 0 0 -9.5073016811184061 25.65094316120485 0 25.65094316120485 37.941559175778821 0 0 0 0 -32.257517545427618 53.034591418212585 0 53.034591418212585 124.70074422290782 0 0 0 0 -5.0524115328107655 1.0916465827485808 0 1.0916465827485808 171.03296492108348 0 0 0 0 114.61821637723551 19.08202198827712 0 19.08202198827712 123.99902181338052 0 0 0 0 -11.575519088459487 -15.729640190168084 0 -15.729640190168084 49.393892502066592 0 0 0 0 -23.863071235762618 88.18023317931511 0 88.18023317931511 122.24692712590331 0 0 0 0 114.94896120031262 -16.573748960197918 0 -16.573748960197918 31.503074648182519 0 0 0 0 20.382006613504927 -19.860896885667898 0 -19.860896885667898 19.984303786847704 0 0 0 0 6.0750232956812198 -7.0178091185933518 0 -7.0178091185933518 26.28622793739094 0 0 0 0 2.7764132250576949 -35.525614613748985 0 -35.525614613748985 149.96726959727312 0 0 0 0 39.624784170599014 58.63697783851967 0 58.63697783851967 178.82648423587671 0 0 0 0 1.2078521194054446 -3.662464243135048 0 -3.662464243135048 4.0747565694701287 0 0 0 0 1.2487230752910143 -1.9179421966967283 0 -1.9179421966967283 2.3595476754626645 0 0 0 0 80.344031093871308 42.410303401640704 0 42.410303401640704 136.60207759274272 0 0 0 0 82.693569874671084 68.881059014172934 0 68.881059014172934 161.48053085556603 0 0 0 0 97.357718702476632 56.118506799470197 0 56.118506799470197 115.85905799754255 0 0 0 0 87.379052849279105 51.723651292133582 0 51.723651292133582 115.3934572160797 0 0 0 0 120.13407393219677 29.879975433377695 0 29.879975433377695 93.796799894746982 0 0 0 0 82.158156477171076 6.7780018152320736 0 6.7780018152320736 87.203782601900457 0 0 0 0 30.193877561083355 41.743006238819362 0 41.743006238819362 136.44159826342548 0 0 0 0 35.614715900683223 58.417421555492183 0 58.417421555492183 140.9066403222796 0 0 0 0 -6.3580397171617733 -11.92057682642735 0 -11.92057682642735 114.56647732840065 0 0 0 0 -12.228033775405493 12.750746864121083 0 12.750746864121083 149.46170362220437 0 0 0 0 43.739289066372294 2.9203731966699706 0 2.9203731966699706 124.7762879675879 0 0 0 0 15.939779335335331 -5.7386882647983448 0 -5.7386882647983448 23.276061994101127 0 0 0 0 175.82357622702875 -207.89130680905328 0 -207.89130680905328 158.4455150487338 0 0 0 0 -5.6165764865618257 -175.80328894264858 0 -175.80328894264858 98.611114621438901 0 0 0 0 137.158944774259 -20.473251163773966 0 -20.473251163773966 213.61748529558463 0 0 0 0 132.12035753449891 -71.036489385664026 0 -71.036489385664026 154.50838597080838 0 0 0 0 55.813682641651297 -24.868153960631261 0 -24.868153960631261 6.8934420939255467 0 0 0 0 14.046231966562118 -8.5387387330229103 0 -8.5387387330229103 65.125877779089933 0 0 0 0 22.600620874705783 -54.345228889200371 0 -54.345228889200371 86.975941184788098 0 0 0 0 39.491379145774772 -39.036196698139975 0 -39.036196698139975 98.761841970119349 0 0 0 0 20.379437033524951 -17.751932135828945 0 -17.751932135828945 9.5785718093985412 0 0 0 0 49.44940584029424 -29.393892688386131 0 -29.393892688386131 23.178291013500829 0 0 0 0 175.4976218255506 85.107646491258492 0 85.107646491258492 88.77190484744915 0 0 0 0 323.19728321201546 -369.78746694806341 0 -369.78746694806341 47.256246161690797 0 0 0 0 82.4742569538721 -11.721880369610517 0 -11.721880369610517 48.053677719904954 0 0 0 0 2.0145945981840079 3.0945162429339437 0 3.0945162429339437 1.8201372516385916 0 0 0 0 4.6440428067140473 14.091323556114958 0 14.091323556114958 17.851901981302291 0 0 0 0 -19.334702666850717 83.180122133269833 0 83.180122133269833 9.6772979994780144 0 0 0 0 -129.68020436559527 -92.667186541762931 0 -92.667186541762931 295.87874483021187 0 0 0 0 38.102175140598774 -83.449501391856757 0 -83.449501391856757 67.329905380101991 0 0 0 0 73.42197621077139 -22.041261295977165 0 -22.041261295977165 82.654527358333326 0 0 0 0 13.223134834981572 5.2719746208367582 0 5.2719746208367582 12.696457224923414 0 0 0 0 -1.2380112859115115 4.4363521671191393 0 4.4363521671191393 62.387273642521905 0 0 0 0 8.0968970731039143 5.5132075987547644 0 5.5132075987547644 18.640960441259466 0 0 0 0 47.061773995268595 -50.17913522688832 0 -50.17913522688832 66.474170205692644 0 0 0 0 -14.466765584897075 403.70868879520094 0 403.70868879520094 249.34049020153179 0 0 0 0 382.88000660420528 -914.2342060868541 0 -914.2342060868541 3497.870276242802 0 0 0 0 368.67627530422732 -1185.2906437574429 0 -1185.2906437574429 3575.2115348602165 0 0 0 0 30.824486109320087 -7.2996488709355702 0 -7.2996488709355702 8.0115938893326692 0 0 0 0 487.27113766340761 -176.49731234293722 0 -176.49731234293722 81.799049013012336 0 0 0 0 1.7621552670243719 -5.2366791339073799 0 -5.2366791339073799 11.762950689262986 0 0 0 0 8.4813271513084061 -8.6806817158782366 0 -8.6806817158782366 2.5550798563305008 0 0 0 0 228.19537117164401 -855.61693369884233 0 -855.61693369884233 2876.8294555755192 0 0 0 0 -57.444522945323115 -73.48214570086202 0 -73.48214570086202 89.402975933007838 0 0 0 0 -50.01082508222953 -75.983846945333426 0 -75.983846945333426 79.501257109317521 0 0 0 0 -62.811186290802652 -42.674872265324666 0 -42.674872265324666 264.04193247676449 0 0 0 0 -23.286451781941651 -47.763463349147969 0 -47.763463349147969 69.190155192351085 0 0 0 0 -41.983281434822857 9.1898198469880299 0 9.1898198469880299 388.75031055912041 0 0 0 0 166.05117932507528 -371.97656442597872 0 -371.97656442597872 77.990804588142055 0 0 0 0 53.405941438299124 106.03017247329899 0 106.03017247329899 314.48818435298381 0 0 0 0 30.777139033660333 -11.380678538593099 0 -11.380678538593099 5.7058998516110364 0 0 0 0 208.08326653109714 302.85556323436049 0 302.85556323436049 703.0329987323621 0 0 0 0 119.75499598964052 -79.417601181761711 0 -79.417601181761711 -211.63491287053512 0 0 0 0 -108.01884170870274 -875.32080406138994 0 -875.32080406138994 3558.7197316812744 0 0 0 0 7.9904648264124525 -5.2118576912177694 0 -5.2118576912177694 12.885019775445546 0 0 0 0 -79.411847856609242 39.477727324696389 0 39.477727324696389 3487.8325284388302 0 0 0 0 -55.188532269135749 -80.403567182062943 0 -80.403567182062943 14.231619397934992 0 0 0 0 5.6917230289745797 3.8073116707425143 0 3.8073116707425143 4.015598529178618 0 0 0 0 -970.04520796784789 -2258.917654546407 0 -2258.917654546407 3433.2163837051539 0 0 0 0 8.2082508650291857 4.1004202331914712 0 4.1004202331914712 18.172654974566285 0 0 0 0 13.818365124342783 -12.126049761455718 0 -12.126049761455718 36.81295918133921 0 0 0 0 13.401351698920442 -0.6965021559259057 0 -0.6965021559259057 28.900647702775601 0 0 0 0 289.79311210526146 -82.766230592740612 0 -82.766230592740612 48.010268438149069 0 0 0 0 13.713183142915716 8.63782100808114 0 8.63782100808114 7.4595506682296175 0 0 0 0 16.304121183099127 11.570333753505377 0 11.570333753505377 10.980456370635846 0 0 0 0 59.551647769026118 -369.2078187324405 0 -369.2078187324405 2959.7974997363017 0 0 0 0 -2.2569777837138645 49.997771356328371 0 49.997771356328371 -14.529033346106189 0 0 0 0 -38.346454879830951 449.73983896740424 0 449.73983896740424 3496.0175032349825 0 0 0 0 -70.975516237926058 78.540771112777293 0 78.540771112777293 37.158481502921632 0 0 0 0 7.1937041173616905 1.0847629124012688 0 1.0847629124012688 30.063919485906354 0 0 0 0 271.82489767915223 67.298751975249843 0 67.298751975249843 -135.60670009905925 0 0 0 0 5.9586398483599572 3.3930016431135162 0 3.3930016431135162 4.0619065451401095 0 0 0 0 72.402598888323027 -498.37029196343008 0 -498.37029196343008 3501.1196465846201 0 0 0 0 -71.442622954012563 77.632936509034394 0 77.632936509034394 258.76843838006789 0 0 0 0 78.36422601401523 -107.97110096104291 0 -107.97110096104291 94.488093712801856 0 0 0 0 -74.993123230252422 -128.52062280305569 0 -128.52062280305569 304.9881556199698 0 0 0 0 -76.460986472110108 -76.10217701516558 0 -76.10217701516558 87.931325732013647 0 0 0 0 3.0444324665269153 -17.33101949204071 0 -17.33101949204071 64.661486233552637 0 0 0 0 -2.2740766913544501 2.8238063496765 0 2.8238063496765 12.758801099551251 0 0 0 0 -48.158530921109559 72.74265073802907 0 72.74265073802907 177.97577695822065 0 0 0 0 -78.498534099889184 -89.92790800210787 0 -89.92790800210787 85.032460067089914 0 0 0 0 -3.022981947153812 -14.813279921610317 0 -14.813279921610317 70.600094097266904 0 0 0 0 -71.884891069614696 -18.46655024665597 0 -18.46655024665597 91.787669469907996 0 0 0 0 -45.575007390887549 12.361465311952998 0 12.361465311952998 114.35141406511866 0 0 0 0 -18.989995268204325 -29.578143004475123 0 -29.578143004475123 20.859526863144069 0 0 0 0 -6.5352425900582052 -11.694428269897381 0 -11.694428269897381 3.4946794716557572 0 0 0 0 -29.949883746171963 -121.26831250716009 0 -121.26831250716009 103.06864543143132 0 0 0 0 23.054420117269899 -36.145119642808723 0 -36.145119642808723 40.891778593678907 0 0 0 0 3.0963609379683135 10.185348730869293 0 10.185348730869293 25.880660092512244 0 0 0 0 0.35139921689800557 3.1137857894394498 0 3.1137857894394498 19.44299268285025 0 0 0 0 -45.449687079507385 41.898859312894274 0 41.898859312894274 78.347278502882546 0 0 0 0 -7.0159821327893042 13.759776697233944 0 13.759776697233944 32.077840936003902 0 0 0 0 -2.0320702026101571 3.5629189171077087 0 3.5629189171077087 26.043657461205385 0 0 0 0 -12.28147651309925 9.2065923652692163 0 9.2065923652692163 113.81144518441124 0 0 0 0 122.6874869831525 68.111303174938115 0 68.111303174938115 -87.494054049446049 0 0 0 0 -2.5646663071439946 -1.7387426302882432 0 -1.7387426302882432 75.973549796003681 0 0 0 0 -5.2876486286091904 -48.34525707598948 0 -48.34525707598948 -2.7779860534134286 0 0 0 0 -11.707299904829657 17.531358115286725 0 17.531358115286725 24.200935050315298 0 0 0 0 -0.33068365207331762 14.141220769999585 0 14.141220769999585 7.8902211341401713 0 0 0 0 16.629650082396438 -14.104727124213241 0 -14.104727124213241 61.330994970761822 0 0 0 0 3.8016803164732664 -16.434653308756197 0 -16.434653308756197 -33.773728170521395 0 0 0 0 -19.216052997693964 -30.631686470067962 0 -30.631686470067962 25.385641570968005 0 0 0 0 -8.858556145892976 -21.588351959412307 0 -21.588351959412307 4.7563287032055541 0 0 0 0 13.212052093916554 26.588561502669563 0 26.588561502669563 92.920119081012786 0 0 0 0 -18.171276889844449 -37.551056964050986 0 -37.551056964050986 50.157848337405994 0 0 0 0 48.312372107572457 62.652305410184169 0 62.652305410184169 50.936994274707331 0 0 0 0 57.060396718400483 -127.52106884490301 0 -127.52106884490301 985.11775885760756 0 0 0 0 34.986196442704795 38.415259620041525 0 38.415259620041525 28.871092938269385 0 0 0 0 -1.3663977639886553 -1.7850889626897599 0 -1.7850889626897599 -3.5382504620309381 0 0 0 0 43.316739363784563 -21.761598355521187 0 -21.761598355521187 573.37696711635317 0 0 0 0 658.50874964647733 614.24879552535026 0 614.24879552535026 492.6002845266699 0 0 0 0 -500.68423986856499 72.780004849314849 0 72.780004849314849 1044.2727095030273 0 0 0 0 -574.27178558753633 617.74968204039726 0 617.74968204039726 3493.6721689610381 0 0 0 0 -441.30535427659623 -536.86778816181129 0 -536.86778816181129 3494.321830054681 0 0 0 0 506.39330979418372 -954.88251717998003 0 -954.88251717998003 1185.4894309031163 0 0 0 0 374.21486065077193 1452.3313866589524 0 1452.3313866589524 2134.9258315896441 0 0 0 0 613.18709847565196 433.26748892735714 0 433.26748892735714 218.56745445098204 0 0 0 0 487.82257795429098 885.53293545405359 0 885.53293545405359 869.80539977237822 0 0 0 0 1.3146401050988332 -0.29595234659868885 0 -0.29595234659868885 16.54450204485255 0 0 0 0 409.59042519597483 -1.7630438014632546 0 -1.7630438014632546 -105.07154945168622 0 0 0 0 281.44919028664208 -101.42281651458751 0 -101.42281651458751 33.775872593775262 0 0 0 0 90.591445085844782 273.17953551592689 0 273.17953551592689 -190.841261990151 0 0 0 0 78.463097063789505 -1478.4109421713119 0 -1478.4109421713119 3496.769457798463 0 0 0 0 -283.19263278038335 -160.63584697509486 0 -160.63584697509486 1489.4197460397338 0 0 0 0 -578.1462635602951 732.42869373556823 0 732.42869373556823 3494.9994387143538 0 0 0 0 -274.69694671340676 -188.14344110338834 0 -188.14344110338834 1568.840998270236 0 0 0 0 -361.36426391978659 5.7451435479642896 0 5.7451435479642896 2640.8816228150308 0 0 0 0 -7.393042884828624 2.7047515077889699 0 2.7047515077889699 7.4304540142412012 0 0 0 0 391.18066102207592 0.15265024225209345 0 0.15265024225209345 412.80231899683531 0 0 0 0 87.559972034850034 101.29329821445162 0 101.29329821445162 81.334300548255669 0 0 0 0 -309.58401058709126 -84.080907409530482 0 -84.080907409530482 1573.213405620073 0 0 0 0 31.505986581507841 -152.31455877497501 0 -152.31455877497501 -11.697790625932612 0 0 0 0 -8.2916713022397399 -0.4204386189003877 0 -0.4204386189003877 10.094754280764029 0 0 0 0 -223.67877542251131 96.201994741344606 0 96.201994741344606 90.705939728261001 0 0 0 0 -312.28770862100316 -62.50971191856388 0 -62.50971191856388 1490.5512554284862 0 0 0 0 4.2675020890106925 15.07938556680871 0 15.07938556680871 23.841995216796459 0 0 0 0 -0.57072554753743665 9.5436544942275425 0 9.5436544942275425 4.8029554644550743 0 0 0 0 -0.29768924018452481 7.8607225307264343 0 7.8607225307264343 21.055499805173895 0 0 0 0 2.1303082884148239 21.793205921866502 0 21.793205921866502 8.10339564053902 0 0 0 0 13.002605431664506 41.147481664039333 0 41.147481664039333 55.521806126068441 0 0 0 0 -0.15348262567619031 8.8186929718419407 0 8.8186929718419407 10.99851407346576 0 0 0 0 4.5781375307900847 11.468731975867858 0 11.468731975867858 12.660020954579004 0 0 0 0 -0.13694752215428707 8.8781954291687271 0 8.8781954291687271 11.463275817321119 0 0 0 0 12.584559162987716 18.177099998625636 0 18.177099998625636 49.364976310542261 0 0 0 0 -0.72914592571260073 19.404473715170752 0 19.404473715170752 54.511824421118945 0 0 0 0 -8.899700241332539 -18.206440278678201 0 -18.206440278678201 53.287923120968117 0 0 0 0 -0.26675725915827231 -0.023553955439822971 0 -0.023553955439822971 8.9361876585715265 0 0 0 0 5.812730793549008 6.4216142490295169 0 6.4216142490295169 17.647006617648003 0 0 0 0 10.022350803856625 11.01949577603591 0 11.01949577603591 22.519834784150589 0 0 0 0 3.9459958722266606 4.2695307638787199 0 4.2695307638787199 24.427133135955955 0 0 0 0 3.9775013201060574 4.7360583640866025 0 4.7360583640866025 18.391591528263234 0 0 0 0 4.3756215626156063 -3.4050158188183559 0 -3.4050158188183559 17.407669652457116 0 0 0 0 10.513607180795361 13.060797587288107 0 13.060797587288107 34.723775986443798 0 0 0 0 4.8122194428656258 -0.49367474272366962 0 -0.49367474272366962 30.078712676502619 0 0 0 0 -12.110818771888717 6.965569357313143 0 6.965569357313143 41.351825665857177 0 0 0 0 -8.4718766273072106 -3.2858639784080879 0 -3.2858639784080879 43.100294986043082 0 0 0 0 -12.955394962305149 5.5006509218728752 0 5.5006509218728752 53.338969190237549 0 0 0 0 -101.49590964002903 92.910544508649537 0 92.910544508649537 27.177663812755902 0 0 0 0 -78.433025630574264 27.541872066381529 0 27.541872066381529 -44.396966200701627 0 0 0 0 -60.127039955570012 -12.09498901940151 0 -12.09498901940151 19.463772614057234 0 0 0 0 0.57382496619720769 -60.584106366918604 0 -60.584106366918604 -6.648850827109527 0 0 0 0 -250.93045120231849 118.84591783723505 0 118.84591783723505 147.47794409938138 0 0 0 0 -3.5100526010876556 6.9245183999316167 0 6.9245183999316167 42.946547616536662 0 0 0 0 0.35039691871763423 13.662544981806313 0 13.662544981806313 7.021324639319765 0 0 0 0 2.7077092659376971 15.938133131891503 0 15.938133131891503 -14.746523770767467 0 0 0 0 -2.1822797510132435 34.982231548620007 0 34.982231548620007 28.950391139390391 0 0 0 0 1.6109428389810958 9.9429109618795621 0 9.9429109618795621 -71.665147678126232 0 0 0 0 -5.9595786178592789 20.163502949988469 0 20.163502949988469 8.7281686570504462 0 0 0 0 -1.7207897601717468 3.1329952660634532 0 3.1329952660634532 23.240930073052738 0 0 0 0 2.5627047203442999 -3.4408552661043359 0 -3.4408552661043359 34.017236760657397 0 0 0 0 1.3827009755470385 7.9691479962884841 0 7.9691479962884841 12.912811832575244 0 0 0 0 -3.1203484287666541 0.30715878165695898 0 0.30715878165695898 13.483686852082553 0 0 0 0 1.8099682440495344 9.0683825217988208 0 9.0683825217988208 7.8991138763676645 0 0 0 0 0.31480316411671083 5.6590687918760523 0 5.6590687918760523 21.106937536136684 0 0 0 0 3.9428381723269013 -0.58666199752042303 0 -0.58666199752042303 20.203523593132559 0 0 0 0 4.0522968650450935 1.5821500466871612 0 1.5821500466871612 8.1465422623150516 0 0 0 0 6.7460754495423316 -6.2374424356057716 0 -6.2374424356057716 13.011927698802538 0 0 0 0 -2.1413943119333698 15.399108951241821 0 15.399108951241821 15.24887768456162 0 0 0 0 -5.1350143811046109 24.898503634699239 0 24.898503634699239 6.6796150901275553 0 0 0 0 -27.909423340657668 62.812664150686942 0 62.812664150686942 -51.001608291284356 0 0 0 0 64.274197138545787 41.533940418488783 0 41.533940418488783 -159.04187311118767 0 0 0 0 -50.954184695769072 31.09356381636826 0 31.09356381636826 -9.3691027400236635 0 0 0 0 1.7947111303898922 1.982033262473017 0 1.982033262473017 1.0298494525342186 0 0 0 0 8.9284122101767025 31.11602307229623 0 31.11602307229623 -63.858126925081706 0 0 0 0 11.744736500613271 -23.336893881218202 0 -23.336893881218202 19.753786365268752 0 0 0 0 69.197216334640416 129.80183361571108 0 129.80183361571108 262.68409381775109 0 0 0 0 0.07335598576842095 1.146929583716954 0 1.146929583716954 3.0417313613725341 0 0 0 0 1.9418612828621917 -3.7242339515069034 0 -3.7242339515069034 -23.181069016965921 0 0 0 0 -264.23092892708019 443.45804723592119 0 443.45804723592119 227.51953863564631 0 0 0 0 -72.521131501016484 -186.36198192421534 0 -186.36198192421534 218.94998669861889 0 0 0 0 -0.49316868503624911 -1.0913546714064317 0 -1.0913546714064317 1.3277848925545754 0 0 0 0 -153.75787613693637 29.076014768149435 0 29.076014768149435 598.05069775593438 0 0 0 0 -113.23457099622738 -288.76777061325765 0 -288.76777061325765 1288.0024012280228 0 0 0 0 -15.219222768150729 -174.95030444136955 0 -174.95030444136955 593.39608781332208 0 0 0 0 1.3676692580469307 -103.62489886941148 0 -103.62489886941148 450.27678594725512 0 0 0 0 355.42902296264663 -458.42456875981452 0 -458.42456875981452 706.36188752228554 0 0 0 0 742.70445294934029 271.26175345350021 0 271.26175345350021 431.5836249866552 0 0 0 0 593.48536885585838 -47.464753362291958 0 -47.464753362291958 -97.322878242270235 0 0 0 0 6.6751908409046337 2.8535065968135314 0 2.8535065968135314 17.360546919175249 0 0 0 0 3.9765537991220876 -2.207937177983645 0 -2.207937177983645 0.040634749177619334 0 0 0 0 -2.0943759037477321 6.8179091753227112 0 6.8179091753227112 20.606180017770384 0 0 0 0 -0.11254556669897348 2.1268400562997973 0 2.1268400562997973 0.0049526919006410708 0 0 0 0 3.1545978859921888 -3.4261070075444877 0 -3.4261070075444877 18.443015261302207 0 0 0 0 -81.328080778363699 -204.02547332729409 0 -204.02547332729409 450.87909428661078 0 0 0 0 3.671445197435439 -2.5131513710891724 0 -2.5131513710891724 0.14674209361524326 0 0 0 0 -239.04777049221383 -57.24982583970268 0 -57.24982583970268 499.93319043312113 0 0 0 0 0.041910889625000891 -2.7961670792865334 0 -2.7961670792865334 29.755230375612882 0 0 0 0 11.925129014351466 -129.11305332104644 0 -129.11305332104644 508.80207602961673 0 0 0 0 22.105732190733228 -221.29009467633114 0 -221.29009467633114 521.82082685876821 0 0 0 0 -96.532200563080551 78.950938595082334 0 78.950938595082334 906.01688602544709 0 0 0 0 5.2647644662752668 37.079785713394813 0 37.079785713394813 270.86676013149895 0 0 0 0 -32.297731151763301 -63.138384571100687 0 -63.138384571100687 282.70915455645627 0 0 0 0 5.7609880166179099 3.8291269848100242 0 3.8291269848100242 2.2445589055646735 0 0 0 0 33.815464446459373 -18.572747502683342 0 -18.572747502683342 35.107759262445143 0 0 0 0 78.876025372446549 -73.3490719121761 0 -73.3490719121761 47.538637266221485 0 0 0 0 100.40720747349854 -20.598047501026485 0 -20.598047501026485 -1.802621154976805 0 0 0 0 16.359933608775009 -12.134891325975332 0 -12.134891325975332 22.304997820705466 0 0 0 0 9.7377799048308074 4.0997644919049208 0 4.0997644919049208 7.2472927691620654 0 0 0 0 -46.925587059846293 -22.038244829018367 0 -22.038244829018367 32.896516329465157 0 0 0 0 17.777816813191748 -14.688868715267745 0 -14.688868715267745 -2.0826048380999964 0 0 0 0 -289.38230789508839 -659.21862973454881 0 -659.21862973454881 230.88535737608254 0 0 0 0 6.8764311028792235 -1.4560560804238776 0 -1.4560560804238776 307.89098666836435 0 0 0 0 3.1102437693028664 2.7432136176372879 0 2.7432136176372879 2.5255317249977054 0 0 0 0 1.3928202411999022 2.204580621815504 0 2.204580621815504 22.23229464869371 0 0 0 0 -329.45544015576661 -273.67951389478549 0 -273.67951389478549 -23.608657996592228 0 0 0 0 165.25039351386522 -437.6880680474751 0 -437.6880680474751 357.92487047865507 0 0 0 0 274.77758973398522 -339.31575953502579 0 -339.31575953502579 208.33212475244363 0 0 0 0 621.33520731368526 -733.49083730767779 0 -733.49083730767779 619.87458056690593 0 0 0 0 0.15601371961464272 0.570535330782306 0 0.570535330782306 8.406290984348793 0 0 0 0 101.01242493177813 227.6487593254551 0 227.6487593254551 237.65221478417152 0 0 0 0 21.268224469588972 -80.035517051020179 0 -80.035517051020179 41.473033980382752 0 0 0 0 27.504320035512251 -28.544513606035252 0 -28.544513606035252 0.8967108091164846 0 0 0 0 -17.199364244967796 -5.0416314758113003 0 -5.0416314758113003 9.1159749097305394 0 0 0 0 68.409408116793827 116.70296387590315 0 116.70296387590315 173.15762771360096 0 0 0 0 1.9029292485549461 0.59570932256719544 0 0.59570932256719544 -0.15967355482293755 0 0 0 0 150.6277914842326 87.522720516973777 0 87.522720516973777 -164.8789553067727 0 0 0 0 -38.875059823384618 3.251789150024706 0 3.251789150024706 -67.156656127523092 0 0 0 0 -59.326056149638177 163.73878934187985 0 163.73878934187985 -101.00848594503623 0 0 0 0 -5.4782120350730565 -12.893922036713775 0 -12.893922036713775 12.092816965454404 0 0 0 0 3.1093032362865145 1.8250312032303171 0 1.8250312032303171 0.66044546988287323 0 0 0 0 7.8921785758263354 4.1124033644591691 0 4.1124033644591691 -4.2783944442235224 0 0 0 0 79.733881534913706 -3.4231881696345425 0 -3.4231881696345425 -13.780892378745193 0 0 0 0 -3.5078622061442957 4.354254131808375 0 4.354254131808375 11.66981454371853 0 0 0 0 -0.85467823125839004 30.819096381794225 0 30.819096381794225 2.884598803906556 0 0 0 0 116.39885471413447 -213.63412170345509 0 -213.63412170345509 97.80058731459053 0 0 0 0 -12.0336684576518 -44.108354004700232 0 -44.108354004700232 116.27107121432709 0 0 0 0 -43.477762614634315 103.669964345474 0 103.669964345474 -23.53252256232372 0 0 0 0 2.0431397169539474 3.3398869113105079 0 3.3398869113105079 5.1329708880005569 0 0 0 0 -18.102388771882829 6.3216821092810278 0 6.3216821092810278 5.9778445029478462 0 0 0 0 114.26906134416191 -207.09298766149914 0 -207.09298766149914 618.18078657043952 0 0 0 0 36.584801764879955 -251.15123398797914 0 -251.15123398797914 674.66088006412247 0 0 0 0 282.60935019505223 -79.483438382980239 0 -79.483438382980239 -210.58322836666048 0 0 0 0 7.9248391120122044 -129.84963743940148 0 -129.84963743940148 521.82170096208756 0 0 0 0 2.1434066940912322 0.97250580481158622 0 0.97250580481158622 1.2766022700167738 0 0 0 0 151.90694814599993 -159.6748171731706 0 -159.6748171731706 523.24981777417565 0 0 0 0 25.247796493042017 -210.63316042866245 0 -210.63316042866245 835.54752771769381 0 0 0 0 1.1334855945799451 -1.0169951663624275 0 -1.0169951663624275 0.51889056363407704 0 0 0 0 6.5755084918573843 -104.3584891986402 0 -104.3584891986402 698.09344956462883 0 0 0 0 200.12925054284705 -255.57660132807723 0 -255.57660132807723 618.19806242642323 0 0 0 0 141.83830240639168 -178.57854506556941 0 -178.57854506556941 519.6015836262377 0 0 0 0 406.129984423905 -124.00050929198369 0 -124.00050929198369 457.24603001808646 0 0 0 0 384.45522401730068 -238.51865831940449 0 -238.51865831940449 145.71190323047085 0 0 0 0 185.35824743003838 -107.97758693374089 0 -107.97758693374089 633.81842722239162 0 0 0 0 1.1469578258707798 1.5670003348014134 0 1.5670003348014134 2.7425358873053369 0 0 0 0 214.7469406119796 135.42954731564805 0 135.42954731564805 63.566400331586919 0 0 0 0 17.176028338727598 -116.39053215960757 0 -116.39053215960757 634.46040528569574 0 0 0 0 98.152946068219421 154.24641429461371 0 154.24641429461371 121.60676491375307 0 0 0 0 136.98905621674658 227.74087676891486 0 227.74087676891486 195.2290805220764 0 0 0 0 31.044144485803372 -29.642272964352742 0 -29.642272964352742 440.96109431026161 0 0 0 0 -0.86203821689143689 -0.038118271862714437 0 -0.038118271862714437 -0.18750374303119699 0 0 0 0 528.18058426617517 -445.17254542867886 0 -445.17254542867886 698.60899459385473 0 0 0 0 220.97991638446382 -314.24620380408032 0 -314.24620380408032 -343.75051226433061 0 0 0 0 239.56305820837463 -454.73087555090478 0 -454.73087555090478 327.90887811940411 0 0 0 0 0.93788463504255093 -0.17500394191314328 0 -0.17500394191314328 0.81549500031634636 0 0 0 0 188.47876427728505 -256.643678105395 0 -256.643678105395 519.23055755356472 0 0 0 0 25.453647467298197 32.872556387392251 0 32.872556387392251 26.867020608238818 0 0 0 0 224.25363358519724 -316.73497978191381 0 -316.73497978191381 466.28441176549677 0 0 0 0 226.89466294562885 -221.90969934339228 0 -221.90969934339228 404.18320967804902 0 0 0 0 230.76246740849047 -346.08936005070427 0 -346.08936005070427 567.47207841915952 0 0 0 0 189.9722225741009 -275.20745871715917 0 -275.20745871715917 584.63875456512687 0 0 0 0 -40.881438739141515 -72.6189136758112 0 -72.6189136758112 116.06562218755425 0 0 0 0 -0.78510760732715101 6.2297591855415675 0 6.2297591855415675 0.80088555277393425 0 0 0 0 253.10453362347835 13.689179973938735 0 13.689179973938735 -50.165485249715857 0 0 0 0 -182.52732336290319 88.057048827642575 0 88.057048827642575 45.375811532347143 0 0 0 0 -5.8697790119139537 2.4975282634529741 0 2.4975282634529741 19.504298973616514 0 0 0 0 99.670597235669675 -86.658698175382597 0 -86.658698175382597 -80.919288835093539 0 0 0 0 4.0998625173009389 -1.8662363637018302 0 -1.8662363637018302 3.3270321846022917 0 0 0 0 -50.74628764893896 -417.62037100047746 0 -417.62037100047746 1075.5086224557235 0 0 0 0 -133.81663300943956 -130.7318244331509 0 -130.7318244331509 126.65821274609152 0 0 0 0 482.15794023445255 -365.86872650253645 0 -365.86872650253645 59.431361716640822 0 0 0 0 23.983252780558132 -19.789610707013708 0 -19.789610707013708 20.520085602633117 0 0 0 0 -11.734383269673117 -10.318751045335375 0 -10.318751045335375 69.682677710166899 0 0 0 0 -3.8574720567619352 71.037777683246532 0 71.037777683246532 121.74365228696115 0 0 0 0 121.027038139914 -208.20445064304295 0 -208.20445064304295 356.12766571102838 0 0 0 0 145.74220410165117 -116.09671239211457 0 -116.09671239211457 508.55596066885346 0 0 0 0 24.20692427153233 -6.6266685967202648 0 -6.6266685967202648 -14.619809863423143 0 0 0 0 1.5948289357027079 -32.586758224388177 0 -32.586758224388177 -22.229838855550042 0 0 0 0 15.51421685142509 51.525228397771571 0 51.525228397771571 -33.451029979460145 0 0 0 0 0.80178075317018571 5.8869554093574337 0 5.8869554093574337 -0.85345068788218015 0 0 0 0 -108.77637638509873 -5.845222569139878 0 -5.845222569139878 -8.1705290021636756 0 0 0 0 -12.409541500738669 15.477390596199257 0 15.477390596199257 91.693239990985603 0 0 0 0 0.20485630944506283 38.781835226947805 0 38.781835226947805 62.025673121699128 0 0 0 0 -157.58895345918705 -67.87475791439465 0 -67.87475791439465 251.93969753585407 0 0 0 0 678.71885482818425 187.60780146036814 0 187.60780146036814 221.57545922109125 0 0 0 0 152.86187827518225 775.49424259706211 0 775.49424259706211 1359.6136624165301 0 0 0 0 -264.17562154701614 -30.257496156615161 0 -30.257496156615161 533.65334689463089 0 0 0 0 315.08018415778855 344.18743240669301 0 344.18743240669301 -17.071267376319156 0 0 0 0 -1.7792351262949935 -1.2687765424444883 0 -1.2687765424444883 -1.1667670138179211 0 0 0 0 14.407972161098314 105.710013977372 0 105.710013977372 18.022909792667633 0 0 0 0 -105.83834101882533 25.575746597726265 0 25.575746597726265 161.56361196910439 0 0 0 0 -328.75487749927299 276.14464339132155 0 276.14464339132155 818.48905034968629 0 0 0 0 -252.6423363573158 -114.95465677992979 0 -114.95465677992979 1472.5495743543797 0 0 0 0 -505.52866306808716 328.94362592497237 0 328.94362592497237 1868.8785744755223 0 0 0 0 -507.55955527033262 310.41857398413254 0 310.41857398413254 1703.0041615906339 0 0 0 0 71.984802346712769 -130.41724660192085 0 -130.41724660192085 233.68448363810603 0 0 0 0 1085.2537998955106 883.32780275010555 0 883.32780275010555 213.9865022411152 0 0 0 0 -165.03124265535567 1486.5209249971058 0 1486.5209249971058 3492.2327203476761 0 0 0 0 4.5100127071754708 4.6283268159968269 0 4.6283268159968269 10.117403888891292 0 0 0 0 249.69651311906716 -363.72927945115589 0 -363.72927945115589 211.06061341755776 0 0 0 0 -409.12923982406505 70.499344383504649 0 70.499344383504649 117.14298574846543 0 0 0 0 33.138955360741988 -458.81642130601585 0 -458.81642130601585 1552.7193058302255 0 0 0 0 0.52540585526462369 -2.7885806479468727 0 -2.7885806479468727 5.097121879512919 0 0 0 0 -24.649504012207785 -39.93654229119602 0 -39.93654229119602 94.403858565834526 0 0 0 0 -5.5976327357389088 3.9468229858971178 0 3.9468229858971178 21.963027121573148 0 0 0 0 27.526205877354982 41.200006610702985 0 41.200006610702985 -2.7147594655980356 0 0 0 0 158.71861764839969 130.46244883690451 0 130.46244883690451 220.43642640805774 0 0 0 0 262.31205305711023 14.250065696673119 0 14.250065696673119 153.35668187073679 0 0 0 0 27.976966600326875 -22.500809638652754 0 -22.500809638652754 114.82167127696448 0 0 0 0 0.045963731103331185 0.19295370609765428 0 0.19295370609765428 0.72405698582920053 0 0 0 0 29.584305213975483 188.1354648471297 0 188.1354648471297 360.60155346035026 0 0 0 0 -37.248634387887478 -62.589779657326289 0 -62.589779657326289 770.03086131946293 0 0 0 0 107.70550492503378 -37.554669074979756 0 -37.554669074979756 772.96942530154047 0 0 0 0 43.767513233193711 -501.13943747604935 0 -501.13943747604935 904.41925369392266 0 0 0 0 -150.93702695903357 -18.198887591515813 0 -18.198887591515813 1800.165230812192 0 0 0 0 -100.34821347550054 -581.41489472069406 0 -581.41489472069406 1867.9957774749307 0 0 0 0 -716.20181962733363 -121.2261365477234 0 -121.2261365477234 3501.7999706170594 0 0 0 0 586.99622232667298 -1791.3780629676839 0 -1791.3780629676839 3494.2896124267136 0 0 0 0 -99.72520181499678 -527.841654028839 0 -527.841654028839 1553.9939644437 0 0 0 0 -1.3221084176217968 -0.24003484580784118 0 -0.24003484580784118 8.9990158061321566 0 0 0 0 -316.67705996599233 585.39488600760524 0 585.39488600760524 31.381483883113106 0 0 0 0 -164.0942016933295 -72.500508858323883 0 -72.500508858323883 2562.7988500866486 0 0 0 0 -4.2742736962080636 -10.938869888370391 0 -10.938869888370391 3464.1456635205468 0 0 0 0 -0.5039888685609123 -1.3173993160037476 0 -1.3173993160037476 6.8995683696428642 0 0 0 0 -34.717838527869162 -459.49749818677083 0 -459.49749818677083 647.39896047876027 0 0 0 0 406.2424409874676 -517.43616064096204 0 -517.43616064096204 232.43017279902415 0 0 0 0 441.57723497198225 -295.25784613999622 0 -295.25784613999622 102.95472574148516 0 0 0 0 1.2838567114573154 -0.21963980242339787 0 -0.21963980242339787 8.4126566604630995 0 0 0 0 774.65784299505879 -695.16977308606511 0 -695.16977308606511 559.67968674185249 0 0 0 0 -282.73061391211405 -524.22003094897809 0 -524.22003094897809 3475.1019999236451 0 0 0 0 220.06678706816291 124.3022957593239 0 124.3022957593239 1710.2344906643484 0 0 0 0 458.91440890225186 -1032.4457496511022 0 -1032.4457496511022 1953.0071283718062 0 0 0 0 0.96719498208775323 -3.6112800087745924 0 -3.6112800087745924 11.512507498508654 0 0 0 0 -38.514716452445974 1017.8359576274433 0 1017.8359576274433 3496.657798679631 0 0 0 0 720.04533362718473 -1342.6058493247565 0 -1342.6058493247565 1390.3885333696453 0 0 0 0 -209.57718761658077 223.97433294092662 0 223.97433294092662 912.93869372358313 0 0 0 0 93.713411410544097 -329.24754720297642 0 -329.24754720297642 754.90054091401453 0 0 0 0 -1.1231899167449075 -9.8119261837852605 0 -9.8119261837852605 16.021475250061229 0 0 0 0 -228.11565199673515 32.556924385571619 0 32.556924385571619 137.29738694064872 0 0 0 0 594.6848821801002 155.23671727608962 0 155.23671727608962 -511.98669473340306 0 0 0 0 -194.02923985146879 125.41076493721857 0 125.41076493721857 137.1279503709884 0 0 0 0 -35.362528694462412 176.54328481590437 0 176.54328481590437 145.70078794880101 0 0 0 0 -86.443455531922496 63.641596825760644 0 63.641596825760644 144.41541829254129 0 0 0 0 -184.42061679312252 -47.152169964871064 0 -47.152169964871064 80.067799165990436 0 0 0 0 -102.49884562966554 -75.160145462399669 0 -75.160145462399669 -30.936054466714268 0 0 0 0 -71.225849834373093 65.210062857226148 0 65.210062857226148 102.99795254104902 0 0 0 0 -81.053317770398863 23.293224265440585 0 23.293224265440585 131.46439201368776 0 0 0 0 -27.841347695226318 26.386378485105524 0 26.386378485105524 58.527363138782675 0 0 0 0 -35.04963619186276 44.300197587668663 0 44.300197587668663 141.64573760960775 0 0 0 0 -29.988924632947146 40.173486012659851 0 40.173486012659851 136.89062154889689 0 0 0 0 -2.9971928557232559 -10.839125119744494 0 -10.839125119744494 157.56965211362694 0 0 0 0 -37.135595260961075 88.087928759313854 0 88.087928759313854 156.33704606196989 0 0 0 0 -33.061893919205914 29.846533081159578 0 29.846533081159578 150.29756385933069 0 0 0 0 49.965389834244775 58.387297176635911 0 58.387297176635911 149.86654680196079 0 0 0 0 -10.049535591630729 70.910698246176253 0 70.910698246176253 165.84048148467627 0 0 0 0 -4.9380339215158529 -52.016653307811794 0 -52.016653307811794 236.42704623452482 0 0 0 0 130.52539880811128 98.978327585788065 0 98.978327585788065 91.275047048613487 0 0 0 0 -2.3453094646521908 1.1008734095243078 0 1.1008734095243078 24.673465258534875 0 0 0 0 13.267579954328482 4.3647429250568166 0 4.3647429250568166 17.410836048617057 0 0 0 0 -6.0988407214911984 2.0628539853351313 0 2.0628539853351313 5.9778244828004787 0 0 0 0 -87.623349742197433 -118.09140821944857 0 -118.09140821944857 764.67072729561914 0 0 0 0 361.32454538295633 -722.69185178183034 0 -722.69185178183034 593.47704891706235 0 0 0 0 89.495710646759576 -407.62933907654224 0 -407.62933907654224 328.45384300474325 0 0 0 0 126.78880538708097 -423.12940241664 0 -423.12940241664 200.64877384752617 0 0 0 0 281.43201115738157 -232.60525218526709 0 -232.60525218526709 78.44772901140459 0 0 0 0 -333.44694123367151 107.1961266789458 0 107.1961266789458 2444.6002276626459 0 0 0 0 -156.86704940568143 551.64253457072118 0 551.64253457072118 3318.2316874362878 0 0 0 0 -139.8882051111965 1093.4864481523473 0 1093.4864481523473 2528.6408847496859 0 0 0 0 -31.517808072463538 1550.7459615233784 0 1550.7459615233784 3495.0255707608885 0 0 0 0 536.21608532534867 418.91626055312554 0 418.91626055312554 645.53846972579777 0 0 0 0 -222.18725040533968 -90.809560483328823 0 -90.809560483328823 273.94754613321857 0 0 0 0 -55.940034842052 112.62153203173511 0 112.62153203173511 855.68517093487253 0 0 0 0 0.52067956550428984 0.58206673115595464 0 0.58206673115595464 37.876295215613624 0 0 0 0 837.16117538438152 -1214.5516300273462 0 -1214.5516300273462 816.56624752601783 0 0 0 0 2.0049596479694243 1.0038517760396228 0 1.0038517760396228 16.061811290670732 0 0 0 0 1875.2224145570256 1970.334012946194 0 1970.334012946194 1128.3538644371597 0 0 0 0 -433.69599008580957 -377.7381876481777 0 -377.7381876481777 3494.6102597172589 0 0 0 0 124.48290508217048 275.54669193289556 0 275.54669193289556 180.65327946877005 0 0 0 0 -171.84827130130566 175.33066312222945 0 175.33066312222945 740.47603814888862 0 0 0 0 17.454717035451495 -51.029876030870582 0 -51.029876030870582 44.970126217176585 0 0 0 0 150.74095779355434 139.08860028287745 0 139.08860028287745 -176.02933490426221 0 0 0 0 -6.8708090764263732 -11.205225229105878 0 -11.205225229105878 14.704939548344257 0 0 0 0 0.50755843675378198 -1.4127489756625664 0 -1.4127489756625664 1.8092044258584821 0 0 0 0 1.4031322431982334 -0.65697243647439052 0 -0.65697243647439052 -2.0522448931958905 0 0 0 0 11.291934278636745 48.057337828671734 0 48.057337828671734 218.85880640784308 0 0 0 0 1.9224699662306648 18.553108901200176 0 18.553108901200176 133.93793932842891 0 0 0 0 13.493391930889175 -8.4650993314717198 0 -8.4650993314717198 132.61629791106679 0 0 0 0 32.153166214794737 -38.925195958196127 0 -38.925195958196127 182.20418224041714 0 0 0 0 60.161436335989549 -10.371055390583933 0 -10.371055390583933 132.36219677924873 0 0 0 0 37.811095381742405 -23.487898858560584 0 -23.487898858560584 144.25566465035809 0 0 0 0 -3.4337090065962457 6.6594418207641866 0 6.6594418207641866 130.38588397922285 0 0 0 0 48.3206676506951 -22.706254476664981 0 -22.706254476664981 112.70280621547136 0 0 0 0 -81.978020577721736 -29.624559051466349 0 -29.624559051466349 135.47082762656646 0 0 0 0 -14.949296940350905 -19.322261696793248 0 -19.322261696793248 73.395331354477094 0 0 0 0 -3.4530425203108104 4.1011977007467966 0 4.1011977007467966 85.894571483295863 0 0 0 0 -50.175857284530821 1.8258659500224894 0 1.8258659500224894 133.34792576215477 0 0 0 0 -113.13456931058664 17.989079530576873 0 17.989079530576873 199.7547120551535 0 0 0 0 6.7967796937524323 8.7972259766584386 0 8.7972259766584386 16.714800802757324 0 0 0 0 47.284224213348352 75.502143412679288 0 75.502143412679288 -8.8900824487373029 0 0 0 0 -5.806480945176645 -41.531632289261324 0 -41.531632289261324 48.8258616596504 0 0 0 0 3.8379265282278539 -9.428963105132425 0 -9.428963105132425 38.051162470830604 0 0 0 0 0.93460979408039524 -1.0486924648417499 0 -1.0486924648417499 1.5938258261786871 0 0 0 0 11.961261010498447 -12.124350115145717 0 -12.124350115145717 20.695688669526135 0 0 0 0 -77.96077064258543 35.686724426446744 0 35.686724426446744 261.88610997980868 0 0 0 0 -107.28932935993919 -27.623495702828222 0 -27.623495702828222 225.42086431569624 0 0 0 0 -4.898452560257283 31.971511399558949 0 31.971511399558949 -2.9742316723859403 0 0 0 0 -45.091028834774534 91.909631650383744 0 91.909631650383744 56.509427610013518 0 0 0 0 10.847963102650283 2.1439576943430438 0 2.1439576943430438 27.974147196560807 0 0 0 0 -35.755286408808843 -10.388782559919491 0 -10.388782559919491 70.380926239191467 0 0 0 0 -55.267917194747497 -26.828465830752975 0 -26.828465830752975 67.670431275073497 0 0 0 0 5.6901385851720079 5.8075077373523527 0 5.8075077373523527 56.382671579616726 0 0 0 0 -74.551743658507803 54.545087116166542 0 54.545087116166542 74.26782635552081 0 0 0 0 -18.249987085999706 16.466989869426882 0 16.466989869426882 38.190217144134607 0 0 0 0 -9.8565679786618148 -3.7040363424312091 0 -3.7040363424312091 101.69118985821842 0 0 0 0 18.216057240064401 -26.813513519344269 0 -26.813513519344269 56.907430958381156 0 0 0 0 8.6848176239059285 -13.850340708348085 0 -13.850340708348085 137.77722630585413 0 0 0 0 -0.086802984072035017 0.87061330604521459 0 0.87061330604521459 4.9105991164956393 0 0 0 0 3.3606348347455919 8.8105816001135437 0 8.8105816001135437 38.83762018455608 0 0 0 0 -11.332970226399539 35.546530187661119 0 35.546530187661119 90.977934510836349 0 0 0 0 -2.4319399779458948 11.096581289587471 0 11.096581289587471 84.585705233776025 0 0 0 0 -55.692598012292024 41.255584247562183 0 41.255584247562183 112.71823532203416 0 0 0 0 -27.213400917088165 55.764610382771934 0 55.764610382771934 96.422004850999656 0 0 0 0 -27.815845421814981 46.462379167153244 0 46.462379167153244 109.69564685148362 0 0 0 0 -28.219489782205528 27.75379588310534 0 27.75379588310534 100.07570073828538 0 0 0 0 81.450762180789127 84.679954069717496 0 84.679954069717496 82.414949473677552 0 0 0 0 -5.6704885350977747 40.810598785672482 0 40.810598785672482 98.308707028394565 0 0 0 0 -5.7078817818929508 49.940096833530333 0 49.940096833530333 189.38670233018638 0 0 0 0 25.568612969836138 27.627899355913542 0 27.627899355913542 41.927171191229718 0 0 0 0 -1.7018121123453005 8.6003053282053017 0 8.6003053282053017 13.154444317528785 0 0 0 0 -3.6920124269875032 3.1745324098264973 0 3.1745324098264973 19.561536087321656 0 0 0 0 -3.2971802063718334 1.8680775748956293 0 1.8680775748956293 9.0300640361586773 0 0 0 0 1.4624056703482893 51.844841799953429 0 51.844841799953429 97.417788305134309 0 0 0 0 15.858494599336382 -28.43186205598704 0 -28.43186205598704 74.898361393752566 0 0 0 0 8.0373467081540184 -21.276948307230214 0 -21.276948307230214 74.29487077453814 0 0 0 0 12.335361039425948 -32.830559769729007 0 -32.830559769729007 77.194933521590428 0 0 0 0 32.149744366085997 -41.511465683241113 0 -41.511465683241113 43.696283862122073 0 0 0 0 32.953290775500363 -44.671044680679188 0 -44.671044680679188 51.236907819406042 0 0 0 0 -121.10426779350684 -56.192211906898592 0 -56.192211906898592 97.241817127069226 0 0 0 0 -7.0465490673515205 -47.880640581814077 0 -47.880640581814077 65.557789365469944 0 0 0 0 -4.8053219675077301 -35.797810101677442 0 -35.797810101677442 93.646303744004399 0 0 0 0 -1.1146170669841338 -9.7453805430402802 0 -9.7453805430402802 106.18987661069428 0 0 0 0 -31.5545384613539 -28.133120894815875 0 -28.133120894815875 98.106712155647983 0 0 0 0 2.6061075464967871 -37.240217503629538 0 -37.240217503629538 84.827175356782391 0 0 0 0 -199.53626984741049 91.4437799970583 0 91.4437799970583 134.7837931844042 0 0 0 0 -559.92058656509835 -7.8793316411974956 0 -7.8793316411974956 399.14385302149822 0 0 0 0 1.6401892856832068 -15.752119959061277 0 -15.752119959061277 106.87216923803445 0 0 0 0 -30.909292756566174 106.52281621547809 0 106.52281621547809 -24.53278095726273 0 0 0 0 65.745617736179611 108.08310637322575 0 108.08310637322575 230.23944107693023 0 0 0 0 302.94768461593412 50.352715486951638 0 50.352715486951638 182.52860438147036 0 0 0 0 -4.0547858362208444 19.870902669648785 0 19.870902669648785 135.97254309564596 0 0 0 0 51.454947297495437 102.2675243757476 0 102.2675243757476 34.49392052910116 0 0 0 0 55.536524570005973 10.728196692652091 0 10.728196692652091 76.229472119506681 0 0 0 0 -1.8554025946033985 0.9415718873508836 0 0.9415718873508836 12.221991135704485 0 0 0 0 -170.00722777165993 -35.247676326112924 0 -35.247676326112924 123.74803055975826 0 0 0 0 125.96101429224353 13.132895927973436 0 13.132895927973436 9.1711638091546774 0 0 0 0 -137.2963198832739 -134.97972283554691 0 -134.97972283554691 -66.726475740681053 0 0 0 0 -199.10761031335824 -32.854258259227208 0 -32.854258259227208 105.74966913121898 0 0 0 0 44.195128112161626 -3.0237634417767367 0 -3.0237634417767367 40.41016710616168 0 0 0 0 -173.20348393750805 -12.614949945876106 0 -12.614949945876106 49.152516456673766 0 0 0 0 -1.3121435357454629 -10.225981592316202 0 -10.225981592316202 15.465916905668564 0 0 0 0 -5.2151243220561128 21.771786129111206 0 21.771786129111206 56.35806038953524 0 0 0 0 -11.011432640915658 -6.0997901982393898 0 -6.0997901982393898 13.970133866136202 0 0 0 0 -8.358154565264897 73.059314045423889 0 73.059314045423889 168.38308122590388 0 0 0 0 -1.0070081913519 -1.5888017372229797 0 -1.5888017372229797 1.2948574894735714 0 0 0 0 11.987575863358188 -40.606327064986544 0 -40.606327064986544 63.791448844978731 0 0 0 0 -9.1000372383908097 -6.8537334639429446 0 -6.8537334639429446 10.870807233281198 0 0 0 0 -20.801101362650115 -1.1544924214322236 0 -1.1544924214322236 33.221980915637687 0 0 0 0 -1.3846698394037871 6.9235743379835544 0 6.9235743379835544 23.517859557897637 0 0 0 0 -28.427678201489925 -4.9283113660530944 0 -4.9283113660530944 33.53817222831276 0 0 0 0 -9.9642049873111773 -11.563095371771851 0 -11.563095371771851 28.959859798000252 0 0 0 0 -10.332614747171647 -13.714971448911456 0 -13.714971448911456 16.999269940723025 0 0 0 0 12.12530680382315 -9.2077133575476182 0 -9.2077133575476182 17.402859135235076 0 0 0 0 0.41178818113507987 -39.331743826714956 0 -39.331743826714956 7.4174643506921711 0 0 0 0 -39.571781601634939 -19.528597281871043 0 -19.528597281871043 27.001428087362001 0 0 0 0 -124.83836958661868 -14.696426809881814 0 -14.696426809881814 41.580451567639102 0 0 0 0 -30.248356983033773 -6.2068102123248536 0 -6.2068102123248536 37.420688436592172 0 0 0 0 -2.2068895905267016 1.6167351073178087 0 1.6167351073178087 38.659296695476968 0 0 0 0 47.386301317765174 -30.622400566353463 0 -30.622400566353463 51.429687518324499 0 0 0 0 54.490837667226515 -115.33275555989349 0 -115.33275555989349 18.616645576275914 0 0 0 0 -78.53955839370451 -66.615558868312291 0 -66.615558868312291 18.092130664796059 0 0 0 0 39.725328289179743 -8.8981968782954937 0 -8.8981968782954937 -29.95788108504712 0 0 0 0 29.847781622765183 -2.0680010290943756 0 -2.0680010290943756 -17.627971493617224 0 0 0 0 0.67422368152749801 2.7089609358454725 0 2.7089609358454725 9.5249964199399102 0 0 0 0 -118.48846391961774 140.87897596595394 0 140.87897596595394 100.67807341324715 0 0 0 0 144.48352340494012 69.544307863946869 0 69.544307863946869 -96.361382401690207 0 0 0 0 203.86732867841306 59.426545277128753 0 59.426545277128753 -94.830385944122099 0 0 0 0 244.87142363985345 193.95291843287487 0 193.95291843287487 111.66650830446451 0 0 0 0 0.4271511424253045 1.5013414378793479 0 1.5013414378793479 3.848981204501797 0 0 0 0 93.307441343483561 226.48368824509998 0 226.48368824509998 522.47268747039197 0 0 0 0 -215.41182730797527 -164.41386563430569 0 -164.41386563430569 966.18725566838839 0 0 0 0 137.25983663012812 140.29345142632155 0 140.29345142632155 -128.67673875149194 0 0 0 0 3.6714132225424341 1.5482589662002226 0 1.5482589662002226 1.0350449199141565 0 0 0 0 209.40522432390298 263.4559705183301 0 263.4559705183301 54.920163514652813 0 0 0 0 356.24806959557463 -13.563027368476469 0 -13.563027368476469 643.80354290585819 0 0 0 0 196.5435078120679 19.243071247370608 0 19.243071247370608 -58.988993320122972 0 0 0 0 -13.123341289987536 -51.557928994849817 0 -51.557928994849817 648.22189446854827 0 0 0 0 -8.3561486052265082 -285.8541181998462 0 -285.8541181998462 302.92700206630616 0 0 0 0 115.31928601593336 -37.351899088578193 0 -37.351899088578193 23.353608998695563 0 0 0 0 -318.16305214933777 18.504034326011606 0 18.504034326011606 92.616931210458461 0 0 0 0 -0.039428678318397026 1.0080641196200086 0 1.0080641196200086 27.113401353379771 0 0 0 0 251.39743301272711 -35.882196270245913 0 -35.882196270245913 -28.428093795315363 0 0 0 0 162.13756663334152 335.79537720139342 0 335.79537720139342 -14.119186118598009 0 0 0 0 -17.167063769369179 403.97158149981624 0 403.97158149981624 191.50917361620304 0 0 0 0 10.384945960072002 190.9492456590624 0 190.9492456590624 35.045758442567603 0 0 0 0 4.89188225621524 271.88633439865225 0 271.88633439865225 538.70694637064298 0 0 0 0 357.83250200886891 -220.54339345862536 0 -220.54339345862536 291.80304524105304 0 0 0 0 0.18891029479184374 0.76790905272141252 0 0.76790905272141252 10.387497470560632 0 0 0 0 131.05449475962928 -182.3194980611388 0 -182.3194980611388 639.43313631384444 0 0 0 0 171.10559677127526 -87.71665852616934 0 -87.71665852616934 63.52237465453436 0 0 0 0 -108.94251813387194 561.04368394108451 0 561.04368394108451 586.46889818597629 0 0 0 0 1.1705102146920474 0.95067277226715419 0 0.95067277226715419 0.79579141177492829 0 0 0 0 -68.864279300899852 -166.39837871227428 0 -166.39837871227428 771.31998642075632 0 0 0 0 478.30141300777723 -492.25067226254669 0 -492.25067226254669 -33.091794057007064 0 0 0 0 -20.088017573207935 -77.624973103795128 0 -77.624973103795128 53.054150665557245 0 0 0 0 -14.743208990498715 -101.89957200110075 0 -101.89957200110075 146.91557851398829 0 0 0 0 -68.913535516525656 -110.4833425846482 0 -110.4833425846482 165.30024201000197 0 0 0 0 -21.693757481522368 -57.04314073495334 0 -57.04314073495334 114.59667163682298 0 0 0 0 -86.760708847157886 -1.5279638438187249 0 -1.5279638438187249 78.264526140897942 0 0 0 0 -61.708267092972164 -20.319808740225199 0 -20.319808740225199 41.43509071590961 0 0 0 0 -68.693942340498538 15.198772136023763 0 15.198772136023763 92.105231986521176 0 0 0 0 -17.801714617034804 62.779023761650024 0 62.779023761650024 317.97629928564857 0 0 0 0 -31.760308056656868 2.3370851090312499 0 2.3370851090312499 56.262003997842839 0 0 0 0 149.41049688718601 -118.3877818908295 0 -118.3877818908295 -26.582981662009843 0 0 0 0 12.081865705891232 -141.90081549815659 0 -141.90081549815659 98.236517971672583 0 0 0 0 265.55433600859971 -24.048014813502959 0 -24.048014813502959 -3.4895774181495653 0 0 0 0 316.28375291756788 -35.621645140548935 0 -35.621645140548935 -3.8411364326166222 0 0 0 0 2.9208707655997732 -0.33516158730347456 0 -0.33516158730347456 7.0912078245173156 0 0 0 0 305.1031111698436 165.19004969833622 0 165.19004969833622 112.64959313107829 0 0 0 0 539.49864077467873 72.105226006242447 0 72.105226006242447 -4.6020917591522448 0 0 0 0 115.3344326560134 -282.68373484638869 0 -282.68373484638869 888.44448891062348 0 0 0 0 534.64119826675051 -214.97185489410185 0 -214.97185489410185 363.76994659111369 0 0 0 0 -66.760457334898092 83.725551093106333 0 83.725551093106333 694.78767602065636 0 0 0 0 517.22041512887233 -331.23381368038008 0 -331.23381368038008 152.50917851610575 0 0 0 0 -53.879535088825207 164.22728998358525 0 164.22728998358525 79.258212154731154 0 0 0 0 -357.84319727867114 -253.81268863301739 0 -253.81268863301739 134.5610325328671 0 0 0 0 1.3475061198127203 -15.389197226526683 0 -15.389197226526683 101.95759603609326 0 0 0 0 71.474398366320202 -309.8621768634921 0 -309.8621768634921 -6.9426160445291316 0 0 0 0 -273.16662670279078 -105.3453654049008 0 -105.3453654049008 170.99531273510911 0 0 0 0 21.109304333763703 -89.587806742018074 0 -89.587806742018074 45.404673013088541 0 0 0 0 -37.387011951713703 -104.34973164634357 0 -104.34973164634357 64.242912446628907 0 0 0 0 17.329336460469563 -76.886715880807969 0 -76.886715880807969 60.204678305955895 0 0 0 0 120.74165125073341 -45.063953339187719 0 -45.063953339187719 34.025226141355233 0 0 0 0 167.49892652168376 -185.31580177455362 0 -185.31580177455362 126.84851153076306 0 0 0 0 83.940430801006869 -15.431011528500676 0 -15.431011528500676 295.90027087144881 0 0 0 0 -10.88602290937024 -131.3149376923684 0 -131.3149376923684 259.93548842137534 0 0 0 0 175.43274252346077 205.22642330757299 0 205.22642330757299 135.85287722983412 0 0 0 0 259.02371787542563 90.128753016378141 0 90.128753016378141 36.019204400014132 0 0 0 0 -103.42435712659413 114.82537319562925 0 114.82537319562925 135.8928875056954 0 0 0 0 -98.332337787167489 77.088743040108966 0 77.088743040108966 392.30386836612524 0 0 0 0 -16.093191578184374 -90.654888531807046 0 -90.654888531807046 63.682767722501012 0 0 0 0 1.4435269719855595 -14.402600400761827 0 -14.402600400761827 89.630665377941838 0 0 0 0 -58.271191431365423 -81.193069110831857 0 -81.193069110831857 73.069379174732603 0 0 0 0 -324.56646686446277 -4.4346545754997351 0 -4.4346545754997351 179.891054892385 0 0 0 0 -3.3463998771426078 -7.644648627758885 0 -7.644648627758885 36.029273499892668 0 0 0 0 33.805465193961595 -5.253139882150208 0 -5.253139882150208 17.863193420686002 0 0 0 0 7.6374003854668899 -15.407473192855832 0 -15.407473192855832 50.60736880217155 0 0 0 0 -14.7680733320542 -13.607860656811681 0 -13.607860656811681 60.42214934209187 0 0 0 0 -4.4704279900847324 -8.0559936022294689 0 -8.0559936022294689 48.599705681326839 0 0 0 0 36.05883046259396 -40.848562183435206 0 -40.848562183435206 58.591297694547393 0 0 0 0 -2.117080535745814 10.026982429675876 0 10.026982429675876 4.7889053533718595 0 0 0 0 2.2265423260367272 -10.693322062730555 0 -10.693322062730555 74.081089418149105 0 0 0 0 -13.332810408853675 -16.670952934840898 0 -16.670952934840898 47.24649015909381 0 0 0 0 -105.09863796256326 63.540958628726003 0 63.540958628726003 124.73741529866129 0 0 0 0 3.7942689653910406 9.7546177025942598 0 9.7546177025942598 26.089812269037793 0 0 0 0 35.609705890627055 55.85865700443992 0 55.85865700443992 50.830830002883886 0 0 0 0 2.0221871057033947 8.9354252901796656 0 8.9354252901796656 5.9163352181611089 0 0 0 0 31.12438141090206 96.846794834429602 0 96.846794834429602 187.89027985659777 0 0 0 0 1.8122003059852498 -0.066119292074233726 0 -0.066119292074233726 -1.1069537815578343 0 0 0 0 28.522254797758478 63.515517014544457 0 63.515517014544457 38.806941458678921 0 0 0 0 0.89616396388487374 32.660418459254288 0 32.660418459254288 31.419074139259465 0 0 0 0 -22.023506929258701 66.812298761509737 0 66.812298761509737 62.530286041437648 0 0 0 0 16.37938678915441 131.19907872474323 0 131.19907872474323 101.40101964044152 0 0 0 0 48.368984418551236 114.47861728199496 0 114.47861728199496 82.727423707256094 0 0 0 0 50.257595226786407 85.713976256335627 0 85.713976256335627 54.434406829692307 0 0 0 0 131.39989221938868 94.633111241157167 0 94.633111241157167 55.139909372002876 0 0 0 0 37.03370576873499 19.347818157322763 0 19.347818157322763 -0.033532704372191802 0 0 0 0 57.493062400251802 5.7910034467277001 0 5.7910034467277001 0.79264901229544193 0 0 0 0 0.50935406861507637 0.32302510689488173 0 0.32302510689488173 0.0053773715690539348 0 0 0 0 3.1331712574619699 1.3872718034792015 0 1.3872718034792015 -1.0952251510473374 0 0 0 0 5.3221722586590658 3.606536954157491 0 3.606536954157491 5.3210134328110144 0 0 0 0 16.933768701764393 -1.6200405392846733 0 -1.6200405392846733 6.7510177041403949 0 0 0 0 3.1834564221255732 5.1196413771467633 0 5.1196413771467633 1.6593470937077655 0 0 0 0 -0.26034744066160687 1.7092206873921469 0 1.7092206873921469 2.2877652983724914 0 0 0 0 1.7633400341753926 -7.2917133342257685 0 -7.2917133342257685 5.5382113992476665 0 0 0 0 1.4397862894920763 -4.7057827868848108 0 -4.7057827868848108 11.780795521041 0 0 0 0 -4.1812267408549815 -4.1176919768549851 0 -4.1176919768549851 20.679359985311748 0 0 0 0 2.3429451137497765 -1.2509053504376482 0 -1.2509053504376482 5.6814396862567378 0 0 0 0 -0.011755290741593871 -9.631777257557161 0 -9.631777257557161 3.2897322247449878 0 0 0 0 2.2916080436853008 2.6430203302661539 0 2.6430203302661539 23.762190812642075 0 0 0 0 6.8233778723985621 -10.023497421403654 0 -10.023497421403654 16.976351485578121 0 0 0 0 30.986579378995089 -15.671731259250009 0 -15.671731259250009 25.575136123832635 0 0 0 0 7.5975700094832064 -63.215432925169807 0 -63.215432925169807 163.70763395278118 0 0 0 0 -1.3166134568461243 -2.9411103953440403 0 -2.9411103953440403 -0.12895074602158374 0 0 0 0 -26.510827023540742 23.781926113995723 0 23.781926113995723 226.60441344766514 0 0 0 0 -5.6035523777546459 -11.253534469657943 0 -11.253534469657943 23.641137667062665 0 0 0 0 0.866616645132126 -26.497243981468273 0 -26.497243981468273 67.038420446901 0 0 0 0 -20.696629141087669 -0.68866750986853731 0 -0.68866750986853731 109.4225947343848 0 0 0 0 -1.330493538064502 -19.072413029334712 0 -19.072413029334712 110.02328771175235 0 0 0 0 -14.381819548267231 -22.174347238011251 0 -22.174347238011251 7.4459644472808577 0 0 0 0 23.490888335981026 35.934244979889627 0 35.934244979889627 116.33086270497006 0 0 0 0 21.0050533502706 -10.53608776537294 0 -10.53608776537294 92.990875137153125 0 0 0 0 -20.125741785262107 -17.174018410329154 0 -17.174018410329154 102.51956248131683 0 0 0 0 -12.016750499431055 -3.9500386315776268 0 -3.9500386315776268 40.137672557586484 0 0 0 0 2.9685839054775442 -2.2004995501411031 0 -2.2004995501411031 44.296196598490496 0 0 0 0 11.304318054571354 -5.0143165627850976 0 -5.0143165627850976 8.0559515278728213 0 0 0 0 -2.3428021111966739 -15.160939566284213 0 -15.160939566284213 11.283629364315335 0 0 0 0 -2.1441487005329805 -15.684711248439726 0 -15.684711248439726 13.288270790115348 0 0 0 0 -4.6493819912844092 -2.5656052064508827 0 -2.5656052064508827 17.608728560204042 0 0 0 0 1.866200844134255 -0.042747544674057281 0 -0.042747544674057281 29.30837937465185 0 0 0 0 3.7449761446998764 8.2614283088505545 0 8.2614283088505545 34.429802518912766 0 0 0 0 0.602217859375628 -2.3356312182886541 0 -2.3356312182886541 32.94443816175044 0 0 0 0 -3.9622781006888395 1.5559824103956856 0 1.5559824103956856 45.033926082330254 0 0 0 0 -22.611144518056335 4.1700073727797644 0 4.1700073727797644 102.30305911332835 0 0 0 0 -2.6896538322480588 -7.6517250311137559 0 -7.6517250311137559 18.827555337986198 0 0 0 0 -6.7874235965455227 1.6817988086804689 0 1.6817988086804689 86.157639503184328 0 0 0 0 -19.181951869721161 -15.102892777489615 0 -15.102892777489615 84.719991028769073 0 0 0 0 -1.3712391210787891 -16.397323017241334 0 -16.397323017241334 25.994793485764774 0 0 0 0 -15.403346797756171 -20.092301569812662 0 -20.092301569812662 17.604359445802402 0 0 0 0 -7.168834771452163 -12.336088423755733 0 -12.336088423755733 43.578702435293579 0 0 0 0 -6.9463489186855663 1.0623741026306419 0 1.0623741026306419 51.632036432846625 0 0 0 0 0.88021413100659629 11.106781519262313 0 11.106781519262313 72.47438167007931 0 0 0 0 -1.589042577781246 -10.673933469711628 0 -10.673933469711628 19.685147972918358 0 0 0 0 18.16033937352222 3.7139684232024592 0 3.7139684232024592 51.028103875683883 0 0 0 0 29.858630041793731 16.483134026871994 0 16.483134026871994 58.008749983353482 0 0 0 0 0.5467601388570742 -18.655163969834788 0 -18.655163969834788 26.866537962732593 0 0 0 0 7.2931670252391996 1.6137567511723319 0 1.6137567511723319 74.552887204248691 0 0 0 0 14.79349114917386 6.73729339329293 0 6.73729339329293 35.114365801215172 0 0 0 0 8.8586300408078387 -10.338946414078237 0 -10.338946414078237 123.95134491461795 0 0 0 0 1.1862787649300097 -7.5529647440963767 0 -7.5529647440963767 2.3916953410937367 0 0 0 0 -4.7158305728378469 5.9359485264329521 0 5.9359485264329521 35.098707556650382 0 0 0 0 1.2882304125838342 -8.8630181216199162 0 -8.8630181216199162 4.3830491546908661 0 0 0 0 17.198282711763103 -14.907616108785845 0 -14.907616108785845 9.4350099125075246 0 0 0 0 21.080062823987191 -35.971239566759323 0 -35.971239566759323 20.906435881475772 0 0 0 0 5.5814196152023747 1.9746699387723439 0 1.9746699387723439 15.044824650938217 0 0 0 0 21.788379517519388 -25.594785900646457 0 -25.594785900646457 54.777872500662852 0 0 0 0 16.9997209199461 -27.247556735606068 0 -27.247556735606068 16.070168283386081 0 0 0 0 -28.870617996947544 -38.595584481451624 0 -38.595584481451624 67.391951254114247 0 0 0 0 4.6627568617577708 -40.793202007134823 0 -40.793202007134823 55.2497724290115 0 0 0 0 60.658577126149339 -139.67703524704484 0 -139.67703524704484 44.938752372061572 0 0 0 0 32.949132686840812 -55.06407402475179 0 -55.06407402475179 -51.360235551081132 0 0 0 0 18.721325035366419 -58.130514807387954 0 -58.130514807387954 52.999589559876767 0 0 0 0 113.92819356508403 78.039071047707694 0 78.039071047707694 -306.89765525728035 0 0 0 0 21.424598163434894 -33.939439504989423 0 -33.939439504989423 42.30403184066472 0 0 0 0 42.162743142826457 -42.088453472602851 0 -42.088453472602851 40.034654625545954 0 0 0 0 1.8133801321312895 0.1598108854237239 0 0.1598108854237239 -1.9376395739540868 0 0 0 0 37.940301319540019 -22.707816732360584 0 -22.707816732360584 18.812066670550848 0 0 0 0 34.672945529693152 -20.383201078642742 0 -20.383201078642742 33.933930071776558 0 0 0 0 32.019345173152942 -14.178277730377886 0 -14.178277730377886 19.169560691378138 0 0 0 0 32.486045137748079 -20.657797641091747 0 -20.657797641091747 33.908641788962996 0 0 0 0 30.548388848729019 -4.7039271246303542 0 -4.7039271246303542 -3.8911822564259637 0 0 0 0 39.617770951588227 -21.276033505586383 0 -21.276033505586383 9.6928240236811689 0 0 0 0 3.8566828715747761 -17.361236160773842 0 -17.361236160773842 31.591344418118751 0 0 0 0 12.843798507558574 -16.879273460427157 0 -16.879273460427157 13.663013817978936 0 0 0 0 16.442699993040151 -0.68044295184517978 0 -0.68044295184517978 11.24325622425431 0 0 0 0 5.0370455841629109 -5.1021844152792255 0 -5.1021844152792255 19.554923840141782 0 0 0 0 8.7410241883333342 -9.4179769597249816 0 -9.4179769597249816 1.9037104864640257 0 0 0 0 7.8477928697422685 -10.515251203410962 0 -10.515251203410962 6.2368671996875307 0 0 0 0 18.307816807800521 -16.028248022686967 0 -16.028248022686967 -10.721877261381451 0 0 0 0 3.9418966557691841 -0.8222672921032057 0 -0.8222672921032057 0.63323860394935139 0 0 0 0 -2.2238411902594635 -9.4976919948585419 0 -9.4976919948585419 15.973993796190371 0 0 0 0 60.300321916764915 -53.951236866199906 0 -53.951236866199906 40.936403298153891 0 0 0 0 14.110874515217802 -25.338721343352518 0 -25.338721343352518 23.538461673007987 0 0 0 0 1.8659086530178683 -17.367290824970041 0 -17.367290824970041 18.623398242794792 0 0 0 0 38.342284589237352 -19.121233120934448 0 -19.121233120934448 1.8194205403269734 0 0 0 0 26.835056906835234 -11.923265251486555 0 -11.923265251486555 -2.4493552504027321 0 0 0 0 15.712933259094825 -6.782180559632252 0 -6.782180559632252 20.778732729599142 0 0 0 0 12.813291524146983 -9.718789997275131 0 -9.718789997275131 0.91751139150923766 0 0 0 0 47.919918147925273 8.1466826436317206 0 8.1466826436317206 9.188934346420865 0 0 0 0 16.529912924018433 -9.3001450150207461 0 -9.3001450150207461 3.969306770958414 0 0 0 0 16.914938632067845 -18.125362724880006 0 -18.125362724880006 24.81738004676663 0 0 0 0 12.59017575615826 11.052744694763987 0 11.052744694763987 59.579565251078748 0 0 0 0 61.452332833063338 27.709640365384985 0 27.709640365384985 73.933146975352429 0 0 0 0 6.3896213112529949 28.144491383704008 0 28.144491383704008 91.146477974525624 0 0 0 0 53.634220519144037 65.221746472685481 0 65.221746472685481 140.61032894240452 0 0 0 0 62.532301737857779 20.290964611156596 0 20.290964611156596 30.547056394167157 0 0 0 0 24.769523885724983 0.099078315633711611 0 0.099078315633711611 0.64043492977012839 0 0 0 0 37.015617613536961 0.77313496751594357 0 0.77313496751594357 67.701220856361033 0 0 0 0 7.3058035523044182 -4.0703738191498005 0 -4.0703738191498005 -2.7570958655312623 0 0 0 0 16.645511389403509 -10.790452310267028 0 -10.790452310267028 81.458214120237358 0 0 0 0 27.006594334370675 -18.591768334492372 0 -18.591768334492372 45.970494962402881 0 0 0 0 13.53319712515353 -25.885096781514186 0 -25.885096781514186 16.079208954458299 0 0 0 0 -3.6374186592624937 -4.0209900602785638 0 -4.0209900602785638 77.422066102664758 0 0 0 0 15.586289026010945 1.7044650545713012 0 1.7044650545713012 82.012343110498477 0 0 0 0 11.495975729499513 -23.023657718605968 0 -23.023657718605968 12.609739357183624 0 0 0 0 36.219310518173188 -11.527250979033852 0 -11.527250979033852 29.331935317695752 0 0 0 0 24.407770160116343 -14.993789310704415 0 -14.993789310704415 73.985390668851551 0 0 0 0 23.98693059586094 -12.480065532710796 0 -12.480065532710796 100.78823805903812 0 0 0 0 4.1925195662979533 -26.429665340560277 0 -26.429665340560277 63.45651286554552 0 0 0 0 30.842132575829055 10.983722465751725 0 10.983722465751725 77.618844422555412 0 0 0 0 -80.700222044337352 -63.03865035271906 0 -63.03865035271906 78.313331916227327 0 0 0 0 72.891395116739659 91.205983519739618 0 91.205983519739618 77.91358865781568 0 0 0 0 -93.009387383945977 274.24053453339366 0 274.24053453339366 589.31696621828291 0 0 0 0 -0.0043852166921851676 4.8734262373967132 0 4.8734262373967132 23.941685031986168 0 0 0 0 -22.596166095461911 -18.663633858693583 0 -18.663633858693583 65.783714919609722 0 0 0 0 56.522016106315277 55.914479803415816 0 55.914479803415816 98.93363480031303 0 0 0 0 32.911593846138345 2.4008824927628467 0 2.4008824927628467 17.164941999302904 0 0 0 0 61.536272822300816 271.64718201736594 0 271.64718201736594 224.5275864633989 0 0 0 0 78.898911137534014 -58.702490683832906 0 -58.702490683832906 221.71854312673094 0 0 0 0 8.1115526052344649 2.4860134548905535 0 2.4860134548905535 -13.828466710516182 0 0 0 0 47.056039342773147 11.762454484307455 0 11.762454484307455 -12.532082027762698 0 0 0 0 2.0390004929575696 -2.0930930714991849 0 -2.0930930714991849 2.5801180876857948 0 0 0 0 1.3374235666521201 -1.6730680732251297 0 -1.6730680732251297 1.9451804034342093 0 0 0 0 115.4586386934734 -116.04487198066636 0 -116.04487198066636 1.6130361351403053 0 0 0 0 -19.036156027425022 -88.604844902686409 0 -88.604844902686409 -3.4898935545700169 0 0 0 0 -18.976801931912632 79.208927840689512 0 79.208927840689512 325.0538012634288 0 0 0 0 -49.974712373862076 145.45345058950133 0 145.45345058950133 356.24280961167642 0 0 0 0 -68.640607788697935 91.342205936348819 0 91.342205936348819 322.20823319801457 0 0 0 0 -9.5264982950538979 84.053291472603632 0 84.053291472603632 162.95491797464683 0 0 0 0 115.89396774440138 213.79137520836275 0 213.79137520836275 285.40915541944037 0 0 0 0 301.02723331194102 -72.982091667528493 0 -72.982091667528493 65.524353547828468 0 0 0 0 65.233946167123577 1.9256671547793758 0 1.9256671547793758 43.276275701385771 0 0 0 0 90.812258787691462 -25.688156875420646 0 -25.688156875420646 52.848952834676993 0 0 0 0 80.726842162177491 3.7347611321274599 0 3.7347611321274599 14.955982088427845 0 0 0 0 53.914240849113412 7.0141479853593864 0 7.0141479853593864 39.108720035066654 0 0 0 0 43.995545927857165 35.596938613012753 0 35.596938613012753 -11.644721960251388 0 0 0 0 0.76571816648126401 -0.87815479227036697 0 -0.87815479227036697 1.2598730711570187 0 0 0 0 65.028304433732046 -47.702576982911069 0 -47.702576982911069 -2.2718042325452359 0 0 0 0 68.004586726674461 -63.125010022253491 0 -63.125010022253491 76.719178658006058 0 0 0 0 84.73768482775813 -16.346486943732771 0 -16.346486943732771 70.095809767746232 0 0 0 0 55.161147210018498 -52.836296620229973 0 -52.836296620229973 187.33332904825875 0 0 0 0 77.662125196349734 7.1148479444073018 0 7.1148479444073018 138.21336290901172 0 0 0 0 104.19176471429455 86.184390290600732 0 86.184390290600732 269.11501710507036 0 0 0 0 8.7425695575152531 -61.668247184303084 0 -61.668247184303084 246.87757877267131 0 0 0 0 92.27702713956478 89.585218996395724 0 89.585218996395724 272.67241094137921 0 0 0 0 0.91650081416785767 0.34872922556246655 0 0.34872922556246655 -0.97854384749157663 0 0 0 0 -34.206192009201914 -6.1106911621386644 0 -6.1106911621386644 99.640524327774983 0 0 0 0 -27.08717257835815 -17.785190741816677 0 -17.785190741816677 117.53881290060508 0 0 0 0 84.763951735883893 50.65488445142887 0 50.65488445142887 46.455848758388584 0 0 0 0 35.97156102347526 67.135869419290202 0 67.135869419290202 176.03742686951273 0 0 0 0 8.0465319193535834 105.43389207206292 0 105.43389207206292 123.55965849827726 0 0 0 0 117.02878745432645 152.80570458347256 0 152.80570458347256 142.07194418407653 0 0 0 0 -63.773541935177491 -86.528005595882291 0 -86.528005595882291 109.2199774843557 0 0 0 0 114.58612577875374 -1.4667261717785323 0 -1.4667261717785323 -11.643970098804857 0 0 0 0 37.188886358648233 33.443677518131835 0 33.443677518131835 188.59172210554038 0 0 0 0 47.188044583799638 -5.3722913250139754 0 -5.3722913250139754 72.959549287575101 0 0 0 0 2.7207306375350875 -5.9153105615109789 0 -5.9153105615109789 23.917975096422666 0 0 0 0 -29.537544624196016 -27.192722157916705 0 -27.192722157916705 91.07482918999267 0 0 0 0 2.7342191793268285 -14.353398821735709 0 -14.353398821735709 80.891645575688813 0 0 0 0 3.780200857378162 -28.412240912592971 0 -28.412240912592971 56.134901729724916 0 0 0 0 26.593816366529026 -16.103992007027188 0 -16.103992007027188 14.986258767419855 0 0 0 0 26.2069797875738 -96.612698352608959 0 -96.612698352608959 28.635443079348647 0 0 0 0 30.145895659664347 2.3579124541574856 0 2.3579124541574856 65.182664129868499 0 0 0 0 -210.83114605633727 320.13182633816177 0 320.13182633816177 -94.758563983537897 0 0 0 0 0.28011605702632902 5.3587096718652774 0 5.3587096718652774 -0.072585868343679749 0 0 0 0 -502.01953665251403 13.441273040385568 0 13.441273040385568 -125.10135296843146 0 0 0 0 -1.7285807771427244 27.416255392472522 0 27.416255392472522 291.01175614964632 0 0 0 0 -697.55135193013984 -67.943692920616741 0 -67.943692920616741 616.81264482381812 0 0 0 0 -130.38166814819169 492.22926227787684 0 492.22926227787684 261.06638254225254 0 0 0 0 -41.831256474766633 -49.442395467626966 0 -49.442395467626966 106.32554795529563 0 0 0 0 176.07121738145997 -503.61388054580675 0 -503.61388054580675 550.00276646114071 0 0 0 0 256.5908912083537 -328.34437186882633 0 -328.34437186882633 501.51853255099923 0 0 0 0 11.199205834194178 -43.973148564719139 0 -43.973148564719139 75.930147467742003 0 0 0 0 -46.289751841604811 147.88713061875023 0 147.88713061875023 713.92806991038378 0 0 0 0 -210.09414839847705 465.70541608791973 0 465.70541608791973 380.47903011570452 0 0 0 0 271.89200121249087 8.2095908026240068 0 8.2095908026240068 103.70885934368562 0 0 0 0 369.92501541913771 -352.80269622064225 0 -352.80269622064225 655.03958774136026 0 0 0 0 -0.50349434397296644 -1.1539932409093314 0 -1.1539932409093314 7.3764368540767151 0 0 0 0 276.44163421004794 -6.0581414109719844 0 -6.0581414109719844 28.181738932420558 0 0 0 0 73.455041124339004 39.138748210458289 0 39.138748210458289 23.726437952118431 0 0 0 0 1.1164089368879546 1.3426416367935978 0 1.3426416367935978 2.152652785473137 0 0 0 0 45.815203402885345 -231.4523666446803 0 -231.4523666446803 391.30942983241221 0 0 0 0 25.415829654415916 19.380949112160579 0 19.380949112160579 33.264667295072286 0 0 0 0 79.144736485230169 -21.939815621677553 0 -21.939815621677553 -19.333627533946128 0 0 0 0 16.177983011317963 -103.10392065326641 0 -103.10392065326641 141.42376025660633 0 0 0 0 -15.566514724721856 -21.804374070903123 0 -21.804374070903123 182.86074314108509 0 0 0 0 -68.658066625899664 -68.717979570764328 0 -68.717979570764328 208.75546244940915 0 0 0 0 -45.586828052866622 -45.486401977342894 0 -45.486401977342894 129.0626719579725 0 0 0 0 -31.13100903900613 -41.47668964364982 0 -41.47668964364982 36.93920515131731 0 0 0 0 -20.512086366849871 18.75851830504871 0 18.75851830504871 150.88722183517166 0 0 0 0 189.11416141080554 192.84294796408176 0 192.84294796408176 -48.143992419085407 0 0 0 0 0.70849901264071846 -29.721095617448725 0 -29.721095617448725 69.630694714369895 0 0 0 0 -18.95460466392251 -118.07824507173245 0 -118.07824507173245 47.202389857597012 0 0 0 0 -167.40165292914207 -138.62876097808589 0 -138.62876097808589 170.47651323610989 0 0 0 0 -22.502594888786916 -98.708942357319529 0 -98.708942357319529 -49.510530411691434 0 0 0 0 1.1800296426972636 -5.7267092856218369 0 -5.7267092856218369 96.027911088098335 0 0 0 0 8.0068614506951317 0.25962685985580336 0 0.25962685985580336 43.867969047013517 0 0 0 0 8.5941119046502497 -8.3370159694501336 0 -8.3370159694501336 27.279805506359573 0 0 0 0 22.319052010818268 -0.63772981586589594 0 -0.63772981586589594 81.285753813743213 0 0 0 0 3.070560602718615 -11.279739482934019 0 -11.279739482934019 26.897283481785053 0 0 0 0 8.2735626027476812 -7.7720874466689001 0 -7.7720874466689001 32.64959558728782 0 0 0 0 -1.4616270953170876 -14.84249349711167 0 -14.84249349711167 7.8149151137514181 0 0 0 0 15.566951484081073 8.3319595242719515 0 8.3319595242719515 100.61474498506868 0 0 0 0 33.696112225876277 2.8543588931606791 0 2.8543588931606791 45.12488556686003 0 0 0 0 34.599133440759033 23.727710798055341 0 23.727710798055341 76.916749214717129 0 0 0 0 39.750197778268102 6.4707988560994636 0 6.4707988560994636 27.892037969082594 0 0 0 0 52.656241263452102 41.270038755701535 0 41.270038755701535 78.370925525698112 0 0 0 0 3.5235020967812201 -5.5448142157192093 0 -5.5448142157192093 19.713008198637468 0 0 0 0 40.831830931020704 10.265182298103355 0 10.265182298103355 43.678089821689355 0 0 0 0 44.422767388603006 3.7679820838202431 0 3.7679820838202431 29.103737536235712 0 0 0 0 47.283895356019457 -23.127929210844741 0 -23.127929210844741 37.723223844550375 0 0 0 0 43.521959326359138 -11.302979315467383 0 -11.302979315467383 37.622660852641275 0 0 0 0 47.966715978135653 -1.1824310246156529 0 -1.1824310246156529 34.997951505807578 0 0 0 0 12.685789937115313 -3.3939278189473185 0 -3.3939278189473185 20.650817516580005 0 0 0 0 8.4605745921359308 -1.9594492917559574 0 -1.9594492917559574 17.598321219541496 0 0 0 0 2.5851623440830735 -3.366334328387893 0 -3.366334328387893 11.790978108008858 0 0 0 0 5.856784212988714 -2.0058576064911904 0 -2.0058576064911904 40.45847018060158 0 0 0 0 -1.3383018495717032 -1.7635744610389139 0 -1.7635744610389139 8.6899932575294194 0 0 0 0 34.402163320795808 -4.4043258258170681 0 -4.4043258258170681 14.969113620434655 0 0 0 0 37.925927874450508 16.932519285338685 0 16.932519285338685 38.443695176720212 0 0 0 0 23.987891832120113 3.2546881542111805 0 3.2546881542111805 33.330440159916179 0 0 0 0 18.6457534057419 1.1658827862927943 0 1.1658827862927943 19.983752113508025 0 0 0 0 8.5266368032078095 5.8907998422232097 0 5.8907998422232097 26.178497794812738 0 0 0 0 12.744844607252162 0.098870351033838233 0 0.098870351033838233 14.046087958065982 0 0 0 0 38.149836622898874 -9.5401519884835579 0 -9.5401519884835579 8.0687820948369335 0 0 0 0 8.8893676408192732 2.3370976088281168 0 2.3370976088281168 18.807953089410148 0 0 0 0 7.8111210785620342 4.4197652755875101 0 4.4197652755875101 16.901486015063583 0 0 0 0 9.6711148356658825 -0.44253614601417812 0 -0.44253614601417812 19.346885460907899 0 0 0 0 10.133389920387277 -7.8182382917451463 0 -7.8182382917451463 24.059721049497298 0 0 0 0 8.8102097346036317 3.012333327842498 0 3.012333327842498 18.969965894153574 0 0 0 0 -1043.6235145344108 337.54481459601993 0 337.54481459601993 369.0086372374526 0 0 0 0 17.920402578471112 -3.0535989718082419 0 -3.0535989718082419 34.820364675739256 0 0 0 0 21.164759486501982 -2.3632413551829465 0 -2.3632413551829465 21.791619132759372 0 0 0 0 -5.9220436164998489 11.240620377960568 0 11.240620377960568 18.920597786280268 0 0 0 0 2.114505015242278 3.7204530853905453 0 3.7204530853905453 5.6574435454522529 0 0 0 0 54.015738504564524 -9.5700588646632241 0 -9.5700588646632241 5.7765277393009455 0 0 0 0 10.600401047561604 -30.263710509246266 0 -30.263710509246266 2.8252403803271591 0 0 0 0 63.297585258808795 1.1441974963090615 0 1.1441974963090615 -9.8232898121314065 0 0 0 0 103.8052106911498 18.842795303262392 0 18.842795303262392 -4.6124778772864374 0 0 0 0 41.23669057727858 23.879380099252103 0 23.879380099252103 17.036280520209402 0 0 0 0 66.438268589878135 13.298528083971178 0 13.298528083971178 14.770157128783467 0 0 0 0 50.882967955898494 4.3388878732293961 0 4.3388878732293961 12.688652095457655 0 0 0 0 55.207442658935179 0.1386096976857516 0 0.1386096976857516 16.182679106357682 0 0 0 0 51.89322608843031 -5.4038558318607102 0 -5.4038558318607102 8.1372596615037764 0 0 0 0 49.988032037692733 -19.404912885592239 0 -19.404912885592239 18.693685808699229 0 0 0 0 44.587823727893465 -8.5813078822993702 0 -8.5813078822993702 20.636786783332354 0 0 0 0 46.744363221833737 -10.127362575312873 0 -10.127362575312873 38.013158528865461 0 0 0 0 47.81443697893701 -8.76344947650432 0 -8.76344947650432 17.210393510787071 0 0 0 0 39.447526429386244 -25.580888849483017 0 -25.580888849483017 6.585167261215247 0 0 0 0 36.393162524201216 -15.916041715734536 0 -15.916041715734536 14.356482181094179 0 0 0 0 33.160523390967967 3.5221546618365664 0 3.5221546618365664 -14.383507901515259 0 0 0 0 0.049694599232330994 -0.37110933811405289 0 -0.37110933811405289 1.2096853928705258 0 0 0 0 1.9944272946515094 1.985075423560879 0 1.985075423560879 2.9334190632334582 0 0 0 0 2.4471220916341281 3.2701336983072444 0 3.2701336983072444 3.753306680188274 0 0 0 0 -14.235002763721695 -14.716739092319585 0 -14.716739092319585 -19.745028115943569 0 0 0 0 25.430482503125404 7.0081036186129495 0 7.0081036186129495 23.218194829376444 0 0 0 0 -81.033632261576713 56.52201356583646 0 56.52201356583646 67.74031633213599 0 0 0 0 28.344514222946827 -17.398235559557179 0 -17.398235559557179 34.623182448867738 0 0 0 0 -58.180782785826068 28.899214316530561 0 28.899214316530561 136.81503350339278 0 0 0 0 9.444959914334504 -76.561036879767926 0 -76.561036879767926 140.42864046390298 0 0 0 0 -92.178563933624218 14.510228289663701 0 14.510228289663701 47.51183253257841 0 0 0 0 -49.271935205619684 116.94705960615102 0 116.94705960615102 -63.891096427014418 0 0 0 0 12.700370090677552 37.011123828597192 0 37.011123828597192 -90.50709489232645 0 0 0 0 -60.978070163980078 32.65323780091876 0 32.65323780091876 122.49345814772823 0 0 0 0 52.046810470565973 -15.936198597271868 0 -15.936198597271868 104.02443779041641 0 0 0 0 100.62218862116438 80.023287201898711 0 80.023287201898711 104.76172321525519 0 0 0 0 106.44360214840367 74.269155876296281 0 74.269155876296281 -33.142147188809759 0 0 0 0 51.013976579551198 91.40843838269393 0 91.40843838269393 110.14422220482811 0 0 0 0 36.912416081960203 -200.30395471253723 0 -200.30395471253723 341.50696716221228 0 0 0 0 -53.984964499445837 -130.87911413366237 0 -130.87911413366237 312.73035701038316 0 0 0 0 5.5940692709663296 -32.592427704292277 0 -32.592427704292277 384.57396349881674 0 0 0 0 94.68766730181602 -66.740888217878819 0 -66.740888217878819 203.25154893668514 0 0 0 0 -53.607181480233244 -29.913960207015407 0 -29.913960207015407 215.43721950401596 0 0 0 0 6.9084587844663474 -141.8977776333013 0 -141.8977776333013 339.46319537119962 0 0 0 0 8.9345483939024639 6.660881701833496 0 6.660881701833496 4.0921504248130205 0 0 0 0 -3.9509895929218146 -11.455770213238793 0 -11.455770213238793 45.381842817398137 0 0 0 0 7.3559193828964577 4.4412140226250472 0 4.4412140226250472 3.0176239518926735 0 0 0 0 -50.033378330733626 46.844026690712781 0 46.844026690712781 -0.54284597168225446 0 0 0 0 2.5008938012724684 -3.2324570452292392 0 -3.2324570452292392 50.731178321984771 0 0 0 0 7.4708460717840808 6.5926711509482629 0 6.5926711509482629 25.948908218113502 0 0 0 0 15.376378722994559 9.453686320084671 0 9.453686320084671 51.364423652416008 0 0 0 0 23.808060022958671 -17.262080381209671 0 -17.262080381209671 41.572775651093252 0 0 0 0 -15.744391771424034 -77.863856778378249 0 -77.863856778378249 310.59018312026456 0 0 0 0 12.837910267379744 7.4502767770260263 0 7.4502767770260263 8.8417551754763508 0 0 0 0 40.601788963216336 -32.503442706135502 0 -32.503442706135502 292.33275579071778 0 0 0 0 -14.73452235309378 -36.229980098250962 0 -36.229980098250962 293.23915545660202 0 0 0 0 -2.4450945894659526 -70.418552800687394 0 -70.418552800687394 158.27169722293911 0 0 0 0 -28.637034381523335 -55.64590940837661 0 -55.64590940837661 288.28168713415016 0 0 0 0 -38.327258292797751 -13.984280053975453 0 -13.984280053975453 180.57212172706204 0 0 0 0 54.617468830174005 -39.824498894392036 0 -39.824498894392036 169.39337561120919 0 0 0 0 14.110420993235714 24.693211632907605 0 24.693211632907605 -30.660566186430515 0 0 0 0 0.16160919375584326 26.524778493869235 0 26.524778493869235 33.473202424414922 0 0 0 0 6.6459145956240135 19.823932664185122 0 19.823932664185122 31.819746042427141 0 0 0 0 63.783780761257042 -77.509158442691842 0 -77.509158442691842 116.63906777590455 0 0 0 0 23.09210918794032 -44.859898553375388 0 -44.859898553375388 123.17753663133772 0 0 0 0 -56.627442075533864 -121.86559389875038 0 -121.86559389875038 140.3838700825072 0 0 0 0 -0.031143272013320067 0.54550809189970551 0 0.54550809189970551 3.1357529683029384 0 0 0 0 482.50356155784607 205.47487177864969 0 205.47487177864969 33.921200554876123 0 0 0 0 161.89651380467507 24.048057906737085 0 24.048057906737085 86.146640468126861 0 0 0 0 -132.03263215861031 82.417930678238918 0 82.417930678238918 94.591038280654175 0 0 0 0 -28.716810252220824 189.16195523529314 0 189.16195523529314 120.46991272909509 0 0 0 0 116.27275860912755 59.32582296943292 0 59.32582296943292 51.005962071845715 0 0 0 0 58.479681341391029 175.35857269087865 0 175.35857269087865 98.556455142592313 0 0 0 0 -95.176873797591099 346.63604240101995 0 346.63604240101995 -148.74000717255694 0 0 0 0 10.316463844254883 -23.192848238672013 0 -23.192848238672013 300.93081333770169 0 0 0 0 214.49894810112193 868.60424694645917 0 868.60424694645917 519.91527169663459 0 0 0 0 -159.77528250217142 -88.688998929901572 0 -88.688998929901572 6.5414433856785763 0 0 0 0 0.11119283916341027 1.8063603169856037 0 1.8063603169856037 0.88231465673126763 0 0 0 0 2.1619099070848096 -0.33059646231859574 0 -0.33059646231859574 2.6256469745867435 0 0 0 0 30.481346536498791 72.078556177861174 0 72.078556177861174 32.301597983314423 0 0 0 0 -230.44505815344749 93.140641134006728 0 93.140641134006728 121.03647488047136 0 0 0 0 -64.586492197304608 52.847747506173619 0 52.847747506173619 67.492277999714133 0 0 0 0 -30.607868766592787 -0.37686183457481093 0 -0.37686183457481093 19.061542700073915 0 0 0 0 117.59815849781552 96.137066459610651 0 96.137066459610651 17.215969322744058 0 0 0 0 -95.895139497406532 20.942098743958923 0 20.942098743958923 26.88427171776857 0 0 0 0 -0.31033796148425308 0.097439067288256354 0 0.097439067288256354 8.6801636410569358 0 0 0 0 23.262942831524981 106.75252716336399 0 106.75252716336399 76.562862149323337 0 0 0 0 46.014498519103256 27.027468796950416 0 27.027468796950416 43.798723364394391 0 0 0 0 -8.7805848914634907 14.250011128897313 0 14.250011128897313 42.442892930874223 0 0 0 0 -2.0561626837809879 7.619699995725469 0 7.619699995725469 18.544620293482581 0 0 0 0 6.8043857641527836 21.66304402366768 0 21.66304402366768 27.364304610455292 0 0 0 0 -16.902170745425185 31.787032558648207 0 31.787032558648207 17.7744970802014 0 0 0 0 -38.174515502565896 13.32097281327151 0 13.32097281327151 33.770363349249237 0 0 0 0 -1.4748540962324821 2.4112510796734625 0 2.4112510796734625 15.21795946879638 0 0 0 0 18.788683980523064 33.966294400514016 0 33.966294400514016 29.653463777707657 0 0 0 0 9.0943088618861054 14.477466016389371 0 14.477466016389371 24.629998762320611 0 0 0 0 1.574694031312788 5.4462858290353324 0 5.4462858290353324 1.8856791114230873 0 0 0 0 -0.92612702252783841 19.350907085709878 0 19.350907085709878 34.188496960647171 0 0 0 0 25.231573669553185 15.766521625468158 0 15.766521625468158 18.308765778914676 0 0 0 0 29.80538713076227 43.337605623870331 0 43.337605623870331 41.434219636219495 0 0 0 0 -0.0057235544028763257 0.061328156426270652 0 0.061328156426270652 0.090849168127078883 0 0 0 0 0.0059724808254534786 1.8984235522215516 0 1.8984235522215516 1.7836364149407018 0 0 0 0 -0.001880318741371706 0.24692977295646301 0 0.24692977295646301 0.33331447685958437 0 0 0 0 1.9710032175066621 1.7676649441855261 0 1.7676649441855261 1.6331948202423519 0 0 0 0 0.17847671970306739 0.30470170344491976 0 0.30470170344491976 0.45881023840291846 0 0 0 0 -0.04451727774937473 -40.833642313104065 0 -40.833642313104065 -23.058118952372752 0 0 0 0 -21.933847807265423 3.0955437009251909 0 3.0955437009251909 31.431468414448318 0 0 0 0 -0.73016385467485634 -0.11923547952028457 0 -0.11923547952028457 13.141687008464942 0 0 0 0 -1.5515214640187172 3.0559095765923132 0 3.0559095765923132 3.1830844783612235 0 0 0 0 -1.5538968783499554 -1.6550160433459382 0 -1.6550160433459382 5.1259417381700132 0 0 0 0 -34.144597313645029 -30.577394642774379 0 -30.577394642774379 17.588086941657821 0 0 0 0 -8.4870082754353575 66.645959379100532 0 66.645959379100532 152.97304353869549 0 0 0 0 10.60476700754279 -7.1916170123586198 0 -7.1916170123586198 131.46494040358812 0 0 0 0 0.33007746323793596 -0.812180286843045 0 -0.812180286843045 1.1440791571475302 0 0 0 0 -48.832951747788513 28.799392795495805 0 28.799392795495805 12.253763487213291 0 0 0 0 4.2510432347415872 9.6500184296019142 0 9.6500184296019142 114.45228350852267 0 0 0 0 -30.088369451832115 -24.741380342282355 0 -24.741380342282355 122.0026688844373 0 0 0 0 0.15140342881362753 -42.47980587586062 0 -42.47980587586062 132.27930250791542 0 0 0 0 14.247584937044493 -8.0420044099737424 0 -8.0420044099737424 34.589082676022372 0 0 0 0 -55.390472296723757 49.460742778159329 0 49.460742778159329 269.58738118700421 0 0 0 0 1.3258101068535217 2.1917917718101307 0 2.1917917718101307 -0.53158961176519881 0 0 0 0 -376.01977610873638 930.85736826605716 0 930.85736826605716 3492.4100567281785 0 0 0 0 1.8880229396742148 157.42715885259895 0 157.42715885259895 1944.2016745904184 0 0 0 0 -218.67916446054232 -103.0272371389874 0 -103.0272371389874 36.178123298697756 0 0 0 0 -78.278071530373367 -581.45139577778536 0 -581.45139577778536 3493.3362776904105 0 0 0 0 14.964899275151494 -12.436205303471468 0 -12.436205303471468 20.082370077002935 0 0 0 0 60.393066311480993 259.10498305788497 0 259.10498305788497 1698.8913372786774 0 0 0 0 5.2671576974589431 0.78882690358130958 0 0.78882690358130958 8.2329040749293654 0 0 0 0 1254.2380253512861 1102.3174997032474 0 1102.3174997032474 989.56212704991049 0 0 0 0 21.167285256937021 -4.6599700129154371 0 -4.6599700129154371 105.40002857614309 0 0 0 0 4.7983454857193237 12.937110000144457 0 12.937110000144457 118.57021985058236 0 0 0 0 -1.4162986162685909 7.3113019855935022 0 7.3113019855935022 6.1486617510352772 0 0 0 0 -11.410091475627723 -3.9095613953395514 0 -3.9095613953395514 87.986000688433705 0 0 0 0 -15.94083604894945 43.377780927916319 0 43.377780927916319 78.110422017591191 0 0 0 0 -5.9843871648820288 9.7620374278196067 0 9.7620374278196067 60.263734468393579 0 0 0 0 -26.642584343757562 3.1055803164927056 0 3.1055803164927056 94.916249990288634 0 0 0 0 -18.926217904927981 -3.4385071019059978 0 -3.4385071019059978 113.18623560661217 0 0 0 0 -21.353176215339175 -14.477245895497617 0 -14.477245895497617 84.276919939671643 0 0 0 0 -0.70759653977924053 -12.021716308673433 0 -12.021716308673433 29.845199345416773 0 0 0 0 3.0026391547069124 -4.8222098142723553 0 -4.8222098142723553 32.064009668894869 0 0 0 0 40.124918092912935 -25.36879239375412 0 -25.36879239375412 126.0598691602936 0 0 0 0 21.261291264444935 16.15752212156076 0 16.15752212156076 98.556843583763111 0 0 0 0 23.284761216993502 -52.745899714129337 0 -52.745899714129337 36.007392716943286 0 0 0 0 18.646409409307807 -1.4203136994401575 0 -1.4203136994401575 -4.5233450081723277 0 0 0 0 0.66995803612231719 -0.56272196555468668 0 -0.56272196555468668 -0.69851355466181531 0 0 0 0 4.6661481064277837 2.3143062216113321 0 2.3143062216113321 154.72535169947514 0 0 0 0 -11.168127491365308 24.225664362194948 0 24.225664362194948 33.41630009211076 0 0 0 0 0.73800083681544093 -6.072827250825668 0 -6.072827250825668 6.0233548717009171 0 0 0 0 3.2189855673354386 -16.105360722775117 0 -16.105360722775117 19.429284736892299 0 0 0 0 -5.5187758962449411 11.992013559462521 0 11.992013559462521 27.695545011190092 0 0 0 0 -12.892094915792768 28.317309039324755 0 28.317309039324755 71.40219168283511 0 0 0 0 -0.29088944005755435 8.7257499849220039 0 8.7257499849220039 23.737292229139712 0 0 0 0 9.916771254375135 -22.064721784314315 0 -22.064721784314315 69.943913978597266 0 0 0 0 2.26426993921649 12.282253732919344 0 12.282253732919344 42.016291108768201 0 0 0 0 4.3187518748973162 -10.393076751628541 0 -10.393076751628541 67.774263906394481 0 0 0 0 -1.3606599062250098 6.7278021910897223 0 6.7278021910897223 72.620610434940318 0 0 0 0 32.646607870381104 -20.806023310331511 0 -20.806023310331511 43.410649763129186 0 0 0 0 46.671869285447428 -48.389623743132688 0 -48.389623743132688 103.16848485445371 0 0 0 0 -4.3698571752444106 10.183286373972848 0 10.183286373972848 4.4664344646836298 0 0 0 0 7.674519608528044 -10.372400554813794 0 -10.372400554813794 66.566338741482468 0 0 0 0 -4.7546591868072969 4.3362984867294898 0 4.3362984867294898 44.613360500479359 0 0 0 0 14.49455218191855 -9.9945439688817714 0 -9.9945439688817714 51.203806979547153 0 0 0 0 -8.1840690512879064 4.3141192437178688 0 4.3141192437178688 47.803988982086594 0 0 0 0 -0.28454615034286235 6.3760358544823248 0 6.3760358544823248 47.920386901325401 0 0 0 0 110.59021400777755 47.896227980032563 0 47.896227980032563 -84.423811697823112 0 0 0 0 289.05081816527087 250.12638912339025 0 250.12638912339025 182.5965535872383 0 0 0 0 -144.13296080802957 162.07156665233197 0 162.07156665233197 -40.394810802463326 0 0 0 0 165.32217554202748 73.820936568416073 0 73.820936568416073 -66.956748833094025 0 0 0 0 -142.56846010372058 225.53164837233896 0 225.53164837233896 -19.986980641115224 0 0 0 0 -364.29552519786375 50.099300237576244 0 50.099300237576244 167.44972201460041 0 0 0 0 17.024131592305366 274.74312062685931 0 274.74312062685931 -168.73314848478185 0 0 0 0 -623.05010438512545 226.34010120027233 0 226.34010120027233 9.3885958802420646 0 0 0 0 -8.2180328532078821 14.889827210774271 0 14.889827210774271 67.804579042723361 0 0 0 0 -359.50910681243886 264.7249930541584 0 264.7249930541584 126.0128804219712 0 0 0 0 -381.8798347042366 401.08686766632309 0 401.08686766632309 -397.88302829876193 0 0 0 0 -7.721643081436361 -2.5735271909164652 0 -2.5735271909164652 17.298549912279128 0 0 0 0 -249.20587742124826 285.42380026864703 0 285.42380026864703 119.49485530715901 0 0 0 0 -225.02643217228933 -147.86422535799647 0 -147.86422535799647 331.12921557321897 0 0 0 0 63.352290499408355 -46.412331565552449 0 -46.412331565552449 146.8514575418958 0 0 0 0 743.14991460663862 -427.30461230136279 0 -427.30461230136279 509.24072905402863 0 0 0 0 -48.342741876935975 -4.4734304003432044 0 -4.4734304003432044 681.26955536792229 0 0 0 0 15.772997354739374 -620.84264953786624 0 -620.84264953786624 1652.5696338543494 0 0 0 0 790.22032731421154 -2036.7239959645885 0 -2036.7239959645885 1977.3638738254667 0 0 0 0 1484.8490921126563 -1025.1443802546673 0 -1025.1443802546673 -409.52948389720405 0 0 0 0 139.32403637214045 859.3624009800551 0 859.3624009800551 3510.1130772997467 0 0 0 0 -154.67900199615406 -27.011058297110139 0 -27.011058297110139 538.74324795509165 0 0 0 0 7.0576921153958496 -3.6156436692562011 0 -3.6156436692562011 4.9346817415692783 0 0 0 0 -282.97789402228614 -838.29748157592076 0 -838.29748157592076 2877.5396197726513 0 0 0 0 -292.87128860500718 -1403.1932991040158 0 -1403.1932991040158 3503.7803926021143 0 0 0 0 -312.85647485329559 -697.39660475464916 0 -697.39660475464916 2470.6813987459391 0 0 0 0 -66.206056895164238 374.46391799191406 0 374.46391799191406 1087.9599490345572 0 0 0 0 204.71803707854747 -971.65800975961793 0 -971.65800975961793 2004.6339984953229 0 0 0 0 -148.11319711935505 167.60621650215398 0 167.60621650215398 2696.2794945425121 0 0 0 0 0.80072780566502355 -2.5651018855278949 0 -2.5651018855278949 6.935188787367025 0 0 0 0 132.30370554632492 173.33434818367459 0 173.33434818367459 66.094930564737297 0 0 0 0 423.11509847869388 -177.60754396955781 0 -177.60754396955781 -14.866195493632404 0 0 0 0 1.4953284029666705 -4.3897718186813108 0 -4.3897718186813108 9.9804193663540275 0 0 0 0 -9.934797421539713 -111.91281185686967 0 -111.91281185686967 -24.652941066491621 0 0 0 0 -130.64362306469474 -107.99725207278971 0 -107.99725207278971 43.301949546788819 0 0 0 0 -142.85080070573812 54.566969293840657 0 54.566969293840657 186.45885895116953 0 0 0 0 19.93152123727053 205.25714035623787 0 205.25714035623787 170.97395170007076 0 0 0 0 18.099767821539558 -16.453213498607511 0 -16.453213498607511 24.59440573439133 0 0 0 0 0.26052604450319528 -0.75812295541999219 0 -0.75812295541999219 -1.1775817337138221 0 0 0 0 5.9841185298374171 25.573370856092879 0 25.573370856092879 37.685874378017616 0 0 0 0 -14.562132787341909 14.309643290594977 0 14.309643290594977 99.142427723272704 0 0 0 0 -60.806669348746624 5.6207555245491676 0 5.6207555245491676 103.04429001145763 0 0 0 0 -0.92979804378916953 3.73713015989415 0 3.73713015989415 63.884292747461586 0 0 0 0 -6.485147911037302 110.20322510494589 0 110.20322510494589 142.4715794441654 0 0 0 0 -9.4623426541315894 18.95562730198435 0 18.95562730198435 88.916020345568541 0 0 0 0 1.6576249323906902 3.9439482033999695 0 3.9439482033999695 14.331832181903849 0 0 0 0 12.463675040065425 31.13493133472366 0 31.13493133472366 63.923544196005821 0 0 0 0 17.110740192392655 53.50192650599638 0 53.50192650599638 99.529570599916042 0 0 0 0 140.23995534494281 46.756491543572338 0 46.756491543572338 -40.116292435883224 0 0 0 0 -97.955928202386559 25.062554353353335 0 25.062554353353335 193.84551623706648 0 0 0 0 -20.353609630776418 62.385273226842401 0 62.385273226842401 -63.684080910032208 0 0 0 0 -55.367659396212161 -40.981133206820232 0 -40.981133206820232 31.761299844598398 0 0 0 0 -3.1098751444613955 6.8145258767024757 0 6.8145258767024757 40.710108674708806 0 0 0 0 -1.2481398738666893 4.4769902335267773 0 4.4769902335267773 15.093995221099419 0 0 0 0 0.59623889737084901 -7.162133995798655 0 -7.162133995798655 50.702896585389567 0 0 0 0 -12.872875671765655 33.07396813268133 0 33.07396813268133 126.38878998677683 0 0 0 0 3.8610050483879093 -4.176184849893616 0 -4.176184849893616 52.519106960651698 0 0 0 0 8.2751015639719299 -7.0147336197405821 0 -7.0147336197405821 52.186407244164911 0 0 0 0 3.22351786157301 10.840772298629986 0 10.840772298629986 26.04444333158915 0 0 0 0 16.136241562676105 21.736511424573109 0 21.736511424573109 42.852802900524694 0 0 0 0 -24.753633889092725 14.014411304218811 0 14.014411304218811 54.38644503843534 0 0 0 0 -7.3674403824765591 9.6460921642901667 0 9.6460921642901667 55.211627024589689 0 0 0 0 75.543632388101287 42.546723812803975 0 42.546723812803975 84.707156468633912 0 0 0 0 12.232269718849695 14.630572020207723 0 14.630572020207723 43.020793880692025 0 0 0 0 22.049257320696825 61.784305444627535 0 61.784305444627535 105.07491623450187 0 0 0 0 18.174020023887351 65.368991135735996 0 65.368991135735996 139.38589241412433 0 0 0 0 3.1248904538010245 9.1239561124082371 0 9.1239561124082371 5.208092936543494 0 0 0 0 15.874159409185779 67.896676313404896 0 67.896676313404896 139.34863371480606 0 0 0 0 -5.4829625492051717 0.7667358102498838 0 0.7667358102498838 28.937574529581866 0 0 0 0 -125.72249829933918 123.52202541984298 0 123.52202541984298 2.5771576188599283 0 0 0 0 31.950143468649458 13.976631087389251 0 13.976631087389251 156.53678798426699 0 0 0 0 -5.9402790299005499 -2.6212999539809516 0 -2.6212999539809516 11.086415112151698 0 0 0 0 134.32121841223511 244.84703892523248 0 244.84703892523248 416.72182678774698 0 0 0 0 -317.92773843747079 -267.08465719489686 0 -267.08465719489686 474.74696034746012 0 0 0 0 -17.023414390189828 2.8458222043900605 0 2.8458222043900605 118.53683885357168 0 0 0 0 -8.5094477604311578 30.940881491835171 0 30.940881491835171 202.52144320299703 0 0 0 0 -10.419247998412402 -18.797499441578111 0 -18.797499441578111 144.54294346115057 0 0 0 0 -0.53522326347001581 -14.270713095487736 0 -14.270713095487736 140.4853432017153 0 0 0 0 -8.1517243581237544 -17.48021403210376 0 -17.48021403210376 72.979917255161865 0 0 0 0 -3.4816924768258559 -25.930193546526425 0 -25.930193546526425 138.32049679978263 0 0 0 0 -23.128200474117648 -31.694730787952722 0 -31.694730787952722 140.34115573434428 0 0 0 0 -68.2224388275461 37.281346928138873 0 37.281346928138873 38.905904325991287 0 0 0 0 -29.941544526208702 4.8037834639944776 0 4.8037834639944776 46.558783533371752 0 0 0 0 -0.1849844389634665 1.0833917848298569 0 1.0833917848298569 13.608681914697229 0 0 0 0 1.6035432761047839 7.9192259458026513 0 7.9192259458026513 12.226956994784217 0 0 0 0 13.283487489965239 34.517250877466211 0 34.517250877466211 51.106799888316829 0 0 0 0 -36.583990674284792 -1.3704785439258558 0 -1.3704785439258558 165.95570145403326 0 0 0 0 -38.792852773392497 24.900995357238571 0 24.900995357238571 129.86109419529384 0 0 0 0 -25.750376854303639 -32.196192248968146 0 -32.196192248968146 125.792711385453 0 0 0 0 -25.589626005295941 -36.280121864848297 0 -36.280121864848297 204.48661586159142 0 0 0 0 -51.176076980771029 -20.549192764636246 0 -20.549192764636246 116.98018662948743 0 0 0 0 -51.164643837032486 5.5177769973015529 0 5.5177769973015529 66.905703192969668 0 0 0 0 -72.188513676551906 -15.250737382701573 0 -15.250737382701573 50.864847516000737 0 0 0 0 -35.966811143802602 1.3628766317197005 0 1.3628766317197005 75.248193521765643 0 0 0 0 3.3195769263916191 -115.25737238915463 0 -115.25737238915463 413.84952232416254 0 0 0 0 -42.052910456045936 173.76921067650255 0 173.76921067650255 -31.129510199264587 0 0 0 0 1.5255201153442568 1.192117331658892 0 1.192117331658892 0.16875332918965569 0 0 0 0 -39.204695089772883 48.56882775354461 0 48.56882775354461 107.9451517307607 0 0 0 0 -31.096624362591911 30.359691802783345 0 30.359691802783345 -45.685907614984899 0 0 0 0 -47.443467732455986 174.73353289508668 0 174.73353289508668 160.54798420603765 0 0 0 0 -33.929955098120104 70.693577345431549 0 70.693577345431549 67.619176137741306 0 0 0 0 -34.401730572484269 80.299000455255737 0 80.299000455255737 166.49897357579903 0 0 0 0 -87.522362244371834 102.66419780792785 0 102.66419780792785 187.21335301469662 0 0 0 0 -35.4353179074526 75.278091106280044 0 75.278091106280044 179.34525713266339 0 0 0 0 15.737832953280645 108.89462957281648 0 108.89462957281648 181.54796670898577 0 0 0 0 -6.6619073203145831 116.94606710820153 0 116.94606710820153 358.56115917296847 0 0 0 0 -26.267419215344603 57.399223192565842 0 57.399223192565842 213.62743374904676 0 0 0 0 -37.942714431252114 78.126353958588879 0 78.126353958588879 195.60751768772025 0 0 0 0 82.972456877032243 105.38441835817139 0 105.38441835817139 184.00030017661629 0 0 0 0 131.82642458122268 252.47001070468832 0 252.47001070468832 594.51420029344172 0 0 0 0 1.3810203325225889 -1.5165136384498226 0 -1.5165136384498226 1.8404716913539403 0 0 0 0 67.74548145999546 -161.06021385908753 0 -161.06021385908753 82.066186567870318 0 0 0 0 28.032523921181109 49.087143385368108 0 49.087143385368108 137.45186491895583 0 0 0 0 222.33164041837949 -149.45850969385356 0 -149.45850969385356 349.22644008755015 0 0 0 0 63.665961098580055 -157.09059619619802 0 -157.09059619619802 510.91343726374907 0 0 0 0 27.374995014684259 -66.688398870639503 0 -66.688398870639503 374.17412743171735 0 0 0 0 24.14201017581577 -88.231233571683333 0 -88.231233571683333 255.80590939504327 0 0 0 0 114.3650076943976 -117.27090486779343 0 -117.27090486779343 207.59896498778835 0 0 0 0 117.11135132075276 -118.82857067746227 0 -118.82857067746227 200.68616565475531 0 0 0 0 96.19882197830438 -62.816756686275767 0 -62.816756686275767 292.65776390052633 0 0 0 0 -28.343336337616449 -19.036360224985401 0 -19.036360224985401 241.98739068105351 0 0 0 0 -38.790365780456042 24.217190827319001 0 24.217190827319001 243.53432903774956 0 0 0 0 -28.091726394645434 -24.941092734312406 0 -24.941092734312406 192.74261484204908 0 0 0 0 -23.800452464984005 -58.496843207758502 0 -58.496843207758502 356.66748843617984 0 0 0 0 -0.19459070937125489 -85.058012992638396 0 -85.058012992638396 218.11204327352243 0 0 0 0 12.902232432624146 -63.022063204844017 0 -63.022063204844017 225.73881819352391 0 0 0 0 -6.1553841596858092 -60.940459711251606 0 -60.940459711251606 146.45698354928754 0 0 0 0 -9.0044125486688245 -76.45676657473814 0 -76.45676657473814 153.1409793567982 0 0 0 0 17.205030677445592 -76.042329194129707 0 -76.042329194129707 128.87803736346541 0 0 0 0 45.323376877193937 -117.85903068476182 0 -117.85903068476182 166.54245298620663 0 0 0 0 21.992761975855416 -86.324805027166803 0 -86.324805027166803 95.14484605427424 0 0 0 0 83.273015777757905 -140.25446711988479 0 -140.25446711988479 72.01894827610522 0 0 0 0 92.876798537882564 -61.987995990570198 0 -61.987995990570198 136.31768839055439 0 0 0 0 63.458773839180026 -83.620572867519513 0 -83.620572867519513 101.47048988050665 0 0 0 0 58.150137538674585 -129.4423699559411 0 -129.4423699559411 208.19606442601798 0 0 0 0 46.761127826998177 -82.638909704866819 0 -82.638909704866819 76.060300012686639 0 0 0 0 34.328024606000497 -74.383458308861009 0 -74.383458308861009 105.22165176473936 0 0 0 0 72.822505681900921 -10.344490453311664 0 -10.344490453311664 -39.844887919447501 0 0 0 0 -10.093471816408055 22.288545064457139 0 22.288545064457139 9.9751317526734056 0 0 0 0 -12.486569747897796 17.936878592472567 0 17.936878592472567 40.477488723787246 0 0 0 0 -0.44386845770761196 6.2592326353344134 0 6.2592326353344134 16.075776604539698 0 0 0 0 18.717571095185349 -54.967646542048897 0 -54.967646542048897 54.282959688629489 0 0 0 0 -9.9310052147281169 -83.242078411589318 0 -83.242078411589318 94.850677723414265 0 0 0 0 -29.367698076689408 -51.170054307440296 0 -51.170054307440296 70.99094523745589 0 0 0 0 78.837610334037834 -94.579026480329048 0 -94.579026480329048 34.105444683082169 0 0 0 0 6.5102720344873433 -100.23821295553353 0 -100.23821295553353 44.549517332525284 0 0 0 0 9.1360295384138794 -70.435314458198263 0 -70.435314458198263 89.732533961752779 0 0 0 0 -25.296134806544444 -49.747174303782231 0 -49.747174303782231 140.82199503751326 0 0 0 0 -8.4764854610372424 -74.396041765774498 0 -74.396041765774498 97.205046326998854 0 0 0 0 -32.279944619384253 -16.055398652300937 0 -16.055398652300937 93.625463572170702 0 0 0 0 -40.051912290342443 -19.748155688183033 0 -19.748155688183033 91.973979503265582 0 0 0 0 -30.117717023754835 -33.940862596551597 0 -33.940862596551597 96.256404906787793 0 0 0 0 -26.609725616610209 -34.232507873189206 0 -34.232507873189206 95.613638522394467 0 0 0 0 13.93225065624825 -48.285824067201247 0 -48.285824067201247 76.10147681403032 0 0 0 0 -15.643389691233438 -12.690365472939447 0 -12.690365472939447 82.515188830300758 0 0 0 0 -0.7573328391368932 -27.679492417912115 0 -27.679492417912115 47.476244196499465 0 0 0 0 19.363329529310221 -27.86408993058285 0 -27.86408993058285 46.611428620311926 0 0 0 0 351.87528614076882 -26.972424472915009 0 -26.972424472915009 -3.0472989740101184 0 0 0 0 59.055184613760048 -32.314184567276243 0 -32.314184567276243 6.6906501369157922 0 0 0 0 -151.08247407120328 -128.17158013699736 0 -128.17158013699736 130.91474975909659 0 0 0 0 92.805435980004034 -248.36496477032961 0 -248.36496477032961 122.43063143637846 0 0 0 0 -178.51070639976183 -6.5353929359989706 0 -6.5353929359989706 3149.2243450303795 0 0 0 0 134.95530158444535 -384.67054694861145 0 -384.67054694861145 179.9237801116933 0 0 0 0 0.6745273143195738 3.2572451864556626 0 3.2572451864556626 11.020672638522996 0 0 0 0 -53.644274713645274 462.01361007610831 0 462.01361007610831 233.55405401028838 0 0 0 0 -105.98550394397512 -653.73559639666564 0 -653.73559639666564 3610.853741083527 0 0 0 0 309.89465139308345 -167.69931155286031 0 -167.69931155286031 3519.6652355016558 0 0 0 0 -81.129583340426876 -430.52764347600532 0 -430.52764347600532 3500.4950126735057 0 0 0 0 162.45980028980802 -458.84954763212954 0 -458.84954763212954 3220.15896181266 0 0 0 0 142.86353035667332 -108.26663938435195 0 -108.26663938435195 3358.3386742345465 0 0 0 0 19.851506459208586 -281.76649944059682 0 -281.76649944059682 3499.7244279743391 0 0 0 0 55.536005579057694 -285.4620174555821 0 -285.4620174555821 3444.4052679507586 0 0 0 0 -103.94031190931234 -833.29583334134804 0 -833.29583334134804 2947.0246100081604 0 0 0 0 1.2204962286765506 3.6556169049264611 0 3.6556169049264611 9.4485238762424615 0 0 0 0 234.87143141411758 244.7994641567384 0 244.7994641567384 72.35864252733154 0 0 0 0 -28.295646040989254 20.232929495117787 0 20.232929495117787 88.442322028837225 0 0 0 0 1.0521007098091848 7.0198613476645448 0 7.0198613476645448 19.363917541313555 0 0 0 0 -152.76175270871997 44.948774017495623 0 44.948774017495623 22.903833566335379 0 0 0 0 -3.9064824373764395 27.606601380186476 0 27.606601380186476 11.23963986106537 0 0 0 0 -4.2933963104999293 25.069428901348147 0 25.069428901348147 1.4252893477678299 0 0 0 0 4.5542665218975582 16.70422612810431 0 16.70422612810431 13.300762283492247 0 0 0 0 130.0479412645924 -239.63243034918014 0 -239.63243034918014 396.95987225163117 0 0 0 0 -73.991992061803103 170.01357399321205 0 170.01357399321205 1076.7905515322491 0 0 0 0 3.6281632339374985 10.26699703459731 0 10.26699703459731 19.223215442026031 0 0 0 0 100.35420466994063 -1000.3303213558174 0 -1000.3303213558174 3633.5633707713423 0 0 0 0 58.908346267286703 -704.35379342578381 0 -704.35379342578381 1520.2395634262593 0 0 0 0 -431.98019658654817 77.898518488666014 0 77.898518488666014 2972.1769399357945 0 0 0 0 -369.43514159758053 31.405348679727467 0 31.405348679727467 2988.3786742186676 0 0 0 0 -622.99728465392002 174.00223834958706 0 174.00223834958706 3499.3636535660007 0 0 0 0 -285.87386712439633 -178.09417642345943 0 -178.09417642345943 3499.8706985299141 0 0 0 0 -229.63180502511358 851.78032634258307 0 851.78032634258307 3500.3281134892568 0 0 0 0 -130.1374102689901 662.70067596834997 0 662.70067596834997 3174.1010380182197 0 0 0 0 -226.53411154619727 403.35719311800494 0 403.35719311800494 2771.9143006503655 0 0 0 0 -335.25729494089563 -199.20887807426425 0 -199.20887807426425 2219.5490420358183 0 0 0 0 4.1851737142979921 3.9371209835968273 0 3.9371209835968273 1.718290129552642 0 0 0 0 112.88225711104303 118.8851934724662 0 118.8851934724662 -188.47570767560865 0 0 0 0 166.48783354143893 303.88024241839958 0 303.88024241839958 225.18696601838019 0 0 0 0 -85.929710276758271 463.67670343760619 0 463.67670343760619 1760.3463013156943 0 0 0 0 54.296226019059873 194.72929629974533 0 194.72929629974533 112.82894418884825 0 0 0 0 162.11445480910351 -33.337449935024779 0 -33.337449935024779 -107.73152354064223 0 0 0 0 -76.374574448479621 5.5637080926535418 0 5.5637080926535418 407.61730017115951 0 0 0 0 28.68033761641874 -180.8160979202512 0 -180.8160979202512 104.02745297834917 0 0 0 0 1.4819459062001532 -1.4665890675299096 0 -1.4665890675299096 11.444162464587421 0 0 0 0 -8.5911268925092372 -1.1915916098951129 0 -1.1915916098951129 52.489121701175463 0 0 0 0 -10.472437830866511 51.695336452350602 0 51.695336452350602 1.4639370843069628 0 0 0 0 16.315778402678006 60.613131915932172 0 60.613131915932172 -34.610133793634304 0 0 0 0 -11.165228755842946 23.423655555992042 0 23.423655555992042 14.214389417503952 0 0 0 0 35.511669450435875 34.898834732208343 0 34.898834732208343 0.77495751905576071 0 0 0 0 -0.87097791342796427 28.216706845752924 0 28.216706845752924 99.554679846318322 0 0 0 0 15.279423678665353 65.600348365231184 0 65.600348365231184 48.551631900016218 0 0 0 0 -0.37557633309802441 1.2792969914444257 0 1.2792969914444257 118.25955182388134 0 0 0 0 24.501377528305056 18.56729425884987 0 18.56729425884987 24.814647131172933 0 0 0 0 1.8787168145879853 3.0162449735285009 0 3.0162449735285009 -7.0636680782627081 0 0 0 0 -7.3634566839222018 10.943383358021492 0 10.943383358021492 -38.574217281668098 0 0 0 0 0.59873262595316934 3.8403712264322678 0 3.8403712264322678 -8.5119421004431501 0 0 0 0 -4.2469877426335643 46.034498679509852 0 46.034498679509852 20.461948470881907 0 0 0 0 -3.3134562331958035 26.224362481117538 0 26.224362481117538 -6.7621857486116994 0 0 0 0 -5.4458911648892521 12.723958944383497 0 12.723958944383497 -5.0789072598692258 0 0 0 0 -3.8696679707414887 24.257381160783552 0 24.257381160783552 -0.99855218799348222 0 0 0 0 -3.72828568785744 20.110012385393361 0 20.110012385393361 8.6849748419772368 0 0 0 0 -8.7109034071303313 17.993948700823239 0 17.993948700823239 9.3327679514768533 0 0 0 0 32.907731462572599 -25.472105863293109 0 -25.472105863293109 -33.348097184076323 0 0 0 0 -3.5399778046493977 9.3479617694350026 0 9.3479617694350026 -5.5487741037544822 0 0 0 0 0.022506995487019843 1.4285753602494111 0 1.4285753602494111 -1.1162446700903956 0 0 0 0 35.851959108799804 58.309520848422835 0 58.309520848422835 23.181026626611128 0 0 0 0 -7.4477463469680938 -34.255121475824126 0 -34.255121475824126 236.73713545435749 0 0 0 0 11.018220952307047 36.09384145027434 0 36.09384145027434 9.367389200553589 0 0 0 0 -28.133063727558465 48.110759076094837 0 48.110759076094837 114.47630119264068 0 0 0 0 -3.2948626986643603 14.052360586196301 0 14.052360586196301 111.21344178281743 0 0 0 0 -36.771931471008543 -63.866875900515879 0 -63.866875900515879 297.47765553615682 0 0 0 0 -12.801025938695311 107.14095531067142 0 107.14095531067142 342.80671927497315 0 0 0 0 7.9194825680707766 28.103756663906097 0 28.103756663906097 482.94914947884536 0 0 0 0 77.520697289663801 40.072699020119217 0 40.072699020119217 294.42390786677424 0 0 0 0 238.33178971544703 53.229049609042704 0 53.229049609042704 293.66685457491758 0 0 0 0 -2.5437544021117446 -188.0819478885187 0 -188.0819478885187 316.43473587717745 0 0 0 0 -47.743323106920172 -44.079197273715181 0 -44.079197273715181 278.93663178040879 0 0 0 0 -14.651791086318099 -80.885299499706889 0 -80.885299499706889 304.31393094982923 0 0 0 0 -3.1988086229594046 -54.46778116198584 0 -54.46778116198584 301.3954033433838 0 0 0 0 54.854268549568815 -126.80823379955837 0 -126.80823379955837 432.28150012207334 0 0 0 0 60.942987286414336 -128.89651176246116 0 -128.89651176246116 381.83673922214075 0 0 0 0 197.82872401814939 -41.891010977611586 0 -41.891010977611586 231.70231959037483 0 0 0 0 311.88452819424009 -202.68202668211597 0 -202.68202668211597 404.97688724505133 0 0 0 0 140.43441848851995 -78.055504355086669 0 -78.055504355086669 213.75364823744167 0 0 0 0 59.255082572051833 -103.10328887165815 0 -103.10328887165815 258.12731611069466 0 0 0 0 28.226237196643751 24.10558643884724 0 24.10558643884724 132.28242788402713 0 0 0 0 114.10690319128821 -11.058816004559048 0 -11.058816004559048 126.21684007720614 0 0 0 0 67.362029954587854 -23.761626034247456 0 -23.761626034247456 105.01176661711361 0 0 0 0 -0.22768329211999117 -51.66932094693766 0 -51.66932094693766 243.95650189721346 0 0 0 0 -3.8943334737264195 -18.518335907378059 0 -18.518335907378059 184.0973336111856 0 0 0 0 -14.93629615640225 40.110218510655613 0 40.110218510655613 154.65686208057741 0 0 0 0 -52.442497177751193 -17.46586867392034 0 -17.46586867392034 64.98127226388533 0 0 0 0 -8.6571853227214888 9.3156457387376577 0 9.3156457387376577 44.741240314979223 0 0 0 0 -9.4281706557705647 -1.1197757750173594 0 -1.1197757750173594 45.277333681308505 0 0 0 0 97.678857963552289 97.445209462377534 0 97.445209462377534 132.92823434161255 0 0 0 0 -141.42384619401855 81.276226872541883 0 81.276226872541883 813.62640877632657 0 0 0 0 79.976729291493029 -230.11689251124335 0 -230.11689251124335 815.95352879911661 0 0 0 0 1.142855771514413 5.089376265903951 0 5.089376265903951 -1.2116992072240009 0 0 0 0 144.40763179856361 -89.080677895102781 0 -89.080677895102781 406.32315637057764 0 0 0 0 132.39734223903952 -57.20445385275525 0 -57.20445385275525 674.2959583675547 0 0 0 0 27.996721129342404 23.103732070187107 0 23.103732070187107 400.25835851219017 0 0 0 0 -10.032543558216659 19.29279610802638 0 19.29279610802638 1.5636613616545567 0 0 0 0 -43.601818528828062 11.535177998172003 0 11.535177998172003 85.42538015419268 0 0 0 0 -16.835105044076954 -26.749427850540087 0 -26.749427850540087 355.59650591846002 0 0 0 0 -37.918686305616006 -11.496058897362673 0 -11.496058897362673 348.43682944680404 0 0 0 0 -12.882678317346933 20.278639251485245 0 20.278639251485245 -3.5812901672284028 0 0 0 0 7.8736503889018081 -31.71195133816218 0 -31.71195133816218 176.77599923454545 0 0 0 0 -4.1179505455637866 -36.006861142406706 0 -36.006861142406706 218.06331711016537 0 0 0 0 19.858617831846828 32.386384329972316 0 32.386384329972316 26.93694698883337 0 0 0 0 0.39159577281138169 -0.17871573297796317 0 -0.17871573297796317 -0.13908381347175691 0 0 0 0 18.701727095344268 66.178182547071629 0 66.178182547071629 -96.034139022362069 0 0 0 0 -10.423805776673589 37.685355937459462 0 37.685355937459462 82.250132263587147 0 0 0 0 -25.105154536627197 47.872526310857211 0 47.872526310857211 77.194149403199845 0 0 0 0 -64.748769776086192 0.23253038701659534 0 0.23253038701659534 93.259919325853843 0 0 0 0 -51.520603842613127 -6.8569004519486043 0 -6.8569004519486043 59.242103465934633 0 0 0 0 -23.142852896557542 41.005895546921238 0 41.005895546921238 229.43570236043161 0 0 0 0 -65.679217155045535 82.426434821209114 0 82.426434821209114 191.59085850829433 0 0 0 0 -47.835317857496648 63.733539041520999 0 63.733539041520999 125.53403782514215 0 0 0 0 -301.84261701563764 -0.33112678395991679 0 -0.33112678395991679 231.58648596055718 0 0 0 0 -81.812220768994393 -39.185674096428556 0 -39.185674096428556 105.04668203764231 0 0 0 0 -17.616749379320936 -19.522564492288438 0 -19.522564492288438 36.261247082082264 0 0 0 0 -90.241453878269112 -73.335838331753621 0 -73.335838331753621 36.369540408200862 0 0 0 0 0.3539909034904678 -10.43345340360726 0 -10.43345340360726 31.457169804112482 0 0 0 0 -42.714493606469205 11.191422246847651 0 11.191422246847651 35.629392643706524 0 0 0 0 -17.422901900052238 -20.569846689103542 0 -20.569846689103542 23.997521840894478 0 0 0 0 -2.008134797077072 -13.273456546298464 0 -13.273456546298464 26.034347843399729 0 0 0 0 -3.3690720874945121 -5.4767037601027369 0 -5.4767037601027369 30.647784797595278 0 0 0 0 -9.7132700985912379 -6.5268275954585988 0 -6.5268275954585988 29.673418691143524 0 0 0 0 0.14239021680566566 -14.601815225909377 0 -14.601815225909377 34.946469415110187 0 0 0 0 -7.9290446060804243 -8.7376769476577465 0 -8.7376769476577465 46.371228845731821 0 0 0 0 -5.3246195621532024 -13.939743213457405 0 -13.939743213457405 33.926800791114147 0 0 0 0 -10.058754292855156 -10.044690211463603 0 -10.044690211463603 48.143302672731807 0 0 0 0 -8.282262504338064 -8.9549813403850749 0 -8.9549813403850749 46.702348026665277 0 0 0 0 2.1176249765276225 -8.8993274095992092 0 -8.8993274095992092 45.078966357807076 0 0 0 0 -9.5427896252676874 -11.887113469605538 0 -11.887113469605538 54.067327129167097 0 0 0 0 -2.5521998159483701 -5.0426588259579148 0 -5.0426588259579148 45.332445981541241 0 0 0 0 -2.7868722479088319 -4.8144864158020937 0 -4.8144864158020937 63.065536775997316 0 0 0 0 -7.3679981658374345 -9.5051941464662377 0 -9.5051941464662377 45.329832869501843 0 0 0 0 -12.124609824377266 -1.1292101513184107 0 -1.1292101513184107 30.678141238268722 0 0 0 0 1.4565548090286029 15.574624418797612 0 15.574624418797612 79.472016517393058 0 0 0 0 -16.304300122116274 0.42722781551128719 0 0.42722781551128719 40.716522689908743 0 0 0 0 -11.997182424765697 -9.6108774257172627 0 -9.6108774257172627 44.12878818444733 0 0 0 0 -4.5259237346018075 0.10943044166430127 0 0.10943044166430127 13.986472674098735 0 0 0 0 -8.4058265019843397 7.7412649737840837 0 7.7412649737840837 56.497953369972095 0 0 0 0 -2.7839494771632616 -11.200280125420434 0 -11.200280125420434 20.338898524915969 0 0 0 0 -13.796918051502235 -8.4781921116285872 0 -8.4781921116285872 26.823076889953839 0 0 0 0 6.2229458883903135 14.987601932154575 0 14.987601932154575 73.835076544179174 0 0 0 0 -1.3981231292727898 8.7609225484447961 0 8.7609225484447961 74.150464573060162 0 0 0 0 -28.088906619748741 -77.52653406553145 0 -77.52653406553145 188.40836870588464 0 0 0 0 -69.89679952395818 17.033236874813156 0 17.033236874813156 104.24387427725742 0 0 0 0 18.074064506759896 -69.989431148293079 0 -69.989431148293079 29.380880970085855 0 0 0 0 -7.6282129251326296 -59.880208477905398 0 -59.880208477905398 62.274821026643622 0 0 0 0 79.893671661300687 22.520883797216811 0 22.520883797216811 139.81711896375054 0 0 0 0 -5.818880863462482 -12.373475328038694 0 -12.373475328038694 48.610868628835306 0 0 0 0 -44.015096308956345 48.023245531367138 0 48.023245531367138 -15.553062060949742 0 0 0 0 -9.011880416573586 3.1218961539557171 0 3.1218961539557171 34.614769194614638 0 0 0 0 -47.054464033761178 91.754807962905033 0 91.754807962905033 44.634054975875188 0 0 0 0 -9.1090254306048202 -2.6643847034050054 0 -2.6643847034050054 8.452050497443139 0 0 0 0 -100.15957244026191 -310.51760282535724 0 -310.51760282535724 227.13223407749319 0 0 0 0 249.08985805435634 -322.59039409175512 0 -322.59039409175512 100.48418758512707 0 0 0 0 -418.37105403219175 191.82632512165583 0 191.82632512165583 125.59680282574118 0 0 0 0 -3.0828103348090554 -6.2849338520764206 0 -6.2849338520764206 4.0295554850540611 0 0 0 0 -234.58793092432279 52.330309401557315 0 52.330309401557315 252.0381148866436 0 0 0 0 -263.98250355871824 -92.02943198250432 0 -92.02943198250432 -31.915025371010415 0 0 0 0 -5.136605879505419 3.8503619495267571 0 3.8503619495267571 6.1095431819268526 0 0 0 0 -337.57934185112566 -347.11137842961944 0 -347.11137842961944 -77.04887619780493 0 0 0 0 0.043701393377975073 -12.175497458830193 0 -12.175497458830193 37.09776221047602 0 0 0 0 -8.3171786741404503 -9.0707496237137093 0 -9.0707496237137093 48.443433947453741 0 0 0 0 -17.215708816634105 -63.793618838273687 0 -63.793618838273687 -60.600620935627376 0 0 0 0 -159.36679630066828 -139.68772522742074 0 -139.68772522742074 -11.387640170978557 0 0 0 0 -181.14977413239603 148.5991835379391 0 148.5991835379391 125.01492712731124 0 0 0 0 329.19553900799247 -99.934533322695643 0 -99.934533322695643 186.31704133909079 0 0 0 0 168.90970726668183 -202.61641993331432 0 -202.61641993331432 217.61300826081879 0 0 0 0 117.41567887560814 52.039914763925481 0 52.039914763925481 205.04951179291857 0 0 0 0 137.31324202758879 -47.599137781471654 0 -47.599137781471654 -245.26431116950698 0 0 0 0 -1.2151604161418783 0.15268274602490806 0 0.15268274602490806 0.94188633917377729 0 0 0 0 -6.9451016320126655 -10.076948008209001 0 -10.076948008209001 570.54233345272951 0 0 0 0 -232.11752203518699 417.28495916802058 0 417.28495916802058 -224.47319873630477 0 0 0 0 792.68013144742781 -199.24467348610051 0 -199.24467348610051 174.14948737074883 0 0 0 0 -1.6569179553363729 0.18836241837414214 0 0.18836241837414214 1.9483533233886874 0 0 0 0 -197.14941998624909 29.894226533622714 0 29.894226533622714 -168.4932431927009 0 0 0 0 -676.76633167113414 28.484262061921072 0 28.484262061921072 416.7858709647262 0 0 0 0 -1.4244319869908917 0.73446728241342285 0 0.73446728241342285 3.6456714215004808 0 0 0 0 -13.317370591018516 3.9398440361655958 0 3.9398440361655958 -0.71207531355321407 0 0 0 0 394.24771697656797 -390.43083623582788 0 -390.43083623582788 -9.9597231587322312 0 0 0 0 419.35009033556844 -3.5288014695397578 0 -3.5288014695397578 -52.961689005736844 0 0 0 0 -7.1890858917316232 -3.9224320181789381 0 -3.9224320181789381 6.2076851427472661 0 0 0 0 -10.101294377886006 -5.2584538368246285 0 -5.2584538368246285 2.087910747686692 0 0 0 0 -0.10334965941841245 -2.1106093377995521 0 -2.1106093377995521 6.0177935654414227 0 0 0 0 -23.551183786280035 -18.901789814532094 0 -18.901789814532094 -11.736911739273637 0 0 0 0 4.1205105934629955 -23.175010396189464 0 -23.175010396189464 -21.195127683648025 0 0 0 0 26.87643091791324 21.976717671670485 0 21.976717671670485 -19.141831950470078 0 0 0 0 -21.198605580912954 17.835250285639631 0 17.835250285639631 -17.544557760076714 0 0 0 0 106.82771479007488 29.954879531458573 0 29.954879531458573 -136.82683001111764 0 0 0 0 386.2355138331634 -37.581515762190975 0 -37.581515762190975 -123.65706229826901 0 0 0 0 39.551390805487983 -97.621597229433064 0 -97.621597229433064 -108.41278405844059 0 0 0 0 52.441072535948479 -188.3161861273984 0 -188.3161861273984 -33.059275684172462 0 0 0 0 -427.27580765125731 -324.08490055461152 0 -324.08490055461152 209.29274983192227 0 0 0 0 -193.5622401960436 178.26379919281317 0 178.26379919281317 -159.01316325674634 0 0 0 0 308.84479606862169 -318.47159010829637 0 -318.47159010829637 1187.2111484740599 0 0 0 0 136.31044808346633 74.557053568387346 0 74.557053568387346 298.73317521969875 0 0 0 0 496.27785962796588 -449.74364057979255 0 -449.74364057979255 84.323169558920199 0 0 0 0 407.48801688710296 -6.0505219112874329 0 -6.0505219112874329 -78.011543223925401 0 0 0 0 834.45470152688222 721.34211413444791 0 721.34211413444791 494.74084670378943 0 0 0 0 1322.528957249353 -371.91162866888044 0 -371.91162866888044 60.591125209764868 0 0 0 0 6.5719888496539287 -8.0401887504635852 0 -8.0401887504635852 10.991018019600858 0 0 0 0 438.8156410534117 -505.80284631123141 0 -505.80284631123141 4.6109892622189363 0 0 0 0 454.52709942976662 413.77534013824334 0 413.77534013824334 564.22186859214708 0 0 0 0 -45.076183804832226 -155.07076875462008 0 -155.07076875462008 537.77830279841146 0 0 0 0 446.33992133853008 225.61238889848755 0 225.61238889848755 40.603655248494761 0 0 0 0 -220.91108821629496 349.47544346631184 0 349.47544346631184 142.95416086904424 0 0 0 0 -193.98494269303762 -4.7842927280707954 0 -4.7842927280707954 179.51679428253556 0 0 0 0 387.8898185246627 -551.28817493453244 0 -551.28817493453244 39.32340507148183 0 0 0 0 -520.28273953802454 -34.31853541766759 0 -34.31853541766759 621.84085423688521 0 0 0 0 -26.093956054722184 -2.4681480146282411 0 -2.4681480146282411 60.87605654966319 0 0 0 0 -21.847516006876845 -0.99732081980255316 0 -0.99732081980255316 22.224765669147018 0 0 0 0 -9.5267500572972494 4.3253743163368199 0 4.3253743163368199 63.283345547046338 0 0 0 0 -35.393715565371394 1.6579801118932664 0 1.6579801118932664 86.642178736263304 0 0 0 0 -14.970548931141366 -4.6269341547231306 0 -4.6269341547231306 71.818167016084772 0 0 0 0 -10.658761179382509 1.1233784001451568 0 1.1233784001451568 53.686430250279955 0 0 0 0 -16.693161814116024 -2.6207299945672275 0 -2.6207299945672275 73.820089673085022 0 0 0 0 -10.899978716310898 -7.3751966598210856 0 -7.3751966598210856 45.785288029670483 0 0 0 0 -20.200415080127186 191.33731214886939 0 191.33731214886939 267.52616542010219 0 0 0 0 -296.28519033632801 56.755453672263684 0 56.755453672263684 86.100091218555463 0 0 0 0 7.8629601207272488 -20.867806562902928 0 -20.867806562902928 39.191946681153183 0 0 0 0 -19.601194573127039 7.1369806572982384 0 7.1369806572982384 12.616643656911918 0 0 0 0 -0.76624437736330719 0.19777008436835786 0 0.19777008436835786 13.128901492162825 0 0 0 0 373.97071056009554 -16.507541062834207 0 -16.507541062834207 107.02617315490352 0 0 0 0 -158.64922634614777 65.011436453569331 0 65.011436453569331 572.8191854742181 0 0 0 0 263.92413063756703 -197.98991732153809 0 -197.98991732153809 480.49942766531603 0 0 0 0 40.984695368943903 89.023731578869047 0 89.023731578869047 424.58350856506513 0 0 0 0 -60.051424878397029 100.59155041034865 0 100.59155041034865 175.08352711223415 0 0 0 0 -18.017260121657273 -19.398986838394194 0 -19.398986838394194 267.06243439888931 0 0 0 0 35.149034300306084 184.11683890261338 0 184.11683890261338 231.63490413308864 0 0 0 0 100.49299658839936 118.37185577485798 0 118.37185577485798 141.01330677750229 0 0 0 0 -17.724503478933912 24.522187556030985 0 24.522187556030985 77.495298473120783 0 0 0 0 56.798689492515109 -33.67844215430523 0 -33.67844215430523 52.892670408313279 0 0 0 0 -31.990018161149237 9.4840311974257929 0 9.4840311974257929 123.07949607001501 0 0 0 0 -6.5804642485859661 -11.634493954381028 0 -11.634493954381028 47.549709769108688 0 0 0 0 -15.32129542745129 48.937729845947615 0 48.937729845947615 -7.7031233469460858 0 0 0 0 -7.3842984037039514 5.7977784854083438 0 5.7977784854083438 109.03198022199649 0 0 0 0 -49.414840356580498 -37.08757343745674 0 -37.08757343745674 62.417058897161041 0 0 0 0 -6.0896770795199444 -6.4558041459144562 0 -6.4558041459144562 53.80993784548096 0 0 0 0 -10.812720352861362 35.749607334197719 0 35.749607334197719 0.98829192531323429 0 0 0 0 6.3460571436304463 47.217788897934952 0 47.217788897934952 -62.810187980328919 0 0 0 0 0.27324967682207757 2.2063953104226357 0 2.2063953104226357 -3.5182185055012241 0 0 0 0 -38.321879919788444 47.356654236984468 0 47.356654236984468 26.933411797348526 0 0 0 0 47.960753203114564 39.065004229632905 0 39.065004229632905 38.458007605935563 0 0 0 0 4.3744662855879142 31.960931776411599 0 31.960931776411599 -15.957433812174713 0 0 0 0 -1.3727835904664047 2.5731793475963798 0 2.5731793475963798 6.8986547283321613 0 0 0 0 -44.805429768832255 18.305807954086049 0 18.305807954086049 45.601008728212037 0 0 0 0 -15.845809130695073 20.828798339032858 0 20.828798339032858 -4.5769185099424377 0 0 0 0 -1.9289930068455927 -0.31888224529217979 0 -0.31888224529217979 10.672427287198985 0 0 0 0 38.421937005737504 77.898426124091202 0 77.898426124091202 112.20734751975397 0 0 0 0 -21.777163540962761 95.636649755564576 0 95.636649755564576 90.847726650245022 0 0 0 0 10.219609437110307 24.662203667408903 0 24.662203667408903 30.394146833299601 0 0 0 0 -25.973297799965877 95.622947874227975 0 95.622947874227975 111.14395042421529 0 0 0 0 -29.281161512177761 60.979725224773574 0 60.979725224773574 100.33679331376334 0 0 0 0 -31.614974529270853 61.658581528696232 0 61.658581528696232 134.93775112653384 0 0 0 0 -52.310576506909541 65.49129135376279 0 65.49129135376279 219.59677567283507 0 0 0 0 11.674089425653534 29.36074814980384 0 29.36074814980384 -11.675041078742652 0 0 0 0 -60.522178379491606 -46.764284173812484 0 -46.764284173812484 64.446580755800824 0 0 0 0 -105.04961017014892 -89.545228137663798 0 -89.545228137663798 317.00619462114992 0 0 0 0 -84.265874774575863 129.27071113901366 0 129.27071113901366 312.68240931860055 0 0 0 0 -0.58406436956491348 203.27472116979516 0 203.27472116979516 427.49747765707434 0 0 0 0 -6.9905403985236934 40.863697508441703 0 40.863697508441703 21.007437306784382 0 0 0 0 84.709251436260274 77.689016454256489 0 77.689016454256489 160.53601599109243 0 0 0 0 -29.769835029557953 24.684063975924801 0 24.684063975924801 129.41050716731843 0 0 0 0 -6.380309923520997 30.267212000035215 0 30.267212000035215 110.13040368648944 0 0 0 0 -2.429060203968902 -6.8137438457488315 0 -6.8137438457488315 74.301647571433023 0 0 0 0 4.793854941156269 7.2757424915325828 0 7.2757424915325828 77.37808930162646 0 0 0 0 -7.2708134213815887 40.759219952629223 0 40.759219952629223 22.84404520034316 0 0 0 0 -0.084874273773266395 38.205108444795769 0 38.205108444795769 118.83617915403011 0 0 0 0 -20.45002426948173 33.39446097666405 0 33.39446097666405 118.19116962056432 0 0 0 0 -47.207368914349672 19.458940690397867 0 19.458940690397867 121.09451381011104 0 0 0 0 -19.832431174379508 31.873856930607872 0 31.873856930607872 121.70964774804361 0 0 0 0 45.96357425544852 -124.61957570294544 0 -124.61957570294544 237.40893754381977 0 0 0 0 17.666739790343968 68.483349097645259 0 68.483349097645259 71.624493610084755 0 0 0 0 -9.2294577166250402 39.276898183483311 0 39.276898183483311 29.925059222949415 0 0 0 0 -3.0993291699632772 3.3039215936360335 0 3.3039215936360335 10.279520724350675 0 0 0 0 0.64020615757021915 30.581794664474728 0 30.581794664474728 88.995789145774324 0 0 0 0 -202.09232208099354 11.917952362673532 0 11.917952362673532 79.65567083832866 0 0 0 0 76.540685436043816 181.05487967537192 0 181.05487967537192 440.98324244863761 0 0 0 0 0.59332721948634726 -1.0057329497372365 0 -1.0057329497372365 0.064627451817955262 0 0 0 0 -7.001960234021567 38.660463279375108 0 38.660463279375108 266.13544944688329 0 0 0 0 59.824281206806972 79.593033516430296 0 79.593033516430296 90.41381790363107 0 0 0 0 4.7110075696992908 -40.776610950535542 0 -40.776610950535542 197.39537675419706 0 0 0 0 9.1562422965770196 -81.556305019194042 0 -81.556305019194042 550.88885640374792 0 0 0 0 10.12315765218915 -222.73167461490084 0 -222.73167461490084 400.66609306051396 0 0 0 0 43.864842084712791 -177.08730263887264 0 -177.08730263887264 317.30583092366578 0 0 0 0 107.26686283768549 -153.58028115521302 0 -153.58028115521302 272.58317900726979 0 0 0 0 21.545343223154532 -29.822344374581007 0 -29.822344374581007 109.96157875918317 0 0 0 0 136.83632515036101 -375.0802893818036 0 -375.0802893818036 504.85082386282738 0 0 0 0 41.073854802077676 -192.5430069977956 0 -192.5430069977956 249.8206544925124 0 0 0 0 213.20258719892217 -285.94587559955835 0 -285.94587559955835 111.75954632622575 0 0 0 0 126.95348940404381 -126.84465757071303 0 -126.84465757071303 -170.23344655696565 0 0 0 0 -59.996494018963176 22.643515862786444 0 22.643515862786444 27.863233666925225 0 0 0 0 21.289797016639795 -35.921235635876656 0 -35.921235635876656 62.534808883036021 0 0 0 0 -57.612115336214629 -6.385342284302169 0 -6.385342284302169 147.39489331374352 0 0 0 0 -26.79179315906481 45.071756725606974 0 45.071756725606974 139.88595684301981 0 0 0 0 -28.947080203424832 16.627950726218842 0 16.627950726218842 97.600888283646782 0 0 0 0 -40.343913487048212 -4.7899873515998479 0 -4.7899873515998479 57.68704823666485 0 0 0 0 -56.247289535608161 -16.106910116766812 0 -16.106910116766812 86.18530677106537 0 0 0 0 0.50879071491826533 1.145668299141164 0 1.145668299141164 -1.9376761182412707 0 0 0 0 -34.156560004364565 -48.589392131965724 0 -48.589392131965724 -17.877335393648536 0 0 0 0 1671.7960887373924 -85.765271946846042 0 -85.765271946846042 -601.57927476007899 0 0 0 0 -88.324570447570295 -37.910421022213995 0 -37.910421022213995 59.167824736226521 0 0 0 0 2.5857684227162281 -6.2946241676858676 0 -6.2946241676858676 10.207067638907176 0 0 0 0 385.2481278457285 -558.39476692434982 0 -558.39476692434982 21.662356367116445 0 0 0 0 129.4666889981861 1063.301895952347 0 1063.301895952347 520.86223536162288 0 0 0 0 -297.55530684538417 75.327828049834352 0 75.327828049834352 1419.9679319960705 0 0 0 0 -390.58401487850944 148.87105180026265 0 148.87105180026265 1571.1981763189178 0 0 0 0 5.0694532625758919 -3.8523520005778948 0 -3.8523520005778948 3.8256200433754941 0 0 0 0 3.4725137223970428 -2.0506819890867121 0 -2.0506819890867121 1.0578696542492168 0 0 0 0 -311.44862570823318 -451.71616927407013 0 -451.71616927407013 915.41821412972058 0 0 0 0 -125.53884294535533 -114.50130582437851 0 -114.50130582437851 -6.1608447493636049 0 0 0 0 -1253.1765255732794 -399.54401006524495 0 -399.54401006524495 1726.7817498215591 0 0 0 0 -35.920261918618394 -109.05929715766979 0 -109.05929715766979 1036.0610065929068 0 0 0 0 8.9054046550099883 23.158482037259091 0 23.158482037259091 -18.80148547218414 0 0 0 0 34.362474223286426 28.396177767193876 0 28.396177767193876 -44.396655435324647 0 0 0 0 24.393607090367823 30.173194927461736 0 30.173194927461736 -20.947494510299293 0 0 0 0 13.676747673293676 5.9473904011611012 0 5.9473904011611012 17.88737407932058 0 0 0 0 26.918540194846173 15.618335424282122 0 15.618335424282122 -39.243418020254467 0 0 0 0 14.162245895667184 -9.5385064582515042 0 -9.5385064582515042 -58.256323028937913 0 0 0 0 331.5436102126248 -274.67951226891455 0 -274.67951226891455 450.12858284253161 0 0 0 0 434.87387047916633 -537.23711066661599 0 -537.23711066661599 -119.25589735407266 0 0 0 0 94.553285410127643 149.97698368511919 0 149.97698368511919 227.42567913676612 0 0 0 0 34.813706081958827 17.583330338611177 0 17.583330338611177 -58.469316021946725 0 0 0 0 26.166815118913185 -0.096564070455315232 0 -0.096564070455315232 -81.540879634325393 0 0 0 0 31.550368778135635 -11.740311422909144 0 -11.740311422909144 -85.53840513133764 0 0 0 0 -59.9877302622765 -61.94196659453155 0 -61.94196659453155 41.005596987553872 0 0 0 0 48.810181618744764 -40.443957933828642 0 -40.443957933828642 104.80035086447606 0 0 0 0 -780.41891810453171 104.28645609760133 0 104.28645609760133 1301.0154068115808 0 0 0 0 0.60091482183283573 -10.349079335889805 0 -10.349079335889805 30.306683853069785 0 0 0 0 -1119.7609279889416 -437.20878643825199 0 -437.20878643825199 890.92888659870368 0 0 0 0 67.060864314696005 -129.75777352308069 0 -129.75777352308069 -309.24078681014362 0 0 0 0 184.80946237593321 399.50498190006329 0 399.50498190006329 -189.52591796168417 0 0 0 0 1.1834328402457055 -3.0872672110787676 0 -3.0872672110787676 -4.1404805118033323 0 0 0 0 -9.1305119323510553 503.42145875705319 0 503.42145875705319 -671.22672787713236 0 0 0 0 -9.7776063281889947 -72.230232632384286 0 -72.230232632384286 -31.659766145152389 0 0 0 0 -10.792349422444204 -69.152084558227216 0 -69.152084558227216 59.146676624339307 0 0 0 0 -18.492504652596153 -7.4555351517865347 0 -7.4555351517865347 26.753077117173234 0 0 0 0 -3.0686712102008 -2.399156139413563 0 -2.399156139413563 1.7991304483915087 0 0 0 0 37.983285409101882 -74.219082086332492 0 -74.219082086332492 21.955414569252753 0 0 0 0 -10.253466437390671 -11.022417700718506 0 -11.022417700718506 16.189236334186717 0 0 0 0 -19.712675604246442 0.36201409246132243 0 0.36201409246132243 18.030206615338102 0 0 0 0 -31.331684967573096 2.2826873067169799 0 2.2826873067169799 22.168898302159505 0 0 0 0 -5.9981780438267531 -5.5640257816593248 0 -5.5640257816593248 18.193823515772749 0 0 0 0 -12.493211878667239 -8.4722336336017179 0 -8.4722336336017179 22.594885410566349 0 0 0 0 -4.8180548881375422 -12.397081932996699 0 -12.397081932996699 12.200832198834007 0 0 0 0 -4.5730694894780006 0.00728805410336264 0 0.00728805410336264 19.706019834865344 0 0 0 0 103.27724313639055 47.95000641666411 0 47.95000641666411 -31.517998754243308 0 0 0 0 -2.9627086556719022 4.566220536763133 0 4.566220536763133 -8.6775339532852058 0 0 0 0 -350.86599377877911 92.333615308192748 0 92.333615308192748 -29.569724475033581 0 0 0 0 0.15514449604438596 -7.9203180567637901 0 -7.9203180567637901 13.937682961404789 0 0 0 0 -1.1190314340151417 -7.344935256674944 0 -7.344935256674944 20.203364237560891 0 0 0 0 0.097405514309684804 -9.3193465695221676 0 -9.3193465695221676 20.047796068834941 0 0 0 0 -5.772647793276974 -8.6781711940275272 0 -8.6781711940275272 17.656490442925133 0 0 0 0 -3.3605147792741263 -12.522647772682831 0 -12.522647772682831 19.427099758060649 0 0 0 0 -5.2448149311135239 -7.6088587950471265 0 -7.6088587950471265 18.188693053903989 0 0 0 0 -4.7752262413314384 -9.6525849977188045 0 -9.6525849977188045 15.245411115303796 0 0 0 0 -12.470345804861722 -7.2987008870525756 0 -7.2987008870525756 7.8065810981881896 0 0 0 0 -6.0876732451123416 -13.76374185874738 0 -13.76374185874738 10.291281427354988 0 0 0 0 2.6517269770685776 -8.9030507389135209 0 -8.9030507389135209 10.556697647774371 0 0 0 0 0.52831581031664143 -13.984734370826573 0 -13.984734370826573 16.057915037352359 0 0 0 0 2.0028658383761808 -11.588202342310979 0 -11.588202342310979 16.230327543788007 0 0 0 0 -0.68071007060198818 -3.6188438481090088 0 -3.6188438481090088 3.3603509445257487 0 0 0 0 27.188161630615241 120.37702869014174 0 120.37702869014174 53.701636986166704 0 0 0 0 -6.5525971742207503 -48.615154588712358 0 -48.615154588712358 11.53611278050812 0 0 0 0 10.024553020015251 -12.718831787935315 0 -12.718831787935315 9.8512534263674354 0 0 0 0 31.953770278533625 -153.08011049932247 0 -153.08011049932247 18.271563733331277 0 0 0 0 363.55066735297271 -1.4011967043188633 0 -1.4011967043188633 67.341291192522476 0 0 0 0 17.604270231981445 7.0828798504880979 0 7.0828798504880979 653.88333112419059 0 0 0 0 24.848918443336743 -88.113781921434565 0 -88.113781921434565 108.04104324900618 0 0 0 0 -32.145254706367638 -141.98589916350829 0 -141.98589916350829 366.68331267115718 0 0 0 0 -6.030178644304911 -68.006655164877884 0 -68.006655164877884 181.54997439292492 0 0 0 0 -0.83724789316794301 -0.044771333569343597 0 -0.044771333569343597 0.11823953801308562 0 0 0 0 8.419213670695342 0.47833927807369037 0 0.47833927807369037 14.796498091644025 0 0 0 0 7.7118953526551195 -7.2773199087678222 0 -7.2773199087678222 48.653613980903174 0 0 0 0 50.330920437428716 -27.033183980409376 0 -27.033183980409376 37.423973188808304 0 0 0 0 24.966724955147129 -26.562674189597601 0 -26.562674189597601 70.018049855178106 0 0 0 0 -0.46763428891894371 0.4067216537889351 0 0.4067216537889351 10.832437844090578 0 0 0 0 41.838743166922455 -12.14698794045762 0 -12.14698794045762 13.578084048582241 0 0 0 0 18.172832988276564 -8.9884645310085034 0 -8.9884645310085034 14.369010046415497 0 0 0 0 3.223055151680235 -15.947806871465218 0 -15.947806871465218 18.96484337640868 0 0 0 0 17.766051974533148 -7.8043048044492025 0 -7.8043048044492025 11.007168024720158 0 0 0 0 15.854610153399051 -13.051721273397561 0 -13.051721273397561 14.551076516770991 0 0 0 0 14.891950830813926 -6.4983624880260322 0 -6.4983624880260322 7.9236564965030993 0 0 0 0 20.284373094247485 -10.452832011906139 0 -10.452832011906139 9.0249163594853599 0 0 0 0 0.85991774627583695 -9.9968294256218542 0 -9.9968294256218542 14.297947572282283 0 0 0 0 0.63319466637139943 0.0076422544493368605 0 0.0076422544493368605 13.422782759754284 0 0 0 0 -7.3965684284766837 -70.810319661188259 0 -70.810319661188259 3.1340933250612579 0 0 0 0 20.300242837212238 -10.623011553383549 0 -10.623011553383549 10.27215542356862 0 0 0 0 2.1303946365526079 -1.4029533530174945 0 -1.4029533530174945 -3.0417162176173065 0 0 0 0 14.131610540662223 -27.111242467730335 0 -27.111242467730335 11.552627774928624 0 0 0 0 2.1988075695532818 -6.7981908118099597 0 -6.7981908118099597 6.0312879047744445 0 0 0 0 46.055615583238136 6.6470198752722354 0 6.6470198752722354 -6.5451809507721919 0 0 0 0 3.69608115497293 -9.0340924563788576 0 -9.0340924563788576 9.292483642231673 0 0 0 0 0.47762583400014047 -6.9131561698736164 0 -6.9131561698736164 10.816061998563328 0 0 0 0 5.3751599229140528 -4.8384329749514166 0 -4.8384329749514166 12.516898895194629 0 0 0 0 6.3377870179898341 -9.5569894845922931 0 -9.5569894845922931 11.080405546675593 0 0 0 0 2.3496081175992458 -13.397390354642994 0 -13.397390354642994 15.596772738572326 0 0 0 0 6.2038194507431541 -15.262557296286104 0 -15.262557296286104 11.572150941803557 0 0 0 0 36.990827255251432 -106.0753655887238 0 -106.0753655887238 121.82999299435323 0 0 0 0 -0.041704341088458045 0.026450246405886446 0 0.026450246405886446 0.69347224171610833 0 0 0 0 -0.018198664901676608 7.9599708848996755 0 7.9599708848996755 -7.8261454702005722 0 0 0 0 -39.684484685989702 -47.997825885067869 0 -47.997825885067869 89.200194700810243 0 0 0 0 30.709355132463187 15.012263540415006 0 15.012263540415006 -18.526822304724192 0 0 0 0 -96.957424859230798 9.5120155099066324 0 9.5120155099066324 52.226621079957113 0 0 0 0 -1.760947247976814 -2.9113356846802034 0 -2.9113356846802034 7.9520797977328925 0 0 0 0 -24.958629737037782 -5.5897146852928472 0 -5.5897146852928472 -13.129289564269129 0 0 0 0 0.15768821588989401 15.715105331495579 0 15.715105331495579 -3.6992519051709678 0 0 0 0 -22.657927892792124 42.386409648275048 0 42.386409648275048 -40.635222316981526 0 0 0 0 103.96858349701722 41.627148468178348 0 41.627148468178348 -23.801761720153081 0 0 0 0 0.76394008179097783 -0.21459538461731853 0 -0.21459538461731853 0.54225957888667153 0 0 0 0 0.39883426286130352 -0.69789867852966836 0 -0.69789867852966836 0.21637656700909247 0 0 0 0 72.489097558163095 -75.751841668890847 0 -75.751841668890847 77.364608566684183 0 0 0 0 -143.75325609828133 -12.756053233068087 0 -12.756053233068087 132.93695739652321 0 0 0 0 42.828112159058719 -136.60633645484631 0 -136.60633645484631 -9.8277303058857797 0 0 0 0 -86.781463308389547 59.093257111591811 0 59.093257111591811 -13.218149783722765 0 0 0 0 -83.680255830330879 15.308341240670416 0 15.308341240670416 6.1360081033344613 0 0 0 0 0.074457232037091953 -46.043133711551491 0 -46.043133711551491 50.256810885490268 0 0 0 0 -34.639501570451046 25.406119640014367 0 25.406119640014367 257.91336148203118 0 0 0 0 -0.20278680011960698 -85.93857585448859 0 -85.93857585448859 572.95638283256631 0 0 0 0 -67.32057209627493 182.6098358760355 0 182.6098358760355 318.34454830038885 0 0 0 0 0.36952642361967492 9.7178417554387124 0 9.7178417554387124 -77.298503960453672 0 0 0 0 -11.526154504239159 156.61494106141618 0 156.61494106141618 144.96299749493483 0 0 0 0 0.046156954119843718 -0.015349667857400107 0 -0.015349667857400107 4.655994094269829 0 0 0 0 311.13933435184856 -305.04986998906497 0 -305.04986998906497 293.77046281013463 0 0 0 0 144.75042567482294 -67.927865464778733 0 -67.927865464778733 45.95363982638446 0 0 0 0 61.460243367458816 -169.33805819720146 0 -169.33805819720146 347.63843197821552 0 0 0 0 4.4550163179141009 -195.47145957636531 0 -195.47145957636531 336.57108353422518 0 0 0 0 47.57323517925812 -241.89986440783105 0 -241.89986440783105 569.96339490107493 0 0 0 0 -41.416079312147332 -92.072957253119966 0 -92.072957253119966 591.48717081996892 0 0 0 0 265.45347338480889 -23.349202135046653 0 -23.349202135046653 337.1998024686327 0 0 0 0 -150.44926236986842 -334.32942640692636 0 -334.32942640692636 105.51678444935533 0 0 0 0 -97.160211272830963 75.063549401544151 0 75.063549401544151 87.821256992425333 0 0 0 0 13.708208324527529 -11.859434110734583 0 -11.859434110734583 152.2063895468018 0 0 0 0 -47.901880487818474 186.13439245508562 0 186.13439245508562 221.22946455529018 0 0 0 0 18.666988912580955 33.837345654856108 0 33.837345654856108 482.05630254869175 0 0 0 0 194.95929609513772 268.10706336347357 0 268.10706336347357 318.35908525781997 0 0 0 0 -29.568943461263505 -31.060819870588602 0 -31.060819870588602 352.17374769106391 0 0 0 0 0.063032628218659237 -22.083933354839246 0 -22.083933354839246 329.80736478265317 0 0 0 0 88.496659963424833 -142.19037256599404 0 -142.19037256599404 467.79518875919166 0 0 0 0 236.24602492555854 26.318821092643702 0 26.318821092643702 361.73977534157166 0 0 0 0 -0.012577449114127656 7.8677102888250374 0 7.8677102888250374 38.23045471298974 0 0 0 0 -3.1495537501951691 1.8966776130400831 0 1.8966776130400831 44.15158736880403 0 0 0 0 -0.0007873885446371149 9.8059412558432086 0 9.8059412558432086 54.592942181239778 0 0 0 0 -6.6462866727211161 4.8672360362070322 0 4.8672360362070322 62.339120867938618 0 0 0 0 13.303910709608999 14.631785235695133 0 14.631785235695133 62.753274435148342 0 0 0 0 1.9227230002054938 7.9872181725368137 0 7.9872181725368137 64.060613244670094 0 0 0 0 7.3570090782232853 -0.21484017118200427 0 -0.21484017118200427 60.730838110795958 0 0 0 0 17.073499400204653 19.810649258899502 0 19.810649258899502 57.485147131374106 0 0 0 0 14.709110944412714 18.492695021766849 0 18.492695021766849 71.814212973244139 0 0 0 0 -0.7651846749424891 -3.3957392217562301 0 -3.3957392217562301 81.010245133307762 0 0 0 0 -2.2775543287684883 -14.167449852153368 0 -14.167449852153368 43.835355867500766 0 0 0 0 2.240356970512579 10.420410685368552 0 10.420410685368552 55.682486308913212 0 0 0 0 22.477036456516942 -5.3557156163624313 0 -5.3557156163624313 7.2779236213536933 0 0 0 0 -22.097178950116358 9.4184694477589801 0 9.4184694477589801 18.156287724152207 0 0 0 0 0.050619922190994815 0.14153957976230913 0 0.14153957976230913 0.2152122211963956 0 0 0 0 0.29610591697712157 4.5250776999173397 0 4.5250776999173397 19.661092420248053 0 0 0 0 14.627549948887747 11.682060492486926 0 11.682060492486926 -3.7308146179857431 0 0 0 0 0.30656506478291767 2.132247361878882 0 2.132247361878882 23.993759757255987 0 0 0 0 4.7119463241681956 11.782130533028976 0 11.782130533028976 35.42153613595292 0 0 0 0 10.552825149700737 -9.5967796698969323 0 -9.5967796698969323 2.3837445934623247 0 0 0 0 -21.599020516708165 10.821133357070721 0 10.821133357070721 21.826696853211615 0 0 0 0 -21.525048484133094 12.202860401099315 0 12.202860401099315 14.487333123921417 0 0 0 0 -3.6558680488592881 -3.0304575214116198 0 -3.0304575214116198 5.3020150653907194 0 0 0 0 14.475970310980074 -15.208417138201185 0 -15.208417138201185 49.742602871963754 0 0 0 0 17.467751266248996 3.3328119649886503 0 3.3328119649886503 26.548925127892289 0 0 0 0 -18.682161703513884 16.433457717532292 0 16.433457717532292 0.44323729281313717 0 0 0 0 -11.110457000170982 11.229627016291488 0 11.229627016291488 0.29673349985387176 0 0 0 0 3.4324334853905736 9.750656739798643 0 9.750656739798643 3.1064699529618451 0 0 0 0 -0.2416926723248054 3.8496105763467909 0 3.8496105763467909 13.773456221198387 0 0 0 0 -0.18925124201178356 -4.757521044879752 0 -4.757521044879752 49.976038903515189 0 0 0 0 -3.6968588135106959 -5.5812866769708194 0 -5.5812866769708194 40.413439910097793 0 0 0 0 -6.6756830234670606 -0.73896192125903326 0 -0.73896192125903326 28.29589785457938 0 0 0 0 -8.9983530664610782 -5.8649292294649058 0 -5.8649292294649058 32.770023242555908 0 0 0 0 3.4688929365868546 -0.95490679368958808 0 -0.95490679368958808 34.548724535212386 0 0 0 0 -6.195869141862488 -6.9285669547243742 0 -6.9285669547243742 38.202842996161053 0 0 0 0 -4.8674984153141523 -8.1508434321949608 0 -8.1508434321949608 31.174482111728139 0 0 0 0 0.077723342737146428 0.2421135936666019 0 0.2421135936666019 0.33033228171393603 0 0 0 0 1.0397900587029039 4.8104001422543661 0 4.8104001422543661 17.245957650142373 0 0 0 0 -0.90054567131518426 -7.7348064205066294 0 -7.7348064205066294 18.383795923655271 0 0 0 0 0.0095421073039837004 0.092630799900319971 0 0.092630799900319971 0.18093755877305284 0 0 0 0 0.011836598189785774 7.3312735845320276 0 7.3312735845320276 1.7659184402800747 0 0 0 0 -0.015953699905338181 0.17902634479250423 0 0.17902634479250423 -0.31290608841700873 0 0 0 0 0.055476500480751673 19.225929489133705 0 19.225929489133705 24.912983189260558 0 0 0 0 3.1290895152989151 -22.38964578157902 0 -22.38964578157902 44.140487712415052 0 0 0 0 25.622957515311569 -1.2675988538139791 0 -1.2675988538139791 4.3806165936985053 0 0 0 0 -25.527127405835692 15.374756048768177 0 15.374756048768177 20.828583758950117 0 0 0 0 0.028313540527508396 15.543506517526112 0 15.543506517526112 32.223287787091976 0 0 0 0 -10.149923532224161 -23.93211284022982 0 -23.93211284022982 50.970475933514535 0 0 0 0 4.873748970944618 -2.7778153619146906 0 -2.7778153619146906 -3.1907411875290563 0 0 0 0 -0.10855126103165601 0.50068299565970165 0 0.50068299565970165 2.3919889713511679 0 0 0 0 82.546827016015214 -98.243180913798369 0 -98.243180913798369 27.794327423049253 0 0 0 0 0.004526644027118696 7.9700743360694268 0 7.9700743360694268 -7.8247991823300254 0 0 0 0 -12.703773940391054 14.562432669044938 0 14.562432669044938 -0.58239008079908672 0 0 0 0 -9.9221656941731453 -4.1659208142154966 0 -4.1659208142154966 48.929658247114276 0 0 0 0 3.464436034285427 -23.800923823193443 0 -23.800923823193443 23.713860679272329 0 0 0 0 -2.5984080786088839 -26.809763769873825 0 -26.809763769873825 35.507081828749506 0 0 0 0 0.48207905416245467 -3.4406488306631218 0 -3.4406488306631218 37.082222796714632 0 0 0 0 -4.9945866055236365 -16.252138055569958 0 -16.252138055569958 44.785770374517597 0 0 0 0 10.172466141685163 -2.917757843650179 0 -2.917757843650179 16.204313942012959 0 0 0 0 -0.09262749821861993 -4.149198116878992 0 -4.149198116878992 5.0154381909101176 0 0 0 0 17.398106409451202 -18.534641519137949 0 -18.534641519137949 1.0573496078868629 0 0 0 0 17.611700705393055 -26.611833351695168 0 -26.611833351695168 -38.198941833659774 0 0 0 0 -95.290584676482894 37.180473499236541 0 37.180473499236541 53.812440909503493 0 0 0 0 -1.6341478060732781 -2.0248526290297661 0 -2.0248526290297661 24.813505885867016 0 0 0 0 4.233840151291588 8.6356936748561566 0 8.6356936748561566 47.973482068802696 0 0 0 0 -1.884248330508048 -1.1833075814313716 0 -1.1833075814313716 14.420269426820028 0 0 0 0 72.129053279523987 -1.3256081306067244 0 -1.3256081306067244 -25.432606564456364 0 0 0 0 -55.25534171395185 3.0942602234717924 0 3.0942602234717924 56.046520811447408 0 0 0 0 -37.229044215959789 -52.406793040143384 0 -52.406793040143384 71.399089795813779 0 0 0 0 -1.0114531317086133 17.711936381980195 0 17.711936381980195 69.78409536187246 0 0 0 0 -1.6981682264929341 -0.37046107104225712 0 -0.37046107104225712 19.087708360745467 0 0 0 0 0.22038197189874609 -17.146080927268486 0 -17.146080927268486 17.767660632343905 0 0 0 0 0.43405567602262352 -25.844119721550669 0 -25.844119721550669 -32.943179063498974 0 0 0 0 -2.0032208391030712 -2.3127900910528822 0 -2.3127900910528822 25.282583545442151 0 0 0 0 -39.481369425425981 -3.0125907986584934 0 -3.0125907986584934 31.157602824241621 0 0 0 0 0.11453502576865493 1.7314453355401014 0 1.7314453355401014 4.5980902128756043 0 0 0 0 39.987342538675307 -62.911019822116941 0 -62.911019822116941 30.699983795697335 0 0 0 0 58.104862477616621 24.521074343720102 0 24.521074343720102 -22.710711974737933 0 0 0 0 0.2116064735111528 -0.64555384863419363 0 -0.64555384863419363 3.9611380145353792 0 0 0 0 -14.618133782135715 -12.380777429731097 0 -12.380777429731097 38.185390519494831 0 0 0 0 -47.649114948962392 22.419641263593803 0 22.419641263593803 41.008377570542507 0 0 0 0 -3.2842558797319201 0.85288832749730403 0 0.85288832749730403 24.430819816527162 0 0 0 0 -16.633005023155931 3.415725149519858 0 3.415725149519858 12.7317520513825 0 0 0 0 -1.1169725566613209 0.65740076776278755 0 0.65740076776278755 21.514535088103912 0 0 0 0 -13.694620690539347 22.416973998493631 0 22.416973998493631 58.374931644066237 0 0 0 0 -3.5468495920032979 -28.242451531623374 0 -28.242451531623374 39.067027831799351 0 0 0 0 8.0818539169955557 -1.6969229751266539 0 -1.6969229751266539 20.518486056404072 0 0 0 0 1.835453076404068 1.7482160539503298 0 1.7482160539503298 8.8084092789084139 0 0 0 0 -32.178503552421716 10.211700699590438 0 10.211700699590438 31.222859630128369 0 0 0 0 -10.899165957322669 22.770963525523257 0 22.770963525523257 37.646217082510702 0 0 0 0 -21.534124450978311 -2.9448814594798023 0 -2.9448814594798023 62.27848734606232 0 0 0 0 15.078393182180889 27.796284222204122 0 27.796284222204122 25.592613131650069 0 0 0 0 -4.8653635435550768 16.529293355066329 0 16.529293355066329 67.12831446628843 0 0 0 0 -10.798267082874361 20.69574311094766 0 20.69574311094766 74.532169205747778 0 0 0 0 23.871961932969725 50.477686178521253 0 50.477686178521253 71.64227136381669 0 0 0 0 -3.2710329337096482 6.3932969041343313 0 6.3932969041343313 124.10665009061631 0 0 0 0 26.19791567465461 36.315276814633762 0 36.315276814633762 96.022496419027448 0 0 0 0 29.567370543326113 -45.454957001042203 0 -45.454957001042203 97.000337743374985 0 0 0 0 29.546860872163052 -47.793889353662962 0 -47.793889353662962 75.95789879548829 0 0 0 0 4.9455036990905228 -4.2440442686711322 0 -4.2440442686711322 216.89628580363933 0 0 0 0 11.092027135227909 -20.732964296999853 0 -20.732964296999853 156.33508027007338 0 0 0 0 6.3226728978804658 3.4503799472659011 0 3.4503799472659011 106.19850612495793 0 0 0 0 4.1446756751433895 -38.641254913949524 0 -38.641254913949524 137.78728815025534 0 0 0 0 -12.65383419239356 -14.445394902999396 0 -14.445394902999396 97.86467879365955 0 0 0 0 1.41839546832216 -24.658539905372891 0 -24.658539905372891 67.878011946682818 0 0 0 0 -0.93432774372641347 -27.925083489608369 0 -27.925083489608369 44.591546524257865 0 0 0 0 2.7781766768719081 -38.852827134433028 0 -38.852827134433028 75.931761892978102 0 0 0 0 22.124450081497912 -41.551701485081139 0 -41.551701485081139 53.968279149266891 0 0 0 0 22.607236611706867 -43.481130114989355 0 -43.481130114989355 41.253929508093279 0 0 0 0 46.674981953705355 -40.050568963415571 0 -40.050568963415571 13.856842402135953 0 0 0 0 35.399781052015896 -47.45232436338847 0 -47.45232436338847 45.373336027900223 0 0 0 0 37.514352560857333 -48.76571332704043 0 -48.76571332704043 33.774660193099407 0 0 0 0 47.301983098167511 -65.225179672503145 0 -65.225179672503145 74.281563910655677 0 0 0 0 37.09248849823507 -47.223087352860603 0 -47.223087352860603 45.38567867357051 0 0 0 0 29.035573643323914 -55.408490784175228 0 -55.408490784175228 74.863395365362521 0 0 0 0 -20.894480411296513 -18.752466114870913 0 -18.752466114870913 35.155473169368634 0 0 0 0 -26.317279710912317 12.396750423118647 0 12.396750423118647 20.028485220391303 0 0 0 0 -14.840758378098968 -3.9844250764763274 0 -3.9844250764763274 53.105196854448877 0 0 0 0 -13.230196056338002 -28.301372463989537 0 -28.301372463989537 61.322943137325638 0 0 0 0 -21.142558979693604 -17.454487212577078 0 -17.454487212577078 46.733616029159748 0 0 0 0 -7.2038329461903459 -19.098170522913279 0 -19.098170522913279 27.383321885252371 0 0 0 0 -6.9207544798643994 -25.960182191949571 0 -25.960182191949571 27.665139670963981 0 0 0 0 4.8476952897237879 -24.700250620182487 0 -24.700250620182487 22.180856623377622 0 0 0 0 7.9906967965043805 -28.047601173646399 0 -28.047601173646399 21.952602432167623 0 0 0 0 -1.0709068470544025 -29.841574063648295 0 -29.841574063648295 29.191109493098338 0 0 0 0 -2.6663389129523694 -25.464555594211561 0 -25.464555594211561 28.253307186387246 0 0 0 0 3.20029490096681 -35.833247662041686 0 -35.833247662041686 46.577572337559104 0 0 0 0 15.104069624148678 -32.296820040646708 0 -32.296820040646708 23.801946697873063 0 0 0 0 16.141947103863913 -32.202246985645615 0 -32.202246985645615 23.806648046796909 0 0 0 0 29.301562749040386 -19.644888115035428 0 -19.644888115035428 -1.5960103394463658 0 0 0 0 36.503287054316388 -35.329690385959111 0 -35.329690385959111 12.25783594630775 0 0 0 0 24.783179753327204 -32.819929100252921 0 -32.819929100252921 21.103274214197882 0 0 0 0 20.547295066151946 -42.576326845563017 0 -42.576326845563017 41.238456052440142 0 0 0 0 22.134368729239441 -23.101461543104961 0 -23.101461543104961 8.2657509869895875 0 0 0 0 18.88556050403713 -20.162325198005419 0 -20.162325198005419 7.014629553668783 0 0 0 0 25.913998473007268 -18.128417854240979 0 -18.128417854240979 4.0109313560533337 0 0 0 0 15.1258125209215 -10.231944260591263 0 -10.231944260591263 0.75736846268409863 0 0 0 0 13.669302011326295 -18.851422916421143 0 -18.851422916421143 13.063951027870644 0 0 0 0 7.7519960720046583 -13.620790432250942 0 -13.620790432250942 8.7976182926795445 0 0 0 0 5.5527672080925186 -8.6478081611712696 0 -8.6478081611712696 6.8528911751927808 0 0 0 0 10.661662748039362 -11.122538847208489 0 -11.122538847208489 8.0284956146788318 0 0 0 0 7.7721603385682556 -24.446621993236477 0 -24.446621993236477 16.753590379928937 0 0 0 0 11.438679004138976 -22.257682539871894 0 -22.257682539871894 17.612906098460371 0 0 0 0 -0.16379086097890649 -14.114108951209346 0 -14.114108951209346 16.42458201064801 0 0 0 0 5.1516847815403963 -18.493261809635442 0 -18.493261809635442 15.450332745851483 0 0 0 0 -1.2010751498651189 -6.3700606159509334 0 -6.3700606159509334 12.268129949079594 0 0 0 0 -0.0021552867647187668 -7.1147144354763441 0 -7.1147144354763441 12.709719881429919 0 0 0 0 1.5173127021212736 -12.286075895051908 0 -12.286075895051908 17.956199162901612 0 0 0 0 -2.4331186654989043 -12.086315242937417 0 -12.086315242937417 19.482778869612957 0 0 0 0 -2.4603878643235788 -13.339523689923226 0 -13.339523689923226 28.972446868967381 0 0 0 0 -5.0901056095699353 -17.64202236804249 0 -17.64202236804249 24.717288392421324 0 0 0 0 -0.77818808556782315 -20.714385546103586 0 -20.714385546103586 19.915283934591571 0 0 0 0 -0.81356531367910634 -22.47177627820929 0 -22.47177627820929 28.797139194590272 0 0 0 0 1.0651201950499223 -17.474996105062019 0 -17.474996105062019 23.733833295991644 0 0 0 0 4.282934050552285 -8.5079494358287775 0 -8.5079494358287775 -40.809340146632167 0 0 0 0 -3.2017951314161821 -0.9749029595818115 0 -0.9749029595818115 3.0190404697413555 0 0 0 0 28.352531280345147 37.843746719005139 0 37.843746719005139 45.657010229304433 0 0 0 0 -27.751087383248212 -71.990431596314011 0 -71.990431596314011 -41.342744999798015 0 0 0 0 -14.666147557582008 -4.3746394095069263 0 -4.3746394095069263 26.618552376283333 0 0 0 0 -11.011674727365971 -3.5727307448760257 0 -3.5727307448760257 17.549515814549522 0 0 0 0 -7.6714306238773133 -7.484600955111091 0 -7.484600955111091 18.267066750253434 0 0 0 0 -11.933767363976585 -1.1745402412780095 0 -1.1745402412780095 16.452057226473698 0 0 0 0 -11.706699537689929 -0.31653790912241675 0 -0.31653790912241675 12.651366569509264 0 0 0 0 -13.970551464431992 -4.6216786344884895 0 -4.6216786344884895 10.92953754219343 0 0 0 0 -13.267306557270786 0.10827335377689451 0 0.10827335377689451 11.156670745345764 0 0 0 0 -2.6956038144508057 -1.2223954480577959 0 -1.2223954480577959 8.8908610551734455 0 0 0 0 -6.4834868847738107 -4.0134629499807488 0 -4.0134629499807488 13.012812786328141 0 0 0 0 -6.5392541421508152 8.2298397353405761 0 8.2298397353405761 11.518845468426719 0 0 0 0 -5.0183273527236452 6.522202296393516 0 6.522202296393516 17.842321242205799 0 0 0 0 -13.587593917625782 -7.2932730486791115 0 -7.2932730486791115 7.988257795892423 0 0 0 0 -23.578307884125024 -9.454366991732968 0 -9.454366991732968 13.025774139445275 0 0 0 0 -0.031787533468072393 -1.3225919677528353 0 -1.3225919677528353 4.3999195446730255 0 0 0 0 -37.478125541486406 6.2597267058736179 0 6.2597267058736179 13.548144558211789 0 0 0 0 -32.776038010826824 30.397521751205204 0 30.397521751205204 47.587108747946331 0 0 0 0 -30.067151978535549 -4.1706348193692975 0 -4.1706348193692975 16.482202900224365 0 0 0 0 -22.388725205147693 0.092401938112743665 0 0.092401938112743665 13.742906411411241 0 0 0 0 -32.057965022168446 12.11443949047316 0 12.11443949047316 9.5142429524566978 0 0 0 0 8.7136658434528727 -2.4434339526633266 0 -2.4434339526633266 3.2464600508974399 0 0 0 0 -5.8864337036338839 -0.98665637333760969 0 -0.98665637333760969 9.2573373335762881 0 0 0 0 -15.214930346795882 4.2196113966638222 0 4.2196113966638222 8.2677171480609104 0 0 0 0 -5.7743664274428284 -0.51304715686273994 0 -0.51304715686273994 8.6365107897436246 0 0 0 0 -15.29347325359231 1.5272607941587921 0 1.5272607941587921 11.853526251914445 0 0 0 0 -5.5611239926238341 2.6442523093428463 0 2.6442523093428463 6.1023123517225031 0 0 0 0 -23.492494543139401 3.2067806496052071 0 3.2067806496052071 11.929416086495621 0 0 0 0 -12.110316268859606 12.467442663066322 0 12.467442663066322 2.0376600165618584 0 0 0 0 -17.366465783277818 10.637551297084428 0 10.637551297084428 7.63680945491069 0 0 0 0 -18.585768649725651 14.240081875526812 0 14.240081875526812 1.8878974532126449 0 0 0 0 -3.1708404171545226 5.1167585990333464 0 5.1167585990333464 0.30763636284973472 0 0 0 0 16.555821478812504 -1.0111965479736682 0 -1.0111965479736682 -3.8077541192178614 0 0 0 0 16.800132769059474 -2.4356551900418708 0 -2.4356551900418708 -8.638715787732508 0 0 0 0 37.911511609527224 -18.110580064589158 0 -18.110580064589158 -3.9251135910017183 0 0 0 0 24.615275510785068 2.7237779986171518 0 2.7237779986171518 -25.063755611830857 0 0 0 0 17.665873650963476 4.9230251537519507 0 4.9230251537519507 -13.19762918620836 0 0 0 0 6.6736340128336451 21.931927588273538 0 21.931927588273538 -28.890606654575095 0 0 0 0 0.11141303082331433 14.219674430438317 0 14.219674430438317 -13.813186224200763 0 0 0 0 -16.815158698072992 28.765931166417431 0 28.765931166417431 -15.457347384421155 0 0 0 0 -1.2295302134234589 13.026413587518618 0 13.026413587518618 -3.6297708469210193 0 0 0 0 -26.232969771566786 16.341675457544625 0 16.341675457544625 4.3350880236248486 0 0 0 0 -13.80003684885105 50.513006883353228 0 50.513006883353228 -41.971268278779462 0 0 0 0 4.4619940431985015 22.940455532167107 0 22.940455532167107 -19.239202689495869 0 0 0 0 48.665467718441505 -2.4482535481802188 0 -2.4482535481802188 -31.387571886414662 0 0 0 0 36.73911730799864 17.865279096018639 0 17.865279096018639 -62.188587858574465 0 0 0 0 28.081860314310461 35.547019056431964 0 35.547019056431964 -70.668004403705709 0 0 0 0 26.166969687234086 3.5246659423573874 0 3.5246659423573874 -28.797863471133041 0 0 0 0 63.111713586753467 -24.566154828877188 0 -24.566154828877188 -16.875438525978097 0 0 0 0 43.610749351590812 -17.554499299174495 0 -17.554499299174495 -17.201737206545658 0 0 0 0 30.95231385916577 1.7741252866981085 0 1.7741252866981085 -34.087924890045542 0 0 0 0 44.398984048822967 -38.630225814791629 0 -38.630225814791629 15.770361714705359 0 0 0 0 38.391422535591119 -22.781362765672384 0 -22.781362765672384 -2.8409201874746941 0 0 0 0 45.864481554133818 -18.544777547882404 0 -18.544777547882404 -13.835713707550894 0 0 0 0 -37.533117621012934 34.93010841452633 0 34.93010841452633 -6.6860589402494952 0 0 0 0 -1.7266042132908497 -3.5842261438242282 0 -3.5842261438242282 32.277856806748616 0 0 0 0 -1.1448605512954177 2.1684595814022956 0 2.1684595814022956 1.2502888207780529 0 0 0 0 -71.927824016105887 14.775471777942585 0 14.775471777942585 28.90426277507504 0 0 0 0 -26.18738324923288 81.627001144974201 0 81.627001144974201 2.705537740373984 0 0 0 0 -53.548654872625946 53.387176613457996 0 53.387176613457996 114.72133901526831 0 0 0 0 -162.57299762953801 -151.14347751234527 0 -151.14347751234527 68.793865175030078 0 0 0 0 -73.687827688147081 -83.762818219489418 0 -83.762818219489418 -27.981444089171418 0 0 0 0 25.028901702058818 -219.43807419134646 0 -219.43807419134646 -61.738259994483087 0 0 0 0 -102.35215190345366 -59.129703005692136 0 -59.129703005692136 101.87172709673541 0 0 0 0 -160.91341875660214 215.8548306125158 0 215.8548306125158 135.96248750235645 0 0 0 0 0.013687212605232757 -2.3646039798541167 0 -2.3646039798541167 7.6333215151566662 0 0 0 0 3.7646480203484316 -8.1341506056633079 0 -8.1341506056633079 182.40313419199083 0 0 0 0 0.6197343949352232 -1.0944982735000863 0 -1.0944982735000863 0.54362788685858732 0 0 0 0 0.41299523536438221 -1.1059609825093517 0 -1.1059609825093517 0.2490330079076557 0 0 0 0 101.73588272084021 13.036441616437514 0 13.036441616437514 -74.159245747403475 0 0 0 0 71.426234560716694 -45.117265272769146 0 -45.117265272769146 50.574181376025081 0 0 0 0 62.599933132045408 -23.183355358167319 0 -23.183355358167319 -2.6267781892092898 0 0 0 0 56.073120706885675 -48.343642401247052 0 -48.343642401247052 54.711635278130416 0 0 0 0 56.092324413798451 -53.378555558330845 0 -53.378555558330845 72.371816584083717 0 0 0 0 56.091953474598995 -47.852490771445446 0 -47.852490771445446 49.490093544387491 0 0 0 0 66.410327171874087 -50.710460586531553 0 -50.710460586531553 50.238925954676233 0 0 0 0 64.430566290226125 -45.953183640172938 0 -45.953183640172938 28.834052605321631 0 0 0 0 60.177967027428167 -55.756860825582407 0 -55.756860825582407 42.765007999376394 0 0 0 0 45.160763907873843 -42.876782092920621 0 -42.876782092920621 38.571568286628462 0 0 0 0 38.600123194521075 -34.009795333171496 0 -34.009795333171496 12.9469256849261 0 0 0 0 61.38153937361858 -38.146867094939807 0 -38.146867094939807 10.803839109430555 0 0 0 0 58.952795303589738 -27.663542421634361 0 -27.663542421634361 2.1124890766805038 0 0 0 0 59.013165245785785 -45.18145308730891 0 -45.18145308730891 29.143529960347223 0 0 0 0 68.506734329554092 -43.995425565168262 0 -43.995425565168262 28.935572419082746 0 0 0 0 59.758571607217164 -30.740573312388733 0 -30.740573312388733 0.69086948374751955 0 0 0 0 63.631371718176524 -51.216451507207239 0 -51.216451507207239 50.296456519747153 0 0 0 0 71.742474758346361 -50.987440876371693 0 -50.987440876371693 64.398719318618532 0 0 0 0 60.207718280665176 -44.913279934349703 0 -44.913279934349703 62.077886925078928 0 0 0 0 81.823979635428259 29.697540952271083 0 29.697540952271083 -25.591245088056894 0 0 0 0 99.150520391276132 10.755766577109171 0 10.755766577109171 -44.33441241591936 0 0 0 0 100.97123200445913 19.707810206746217 0 19.707810206746217 -63.575184365472523 0 0 0 0 104.85126870496742 13.196717961567629 0 13.196717961567629 -91.974673857883317 0 0 0 0 76.833290493443656 -71.326143324273289 0 -71.326143324273289 115.8881669867551 0 0 0 0 64.370640741823081 -93.116217428381788 0 -93.116217428381788 184.02302795904689 0 0 0 0 14.155817533222944 -46.148086102766683 0 -46.148086102766683 307.67032141434902 0 0 0 0 44.934144659903723 -74.758436146745225 0 -74.758436146745225 143.47643286919629 0 0 0 0 69.313400014589433 -69.125854976609844 0 -69.125854976609844 84.383475004578941 0 0 0 0 50.404643893859429 -54.097825548436958 0 -54.097825548436958 112.60333521134453 0 0 0 0 -66.701040986561566 29.386910996967345 0 29.386910996967345 251.83381549231126 0 0 0 0 61.506438165285715 29.458166829082074 0 29.458166829082074 -3.4374827185529284 0 0 0 0 60.211929152106222 41.029761208883428 0 41.029761208883428 123.51029255148023 0 0 0 0 81.49287895157795 104.41677874735615 0 104.41677874735615 247.29293158085784 0 0 0 0 63.582261805713642 46.006285894152825 0 46.006285894152825 98.521104914572788 0 0 0 0 126.00934430304642 -45.636396545000025 0 -45.636396545000025 184.39420499603966 0 0 0 0 79.952468993324601 51.885608490003506 0 51.885608490003506 -4.4307111994130537 0 0 0 0 -22.677956845013995 -41.910293041155455 0 -41.910293041155455 37.922020966710988 0 0 0 0 0.33346980878879345 -4.6468249322319473 0 -4.6468249322319473 29.280342841636184 0 0 0 0 -18.005386776436012 76.834242424763943 0 76.834242424763943 -28.646893731114687 0 0 0 0 -65.709558165489256 -55.234671179242014 0 -55.234671179242014 138.03847796926857 0 0 0 0 94.807599988275342 -10.039479021928855 0 -10.039479021928855 -45.754312675631809 0 0 0 0 -0.35679573473951809 -0.062972534821994941 0 -0.062972534821994941 2.311543385176833 0 0 0 0 -1.8568614787891868 -5.8947288638777895 0 -5.8947288638777895 31.131628562678287 0 0 0 0 75.347861518034279 41.241869907207729 0 41.241869907207729 -34.048189164779615 0 0 0 0 -18.900727440789524 -8.240268338820897 0 -8.240268338820897 57.382164047092374 0 0 0 0 -15.395512705874232 2.6758312432650087 0 2.6758312432650087 13.914496468233523 0 0 0 0 -7.0660062655333604 -10.152487600105815 0 -10.152487600105815 5.031915067738737 0 0 0 0 -41.940754683510789 -41.085401148252458 0 -41.085401148252458 -1.6102934488444589 0 0 0 0 43.676746339135661 -36.197596196288941 0 -36.197596196288941 -41.461610626261972 0 0 0 0 25.986284301571686 13.167118123848923 0 13.167118123848923 14.29382113837346 0 0 0 0 -2.8291889470085607 28.621285574175999 0 28.621285574175999 25.556101307130575 0 0 0 0 16.918498465514972 -3.4713597485024366 0 -3.4713597485024366 -13.655572589239455 0 0 0 0 -8.3864578193347885 7.3960993132353394 0 7.3960993132353394 13.280819752090352 0 0 0 0 -2.1522841017127803 26.740230245421117 0 26.740230245421117 12.161875414687529 0 0 0 0 -0.67140171022958839 7.1968275834897213 0 7.1968275834897213 34.940005696626031 0 0 0 0 -12.958127446909202 -0.93519230261881603 0 -0.93519230261881603 49.415344708657358 0 0 0 0 -14.981355841964614 4.8610101909071091 0 4.8610101909071091 51.37777945776179 0 0 0 0 -24.364483281417051 4.2010060981338029 0 4.2010060981338029 63.890565346577205 0 0 0 0 -0.43676086891442623 12.094323168297706 0 12.094323168297706 91.231144353398122 0 0 0 0 -3.4156394489009472 11.964794438681565 0 11.964794438681565 55.221742170702782 0 0 0 0 0.06784029741984765 6.5257753116191424 0 6.5257753116191424 58.085741045664292 0 0 0 0 -25.570098873018651 11.607656691943703 0 11.607656691943703 70.67658595352259 0 0 0 0 -30.336826112705239 0.1894785544500337 0 0.1894785544500337 68.023704606142928 0 0 0 0 -36.000864886681484 -0.20636811639269581 0 -0.20636811639269581 62.776340624768636 0 0 0 0 -37.256352218602842 0.36631257203407586 0 0.36631257203407586 63.587795228151663 0 0 0 0 -40.018142976119634 7.5137444320662325 0 7.5137444320662325 66.935029406304238 0 0 0 0 -43.567830310124918 -3.5410245670063887 0 -3.5410245670063887 62.816250936259166 0 0 0 0 -71.382141568211409 -7.159863286811742 0 -7.159863286811742 69.44096264783002 0 0 0 0 -2.0786065241807798 -7.8265226665526555 0 -7.8265226665526555 61.002825540908475 0 0 0 0 -54.355265518315719 -1.7286962281505112 0 -1.7286962281505112 66.263929977023508 0 0 0 0 -48.964292891543664 -13.397674979714793 0 -13.397674979714793 63.184817716100952 0 0 0 0 -60.445541332567245 -14.73185608710628 0 -14.73185608710628 67.715079104906181 0 0 0 0 -62.970185290352674 -10.491209618572611 0 -10.491209618572611 61.21056106116157 0 0 0 0 -4.8970247943541345 -4.0915663607982822 0 -4.0915663607982822 13.224867490424558 0 0 0 0 -104.65840759460934 -71.26211111921657 0 -71.26211111921657 49.21341801143717 0 0 0 0 -15.244748988682659 -58.943458949801425 0 -58.943458949801425 16.95085314258904 0 0 0 0 -8.0002321620420389 -11.052088826177624 0 -11.052088826177624 33.44253181937529 0 0 0 0 -6.994627178410056 -17.301577342117341 0 -17.301577342117341 21.278541571165263 0 0 0 0 -10.98986187255338 -3.2867095400568758 0 -3.2867095400568758 16.118595354224496 0 0 0 0 -3.3027911447260876 -13.753890337905169 0 -13.753890337905169 35.362795075327909 0 0 0 0 -23.720513653624948 -15.544182191719301 0 -15.544182191719301 58.72616894733801 0 0 0 0 -30.879152402845648 -10.481558834813768 0 -10.481558834813768 59.41324206686113 0 0 0 0 -34.147680565480186 -9.1024145203118678 0 -9.1024145203118678 62.241138281533495 0 0 0 0 -37.099470018278225 -9.5634315886200056 0 -9.5634315886200056 64.419985582499066 0 0 0 0 -52.529975932046 -31.18222520618292 0 -31.18222520618292 57.098791517724749 0 0 0 0 -4.5008701252619403 -8.5825181671789323 0 -8.5825181671789323 14.759364059675136 0 0 0 0 -5.0023980680787865 -6.9563964956885656 0 -6.9563964956885656 1.0281340753423365 0 0 0 0 -2.8318810759446933 -8.6257331983360928 0 -8.6257331983360928 14.687512770899048 0 0 0 0 -3.5554059072763264 -2.1133449067154402 0 -2.1133449067154402 11.930125094395919 0 0 0 0 -0.45554116115908982 -1.9200727295610704 0 -1.9200727295610704 18.759962828538846 0 0 0 0 -1.0416615566805376 -5.8951656715289573 0 -5.8951656715289573 18.786827120202361 0 0 0 0 9.7281890015292447 -5.1298215652350336 0 -5.1298215652350336 3.7960308084147982 0 0 0 0 -0.6324562489268315 0.93860627808446395 0 0.93860627808446395 0.437034664486049 0 0 0 0 -3.3469761908135025 -3.9906019285143515 0 -3.9906019285143515 11.931508601534119 0 0 0 0 -4.4872591576240985 -7.9087670729182022 0 -7.9087670729182022 5.1138129767244607 0 0 0 0 4.4977523301549809 -4.9856642310551251 0 -4.9856642310551251 15.885486238272279 0 0 0 0 -8.4540003445708862 -6.0001595382782398 0 -6.0001595382782398 7.4614269242156297 0 0 0 0 -3.3871994926339539 -7.6606183105104719 0 -7.6606183105104719 5.3294969137641601 0 0 0 0 -33.575901034457274 -39.483730528212618 0 -39.483730528212618 -27.440160576908966 0 0 0 0 26.676775030833141 -2.2625301406005747 0 -2.2625301406005747 -48.746519561042078 0 0 0 0 -5.4479418886760733 -7.8027084708462127 0 -7.8027084708462127 4.8333823092584822 0 0 0 0 -16.410765484968124 -53.423019735379057 0 -53.423019735379057 -1.9897674199746689 0 0 0 0 62.010953887311189 -83.303237048523442 0 -83.303237048523442 8.7908220301142137 0 0 0 0 39.407663408118424 -25.393890866434958 0 -25.393890866434958 -8.0267468931197072 0 0 0 0 62.222850070789718 -32.099976416702702 0 -32.099976416702702 -32.936319334374275 0 0 0 0 -66.969881317196268 83.492946026475693 0 83.492946026475693 -19.796780699442024 0 0 0 0 0.62397912461923966 -0.70162366061663306 0 -0.70162366061663306 -0.11328791456760712 0 0 0 0 0.81081116847896872 -0.93896570056037021 0 -0.93896570056037021 -0.6285066494709497 0 0 0 0 51.303884422678493 12.702558796248923 0 12.702558796248923 4.4384914707479766 0 0 0 0 42.957173797173709 -10.57002722240577 0 -10.57002722240577 2.5505009698463255 0 0 0 0 49.955556875788716 16.204520159626554 0 16.204520159626554 -4.0848672945721773 0 0 0 0 66.826879305503098 32.027973167700111 0 32.027973167700111 10.390788558961503 0 0 0 0 39.540316005386558 21.013654704052897 0 21.013654704052897 13.452158288855571 0 0 0 0 46.260690584163967 17.928323465632275 0 17.928323465632275 6.6028777841420379 0 0 0 0 34.716741120977531 11.014059737572097 0 11.014059737572097 10.755660710368829 0 0 0 0 31.98883801233751 -1.9655465494142845 0 -1.9655465494142845 -0.33459564060831326 0 0 0 0 43.041219079994335 6.8720025805050682 0 6.8720025805050682 0.67119287617970258 0 0 0 0 29.878425678150961 52.536942672319128 0 52.536942672319128 46.431624039803864 0 0 0 0 29.093548234150148 32.266792895548861 0 32.266792895548861 30.657793142712762 0 0 0 0 37.871542761021374 46.404145780703402 0 46.404145780703402 50.115107456178521 0 0 0 0 44.011824281200461 22.993315170540882 0 22.993315170540882 12.250632039183984 0 0 0 0 33.562178144768041 37.005682341652573 0 37.005682341652573 27.909637129851035 0 0 0 0 24.441730559819007 29.654386773108854 0 29.654386773108854 24.509903311016387 0 0 0 0 11.907280598090438 14.089160086077754 0 14.089160086077754 23.850911284254835 0 0 0 0 18.830180597756225 28.180730750733346 0 28.180730750733346 24.827039452793542 0 0 0 0 26.943661611599964 18.568683234785567 0 18.568683234785567 22.023556118190754 0 0 0 0 7.0809723236870923 -0.74766291611740598 0 -0.74766291611740598 22.025886807226925 0 0 0 0 26.052436514426518 7.1361430365795968 0 7.1361430365795968 15.458650338245207 0 0 0 0 9.6821144563590593 -2.1094709560672982 0 -2.1094709560672982 10.56809193972731 0 0 0 0 30.682926263218178 17.307437184725131 0 17.307437184725131 17.151492365555896 0 0 0 0 29.594338931165112 7.4245309099860606 0 7.4245309099860606 8.5226227639795979 0 0 0 0 14.238717374682437 9.9649885781418561 0 9.9649885781418561 31.117660061790957 0 0 0 0 -3.9117441197968219 -1.68837986699873 0 -1.68837986699873 0.73168815215467475 0 0 0 0 -0.0088423674214546111 -5.7704810318032571 0 -5.7704810318032571 5.9935042354410228 0 0 0 0 -4.2742453015034698 -14.794593016004001 0 -14.794593016004001 25.527770190456067 0 0 0 0 55.533034246320767 -46.586099744989042 0 -46.586099744989042 25.583459969027899 0 0 0 0 17.152083072443929 3.554084690837044 0 3.554084690837044 0.37187561592145357 0 0 0 0 -18.080336599576185 -15.224242056567164 0 -15.224242056567164 15.523123954582843 0 0 0 0 15.233501049303868 0.80652450137131382 0 0.80652450137131382 -1.9752506119402824 0 0 0 0 0.44551203736023126 -8.221261349021006 0 -8.221261349021006 1.9278683824086329 0 0 0 0 2.5800570454634908 -4.7783712334894517 0 -4.7783712334894517 7.3998914301591867 0 0 0 0 1.0270788750084812 -4.3945389851158936 0 -4.3945389851158936 4.3201825849519935 0 0 0 0 -122.82860160807559 7.0653000953461742 0 7.0653000953461742 62.94292793085333 0 0 0 0 -1.2249184772332709 1.1152144929886987 0 1.1152144929886987 11.800913459802359 0 0 0 0 -1.6907361971539245 0.16879550421178635 0 0.16879550421178635 13.556846607565291 0 0 0 0 -8.9609214129420707 -86.001844263355451 0 -86.001844263355451 44.33143567731895 0 0 0 0 -103.01559117807983 -39.371984811783477 0 -39.371984811783477 140.74176685266866 0 0 0 0 -61.171526995007753 84.970091750568827 0 84.970091750568827 -9.1188655092555564 0 0 0 0 0.13543832812090839 1.6575992773461792 0 1.6575992773461792 6.785611825547079 0 0 0 0 -36.597589319753752 105.53935886594263 0 105.53935886594263 7.9151855339950998 0 0 0 0 -43.600948476009762 51.988515731783991 0 51.988515731783991 -52.587521898502018 0 0 0 0 3.5533662949001155 19.582127091052826 0 19.582127091052826 -22.716342587766121 0 0 0 0 -59.672048076593796 -16.993690702765889 0 -16.993690702765889 -30.472871082543861 0 0 0 0 35.464008486410421 10.300878984984593 0 10.300878984984593 -24.045191979712399 0 0 0 0 -15.379058637521211 -26.403722339506203 0 -26.403722339506203 69.896132904308615 0 0 0 0 -16.980324327465041 -28.770199076217978 0 -28.770199076217978 -14.358295213009114 0 0 0 0 30.260115590943769 33.010991072362231 0 33.010991072362231 77.878175612248015 0 0 0 0 85.625487286972657 10.152381249252358 0 10.152381249252358 -60.800523585392511 0 0 0 0 4.7259041457009516 9.4973536539328052 0 9.4973536539328052 100.48476703526103 0 0 0 0 -35.134037553218604 46.352761141165502 0 46.352761141165502 256.96991131571122 0 0 0 0 30.700458692410393 67.094578659496619 0 67.094578659496619 131.95174220609624 0 0 0 0 26.978804489622235 103.0347449691908 0 103.0347449691908 306.84164397411223 0 0 0 0 -0.61582193543979979 -0.13168580732462232 0 -0.13168580732462232 2.9969009283865944 0 0 0 0 -24.842967462274373 -12.338494338637247 0 -12.338494338637247 145.33642914137454 0 0 0 0 0.52140366776512792 33.652657590852868 0 33.652657590852868 143.82138970601954 0 0 0 0 -35.403057875730156 13.682593916586484 0 13.682593916586484 163.9323561410929 0 0 0 0 -36.382665818061696 36.607763982042343 0 36.607763982042343 207.292996174976 0 0 0 0 -36.011424049154812 19.755910374653467 0 19.755910374653467 188.14201082155341 0 0 0 0 -12.45676862468963 21.956163645649212 0 21.956163645649212 184.20965980074834 0 0 0 0 89.964839235785689 -28.152130701395436 0 -28.152130701395436 32.695890791801503 0 0 0 0 -65.879199067852937 -111.48417324140246 0 -111.48417324140246 50.076023490080843 0 0 0 0 -28.390809841177997 -119.03667758130905 0 -119.03667758130905 -14.681420081702527 0 0 0 0 -43.188682789727409 -82.77675304422155 0 -82.77675304422155 116.3231661061036 0 0 0 0 -25.185327344378493 -2.9517962754289329 0 -2.9517962754289329 138.68700753650046 0 0 0 0 -46.289233481151314 -19.235877072351286 0 -19.235877072351286 205.56324949280497 0 0 0 0 -45.8568709218398 -10.502278099374962 0 -10.502278099374962 260.59109873553007 0 0 0 0 -25.582051045590561 -15.209768757282291 0 -15.209768757282291 226.9693668052787 0 0 0 0 -24.668696120006217 -56.064380753323348 0 -56.064380753323348 463.32728574782959 0 0 0 0 33.513930610537273 -198.01091160074247 0 -198.01091160074247 341.51695005135844 0 0 0 0 28.684311918600542 -94.388554732944613 0 -94.388554732944613 -19.38906399399275 0 0 0 0 42.29277451015696 -179.10459561651805 0 -179.10459561651805 227.68431070151871 0 0 0 0 156.74379068328199 -241.72183335773298 0 -241.72183335773298 36.668410878912255 0 0 0 0 137.17171961159556 -163.64411782827847 0 -163.64411782827847 -109.96366292821767 0 0 0 0 112.68540997232026 -199.00614162495731 0 -199.00614162495731 -38.584881846574717 0 0 0 0 122.98830145564602 -179.82421584637268 0 -179.82421584637268 -95.170098100759787 0 0 0 0 11.354731037951296 50.581343290257792 0 50.581343290257792 111.54615105954872 0 0 0 0 15.023800579237104 45.184606674753013 0 45.184606674753013 48.511711706436472 0 0 0 0 68.895341327865935 31.303782277944265 0 31.303782277944265 -11.449103098419073 0 0 0 0 -33.674284339773067 37.01334610009917 0 37.01334610009917 176.62834840339201 0 0 0 0 0.29578955518088734 -2.1202114630185278 0 -2.1202114630185278 2.5415007881907172 0 0 0 0 37.158545852307725 -176.96394348512695 0 -176.96394348512695 432.62244805660157 0 0 0 0 0.25252503786396119 40.116374458892096 0 40.116374458892096 360.06841516834902 0 0 0 0 186.98428676230651 -138.40491766315245 0 -138.40491766315245 316.06780350583358 0 0 0 0 3.8612861947913188 10.456657143760822 0 10.456657143760822 144.62555807716853 0 0 0 0 15.372102954321235 27.269109771084914 0 27.269109771084914 154.94823821380851 0 0 0 0 -21.097789655041197 -5.4595273759186966 0 -5.4595273759186966 152.5566779376677 0 0 0 0 -8.0643717006096267 35.030046190749999 0 35.030046190749999 128.34959283354692 0 0 0 0 -15.164775784514859 31.270218075231242 0 31.270218075231242 227.24983963582781 0 0 0 0 -40.637012302540825 -26.688981980645622 0 -26.688981980645622 190.46541087076184 0 0 0 0 -28.185533585528901 -62.405640308003058 0 -62.405640308003058 271.92974601866445 0 0 0 0 -9.0541691379694385 -74.177003758493811 0 -74.177003758493811 195.30742987577105 0 0 0 0 -18.258344265028427 -79.624065196789161 0 -79.624065196789161 202.67698671932158 0 0 0 0 0.42538758516275266 -91.186949357594131 0 -91.186949357594131 225.14104408919229 0 0 0 0 -6.9618522948239843 -102.0757025408966 0 -102.0757025408966 307.67942243177094 0 0 0 0 143.0329939576859 -183.35346441712318 0 -183.35346441712318 171.15810357095324 0 0 0 0 67.459091804774289 -104.50693603243417 0 -104.50693603243417 95.670296460986719 0 0 0 0 37.770566907362081 -130.1082260322728 0 -130.1082260322728 185.6582189087585 0 0 0 0 12.216350749144112 -89.528999350259255 0 -89.528999350259255 121.27597337961197 0 0 0 0 0.97034617128184708 -2.1332699159047337 0 -2.1332699159047337 1.2058851542792013 0 0 0 0 -25.811009803882371 49.271416963223601 0 49.271416963223601 169.39995794135029 0 0 0 0 245.18857732024117 -136.30599700052335 0 -136.30599700052335 67.273021904416964 0 0 0 0 163.19170852060279 -124.08927103405222 0 -124.08927103405222 324.62550798658049 0 0 0 0 157.31781055206011 -228.71653468487784 0 -228.71653468487784 270.17526234807156 0 0 0 0 1.0929939515860916 -2.856856762321577 0 -2.856856762321577 3.7446008048131318 0 0 0 0 10.121187685618679 8.7441919248594786 0 8.7441919248594786 16.062788227296551 0 0 0 0 150.29959629893074 -32.877210144506535 0 -32.877210144506535 -33.336766196262033 0 0 0 0 61.643390910293419 -87.860491918054322 0 -87.860491918054322 56.803596442754497 0 0 0 0 10.778548893544212 -83.606234785023844 0 -83.606234785023844 120.06186917769082 0 0 0 0 67.205537416943116 -104.42944098624866 0 -104.42944098624866 95.743997306271922 0 0 0 0 25.413247152317126 -46.814500223445066 0 -46.814500223445066 49.716249986224284 0 0 0 0 4.9862455895472522 -59.267761634429917 0 -59.267761634429917 89.909822995250579 0 0 0 0 26.578534367130487 -59.415403113263892 0 -59.415403113263892 69.990936771209817 0 0 0 0 9.1205913878766296 -45.37868485407671 0 -45.37868485407671 72.374386687471997 0 0 0 0 -2.1551460442278767 -54.557480162926367 0 -54.557480162926367 110.56788618236897 0 0 0 0 4.193443929663772 -57.196813512360677 0 -57.196813512360677 90.321567673439858 0 0 0 0 -15.5384534640325 -55.415373480747803 0 -55.415373480747803 110.68609494949851 0 0 0 0 -9.4938120915976469 -66.839419048767013 0 -66.839419048767013 132.25475369035848 0 0 0 0 8.2777853100305947 -75.749144156143302 0 -75.749144156143302 97.704756939143408 0 0 0 0 4.3137590961996466 -43.517854438730865 0 -43.517854438730865 95.961476855984074 0 0 0 0 4.4498148064622001 -39.6034896923411 0 -39.6034896923411 101.62289694804349 0 0 0 0 4.2247505773048033 -43.544289175843005 0 -43.544289175843005 96.59766890470928 0 0 0 0 -8.7342048579212133 -44.811301415378693 0 -44.811301415378693 126.6953704837797 0 0 0 0 -16.401319884324494 -16.872228756115874 0 -16.872228756115874 115.44784121135308 0 0 0 0 -28.831096294029976 -38.541457628998614 0 -38.541457628998614 130.93815468353569 0 0 0 0 -32.007081580935846 -41.400216877336788 0 -41.400216877336788 143.89282828994328 0 0 0 0 -7.0599822998447053 -92.277103911575978 0 -92.277103911575978 167.45426341247003 0 0 0 0 -22.908624335446802 -68.594288202722964 0 -68.594288202722964 133.18463334423723 0 0 0 0 -32.185344878666001 -58.447124403857742 0 -58.447124403857742 148.31881472142413 0 0 0 0 -41.35603259956406 -55.680147193168523 0 -55.680147193168523 157.19606501507224 0 0 0 0 -33.908256849314057 -57.765351820882643 0 -57.765351820882643 172.44123515926003 0 0 0 0 -36.52523527516496 -39.994920913333772 0 -39.994920913333772 163.26838783311541 0 0 0 0 -33.591448741725799 12.885341112116294 0 12.885341112116294 141.25454996107146 0 0 0 0 -42.204772412238526 14.898986492757103 0 14.898986492757103 80.137983009626623 0 0 0 0 -34.943419971399635 -2.5956023610197008 0 -2.5956023610197008 115.16268469211354 0 0 0 0 -58.881488657156297 -41.771779877177323 0 -41.771779877177323 111.79294169422064 0 0 0 0 -42.288435324313468 -29.895540721794532 0 -29.895540721794532 120.17206323402934 0 0 0 0 -47.348629252164756 -33.978983766806778 0 -33.978983766806778 171.36904497001524 0 0 0 0 -76.057550842131604 -29.908451195864473 0 -29.908451195864473 135.10290432564216 0 0 0 0 -17.743900769121865 -16.332508237013826 0 -16.332508237013826 115.95237891998113 0 0 0 0 -65.208310224807065 -21.432774125220021 0 -21.432774125220021 141.64350018060577 0 0 0 0 -36.906950956303263 20.421266955618194 0 20.421266955618194 92.504549827572191 0 0 0 0 -3.8367756310362608 -6.4744891280571721 0 -6.4744891280571721 20.316463215421948 0 0 0 0 -78.280139342386974 -24.163740621122997 0 -24.163740621122997 38.64294616542611 0 0 0 0 50.977661259028082 -68.021713079268011 0 -68.021713079268011 103.84262017713627 0 0 0 0 57.612182855392348 -102.65482553271431 0 -102.65482553271431 150.24450272601098 0 0 0 0 -53.688194700080203 22.145225104737619 0 22.145225104737619 66.48607589644962 0 0 0 0 -4.9504216128283929 -4.9464184479880728 0 -4.9464184479880728 21.111481665476248 0 0 0 0 -15.998941188101526 -3.2893990084703546 0 -3.2893990084703546 10.253342420663103 0 0 0 0 -54.913613801551037 14.413985157541902 0 14.413985157541902 71.30090214170923 0 0 0 0 -25.989490474594277 10.576379572907172 0 10.576379572907172 101.60322600953805 0 0 0 0 -32.154745813053069 35.126755396549925 0 35.126755396549925 89.080927735310979 0 0 0 0 5.4485206755989566 -19.5884458235887 0 -19.5884458235887 27.686325304370257 0 0 0 0 -2.0514404390414711 14.742766317671339 0 14.742766317671339 81.278792280660127 0 0 0 0 -2.2976611688195554 -4.4286891062233025 0 -4.4286891062233025 20.099660271935406 0 0 0 0 8.5151112148218999 -0.65011008204601239 0 -0.65011008204601239 45.858718459945521 0 0 0 0 8.8764090366566961 14.229304884280282 0 14.229304884280282 56.690636126018944 0 0 0 0 -2.4642487053388322 -1.185641369480436 0 -1.185641369480436 73.668970829239697 0 0 0 0 38.429562464552873 -48.752066704779281 0 -48.752066704779281 74.600581081853306 0 0 0 0 -1.0221614015536034 -16.935420056528528 0 -16.935420056528528 85.644620367093012 0 0 0 0 -20.513646735256771 -9.4516071062535048 0 -9.4516071062535048 83.792895798338577 0 0 0 0 -3.5353614550821213 -2.7096271853476139 0 -2.7096271853476139 14.907406696131019 0 0 0 0 -33.277645631736959 22.586044831725303 0 22.586044831725303 99.851370584452525 0 0 0 0 37.791709924749739 -73.453108941888786 0 -73.453108941888786 143.95280291404924 0 0 0 0 -16.350083749592159 33.00073114208044 0 33.00073114208044 125.36871034884825 0 0 0 0 -13.777036283652706 0.11304968463082332 0 0.11304968463082332 241.26819648263336 0 0 0 0 -57.159177060707407 -21.527768424766691 0 -21.527768424766691 162.72042370142299 0 0 0 0 33.345004478087503 -60.668151421617949 0 -60.668151421617949 123.18333560781321 0 0 0 0 -0.64472744783670421 9.2469747468024863 0 9.2469747468024863 57.094127826309546 0 0 0 0 -1.9625109716762381 -4.1453707108739763 0 -4.1453707108739763 101.8245114122401 0 0 0 0 26.124168012192548 -33.540433536334177 0 -33.540433536334177 26.451200297695038 0 0 0 0 -20.641054646301484 10.071381856999423 0 10.071381856999423 82.404907303526471 0 0 0 0 67.591512328214776 -89.567415896126477 0 -89.567415896126477 53.887361404924377 0 0 0 0 -129.57395631707914 -3.7215805619671301 0 -3.7215805619671301 162.58338284773345 0 0 0 0 189.82707333131111 -91.57285360887181 0 -91.57285360887181 2.5556331954849156 0 0 0 0 4.5431693955665082 -2.3934855991266915 0 -2.3934855991266915 -0.12902824810583979 0 0 0 0 147.39596706889461 -34.160918609122746 0 -34.160918609122746 -2.939101513242349 0 0 0 0 94.876622267068029 150.50232420928046 0 150.50232420928046 363.63365593439084 0 0 0 0 69.926999145999616 13.625353156054189 0 13.625353156054189 -32.223263148218393 0 0 0 0 116.81941281292893 -75.839100461060298 0 -75.839100461060298 8.7826773292108555 0 0 0 0 24.219183084684119 -27.026390609949885 0 -27.026390609949885 -13.783512218622491 0 0 0 0 52.215129847849312 17.677156126410409 0 17.677156126410409 -30.451372878756956 0 0 0 0 -3.0905163618136147 -8.5322930290136156 0 -8.5322930290136156 13.169163194032421 0 0 0 0 35.174147987310789 31.671676735688379 0 31.671676735688379 -39.019887009344529 0 0 0 0 6.0177145245428996 -6.0640492982031589 0 -6.0640492982031589 6.4518374809740351 0 0 0 0 -48.347723270728238 -9.8668167626201466 0 -9.8668167626201466 34.873692686669528 0 0 0 0 90.501846414247666 76.897391407072973 0 76.897391407072973 103.18257379415445 0 0 0 0 -21.508806003825157 -39.646984639162838 0 -39.646984639162838 297.5433456647952 0 0 0 0 42.93807920429208 -102.53331644221544 0 -102.53331644221544 114.2485720514378 0 0 0 0 644.03667652930653 -97.711181533515628 0 -97.711181533515628 -288.82342353179411 0 0 0 0 39.018184420643138 -144.84704718393914 0 -144.84704718393914 459.04275710353977 0 0 0 0 21.063913631727246 -414.79689962812154 0 -414.79689962812154 781.13095220702235 0 0 0 0 20.690472074795252 -21.072428754661814 0 -21.072428754661814 107.4618467798573 0 0 0 0 21.852895460261713 -42.894227209442988 0 -42.894227209442988 37.096865797056722 0 0 0 0 22.425028862393447 -27.037331339848606 0 -27.037331339848606 123.6782561129221 0 0 0 0 -17.50277492400534 14.049626165422332 0 14.049626165422332 84.911624346102613 0 0 0 0 -66.817797967161368 -87.965910870412699 0 -87.965910870412699 120.9431967233395 0 0 0 0 12.921695158407601 112.5033392002224 0 112.5033392002224 -15.115764669775672 0 0 0 0 -28.089490295605174 -45.92096241154286 0 -45.92096241154286 50.018618800939294 0 0 0 0 -6.4349498451094824 -5.2644662722643432 0 -5.2644662722643432 16.46065454448815 0 0 0 0 -330.69894895333255 157.91257764334659 0 157.91257764334659 -11.089947963162558 0 0 0 0 35.631917815147318 -54.280776977830669 0 -54.280776977830669 34.254967536675395 0 0 0 0 34.587729151599632 -38.17442974251162 0 -38.17442974251162 43.032699460643926 0 0 0 0 6.14862671701 -2.2203680492370736 0 -2.2203680492370736 24.211572578944725 0 0 0 0 41.701743390761749 -59.774034246491283 0 -59.774034246491283 64.867394668995985 0 0 0 0 58.859563284842352 -35.957299079982477 0 -35.957299079982477 41.724480228702305 0 0 0 0 61.159440377244664 -33.474012321879854 0 -33.474012321879854 97.372014069114812 0 0 0 0 40.463676108745858 -36.213784634135664 0 -36.213784634135664 71.626968316408238 0 0 0 0 41.486399279996476 -10.170776456274325 0 -10.170776456274325 114.21180345194807 0 0 0 0 49.200531739853432 -52.953934206459962 0 -52.953934206459962 96.513296723504027 0 0 0 0 1.5237257884136852 -47.912363485767855 0 -47.912363485767855 67.935340400585119 0 0 0 0 24.574493327399068 -58.102716984069048 0 -58.102716984069048 67.297863252395473 0 0 0 0 42.605545973945482 -26.225647835759446 0 -26.225647835759446 59.424993092152363 0 0 0 0 29.97312634856371 -42.33193353142633 0 -42.33193353142633 40.912191164112301 0 0 0 0 14.053585551168329 -38.34961543726952 0 -38.34961543726952 29.055269383222793 0 0 0 0 0.59592203530633014 -32.181347485507217 0 -32.181347485507217 60.467407006741269 0 0 0 0 2.1874840693744773 -34.08013931048481 0 -34.08013931048481 98.763267453890876 0 0 0 0 19.992006384891283 -32.275425653373532 0 -32.275425653373532 34.556511910865083 0 0 0 0 24.402889910275917 -38.450308994295483 0 -38.450308994295483 29.086909049226961 0 0 0 0 2.1204670620081743 -29.811356496342341 0 -29.811356496342341 78.667158321935858 0 0 0 0 7.1794224541304885 -8.446635027985522 0 -8.446635027985522 15.620240830752294 0 0 0 0 -3.3790166132803279 13.822141750413721 0 13.822141750413721 49.381553484137839 0 0 0 0 9.4473912332753116 9.1366555837430496 0 9.1366555837430496 40.90967245560023 0 0 0 0 -36.729468836751039 -47.634334626185591 0 -47.634334626185591 63.373137620415946 0 0 0 0 0.83188889666569565 -0.24372188231546943 0 -0.24372188231546943 56.11485856049697 0 0 0 0 -17.783311770095679 -9.3984328678125166 0 -9.3984328678125166 30.574966203417716 0 0 0 0 -332.14457482970192 -169.43975779058019 0 -169.43975779058019 -9.6211066010801005 0 0 0 0 -31.918502728363819 23.288608096430835 0 23.288608096430835 44.016237862291746 0 0 0 0 -6.2961461531540408 19.391131718082761 0 19.391131718082761 39.573640572403747 0 0 0 0 -52.417065112268574 42.391112530112878 0 42.391112530112878 42.671432385322987 0 0 0 0 1.9958758168631903 40.893342713025049 0 40.893342713025049 33.413894498444279 0 0 0 0 -27.011293326509985 20.924235963368119 0 20.924235963368119 18.987397300006705 0 0 0 0 3.4745908158529346 32.648742803692585 0 32.648742803692585 32.130992126270939 0 0 0 0 -22.019479263750782 37.387896663018182 0 37.387896663018182 57.161220970505383 0 0 0 0 -0.14158774871502722 4.2630244579972372 0 4.2630244579972372 51.033824040415681 0 0 0 0 208.67392979119359 -263.21772825344669 0 -263.21772825344669 -460.89039757968567 0 0 0 0 732.54059312777827 498.1333181827431 0 498.1333181827431 -812.30367320500227 0 0 0 0 267.47174179593094 273.22238904035476 0 273.22238904035476 -296.46721538349811 0 0 0 0 139.96526415833796 342.15507420318681 0 342.15507420318681 374.25974903942551 0 0 0 0 161.75194266364815 84.897267489828664 0 84.897267489828664 -40.37755560909136 0 0 0 0 105.01004590112075 57.941121309538175 0 57.941121309538175 -43.000464243348688 0 0 0 0 67.659331197852225 115.37152211334615 0 115.37152211334615 87.949810595999224 0 0 0 0 93.346653175494794 233.85891298585193 0 233.85891298585193 131.04310263332081 0 0 0 0 0.82771575560764177 184.68501970444913 0 184.68501970444913 335.14466600997548 0 0 0 0 9.9818009321688805 162.49300641650916 0 162.49300641650916 215.879071386953 0 0 0 0 -2.4804517453124504 155.17977113558436 0 155.17977113558436 211.79897389760299 0 0 0 0 23.984117323517239 130.20446504380561 0 130.20446504380561 231.26699568060576 0 0 0 0 53.147101646785359 114.24451950760158 0 114.24451950760158 114.05901584861567 0 0 0 0 25.860248707908795 21.540282517471496 0 21.540282517471496 90.38495039769623 0 0 0 0 -30.401300657295906 80.548411567317089 0 80.548411567317089 188.87470893951104 0 0 0 0 28.542792018137334 51.411140662778053 0 51.411140662778053 202.0653075639857 0 0 0 0 49.931820472736945 -44.701342337328242 0 -44.701342337328242 162.03727973792411 0 0 0 0 4.6047688032008409 -51.22078545835393 0 -51.22078545835393 11.602055280032801 0 0 0 0 42.827954051184861 8.656227632840455 0 8.656227632840455 98.934611696480715 0 0 0 0 102.91061020662437 -140.22527302406161 0 -140.22527302406161 198.09360221488168 0 0 0 0 -11.991963767599373 -32.741498330753529 0 -32.741498330753529 237.23171019182337 0 0 0 0 121.28230094982428 -115.18368259323324 0 -115.18368259323324 82.596844898696872 0 0 0 0 51.10600924515893 -2.5464059633668512 0 -2.5464059633668512 -3.3716655828029616 0 0 0 0 54.916508993620482 -66.223114988562884 0 -66.223114988562884 76.534979651100002 0 0 0 0 10.178392058960526 -48.82167683368607 0 -48.82167683368607 146.57397405480151 0 0 0 0 46.670050791344693 -43.816532798693515 0 -43.816532798693515 36.907502740570635 0 0 0 0 -17.116052949771984 -0.32286352959636133 0 -0.32286352959636133 77.206965971679892 0 0 0 0 -79.569852465068834 -80.901228892376821 0 -80.901228892376821 20.075355211010901 0 0 0 0 -38.979675614323696 -36.765921797730698 0 -36.765921797730698 182.15376961998118 0 0 0 0 -19.418994589099384 -9.7660779631696641 0 -9.7660779631696641 154.87109363638956 0 0 0 0 -21.174695494185471 -55.587672863066473 0 -55.587672863066473 277.45630088938924 0 0 0 0 -30.091172412290689 95.78638522815163 0 95.78638522815163 326.27288121572383 0 0 0 0 -21.625002121137186 61.909497407395975 0 61.909497407395975 213.00949271036188 0 0 0 0 -41.628321137196508 64.674814963595054 0 64.674814963595054 242.79551949282177 0 0 0 0 -30.836021255765445 107.73734374725973 0 107.73734374725973 289.59777304984163 0 0 0 0 -27.331113596122123 153.0303394525672 0 153.0303394525672 542.66274979086302 0 0 0 0 114.72335350653134 -218.69688253187041 0 -218.69688253187041 673.73864473038702 0 0 0 0 14.716821448842893 -134.1043369534782 0 -134.1043369534782 461.27998865344853 0 0 0 0 -19.261159320303705 196.92718086441164 0 196.92718086441164 365.91801845717418 0 0 0 0 -11.09186824135395 335.28419079223931 0 335.28419079223931 1060.2571578586212 0 0 0 0 -232.83077884218255 408.51245002276482 0 408.51245002276482 1514.2341334408266 0 0 0 0 395.38195996781269 690.24375826379401 0 690.24375826379401 513.44759933913156 0 0 0 0 -109.3404657360652 -1.621089043081156 0 -1.621089043081156 103.46719112883147 0 0 0 0 0.18343076837871108 4.5809287460848456 0 4.5809287460848456 37.726794631648971 0 0 0 0 -14.341339788576079 26.049734734173398 0 26.049734734173398 47.513757319531578 0 0 0 0 -13.060343437392476 31.842326335785401 0 31.842326335785401 69.916596181603381 0 0 0 0 -52.651731839530839 23.70663088348374 0 23.70663088348374 101.42235756615992 0 0 0 0 -72.44464670583875 -13.647772404772695 0 -13.647772404772695 48.196906192832103 0 0 0 0 -68.663373757382942 4.9791071332729189 0 4.9791071332729189 93.415503888736566 0 0 0 0 -88.652616468660653 17.780448017569142 0 17.780448017569142 115.50987315454404 0 0 0 0 -52.741295745998286 43.943466662647552 0 43.943466662647552 183.15805605669448 0 0 0 0 -59.413908884764169 -61.710068730306375 0 -61.710068730306375 66.183844567298365 0 0 0 0 -59.958582853899316 -74.567519900527259 0 -74.567519900527259 173.04762129129085 0 0 0 0 688.64427823135975 213.48161201284893 0 213.48161201284893 -364.08438622212998 0 0 0 0 95.895106506195589 122.34331512177596 0 122.34331512177596 -336.76721623963385 0 0 0 0 4.4498326173364369 6.1039793883906697 0 6.1039793883906697 7.0858100952762015 0 0 0 0 0.81556076489781137 3.0231477183064692 0 3.0231477183064692 13.310309174698432 0 0 0 0 184.53048582242866 -309.52868839435814 0 -309.52868839435814 289.36583679804608 0 0 0 0 -327.21214050520575 -134.2833111161417 0 -134.2833111161417 756.17636808524549 0 0 0 0 497.35743527822751 526.38990806519723 0 526.38990806519723 -419.97490164779811 0 0 0 0 15.600218212513882 9.5832614544552683 0 9.5832614544552683 8.8933697707189054 0 0 0 0 0.60659840321171288 -2.1629200443171328 0 -2.1629200443171328 23.012496511293278 0 0 0 0 -7.5127410573022644 -566.23085380513294 0 -566.23085380513294 163.02505429169105 0 0 0 0 11.905048829186626 17.627189093754168 0 17.627189093754168 21.509949789498933 0 0 0 0 4.6025203727333768 10.336602244292557 0 10.336602244292557 26.109800146308061 0 0 0 0 -350.12402360861097 524.93365408192039 0 524.93365408192039 478.18164634949062 0 0 0 0 -0.65017553541019879 14.454812100175332 0 14.454812100175332 25.580465997110878 0 0 0 0 5.2751924991562191 -24.813519754319714 0 -24.813519754319714 29.296820966636005 0 0 0 0 -23.73892932826675 -16.242701440205565 0 -16.242701440205565 58.354949118220247 0 0 0 0 -18.676700355948014 -10.822955656089107 0 -10.822955656089107 54.445374324219301 0 0 0 0 -0.64748025436161072 -2.3909717552877794 0 -2.3909717552877794 41.462143416673314 0 0 0 0 8.8867036949715974 17.153131369708415 0 17.153131369708415 38.428443493319151 0 0 0 0 11.189468378088804 20.89719428776516 0 20.89719428776516 6.7703105887485435 0 0 0 0 -7.1718196876277034 51.250299947432723 0 51.250299947432723 88.984215172255062 0 0 0 0 15.37527816061538 1.50870227694395 0 1.50870227694395 -4.5902722937498766 0 0 0 0 -3.0690447603792563 -2.4360056539953803 0 -2.4360056539953803 51.406880922724667 0 0 0 0 16.423551715967847 -4.6294726871374223 0 -4.6294726871374223 31.275776128546568 0 0 0 0 2.2110005525306793 -0.50119529365029791 0 -0.50119529365029791 7.9107153785144817 0 0 0 0 4.4164297311367591 5.0758239060087362 0 5.0758239060087362 41.898662468171096 0 0 0 0 3.4429321518134657 -1.7085333140585135 0 -1.7085333140585135 75.689191730853054 0 0 0 0 1.8963844423492446 5.2420107951038517 0 5.2420107951038517 162.90113792451302 0 0 0 0 31.102133326092371 -21.55213827163243 0 -21.55213827163243 14.95775670590956 0 0 0 0 -9.5967049339306953 121.55368386192004 0 121.55368386192004 80.537095127889188 0 0 0 0 2.6831405943211903 -0.42451839731566565 0 -0.42451839731566565 -1.3951369876901509 0 0 0 0 107.73800650678626 33.212839382181983 0 33.212839382181983 53.434110077563673 0 0 0 0 102.66392750576807 -70.787276395356571 0 -70.787276395356571 -29.934559514498687 0 0 0 0 9.2692031515307463 2.3777461311401566 0 2.3777461311401566 25.991921839100542 0 0 0 0 6.0240271719819525 -6.8846159672417002 0 -6.8846159672417002 15.631163913220774 0 0 0 0 29.606731672962837 -93.094651791911019 0 -93.094651791911019 17.036742285665241 0 0 0 0 14.96097236350397 4.9520554401970003 0 4.9520554401970003 20.706074309564428 0 0 0 0 -21.017007060156175 -64.190542383526918 0 -64.190542383526918 129.97051097266376 0 0 0 0 -44.493525532247077 -20.011673373533995 0 -20.011673373533995 48.297109970764723 0 0 0 0 -39.098902642079338 9.2433724135917146 0 9.2433724135917146 49.477749726385809 0 0 0 0 20.701758607317061 5.0959397630213061 0 5.0959397630213061 34.520024871395435 0 0 0 0 -9.2642546201323057 -12.951031212985981 0 -12.951031212985981 37.072052431496559 0 0 0 0 26.064119283010768 34.295337873263634 0 34.295337873263634 37.328158332471503 0 0 0 0 11.507208337142401 36.441699744253128 0 36.441699744253128 71.665499581282347 0 0 0 0 4.7057295599506688 22.760395140718174 0 22.760395140718174 47.91055621652049 0 0 0 0 -9.146974677199978 24.875388640910387 0 24.875388640910387 46.042074695360498 0 0 0 0 -12.546635136400255 -30.879653272510041 0 -30.879653272510041 -8.0424778836222686 0 0 0 0 20.263020003827933 10.719802290605003 0 10.719802290605003 16.743677164806286 0 0 0 0 9.9662486742790861 24.741843413248716 0 24.741843413248716 44.408818356914708 0 0 0 0 -0.62225032419542181 -0.98838192299892569 0 -0.98838192299892569 0.90340871937246447 0 0 0 0 -44.350596571712686 59.569115885575684 0 59.569115885575684 -47.635628218609781 0 0 0 0 3.8896768468386922 -6.9127303250263026 0 -6.9127303250263026 9.2053531104158992 0 0 0 0 17.56222925352813 8.1223318119882606 0 8.1223318119882606 6.828904248150593 0 0 0 0 22.19186455056456 3.5344419266766636 0 3.5344419266766636 6.6915163655498873 0 0 0 0 2.27154830706246 -2.4365608218804482 0 -2.4365608218804482 28.88577838758647 0 0 0 0 3.367088009088036 2.9709049857701757 0 2.9709049857701757 20.729802570713218 0 0 0 0 5.2236224022053648 -4.779561965384346 0 -4.779561965384346 30.72302337938163 0 0 0 0 26.937043718742643 0.97533986024791375 0 0.97533986024791375 12.249615875713062 0 0 0 0 14.948244669615633 -5.8088904900359921 0 -5.8088904900359921 27.352790058444953 0 0 0 0 10.127990052364112 16.202356359790429 0 16.202356359790429 41.330320730657149 0 0 0 0 2.5084517692712325 22.439888193079241 0 22.439888193079241 57.120121033640316 0 0 0 0 -0.10915905666592884 -1.3914426814293677 0 -1.3914426814293677 1.2716465860801094 0 0 0 0 1.547930587722476 8.6611675726890098 0 8.6611675726890098 64.371558322367491 0 0 0 0 5.5618434868947588 14.029681313674701 0 14.029681313674701 48.432098303746898 0 0 0 0 8.9519059860685957 23.247976077625935 0 23.247976077625935 47.934829057398019 0 0 0 0 -3.162618023817231 15.937695886579604 0 15.937695886579604 48.894277923584013 0 0 0 0 -11.472713329115518 -5.4247338235051075 0 -5.4247338235051075 23.515319939960563 0 0 0 0 -3.824987404892795 2.638671866897198 0 2.638671866897198 38.820060280879261 0 0 0 0 -3.3203233916228783 -10.842161296990525 0 -10.842161296990525 35.780268008691564 0 0 0 0 3.5914412662218638 8.4431523293569626 0 8.4431523293569626 29.817143496315111 0 0 0 0 -9.4328434515314683 -4.0665538064602771 0 -4.0665538064602771 22.969298474286774 0 0 0 0 41.056230551364933 37.247300889095641 0 37.247300889095641 27.0101924368646 0 0 0 0 12.758852881417624 -10.531461533453694 0 -10.531461533453694 7.9330676060344558 0 0 0 0 42.81131271874527 19.924421568620573 0 19.924421568620573 -4.3098485556693049 0 0 0 0 22.450121438504766 9.8474514098998043 0 9.8474514098998043 34.325759794475744 0 0 0 0 -23.996416844085388 16.462186983546417 0 16.462186983546417 17.294628202973399 0 0 0 0 -24.640049814641316 15.141666087278281 0 15.141666087278281 15.855258102201333 0 0 0 0 -1.3263541013576301 -1.3015196918777008 0 -1.3015196918777008 -0.034077532012112499 0 0 0 0 21.409415679208905 0.69870902989350725 0 0.69870902989350725 -23.264735093915078 0 0 0 0 5.8620795133192587 3.0382737283507595 0 3.0382737283507595 32.730960386841616 0 0 0 0 1.2981276763862297 15.845230235649069 0 15.845230235649069 45.210072641886654 0 0 0 0 -25.097415145708965 28.329936023921618 0 28.329936023921618 62.323567917010223 0 0 0 0 25.561441585331977 43.432530186983058 0 43.432530186983058 58.9764726789017 0 0 0 0 5.6777912568841202 9.7982489573914791 0 9.7982489573914791 51.454451663026703 0 0 0 0 -10.912429027919419 -5.6614803472455577 0 -5.6614803472455577 24.357233544390084 0 0 0 0 8.4838936741616635 26.20654245411788 0 26.20654245411788 60.864208867220441 0 0 0 0 2.8462520643538483 6.0761775385208239 0 6.0761775385208239 43.560033499699784 0 0 0 0 0.32335236722656191 11.599065575159329 0 11.599065575159329 52.835873605916277 0 0 0 0 -0.75459201308513002 12.299414609788073 0 12.299414609788073 55.800213360635098 0 0 0 0 4.4199891489261063 12.723851475057018 0 12.723851475057018 46.245306564446764 0 0 0 0 6.2553441258642124 14.330301750196668 0 14.330301750196668 48.855637982040207 0 0 0 0 -0.19035816603582134 14.797415702665148 0 14.797415702665148 52.764134271164949 0 0 0 0 -2.7333805953030605 14.677017221089045 0 14.677017221089045 50.622451078401355 0 0 0 0 0.31473780982423705 12.353183544644708 0 12.353183544644708 36.957356089733366 0 0 0 0 -6.1182582617288972 9.9665323074314074 0 9.9665323074314074 46.839414387410216 0 0 0 0 -2.0615604765813949 1.046945280556514 0 1.046945280556514 4.4234909954901127 0 0 0 0 1.851842887618659 14.72801026840898 0 14.72801026840898 10.364191929500521 0 0 0 0 0.64024801154431188 4.7230765120113887 0 4.7230765120113887 3.7132543574057877 0 0 0 0 1.566599686488189 5.0196632292863796 0 5.0196632292863796 31.039952548326255 0 0 0 0 -3.9474013496901534 5.1094986685275217 0 5.1094986685275217 42.952143744638306 0 0 0 0 0.80814417459600918 21.276398769734442 0 21.276398769734442 9.9444019688380649 0 0 0 0 -8.0513010130639486 12.267959727869311 0 12.267959727869311 10.150505856363452 0 0 0 0 -5.0705870846454673 131.46854388117936 0 131.46854388117936 131.79996169226069 0 0 0 0 -23.210746200850735 8.3069779676516191 0 8.3069779676516191 13.731080409052083 0 0 0 0 5.4485608766603946 153.25572004762944 0 153.25572004762944 176.92298051943362 0 0 0 0 -0.48777876026695388 0.42732309069603502 0 0.42732309069603502 0.44100755920635493 0 0 0 0 100.12917576404175 197.22455044193612 0 197.22455044193612 117.65285622791998 0 0 0 0 31.737522342410557 168.42710321826598 0 168.42710321826598 105.61494878815574 0 0 0 0 -17.777490698657857 126.92086249454587 0 126.92086249454587 254.33163663057348 0 0 0 0 251.32935381586321 259.229268232506 0 259.229268232506 172.50283305427365 0 0 0 0 55.686485245598305 85.862318592277006 0 85.862318592277006 55.020641764298489 0 0 0 0 105.70580523924173 75.668300003959303 0 75.668300003959303 35.770056403387571 0 0 0 0 -12.512175575513311 18.890635930179997 0 18.890635930179997 15.482023348973598 0 0 0 0 -26.557904878655336 13.410787039669231 0 13.410787039669231 16.565718551459213 0 0 0 0 11.838853950064504 -24.487160332324493 0 -24.487160332324493 19.863190690550255 0 0 0 0 -25.829059920099553 14.723134286505228 0 14.723134286505228 17.918753294477938 0 0 0 0 11.46932970132012 8.1052999073329488 0 8.1052999073329488 5.1479044672257288 0 0 0 0 -276.55124835765105 140.76880212154447 0 140.76880212154447 187.41003090149025 0 0 0 0 -51.623673026471806 -88.802588905287848 0 -88.802588905287848 352.29713027550315 0 0 0 0 164.36691906215856 57.12071984292561 0 57.12071984292561 -21.492415525428441 0 0 0 0 3.8957823704793331 2.6912463631144163 0 2.6912463631144163 2.4302943209880254 0 0 0 0 -42.321369970565399 -157.62276124332016 0 -157.62276124332016 638.10970906286093 0 0 0 0 -34.195452431990361 104.07094510900606 0 104.07094510900606 598.51740819662518 0 0 0 0 -71.663922618499782 -31.381421005797165 0 -31.381421005797165 392.76087297014237 0 0 0 0 -13.999034806880445 56.806466336252925 0 56.806466336252925 183.86076884849899 0 0 0 0 4.585280363387028 50.174399951305531 0 50.174399951305531 86.011275708660833 0 0 0 0 4.5173039168089701 49.715318640068631 0 49.715318640068631 179.10868430920527 0 0 0 0 76.653858339675935 103.33995304272685 0 103.33995304272685 53.569794895520317 0 0 0 0 -71.479752236634795 30.117307009353681 0 30.117307009353681 184.54545010169386 0 0 0 0 96.264938649087981 73.505024840706028 0 73.505024840706028 -28.415420299395919 0 0 0 0 193.07455497344563 65.44362101371371 0 65.44362101371371 -44.040688448043511 0 0 0 0 117.57023247734151 -102.133592064185 0 -102.133592064185 44.197866138565587 0 0 0 0 -26.483116497354786 -71.930594511042727 0 -71.930594511042727 73.996435100096278 0 0 0 0 70.45379535386121 -133.52761908104731 0 -133.52761908104731 112.95369360307814 0 0 0 0 91.216898653334283 -34.930955399977393 0 -34.930955399977393 111.61116412845149 0 0 0 0 -60.310839767806101 24.254770368548634 0 24.254770368548634 263.99961302333395 0 0 0 0 8.4170648882445107 63.924750034675981 0 63.924750034675981 158.55224762904982 0 0 0 0 7.6390735858483936 69.319904545246118 0 69.319904545246118 641.14659827171999 0 0 0 0 301.43642207947596 192.26024403120755 0 192.26024403120755 206.0997689488122 0 0 0 0 301.3044812292901 -177.15274591528578 0 -177.15274591528578 207.44706965813384 0 0 0 0 -44.762672938582 -30.73447950228001 0 -30.73447950228001 51.830442042672075 0 0 0 0 0.41348390471701535 -4.201730571783898 0 -4.201730571783898 43.952524517737629 0 0 0 0 -63.259766649786798 -45.263421229537926 0 -45.263421229537926 54.494759469467681 0 0 0 0 -95.522435965558543 -41.874436500002048 0 -41.874436500002048 63.253890430351021 0 0 0 0 -216.03859674127671 -1.5109676783067698 0 -1.5109676783067698 125.0490151839258 0 0 0 0 -83.439931198319755 -56.448457718492136 0 -56.448457718492136 94.938298197753284 0 0 0 0 -22.891760908303468 -91.256587477987068 0 -91.256587477987068 34.091444991863682 0 0 0 0 -65.45475642470592 -23.082119387065177 0 -23.082119387065177 56.352474302795599 0 0 0 0 -58.681147384255382 -2.082082420529332 0 -2.082082420529332 53.878385868680198 0 0 0 0 -57.99882425607575 -6.6555450291343732 0 -6.6555450291343732 67.584190481349651 0 0 0 0 -49.360245055132509 3.0442677456012461 0 3.0442677456012461 69.882617633702466 0 0 0 0 -48.427141223733997 2.6639139673643513 0 2.6639139673643513 68.066100440573791 0 0 0 0 -24.447160703950431 19.392427655555366 0 19.392427655555366 65.920932495529996 0 0 0 0 -53.172208908206585 21.746102243143469 0 21.746102243143469 80.931346030833083 0 0 0 0 -61.933475790399825 -14.46534571457596 0 -14.46534571457596 77.050788604137779 0 0 0 0 -67.515254878145242 -8.017514796116302 0 -8.017514796116302 69.618203252000967 0 0 0 0 1.5380760126739133 10.406636642199921 0 10.406636642199921 72.235683558407118 0 0 0 0 -0.75464117289588728 8.8910990480726468 0 8.8910990480726468 81.035699839267181 0 0 0 0 -12.755152361523415 5.3340695298247738 0 5.3340695298247738 58.780142028976115 0 0 0 0 1.0175391394487643 8.24313890449789 0 8.24313890449789 47.139243636530125 0 0 0 0 -22.065044397018823 -4.0910284103520098 0 -4.0910284103520098 73.932298734769574 0 0 0 0 6.8076899503183839 14.801086339424728 0 14.801086339424728 48.398652091651456 0 0 0 0 -139.39055213881511 -19.675059142413375 0 -19.675059142413375 56.875062872073613 0 0 0 0 -0.43687791900367889 3.1568370550297473 0 3.1568370550297473 44.26208295676426 0 0 0 0 -104.75456182884045 -27.996546375739854 0 -27.996546375739854 72.985555885570648 0 0 0 0 -83.140045806336275 11.751747539718053 0 11.751747539718053 83.006032139413946 0 0 0 0 -131.18132305997278 -5.7884272025112296 0 -5.7884272025112296 79.210245821392164 0 0 0 0 -84.902438798283583 -24.148259055356903 0 -24.148259055356903 32.177458346239291 0 0 0 0 -1.3327166430667603 24.074098444478295 0 24.074098444478295 -17.746508072712459 0 0 0 0 -77.895524202305751 -1.8422676544287242 0 -1.8422676544287242 -60.511599170044065 0 0 0 0 -114.81391132392309 -31.781932565485477 0 -31.781932565485477 34.059421015437692 0 0 0 0 -117.25514695695892 -48.295254413460498 0 -48.295254413460498 -38.660003181110369 0 0 0 0 -72.985726199669443 -12.977724653668702 0 -12.977724653668702 -90.518394782324322 0 0 0 0 -208.05487637732949 110.53640988782718 0 110.53640988782718 -31.136422513154685 0 0 0 0 -3.3926034564523349 19.134245178443962 0 19.134245178443962 64.273954052344379 0 0 0 0 -8.1051966981426133 15.265863344517129 0 15.265863344517129 64.751102582929889 0 0 0 0 -134.71780223600717 -67.733892457290494 0 -67.733892457290494 264.76368618069682 0 0 0 0 -12.85094426082992 13.770048011770996 0 13.770048011770996 84.648280198904104 0 0 0 0 -405.4316709795421 64.860635583776457 0 64.860635583776457 211.52458163132542 0 0 0 0 -50.392241500890123 -0.039243720708327601 0 -0.039243720708327601 92.36925384902861 0 0 0 0 0.21130907448366376 8.2522584401294736 0 8.2522584401294736 78.838889435747774 0 0 0 0 -0.5895374674920526 3.7508919564712215 0 3.7508919564712215 27.89969361280464 0 0 0 0 -370.04854884918859 -51.653386546298862 0 -51.653386546298862 302.40415461870725 0 0 0 0 -375.65601580058683 -77.538756383917644 0 -77.538756383917644 208.46625863813097 0 0 0 0 -177.50880783226262 -125.98939477581189 0 -125.98939477581189 178.69128412619466 0 0 0 0 0.26304236739231035 -2.342638294048534 0 -2.342638294048534 25.269706478768541 0 0 0 0 -78.156096666193378 107.53404886748876 0 107.53404886748876 123.35048861977702 0 0 0 0 73.761422162355302 -34.591157595565164 0 -34.591157595565164 -29.410499420009728 0 0 0 0 -76.967155239222848 8.1701829839730635 0 8.1701829839730635 37.885816295442055 0 0 0 0 -10.2510902528511 103.79214116602816 0 103.79214116602816 59.638126687304975 0 0 0 0 69.710687012501694 148.01476050687052 0 148.01476050687052 75.373089848289965 0 0 0 0 39.310857382291942 184.47087426148209 0 184.47087426148209 139.52438334989711 0 0 0 0 -44.667336273894762 14.336011895873526 0 14.336011895873526 86.54020043791752 0 0 0 0 -190.71274624964462 315.67527109207003 0 315.67527109207003 625.32715302755241 0 0 0 0 0.4600611904288372 -0.45378074660974477 0 -0.45378074660974477 7.86397218840753 0 0 0 0 144.5425914158559 145.30682588048512 0 145.30682588048512 -153.8603445728877 0 0 0 0 452.17562178556454 365.19398622851804 0 365.19398622851804 174.11431131870631 0 0 0 0 41.752765412763438 -98.301201439891884 0 -98.301201439891884 -574.78082445746986 0 0 0 0 161.18388389876804 503.65722547779842 0 503.65722547779842 763.96026033349335 0 0 0 0 1548.6967644891411 -848.58360647906375 0 -848.58360647906375 -854.95203581431997 0 0 0 0 3.4087056324229721 23.976309855387299 0 23.976309855387299 17.878891048240405 0 0 0 0 445.34265613340904 51.520128179847234 0 51.520128179847234 -325.87689612114627 0 0 0 0 -140.98143690967754 -239.72443606081288 0 -239.72443606081288 469.98385210814013 0 0 0 0 -562.13442124633366 137.55980894491222 0 137.55980894491222 165.44384675881884 0 0 0 0 164.94999502187329 343.82644040625746 0 343.82644040625746 -604.82963905166253 0 0 0 0 13.717484715431558 16.400908109945078 0 16.400908109945078 -4.7729471552795957 0 0 0 0 -129.90835137187378 -5.0222692229617678 0 -5.0222692229617678 114.12428142085264 0 0 0 0 -219.69646390882735 -297.84687544943881 0 -297.84687544943881 -219.42876557702039 0 0 0 0 7.6420811871466867 20.816868789133878 0 20.816868789133878 62.378451114758718 0 0 0 0 -9.204442529246359 2.9662706249688426 0 2.9662706249688426 35.556958137291588 0 0 0 0 8.9785279137736325 23.292446874515008 0 23.292446874515008 56.530635642659036 0 0 0 0 -1.4775334996684251 17.141646861109621 0 17.141646861109621 62.232970481651137 0 0 0 0 0.13714257213632663 27.25999041128307 0 27.25999041128307 77.447245566654601 0 0 0 0 3.2743288963457644 18.965968850703412 0 18.965968850703412 63.021070847160672 0 0 0 0 -6.5221526031141055 2.7361545257829931 0 2.7361545257829931 45.158979196082242 0 0 0 0 7.3638518419709271 13.174103324341559 0 13.174103324341559 41.316360557684675 0 0 0 0 -9.8824524298870529 2.1243182900434476 0 2.1243182900434476 47.534152072363213 0 0 0 0 -24.937780952656666 108.33859757309983 0 108.33859757309983 225.20073546077765 0 0 0 0 -8.7136411748861065 -57.626663611707045 0 -57.626663611707045 279.47522136543557 0 0 0 0 -39.316886926838833 -15.542340495361714 0 -15.542340495361714 69.57295064423397 0 0 0 0 -35.773498014937331 12.99183669451304 0 12.99183669451304 149.22687878462602 0 0 0 0 -46.461198182568296 88.002392769602011 0 88.002392769602011 81.904988946102094 0 0 0 0 -3.9511303356117065 7.9852972513806151 0 7.9852972513806151 23.321262097391084 0 0 0 0 -7.1420839553326232 77.814559538914182 0 77.814559538914182 15.036963793769246 0 0 0 0 0.1934250969334812 15.915835013034666 0 15.915835013034666 93.309422347476357 0 0 0 0 -12.920243682891893 11.900848466335447 0 11.900848466335447 95.449747604550794 0 0 0 0 0.014971378898803289 19.925601674582889 0 19.925601674582889 103.1477693367529 0 0 0 0 -711.90610611410534 -450.35251679692738 0 -450.35251679692738 943.0733659312682 0 0 0 0 -5.1462562964329095 29.969196146492322 0 29.969196146492322 117.41001468273316 0 0 0 0 -11.494466264806192 16.28595636463433 0 16.28595636463433 101.34832861411996 0 0 0 0 98.127421839017188 70.079725788949872 0 70.079725788949872 -308.58335988409817 0 0 0 0 -1.0158041443061787 -0.26954143540996967 0 -0.26954143540996967 10.94449431469468 0 0 0 0 -5.3400613734225431 18.350262227999337 0 18.350262227999337 85.893622178307851 0 0 0 0 -13.941444063514155 14.537892574837315 0 14.537892574837315 88.659941817884828 0 0 0 0 -0.80878718488931867 20.970616513357527 0 20.970616513357527 89.776130475227546 0 0 0 0 -19.721473743814929 30.151954427352848 0 30.151954427352848 90.318326604159665 0 0 0 0 0.026089445971081204 15.569183324500045 0 15.569183324500045 78.941502115267213 0 0 0 0 -18.718906958735552 15.584882441830814 0 15.584882441830814 97.346107852412388 0 0 0 0 -37.276529533356978 36.14619616138225 0 36.14619616138225 87.446985986975051 0 0 0 0 -24.653165145055326 14.09889033469517 0 14.09889033469517 118.33777288977581 0 0 0 0 -1.545624099433252 0.71077769265644974 0 0.71077769265644974 -1.610185438927914 0 0 0 0 220.8852935391335 66.615267849134398 0 66.615267849134398 -160.69025320158107 0 0 0 0 -12.651718114454198 43.563432928593102 0 43.563432928593102 27.925332438695477 0 0 0 0 -8.1964010454104539 -70.547350237960927 0 -70.547350237960927 -3.3130803947206005 0 0 0 0 -11.354959414616602 -17.537867223454668 0 -17.537867223454668 165.39048970384465 0 0 0 0 -79.57542756247949 -13.716691266425187 0 -13.716691266425187 167.073272842601 0 0 0 0 -80.558693101276077 25.144310724848765 0 25.144310724848765 357.40497968846466 0 0 0 0 -93.115626470148584 -153.71030323240848 0 -153.71030323240848 255.56653300946346 0 0 0 0 6.1170571886847256 -3.2804535922623472 0 -3.2804535922623472 138.50208317772194 0 0 0 0 27.007370219719171 14.351203372658347 0 14.351203372658347 150.75200322109595 0 0 0 0 -1.2600911468055926 -0.15360894192417618 0 -0.15360894192417618 147.0290469793963 0 0 0 0 2.5688040110753541 16.545874547802669 0 16.545874547802669 144.89786951499445 0 0 0 0 -0.053323073364396123 19.262015526765026 0 19.262015526765026 102.00131446234991 0 0 0 0 -4.506941319049707 -5.6348605655803112 0 -5.6348605655803112 97.215012596250745 0 0 0 0 0.01369062630212183 18.505646056135447 0 18.505646056135447 109.84782839518448 0 0 0 0 8.5832557172160548 17.886868032197526 0 17.886868032197526 99.694228866312187 0 0 0 0 8.4004610185392075 22.753679837334857 0 22.753679837334857 87.260750398927485 0 0 0 0 2.5185640372556861 28.474496933224145 0 28.474496933224145 93.99381070031086 0 0 0 0 2.6257878921213686 27.072209486399515 0 27.072209486399515 98.116874181228923 0 0 0 0 0.090140156819974643 24.553343225583376 0 24.553343225583376 95.907555459452851 0 0 0 0 19.214265601116637 53.205722082995635 0 53.205722082995635 110.00898690008398 0 0 0 0 -0.063660222419647375 0.001537524705412352 0 0.001537524705412352 0.27509458032767498 0 0 0 0 0.02681556360183749 6.2740930157041159 0 6.2740930157041159 25.434384161097114 0 0 0 0 12.643000047045934 30.475005386346311 0 30.475005386346311 67.305272049823543 0 0 0 0 -5.4616387171960668 26.990738867942127 0 26.990738867942127 93.904830405059329 0 0 0 0 -8.8350307347570052 18.495657932788163 0 18.495657932788163 72.529333059384953 0 0 0 0 -10.843575282537316 18.09694063608913 0 18.09694063608913 87.058184255514789 0 0 0 0 -0.15687904879286826 -0.09938243316611306 0 -0.09938243316611306 0.44671907532460864 0 0 0 0 2.0149655332111323 21.893897005855251 0 21.893897005855251 60.946199614387297 0 0 0 0 -0.045396610391321701 28.065628913820547 0 28.065628913820547 64.264148436737742 0 0 0 0 -1.0185059540834089 14.62730352646031 0 14.62730352646031 27.660319107890246 0 0 0 0 -12.785502700097027 -17.547717870285851 0 -17.547717870285851 28.709181277634343 0 0 0 0 -0.053365576977979556 -0.046111009557421312 0 -0.046111009557421312 0.24668048223207961 0 0 0 0 13.955826486722877 44.477416218418512 0 44.477416218418512 100.99632243717497 0 0 0 0 7.2614700548464768 10.794833724077762 0 10.794833724077762 96.085587234148989 0 0 0 0 19.512918798550682 31.241527254893299 0 31.241527254893299 55.225351636501728 0 0 0 0 -0.33365640457581947 11.999613727795804 0 11.999613727795804 73.231930793408537 0 0 0 0 0.14614418475646218 15.326164399382833 0 15.326164399382833 57.955770565447892 0 0 0 0 -2.1835189350662803 11.44383704347274 0 11.44383704347274 53.36602570967807 0 0 0 0 -0.011052202372367755 10.953045198024483 0 10.953045198024483 52.970653433607367 0 0 0 0 7.9268805601039283 19.337971907774772 0 19.337971907774772 33.839474302429153 0 0 0 0 7.9516463238666848 18.769101986312307 0 18.769101986312307 45.8823648849866 0 0 0 0 -125.99887119124469 95.238981583164559 0 95.238981583164559 58.586497689203895 0 0 0 0 6.464457819541277 15.908745304972525 0 15.908745304972525 29.369409681004225 0 0 0 0 -85.575680989512875 45.55596242661818 0 45.55596242661818 174.15881616073057 0 0 0 0 43.604585683502592 -62.990474034895897 0 -62.990474034895897 111.86167363338541 0 0 0 0 -35.443964927422712 -52.463834084881455 0 -52.463834084881455 153.60435543649874 0 0 0 0 -34.010794513684232 -31.10606372607117 0 -31.10606372607117 66.961317959282496 0 0 0 0 -27.976980726078182 4.5409786212658219 0 4.5409786212658219 127.46823611329637 0 0 0 0 -47.264422675351852 -2.2511836181812441 0 -2.2511836181812441 142.46852212275689 0 0 0 0 -117.57438103589993 800.16003932821832 0 800.16003932821832 -620.06970333615629 0 0 0 0 9.3247220430825912 15.335861654254883 0 15.335861654254883 22.18880991817786 0 0 0 0 1.0639897506221132 -41.344116656794768 0 -41.344116656794768 -105.39034384059232 0 0 0 0 178.81338771668197 -82.489519304270743 0 -82.489519304270743 -201.6120682978119 0 0 0 0 254.07064102458298 -321.32873444656911 0 -321.32873444656911 -55.094536283783782 0 0 0 0 345.5195389704113 -701.29662820287103 0 -701.29662820287103 1041.7386805292899 0 0 0 0 -591.3028977555532 -385.32670861987208 0 -385.32670861987208 2233.7389580888002 0 0 0 0 1342.6719909554631 -91.914595854939762 0 -91.914595854939762 -1179.6631847208173 0 0 0 0 0.69416199347232277 1.0958655048386063 0 1.0958655048386063 19.095405758990495 0 0 0 0 666.8276259602444 -393.11208273214629 0 -393.11208273214629 -121.34976390820793 0 0 0 0 466.68846541598214 397.43159441355419 0 397.43159441355419 412.38358048056398 0 0 0 0 36.541225453202628 110.47214912473413 0 110.47214912473413 412.44654379578424 0 0 0 0 42.042304096652515 179.31606460171315 0 179.31606460171315 1243.5950625778416 0 0 0 0 245.07294587838032 265.74960646470618 0 265.74960646470618 202.79768165949645 0 0 0 0 273.55197625416326 93.37532018462116 0 93.37532018462116 23.657045453430328 0 0 0 0 90.59488450540448 -23.838994749523408 0 -23.838994749523408 36.413616235655127 0 0 0 0 175.89484316409471 92.973529713706739 0 92.973529713706739 80.979866571899038 0 0 0 0 101.18932653430966 120.63903870194372 0 120.63903870194372 152.53866855660544 0 0 0 0 182.12457709294176 -139.8467939293804 0 -139.8467939293804 145.66988705689755 0 0 0 0 -146.01130308820939 -330.1794902448907 0 -330.1794902448907 316.51369697133168 0 0 0 0 -109.51327146412586 -409.76592833150846 0 -409.76592833150846 432.31009501456629 0 0 0 0 -609.89554809633159 532.30930404334549 0 532.30930404334549 168.89317534443398 0 0 0 0 -203.26651725122792 159.18502098668364 0 159.18502098668364 3.934841883997791 0 0 0 0 -68.529311163133571 16.462664207511921 0 16.462664207511921 -12.09654111979853 0 0 0 0 2.4455809549926251 9.4285622712702928 0 9.4285622712702928 21.923067818304091 0 0 0 0 -142.96298981616201 -18.965736836495864 0 -18.965736836495864 27.745209157736554 0 0 0 0 11.998727417454575 13.193709102403318 0 13.193709102403318 -51.819614279036159 0 0 0 0 49.252633588880599 -47.335237085717608 0 -47.335237085717608 44.57901222837836 0 0 0 0 23.785822737261697 106.88073632227224 0 106.88073632227224 365.9073693693399 0 0 0 0 50.163042335740101 -14.330797668454125 0 -14.330797668454125 -0.47382931076253954 0 0 0 0 47.064329514954807 -21.274125138543468 0 -21.274125138543468 -14.089293706062563 0 0 0 0 -62.632649889725599 24.560133985397272 0 24.560133985397272 494.97875281119286 0 0 0 0 71.51179489248625 63.149099289019432 0 63.149099289019432 122.82019043142054 0 0 0 0 6.1822651294833122 45.334862979195691 0 45.334862979195691 320.5057134288395 0 0 0 0 44.804043623825237 -56.208310414874859 0 -56.208310414874859 158.21355550972066 0 0 0 0 1.8940731794102703 1.6351316039412076 0 1.6351316039412076 1.4167379795401365 0 0 0 0 28.124263400038217 -44.913116151336908 0 -44.913116151336908 150.70115808759033 0 0 0 0 65.253107990885837 -44.925056005592069 0 -44.925056005592069 146.63584866175802 0 0 0 0 27.812369577230982 -45.120553652349614 0 -45.120553652349614 214.85331647538806 0 0 0 0 0.96614807181451567 0.67961607043106231 0 0.67961607043106231 0.61563293424653498 0 0 0 0 49.544423746659959 -9.1917548230405828 0 -9.1917548230405828 153.28013783891856 0 0 0 0 21.051276283478728 -33.369728761566932 0 -33.369728761566932 147.54758756796127 0 0 0 0 42.055163084678497 -24.092456515697222 0 -24.092456515697222 135.50193436821428 0 0 0 0 21.459430648166745 -33.587472129486287 0 -33.587472129486287 147.60897289711556 0 0 0 0 31.07799307605859 -2.6315213699397546 0 -2.6315213699397546 115.65914111344773 0 0 0 0 16.221025566422213 -2.8340629890249147 0 -2.8340629890249147 119.57302356501577 0 0 0 0 11.758503728569849 -31.495227104003789 0 -31.495227104003789 169.79356318797454 0 0 0 0 7.0738744796672108 -22.635091739221707 0 -22.635091739221707 155.0974781923087 0 0 0 0 37.506098368294261 -11.769124632446619 0 -11.769124632446619 120.75712149864421 0 0 0 0 32.070964105849271 16.703981095079371 0 16.703981095079371 87.210764851459317 0 0 0 0 67.087022631420041 -10.20104308879786 0 -10.20104308879786 105.45854458110261 0 0 0 0 57.223428253336351 15.214664558644245 0 15.214664558644245 64.894306651898205 0 0 0 0 53.375124042062453 9.5365802889743918 0 9.5365802889743918 74.791308278147881 0 0 0 0 68.989350541196472 7.050054147041692 0 7.050054147041692 31.523568417346269 0 0 0 0 37.008418441097888 13.056456876160652 0 13.056456876160652 45.277268738675957 0 0 0 0 37.720359778076329 26.079358729054611 0 26.079358729054611 59.201817982423563 0 0 0 0 64.854213141049513 -2.8582751513425819 0 -2.8582751513425819 63.572605323648531 0 0 0 0 19.85769356552737 24.738033025700474 0 24.738033025700474 37.19719625824564 0 0 0 0 1.4047308958547546 38.718963378766261 0 38.718963378766261 170.39379079718492 0 0 0 0 6.1738377617348306 29.885083170411235 0 29.885083170411235 92.669540074753741 0 0 0 0 -15.270097019536479 28.406411284373462 0 28.406411284373462 46.315283025778626 0 0 0 0 -13.207942470675704 -17.575305255203254 0 -17.575305255203254 32.745200281055531 0 0 0 0 2.7969766574733512 18.460605481753475 0 18.460605481753475 -38.149946907635695 0 0 0 0 -2.9329229217855755 -3.7629228567323025 0 -3.7629228567323025 -19.954872241906628 0 0 0 0 17.671739214052195 -40.491321274140432 0 -40.491321274140432 -33.492695374605773 0 0 0 0 6.6937561532638767 -7.1841927535555508 0 -7.1841927535555508 7.6554654989165067 0 0 0 0 42.930117062254979 -76.64097010400512 0 -76.64097010400512 61.568066271932821 0 0 0 0 41.311799201339454 -11.191049682140829 0 -11.191049682140829 -38.103133761631874 0 0 0 0 0.8069477118750612 -0.6906999659646722 0 -0.6906999659646722 0.67944394086641147 0 0 0 0 15.962924030271097 -35.328578448378266 0 -35.328578448378266 156.80121798122627 0 0 0 0 -61.587618184839812 84.788619613622359 0 84.788619613622359 178.02993829609204 0 0 0 0 8.7650558595727261 24.639461460956767 0 24.639461460956767 225.26558090665458 0 0 0 0 -39.240584875739842 -30.933691865979654 0 -30.933691865979654 175.57384320753999 0 0 0 0 19.746379748915388 -36.213881157445883 0 -36.213881157445883 156.71516700524535 0 0 0 0 13.344306848243832 -178.91019252646512 0 -178.91019252646512 753.53563457542896 0 0 0 0 5.0273810390181524 5.7957972995449865 0 5.7957972995449865 6.8140359696746966 0 0 0 0 280.35323694354884 112.09785041687286 0 112.09785041687286 -181.62231564250555 0 0 0 0 27.875228728144975 -101.16713978428606 0 -101.16713978428606 313.02878752799234 0 0 0 0 -26.707157201008158 -2.8713763239438777 0 -2.8713763239438777 141.56348114364778 0 0 0 0 -54.336107646605797 56.35457327673862 0 56.35457327673862 101.92957926421332 0 0 0 0 -100.83318861327643 170.00641480646982 0 170.00641480646982 469.19024226363263 0 0 0 0 35.197528299165697 152.72897588946955 0 152.72897588946955 48.129918304590319 0 0 0 0 -1.1181171590251324 -52.883810777054805 0 -52.883810777054805 -118.28398858480796 0 0 0 0 979.75011205745614 -25.084004529179083 0 -25.084004529179083 -732.95862547956222 0 0 0 0 361.04772885844795 405.62535006489225 0 405.62535006489225 457.30246514036048 0 0 0 0 310.91894727997351 -463.37786054328967 0 -463.37786054328967 -547.94276514834382 0 0 0 0 112.88620582576112 93.529723584089183 0 93.529723584089183 269.95804207988203 0 0 0 0 -19.935883725417199 -21.841413024564133 0 -21.841413024564133 68.491602875976085 0 0 0 0 20.022025685869206 -10.08538090163327 0 -10.08538090163327 39.176620460849009 0 0 0 0 -262.95035108269053 -32.845684202056248 0 -32.845684202056248 -26.69245056033833 0 0 0 0 -249.8318603934822 -157.86806409454766 0 -157.86806409454766 -39.776458471405022 0 0 0 0 10.100903283431762 -47.844763675189824 0 -47.844763675189824 -125.6628122146958 0 0 0 0 -74.663502844614413 170.07134690268003 0 170.07134690268003 -22.624494093862268 0 0 0 0 71.32835567846611 29.22828132501548 0 29.22828132501548 268.38027281299901 0 0 0 0 -24.702125883153247 -20.815376530404542 0 -20.815376530404542 70.852073078092502 0 0 0 0 108.73156119391206 197.45045323008799 0 197.45045323008799 146.00662428864143 0 0 0 0 13.829296571698428 -13.734973734505905 0 -13.734973734505905 9.5047789125831539 0 0 0 0 31.026531491959759 39.030324069693961 0 39.030324069693961 146.51900586575357 0 0 0 0 55.200464124309292 25.944753957777721 0 25.944753957777721 49.822837241454181 0 0 0 0 47.196434762894569 33.482186590585115 0 33.482186590585115 151.7379103971416 0 0 0 0 63.962573922908632 77.531393425595525 0 77.531393425595525 148.62767101253132 0 0 0 0 99.753838988225652 58.966573764592795 0 58.966573764592795 163.85887070505851 0 0 0 0 34.766800200092803 59.596773987490451 0 59.596773987490451 131.91457232525863 0 0 0 0 52.834262243101307 31.312693673412014 0 31.312693673412014 15.073348948979401 0 0 0 0 2.5675475026936709 0.69545628222531519 0 0.69545628222531519 -2.3943043212319566 0 0 0 0 65.994195078323173 -56.180963199763937 0 -56.180963199763937 151.98722336545325 0 0 0 0 65.214576808684342 -66.159987044666195 0 -66.159987044666195 45.545750869438052 0 0 0 0 -6.6741957622570922 -111.0873397800467 0 -111.0873397800467 25.34894860474742 0 0 0 0 -11.877574897633167 -44.778209827294631 0 -44.778209827294631 70.534532890309492 0 0 0 0 17.12427541257648 -67.228060718332927 0 -67.228060718332927 109.28358514222055 0 0 0 0 10.048717752662924 6.8457880996138556 0 6.8457880996138556 127.45362646784633 0 0 0 0 62.136632847294095 -19.332781355806219 0 -19.332781355806219 138.1964568218973 0 0 0 0 127.47245784257757 17.456819537539559 0 17.456819537539559 146.77399929556327 0 0 0 0 56.594552669864697 -9.79738695593187 0 -9.79738695593187 175.31803207883058 0 0 0 0 141.50303046462614 -46.785927459948653 0 -46.785927459948653 242.41893479377904 0 0 0 0 27.935636868879556 27.016417098988313 0 27.016417098988313 268.81088884294149 0 0 0 0 111.28024388395306 -0.049091614444478182 0 -0.049091614444478182 170.5141361182832 0 0 0 0 6.5726808365616307 32.929614561875496 0 32.929614561875496 189.30966949915819 0 0 0 0 28.655388473256608 24.003114909828582 0 24.003114909828582 185.03778758049157 0 0 0 0 14.009262399201361 57.166829888776192 0 57.166829888776192 166.28663073671487 0 0 0 0 29.165075906727907 89.162411192293803 0 89.162411192293803 227.52958087178195 0 0 0 0 52.123398414878466 -10.650957708463466 0 -10.650957708463466 326.90292036610481 0 0 0 0 448.8373368743014 -253.22860368497641 0 -253.22860368497641 218.79990796561378 0 0 0 0 -11.378553927397373 -39.793671645156401 0 -39.793671645156401 95.644509549399586 0 0 0 0 42.352095968417416 115.65880505873429 0 115.65880505873429 278.76899796274301 0 0 0 0 175.21639688752111 193.23255350553052 0 193.23255350553052 102.78251524829182 0 0 0 0 -7.0902522673481663 -40.136371144701641 0 -40.136371144701641 89.677100009891859 0 0 0 0 -579.18618536752001 -379.3617486079238 0 -379.3617486079238 639.01859800122611 0 0 0 0 -99.61056600646225 331.1142304895875 0 331.1142304895875 360.20327046896773 0 0 0 0 178.55748081777506 54.704945999267466 0 54.704945999267466 164.08912588347812 0 0 0 0 1.4770806493199764 4.6672102239101108 0 4.6672102239101108 24.232651539025625 0 0 0 0 -92.156675745205575 36.750101392961369 0 36.750101392961369 93.518841072909709 0 0 0 0 -2.5044513054931103 -3.7991157673364278 0 -3.7991157673364278 55.768704383079893 0 0 0 0 27.645414410490048 35.133547628222004 0 35.133547628222004 78.238657953355869 0 0 0 0 -11.442550676376413 75.571454120174167 0 75.571454120174167 67.873281996072819 0 0 0 0 16.50995350138146 67.200312380104151 0 67.200312380104151 63.6696798543162 0 0 0 0 -10.98406432781394 -5.0262204970204039 0 -5.0262204970204039 73.789358665440886 0 0 0 0 -9.2157866834377273 -5.9996846250724047 0 -5.9996846250724047 32.156940101835062 0 0 0 0 -9.3501995152452757 -5.5415881023397588 0 -5.5415881023397588 37.342452810875699 0 0 0 0 -7.6317636429958817 8.4237708791195445 0 8.4237708791195445 32.62824728006143 0 0 0 0 -1.6099417155921856 -0.5830857186265348 0 -0.5830857186265348 53.152212636065087 0 0 0 0 -20.78785919336292 -42.605456303579558 0 -42.605456303579558 18.546175343371942 0 0 0 0 -15.46557662617613 7.593610040115891 0 7.593610040115891 128.02470178442672 0 0 0 0 -1.7713597272249597 -2.4151090872935157 0 -2.4151090872935157 12.056312811994765 0 0 0 0 6.5643320499466427 14.911838517098658 0 14.911838517098658 93.056338863634664 0 0 0 0 -5.0212690029271503 -4.4495426709343384 0 -4.4495426709343384 43.142412775458837 0 0 0 0 -40.845258126458759 -28.138864918075114 0 -28.138864918075114 42.850960081337689 0 0 0 0 -23.754571063372623 -29.632808872986061 0 -29.632808872986061 40.262012170151138 0 0 0 0 -7.5784723383947608 -42.770754474739078 0 -42.770754474739078 39.541178705097991 0 0 0 0 -26.806498310449115 -6.4602221372169879 0 -6.4602221372169879 85.34029746791748 0 0 0 0 -45.344324387558572 -18.564847131134229 0 -18.564847131134229 27.477545196863502 0 0 0 0 34.538933398877475 -67.697722400633211 0 -67.697722400633211 -114.52693537193409 0 0 0 0 25.477955950266278 -40.462560736814339 0 -40.462560736814339 -3.0423637924741342 0 0 0 0 -32.667310940577835 -18.785431851463727 0 -18.785431851463727 85.474634333288122 0 0 0 0 5.1250913347309499 -37.002267438552281 0 -37.002267438552281 94.21399197961 0 0 0 0 4.8980275988174498 9.9214841141763372 0 9.9214841141763372 136.50102511749719 0 0 0 0 -10.795832862100383 12.682392203420022 0 12.682392203420022 140.41423719043814 0 0 0 0 -15.328060950633926 31.660223960865551 0 31.660223960865551 177.61421175426221 0 0 0 0 15.418241811970347 56.746710617200733 0 56.746710617200733 161.82036493768646 0 0 0 0 -20.873897410245263 36.470315334623592 0 36.470315334623592 142.97672707244783 0 0 0 0 -12.978961084733328 39.038837853617224 0 39.038837853617224 170.42088706355571 0 0 0 0 -17.725660222190072 54.057362431616639 0 54.057362431616639 143.06460223357553 0 0 0 0 -21.775147629694175 -18.238313188220673 0 -18.238313188220673 101.19644229597179 0 0 0 0 -5.2156698456678896 30.911898083661981 0 30.911898083661981 110.64252916584883 0 0 0 0 -78.247035967105148 -15.482475177859669 0 -15.482475177859669 70.305479855916928 0 0 0 0 27.944629701591111 93.155033557624847 0 93.155033557624847 75.367067568835409 0 0 0 0 -0.11671400779118812 -0.71995906244728758 0 -0.71995906244728758 35.288912983894988 0 0 0 0 -36.011774614466503 61.601634624526923 0 61.601634624526923 203.99664827001106 0 0 0 0 361.64768642372837 -145.43113733939026 0 -145.43113733939026 -57.617356938051671 0 0 0 0 0.22832746066070975 -0.77291170736302561 0 -0.77291170736302561 11.776236325177081 0 0 0 0 12.977228194987219 138.40151665824942 0 138.40151665824942 215.88842113607097 0 0 0 0 -31.821604992108405 -137.64354146610276 0 -137.64354146610276 26.538263379352429 0 0 0 0 0.53249754889623802 -3.8921472871942342 0 -3.8921472871942342 34.293989267534613 0 0 0 0 -45.188606180885131 -98.182311122359806 0 -98.182311122359806 125.645031436914 0 0 0 0 -22.315563261521675 -67.278375722889905 0 -67.278375722889905 55.777979009848423 0 0 0 0 82.826148244034471 -67.095099746375126 0 -67.095099746375126 109.35686703204556 0 0 0 0 705.50161837278074 601.20429711204451 0 601.20429711204451 -1044.543100646355 0 0 0 0 -0.83009797510840144 -155.5900171879548 0 -155.5900171879548 285.26542880823035 0 0 0 0 6.0751364776986021 8.6376393084986276 0 8.6376393084986276 9.6742048594374239 0 0 0 0 65.472390737339538 -50.743999923197407 0 -50.743999923197407 133.00215276452946 0 0 0 0 82.420256949311806 -62.891964559486951 0 -62.891964559486951 67.23101435926219 0 0 0 0 -1005.5978640514168 -187.66685492163379 0 -187.66685492163379 1403.8286412372981 0 0 0 0 -34.857178834136676 27.970100119820927 0 27.970100119820927 196.08558892682049 0 0 0 0 -54.055914872666335 19.548117597296368 0 19.548117597296368 252.20386684956611 0 0 0 0 -55.588162875982562 4.2486006105355045 0 4.2486006105355045 443.40702274772048 0 0 0 0 67.135632772346526 -75.234813415539975 0 -75.234813415539975 -131.58760729823553 0 0 0 0 2.5855455241717209 -161.48612571535341 0 -161.48612571535341 196.58473931432218 0 0 0 0 111.94275956047954 40.33475875510976 0 40.33475875510976 163.88064416927955 0 0 0 0 -18.072002629023245 27.96850619370889 0 27.96850619370889 165.73897203355955 0 0 0 0 6.8606077580743658 53.438074360174141 0 53.438074360174141 173.93774742005917 0 0 0 0 -52.134682404713487 48.187722608480954 0 48.187722608480954 194.00941441986652 0 0 0 0 29.886916826555307 34.839123365665728 0 34.839123365665728 175.39128494450779 0 0 0 0 -29.409057280552588 -18.371284785596799 0 -18.371284785596799 128.44799050704387 0 0 0 0 -16.279671828524222 -35.097953199826591 0 -35.097953199826591 91.212366177174118 0 0 0 0 8.4484652483080254 4.5435517758694459 0 4.5435517758694459 129.0937089608633 0 0 0 0 3.7940292001961176 -3.4099065192095352 0 -3.4099065192095352 -0.95842379356555774 0 0 0 0 9.5187437434494768 9.5810747043276479 0 9.5810747043276479 150.92988655806585 0 0 0 0 -18.335518108281974 -31.789761160198779 0 -31.789761160198779 86.342653411811995 0 0 0 0 7.1000006322522502 0.3090857490004808 0 0.3090857490004808 27.853358887206099 0 0 0 0 10.894753917760227 -415.20742188781514 0 -415.20742188781514 354.29281783370243 0 0 0 0 -34.060075906605817 134.62656729607261 0 134.62656729607261 112.28172532233293 0 0 0 0 113.74480231336247 282.48984751776152 0 282.48984751776152 258.73776077599905 0 0 0 0 245.2794278034653 156.3774425595293 0 156.3774425595293 -93.835256905071219 0 0 0 0 109.27094892484547 -238.38663986805841 0 -238.38663986805841 574.43862843506213 0 0 0 0 3.1588727351487362 3.1356367874047493 0 3.1356367874047493 3.3306790898612633 0 0 0 0 -0.73131512368843765 2.956084776338642 0 2.956084776338642 33.614543233688167 0 0 0 0 -48.219901640185526 146.77722591750353 0 146.77722591750353 579.07380797799851 0 0 0 0 257.93501410722968 237.86068924340725 0 237.86068924340725 -189.92121200658585 0 0 0 0 -29.497964367183158 208.63325131196325 0 208.63325131196325 251.44957634697494 0 0 0 0 12.46603036227134 136.37359353079228 0 136.37359353079228 114.40317895108456 0 0 0 0 68.466438501664015 -99.66700452635996 0 -99.66700452635996 233.18167854707281 0 0 0 0 -29.69029496105523 54.589726448114675 0 54.589726448114675 419.27724590546859 0 0 0 0 60.385589153926048 -27.504742889366753 0 -27.504742889366753 134.97001752839333 0 0 0 0 -21.491764151817108 -66.732548382722825 0 -66.732548382722825 209.30629219916136 0 0 0 0 19.24780703462784 -85.597831643682184 0 -85.597831643682184 237.19212361979862 0 0 0 0 22.350733421170844 -135.89854287426851 0 -135.89854287426851 720.25565914305116 0 0 0 0 -1.5779793199953929 -6.8766245070182777 0 -6.8766245070182777 136.67055372065306 0 0 0 0 169.47976291504415 -75.2315546101932 0 -75.2315546101932 89.550849220420787 0 0 0 0 -61.390220069396491 59.842025911123756 0 59.842025911123756 27.927340065313274 0 0 0 0 -94.811251129593558 -120.2970495697918 0 -120.2970495697918 71.105226609380679 0 0 0 0 63.401137774832478 82.603230448232353 0 82.603230448232353 147.92510221867815 0 0 0 0 46.664763120509406 99.171847199701006 0 99.171847199701006 159.18192735561752 0 0 0 0 67.280645545968582 68.972629541654896 0 68.972629541654896 164.22604353564793 0 0 0 0 -13.022204663799286 -37.68023203709749 0 -37.68023203709749 93.074099057446389 0 0 0 0 -40.305726131620759 -15.96355397172465 0 -15.96355397172465 116.23844700837708 0 0 0 0 -58.298434350347407 -74.509762713622422 0 -74.509762713622422 113.56698587407845 0 0 0 0 -36.302277965164649 29.810100544476882 0 29.810100544476882 215.82951867186603 0 0 0 0 -26.136149076430684 2.8561031558092509 0 2.8561031558092509 146.23117299458681 0 0 0 0 -27.149588074059011 1.9531356098696051 0 1.9531356098696051 147.9180746720308 0 0 0 0 -16.14110768996045 10.642481072851297 0 10.642481072851297 147.78666413597966 0 0 0 0 -12.31382934631813 18.343173490077561 0 18.343173490077561 153.73954917861374 0 0 0 0 1.1300441582375642 -2.9061326498498481 0 -2.9061326498498481 0.48650442126903298 0 0 0 0 61.482632649146581 112.86096893579588 0 112.86096893579588 183.78004908591538 0 0 0 0 14.805356546221901 41.018352476061409 0 41.018352476061409 73.241434785204191 0 0 0 0 20.738050198108795 124.85308772542885 0 124.85308772542885 256.48003378509839 0 0 0 0 -13.705464213904634 28.451181515072676 0 28.451181515072676 190.88218354225023 0 0 0 0 -31.569603464849479 53.606491608356237 0 53.606491608356237 394.90972116159719 0 0 0 0 45.056281721841515 141.83805631058749 0 141.83805631058749 266.63882702237242 0 0 0 0 47.67962849959622 171.45676788027322 0 171.45676788027322 462.72135364553833 0 0 0 0 26.20960022836698 132.17233186779049 0 132.17233186779049 262.40901380490322 0 0 0 0 118.7572259300814 146.66576575017643 0 146.66576575017643 170.45579341128723 0 0 0 0 79.086288910313669 75.46353986406757 0 75.46353986406757 146.12655235642069 0 0 0 0 73.685098323798229 29.273040247271638 0 29.273040247271638 82.574263894624892 0 0 0 0 60.54900985547556 39.619840841791302 0 39.619840841791302 82.071670701508992 0 0 0 0 171.40806309681648 135.04644920291776 0 135.04644920291776 73.098051677043259 0 0 0 0 400.14892895617231 126.26359103626783 0 126.26359103626783 -36.763517822910217 0 0 0 0 11.810456690349383 193.23229052253009 0 193.23229052253009 239.25827708219367 0 0 0 0 147.28613680091621 68.250715912432497 0 68.250715912432497 -38.049546216094313 0 0 0 0 149.17883064496345 27.239633392964606 0 27.239633392964606 -90.821033795171388 0 0 0 0 104.81097985623273 -67.364634781461064 0 -67.364634781461064 -120.69323209466529 0 0 0 0 1.2658984081573976 -3.3294921454811934 0 -3.3294921454811934 1.0787098855088679 0 0 0 0 48.944921121164953 -42.604771757480194 0 -42.604771757480194 -12.575035784117063 0 0 0 0 43.98543099649936 34.393872898858092 0 34.393872898858092 98.275069585983147 0 0 0 0 -79.548887699301304 -72.686444670949641 0 -72.686444670949641 42.318474866897304 0 0 0 0 65.236977940792713 8.5193499663218972 0 8.5193499663218972 115.3920559948383 0 0 0 0 35.267928577099156 65.678487399096412 0 65.678487399096412 265.47884880782817 0 0 0 0 -26.974650564515287 84.008048861296629 0 84.008048861296629 495.86042891364627 0 0 0 0 76.366795193442158 149.61942943411668 0 149.61942943411668 224.82850011075789 0 0 0 0 7.610346621241197 68.59810695113265 0 68.59810695113265 286.17232098744313 0 0 0 0 19.990658948883997 0.50850955318492197 0 0.50850955318492197 231.20152247817896 0 0 0 0 42.32288993258453 47.92377980671381 0 47.92377980671381 38.737361645173223 0 0 0 0 3.4021595199642434 78.621852631319598 0 78.621852631319598 155.2957048912067 0 0 0 0 34.424673599215225 14.287496198235658 0 14.287496198235658 27.262961205939064 0 0 0 0 51.495642451410276 93.201678235733198 0 93.201678235733198 177.11043995346427 0 0 0 0 -8.0032992497527289 0.46518440190629917 0 0.46518440190629917 33.700308092917112 0 0 0 0 -30.367091289879397 35.49554013623856 0 35.49554013623856 47.841231175991197 0 0 0 0 79.561228900444746 11.789471871124988 0 11.789471871124988 -64.785914975098422 0 0 0 0 63.789090591216336 12.809859483126274 0 12.809859483126274 75.534841075474105 0 0 0 0 -11.021005170759622 97.133652782993067 0 97.133652782993067 0.15972801579846418 0 0 0 0 101.47942771662019 57.294694727104797 0 57.294694727104797 50.158913666156877 0 0 0 0 -242.92769429993132 -43.971768596829861 0 -43.971768596829861 478.75727873588039 0 0 0 0 12.671054006199483 57.400965020446165 0 57.400965020446165 244.71329522789529 0 0 0 0 -0.8803368555236375 0.13678171740684775 0 0.13678171740684775 27.350797567080008 0 0 0 0 5.6919022960952415 -1.9955514290679943 0 -1.9955514290679943 4.0305598573042367 0 0 0 0 97.930788311099604 130.1496183082163 0 130.1496183082163 109.3227568735274 0 0 0 0 6.6858148198809584 -2.4057894781906413 0 -2.4057894781906413 2.9722808675684274 0 0 0 0 5.1584040582050648 -3.2265790695784702 0 -3.2265790695784702 18.693096029922561 0 0 0 0 -5.5245137298388727 53.322190550412415 0 53.322190550412415 23.363363644792116 0 0 0 0 13.799767841600525 9.0835953791992736 0 9.0835953791992736 13.747306223659921 0 0 0 0 2.2198059658469145 7.4927352765263571 0 7.4927352765263571 11.953372518715547 0 0 0 0 8.5147424983742894 -11.193342940783623 0 -11.193342940783623 158.21618002442847 0 0 0 0 5.7918061245596277 33.526798839643959 0 33.526798839643959 118.0657941216632 0 0 0 0 22.247454450228361 60.898967115648702 0 60.898967115648702 75.406962344070052 0 0 0 0 17.763850650955646 44.435027640131011 0 44.435027640131011 65.690727946734114 0 0 0 0 31.082284064828855 43.391453468415421 0 43.391453468415421 65.760087574230965 0 0 0 0 36.381093955959535 26.858174272262417 0 26.858174272262417 -1.8366116774194698 0 0 0 0 78.849549069407658 44.109757043224818 0 44.109757043224818 -9.8882379886190392 0 0 0 0 41.894419685635512 52.394070413563895 0 52.394070413563895 58.375423044788477 0 0 0 0 5.1205124169718985 11.476231285186959 0 11.476231285186959 19.192554431038062 0 0 0 0 51.528083639452234 103.35057970790513 0 103.35057970790513 152.53429143564426 0 0 0 0 60.076257638618699 97.807600661442848 0 97.807600661442848 152.36801025574721 0 0 0 0 44.926945678005723 78.275586861840566 0 78.275586861840566 139.27289261984697 0 0 0 0 19.377188462283812 80.582635860329901 0 80.582635860329901 164.55081619504926 0 0 0 0 31.476944386777582 30.214770551623118 0 30.214770551623118 0.65973745100202752 0 0 0 0 4.1404492744521697 -0.38326405993310253 0 -0.38326405993310253 27.859023264895171 0 0 0 0 -72.32449375588476 -54.879544840477024 0 -54.879544840477024 70.576497210215166 0 0 0 0 38.209442605559161 42.175791648263839 0 42.175791648263839 92.940593029655304 0 0 0 0 2.0790501376860959 -1.5047842186193989 0 -1.5047842186193989 0.053916701982085868 0 0 0 0 37.558162574283699 26.262815403039774 0 26.262815403039774 1.8576562077890184 0 0 0 0 183.58434737748757 144.3848128231657 0 144.3848128231657 207.45139729190487 0 0 0 0 48.341708567861133 -16.953480417818355 0 -16.953480417818355 25.895805287527764 0 0 0 0 370.21467003463476 72.117601389581978 0 72.117601389581978 -53.61357678284935 0 0 0 0 -36.98973708563085 170.23654458369379 0 170.23654458369379 232.20838396535692 0 0 0 0 -1.3577686870960051 5.9276483230098904 0 5.9276483230098904 16.287714880188265 0 0 0 0 -17.524489471281647 -23.685447897892359 0 -23.685447897892359 72.730789019386748 0 0 0 0 -36.998786407118985 -43.893194070793356 0 -43.893194070793356 109.49921313213417 0 0 0 0 -39.067607794424475 -10.063413715553907 0 -10.063413715553907 123.60277888290875 0 0 0 0 -27.425995754264704 36.019059967815338 0 36.019059967815338 130.82196776539786 0 0 0 0 -7.9931739759831544 45.949526116899506 0 45.949526116899506 134.49109176938146 0 0 0 0 16.228009898010896 38.77461411530021 0 38.77461411530021 114.87709309425554 0 0 0 0 -0.70381541368351463 29.253351624585775 0 29.253351624585775 111.60071540137869 0 0 0 0 6.7454978757641584 -5.500774225762143 0 -5.500774225762143 154.93978834655391 0 0 0 0 17.304676101872246 18.106756461294935 0 18.106756461294935 131.99891216044125 0 0 0 0 -13.76219243193222 -28.935515607111483 0 -28.935515607111483 78.560026130543676 0 0 0 0 29.386768749325739 23.333616239219616 0 23.333616239219616 13.226860239855167 0 0 0 0 18.908470573634077 26.921781464134256 0 26.921781464134256 130.72701952169746 0 0 0 0 34.820271700602461 31.715534048984409 0 31.715534048984409 117.89213876132817 0 0 0 0 41.080195591344818 39.167139226628933 0 39.167139226628933 67.648109658031899 0 0 0 0 25.95887133665201 14.298685768300857 0 14.298685768300857 113.53257254562413 0 0 0 0 10.357840627688347 18.580795037778444 0 18.580795037778444 201.65215173793382 0 0 0 0 22.331592712279416 43.820537706767936 0 43.820537706767936 150.31857563516678 0 0 0 0 29.062396042975251 31.32094601550034 0 31.32094601550034 127.8255675511864 0 0 0 0 8.1847760026475953 17.312680749959327 0 17.312680749959327 207.04298348700104 0 0 0 0 22.953222976354027 36.367307502338008 0 36.367307502338008 11.483948236353172 0 0 0 0 23.88110661163455 53.005857612268301 0 53.005857612268301 125.30627783245927 0 0 0 0 32.990864584256485 24.815917379621169 0 24.815917379621169 56.904875052387069 0 0 0 0 23.11067226998648 28.019468591075565 0 28.019468591075565 104.68594150244098 0 0 0 0 6.7455041435387102 8.4922934218338924 0 8.4922934218338924 39.664315310626989 0 0 0 0 4.2832527438238968 5.0617322275322394 0 5.0617322275322394 36.196265648077045 0 0 0 0 21.834552543394238 18.767265832313569 0 18.767265832313569 62.944865833444055 0 0 0 0 -4.2400763423373835 -7.0705801699754858 0 -7.0705801699754858 43.486599530464389 0 0 0 0 63.616411539069304 31.003441652534093 0 31.003441652534093 -8.7303997075935058 0 0 0 0 28.907527807559291 13.692444396207975 0 13.692444396207975 58.251144686466432 0 0 0 0 31.971147446317559 25.661382047865224 0 25.661382047865224 2.4693755506850632 0 0 0 0 40.253229301479223 -14.797035716357641 0 -14.797035716357641 18.333864569642174 0 0 0 0 14.268608082222897 -9.6519648856829008 0 -9.6519648856829008 40.467262164440399 0 0 0 0 -0.088434671345005711 -1.6240177571216634 0 -1.6240177571216634 3.3041238708208298 0 0 0 0 15.10816847127219 -3.4929098274070753 0 -3.4929098274070753 4.5064946822384115 0 0 0 0 14.062686491955503 -3.520045600769663 0 -3.520045600769663 26.035759881684385 0 0 0 0 26.097178988937003 80.952035685251758 0 80.952035685251758 88.692717108244324 0 0 0 0 5.4622015909612855 18.771696895109926 0 18.771696895109926 74.414306383216172 0 0 0 0 29.929973236165189 23.164166066807383 0 23.164166066807383 5.0533637140288095 0 0 0 0 3.0891587021282465 -0.79924293714286421 0 -0.79924293714286421 12.871601994679132 0 0 0 0 138.83850762326256 36.303123285717447 0 36.303123285717447 -0.63798993163891282 0 0 0 0 -42.727159228356413 35.063018476016623 0 35.063018476016623 216.01730449793831 0 0 0 0 -0.27823490217780877 -3.2484177939892618 0 -3.2484177939892618 1.1053983095421103 0 0 0 0 16.31010415441142 -19.086417717175209 0 -19.086417717175209 77.616559994162344 0 0 0 0 106.50066743093504 70.582458072054578 0 70.582458072054578 53.92101324275427 0 0 0 0 -18.601742597187695 -13.276539405462245 0 -13.276539405462245 133.84586014744855 0 0 0 0 13.018659886316865 14.302933173090562 0 14.302933173090562 28.293202060674531 0 0 0 0 31.558210767989607 20.733968576174448 0 20.733968576174448 13.441697197969916 0 0 0 0 31.339046400778358 15.008617022507678 0 15.008617022507678 13.483983951296977 0 0 0 0 15.568266108167165 -8.7321527454799508 0 -8.7321527454799508 6.1197172392991348 0 0 0 0 65.624567636435131 -30.612984535324358 0 -30.612984535324358 21.924085653830844 0 0 0 0 56.965307118891189 83.037856504139199 0 83.037856504139199 66.953148827698897 0 0 0 0 53.185870204479215 57.102310426893382 0 57.102310426893382 123.34162531082984 0 0 0 0 71.440740456313506 34.105722194839473 0 34.105722194839473 -7.0449214190375642 0 0 0 0 51.966061504603658 62.442435272863804 0 62.442435272863804 94.539842538906669 0 0 0 0 86.354031698172548 82.192680550866498 0 82.192680550866498 72.688006847532961 0 0 0 0 50.125861031692693 93.149921153701143 0 93.149921153701143 182.16430063058942 0 0 0 0 103.38907131279848 107.03842366033496 0 107.03842366033496 157.73197176211761 0 0 0 0 68.808117844507251 126.19736185811962 0 126.19736185811962 179.59558193635166 0 0 0 0 115.70935537808327 148.40469266801665 0 148.40469266801665 231.63123784932759 0 0 0 0 58.285598911774287 65.123503688362689 0 65.123503688362689 211.8302953128732 0 0 0 0 -2.2053348115798741 -1.1559612567220512 0 -1.1559612567220512 4.1477388025838025 0 0 0 0 127.9564217679399 99.49817210164656 0 99.49817210164656 133.59229774312189 0 0 0 0 70.204716237460616 117.19337346055863 0 117.19337346055863 200.79125589337491 0 0 0 0 166.33267958098077 112.51065637991996 0 112.51065637991996 126.66543132167362 0 0 0 0 315.3991127051122 185.48982162944594 0 185.48982162944594 102.69557677918056 0 0 0 0 180.41463873385828 113.22989857754146 0 113.22989857754146 81.051029735739576 0 0 0 0 -6.101871995440888 4.0773627901362488 0 4.0773627901362488 34.433563027094351 0 0 0 0 -3.182845256805436 0.025445953304931379 0 0.025445953304931379 5.4229579752652768 0 0 0 0 122.06435885196879 91.062032661026024 0 91.062032661026024 265.64203223042932 0 0 0 0 3.203916098116613 -0.1689272899942651 0 -0.1689272899942651 0.5639487510598542 0 0 0 0 4.4453434890021351 -7.3546164861584629 0 -7.3546164861584629 10.19240480196018 0 0 0 0 16.712553657662284 37.985284613576368 0 37.985284613576368 213.99721054642214 0 0 0 0 165.68527870218713 180.52956819405517 0 180.52956819405517 140.24086349513891 0 0 0 0 8.7486726776564865 -6.2933629062972614 0 -6.2933629062972614 18.428211508406093 0 0 0 0 16.312885730705602 0.53922177036292851 0 0.53922177036292851 14.527163597282197 0 0 0 0 16.497082064826373 1.768898038273619 0 1.768898038273619 15.400605340168113 0 0 0 0 7.0610776764502141 -2.2840985419628268 0 -2.2840985419628268 12.825303480244855 0 0 0 0 89.476431171147851 122.34123609139351 0 122.34123609139351 178.18480163111235 0 0 0 0 61.762916482202854 95.318619900084741 0 95.318619900084741 189.83464031859876 0 0 0 0 -25.554338508460205 140.71906454677082 0 140.71906454677082 175.73844965852186 0 0 0 0 56.076169908163138 117.23092573098256 0 117.23092573098256 112.58723435235152 0 0 0 0 46.844360506831435 117.01732285601611 0 117.01732285601611 182.51296414863464 0 0 0 0 -10.204783615754422 88.403452721144276 0 88.403452721144276 188.76432120509708 0 0 0 0 32.799097836114015 101.45037186508307 0 101.45037186508307 187.12122818328498 0 0 0 0 116.08850376892224 168.220042565943 0 168.220042565943 203.3838665160074 0 0 0 0 44.636666535573568 116.59836475393968 0 116.59836475393968 203.55219823036896 0 0 0 0 -0.94250974552090838 0.37991120151370694 0 0.37991120151370694 2.1347953236660828 0 0 0 0 114.69239772287256 93.095402143357205 0 93.095402143357205 156.56854333246156 0 0 0 0 33.561510800040196 95.880045270936535 0 95.880045270936535 166.01751914704801 0 0 0 0 89.457441239286709 111.76729285371403 0 111.76729285371403 124.16717960748974 0 0 0 0 69.676306588560692 27.838465736651415 0 27.838465736651415 97.802321181843581 0 0 0 0 57.363634830089723 78.212818038147816 0 78.212818038147816 235.05730652716738 0 0 0 0 -2.0627373155122442 -0.67025342716395642 0 -0.67025342716395642 3.0659212820186497 0 0 0 0 91.712866855270477 168.47207794260976 0 168.47207794260976 237.75964224452866 0 0 0 0 78.172688417636095 46.818573701734294 0 46.818573701734294 103.01754643738241 0 0 0 0 80.887024324400045 89.745424183784053 0 89.745424183784053 153.79277767027816 0 0 0 0 73.229714733308356 80.409449359219025 0 80.409449359219025 158.89898769529827 0 0 0 0 72.658305798728179 101.48464041653278 0 101.48464041653278 198.19965844310354 0 0 0 0 111.99310070548381 104.27855053880921 0 104.27855053880921 102.3946256215113 0 0 0 0 76.529490711072867 144.41221218846113 0 144.41221218846113 186.09325974842068 0 0 0 0 95.035763192845479 121.68580884296534 0 121.68580884296534 288.44579787770454 0 0 0 0 63.783104774731328 96.775864235642075 0 96.775864235642075 283.9519114384384 0 0 0 0 94.159929478773847 117.5410483359592 0 117.5410483359592 199.58389392874051 0 0 0 0 61.18628906154845 89.073621840256237 0 89.073621840256237 289.1202804925415 0 0 0 0 61.167970859685738 99.141805120678328 0 99.141805120678328 214.32771537700978 0 0 0 0 16.967711957478059 46.335534996031583 0 46.335534996031583 341.93486799893435 0 0 0 0 55.939856561053602 93.825151935514441 0 93.825151935514441 214.05090960951316 0 0 0 0 37.963006051671982 56.303985302809451 0 56.303985302809451 138.04179799735721 0 0 0 0 -49.403894688892251 81.777816065045045 0 81.777816065045045 218.39558776718332 0 0 0 0 24.112998075152063 60.519228132652643 0 60.519228132652643 215.44645565293376 0 0 0 0 11.829062711560255 32.683047285645443 0 32.683047285645443 186.80789018134965 0 0 0 0 10.834939755273808 67.410833252670272 0 67.410833252670272 114.80534968851134 0 0 0 0 -43.95644565303337 65.930093617660532 0 65.930093617660532 203.73333170037586 0 0 0 0 23.382038619218292 41.504301723468444 0 41.504301723468444 79.409730963569871 0 0 0 0 4.7692248769635626 119.45072692382018 0 119.45072692382018 90.373924323539541 0 0 0 0 -16.735532618738944 94.384056160371983 0 94.384056160371983 96.802899494767189 0 0 0 0 12.718979647844208 104.096157376468 0 104.096157376468 80.058335403038654 0 0 0 0 -3.5336815526243299 52.681036588619463 0 52.681036588619463 109.45932838758745 0 0 0 0 13.556912534564617 104.34327594998285 0 104.34327594998285 51.5261686185695 0 0 0 0 30.412068227262353 101.07115617959425 0 101.07115617959425 3.8700905653131485 0 0 0 0 -24.179203318902182 149.46313882127197 0 149.46313882127197 71.448783643427305 0 0 0 0 7.4880568148619204 124.63056518301164 0 124.63056518301164 66.83510167444183 0 0 0 0 -14.181721028828179 110.83394045639579 0 110.83394045639579 162.02471626712577 0 0 0 0 -1.1326580974021496 4.0187203929566735 0 4.0187203929566735 17.538507180842174 0 0 0 0 415.79904390769661 -65.154882189024647 0 -65.154882189024647 113.38419133067146 0 0 0 0 -3.3994085416779853 61.20410138702573 0 61.20410138702573 59.96779637617874 0 0 0 0 11.124982768610607 41.693265199573943 0 41.693265199573943 85.774138714587025 0 0 0 0 14.665993868486488 43.449401422135281 0 43.449401422135281 91.734168484809985 0 0 0 0 18.491121887340341 53.51727590264818 0 53.51727590264818 87.512202421188931 0 0 0 0 4.6866967230289447 42.879660216339289 0 42.879660216339289 126.39180806730292 0 0 0 0 8.536297071302215 24.112034936744067 0 24.112034936744067 100.81266126436822 0 0 0 0 26.12323186609154 41.207057256643459 0 41.207057256643459 18.941124071852308 0 0 0 0 11.027832393857352 108.61317935087823 0 108.61317935087823 202.52921262014161 0 0 0 0 9.5047053447951839 86.807770334840939 0 86.807770334840939 220.48388988322233 0 0 0 0 4.3800533204048406 102.39474983452232 0 102.39474983452232 197.61986804137314 0 0 0 0 -0.94521961367013319 89.857368641142841 0 89.857368641142841 240.46320907503298 0 0 0 0 0.038357938609834719 7.0592334483755792 0 7.0592334483755792 26.373819498643474 0 0 0 0 -28.608376599535404 65.795398208963888 0 65.795398208963888 253.67206149006233 0 0 0 0 -56.615400134984156 94.070796083115056 0 94.070796083115056 225.28917734076822 0 0 0 0 -73.721523890344542 71.239675884713506 0 71.239675884713506 250.47938299440284 0 0 0 0 14.96389504824765 14.115565646265168 0 14.115565646265168 176.86374735034769 0 0 0 0 0.89115523550477249 28.31881106027496 0 28.31881106027496 13.659282755535116 0 0 0 0 25.164547113433848 87.885768832430131 0 87.885768832430131 122.99559868309252 0 0 0 0 92.388866559973394 86.608805365484841 0 86.608805365484841 172.26245695163561 0 0 0 0 19.846945471668732 89.40654910854937 0 89.40654910854937 250.32827811031893 0 0 0 0 -27.753763281765018 -20.01145475700099 0 -20.01145475700099 33.040170246994677 0 0 0 0 5.1016318326151397 40.944995365762821 0 40.944995365762821 161.19597842023279 0 0 0 0 21.185602763100178 102.0847497401851 0 102.0847497401851 187.87572243720484 0 0 0 0 -34.714723305109146 7.5644837266427203 0 7.5644837266427203 175.82828273219639 0 0 0 0 8.5037872996945225 73.065861294688773 0 73.065861294688773 153.51967885155602 0 0 0 0 8.3501650509133469 48.40914021050412 0 48.40914021050412 134.30041864572559 0 0 0 0 -20.258957663812907 48.65959267658036 0 48.65959267658036 255.45420503454261 0 0 0 0 -2.8322624144639121 73.373388884536325 0 73.373388884536325 216.22100755743304 0 0 0 0 -18.999470659495273 47.533732074014551 0 47.533732074014551 176.77558781392872 0 0 0 0 14.975747311131272 70.622825257480145 0 70.622825257480145 187.03550481821367 0 0 0 0 13.973787352883846 60.954695025267029 0 60.954695025267029 195.73760328879871 0 0 0 0 22.50685767009054 79.154147263332561 0 79.154147263332561 164.19086994156351 0 0 0 0 21.094194923996866 39.183239275055023 0 39.183239275055023 34.930283058397102 0 0 0 0 14.088321435763646 13.371094418595021 0 13.371094418595021 65.65631360586849 0 0 0 0 8.9692818120784068 30.779672133248823 0 30.779672133248823 83.017850344564067 0 0 0 0 37.806440349420882 24.600177184622225 0 24.600177184622225 65.668669178005075 0 0 0 0 -14.748837101586105 19.5505893672198 0 19.5505893672198 83.005494772431121 0 0 0 0 -2.0640444416378503 19.764465868027941 0 19.764465868027941 78.344707994182968 0 0 0 0 -55.604346168747725 123.92592020052984 0 123.92592020052984 -37.230932805495783 0 0 0 0 4.1836010346887633 79.415117458065652 0 79.415117458065652 168.14135679530227 0 0 0 0 -56.361201605415815 35.305103085648859 0 35.305103085648859 214.53952414460014 0 0 0 0 -1.5509613013665262 40.04621176643586 0 40.04621176643586 156.18939629758731 0 0 0 0 18.570090367058583 70.493571699831591 0 70.493571699831591 199.29100069091692 0 0 0 0 -21.594137746877095 66.598444697202922 0 66.598444697202922 242.67775299810728 0 0 0 0 20.904891417036083 53.571433947068343 0 53.571433947068343 234.70174209755578 0 0 0 0 -156.8001596036097 -47.880750022302607 0 -47.880750022302607 66.100591627670383 0 0 0 0 -92.980201569228711 241.22966369986932 0 241.22966369986932 93.545925011160762 0 0 0 0 -21.775952351873705 9.2737692101482736 0 9.2737692101482736 24.138610664053612 0 0 0 0 -245.72816591564333 21.67611505515606 0 21.67611505515606 199.07359242668417 0 0 0 0 -72.315220443386238 -200.10995425290599 0 -200.10995425290599 1012.4207235428753 0 0 0 0 53.532851276801011 506.72258182591167 0 506.72258182591167 537.05190362684152 0 0 0 0 73.099983582051209 -145.74631745334489 0 -145.74631745334489 299.80035478567498 0 0 0 0 542.44517858159361 -658.79455558869563 0 -658.79455558869563 653.28856104717715 0 0 0 0 -345.86660013385517 -251.5908729194901 0 -251.5908729194901 480.58298509799261 0 0 0 0 -124.1721904756771 115.91515727832049 0 115.91515727832049 272.13309719051472 0 0 0 0 -8.6929679407370486 7.6777570013728109 0 7.6777570013728109 93.101799593721807 0 0 0 0 0.72165592582398119 7.0586216454291879 0 7.0586216454291879 9.6443928225938311 0 0 0 0 -322.65114425484899 -310.1396263358651 0 -310.1396263358651 73.418314525878486 0 0 0 0 0.5387925073310702 -0.26045692923304387 0 -0.26045692923304387 55.337649566953758 0 0 0 0 -9.7483969798922772 -8.3260642776741633 0 -8.3260642776741633 290.15266244744998 0 0 0 0 58.762090912819986 23.924621001428022 0 23.924621001428022 46.753309081379484 0 0 0 0 57.547237829658116 35.998361333935463 0 35.998361333935463 78.599807592999809 0 0 0 0 34.77384095888192 74.92381745763123 0 74.92381745763123 48.242592510299801 0 0 0 0 113.06902202794117 63.147986844594016 0 63.147986844594016 49.824262060068577 0 0 0 0 62.62452903266967 37.133835317583362 0 37.133835317583362 53.276514101398789 0 0 0 0 18.706577005268628 31.075301239518012 0 31.075301239518012 64.762307124612562 0 0 0 0 3.2602499054789504 -8.4221612565594519 0 -8.4221612565594519 32.155949195837913 0 0 0 0 -101.42472549184458 -48.671770240478509 0 -48.671770240478509 98.751069849766282 0 0 0 0 -102.12618570974155 126.87766379307868 0 126.87766379307868 260.1668527022739 0 0 0 0 1.9810173123066928 6.2830700899336804 0 6.2830700899336804 54.094175763201605 0 0 0 0 -226.29156787736429 73.542086664710496 0 73.542086664710496 47.390442526069378 0 0 0 0 181.99145381669769 281.33164179289861 0 281.33164179289861 892.75975553544004 0 0 0 0 207.67167133515318 -48.119450420860872 0 -48.119450420860872 722.42687822919561 0 0 0 0 0.018169714960444949 0.9453665637776254 0 0.9453665637776254 2.6694908819903631 0 0 0 0 144.29115320157871 350.36819477254858 0 350.36819477254858 842.13263103803638 0 0 0 0 -124.2910907067544 -237.48011905822341 0 -237.48011905822341 140.73556698308676 0 0 0 0 -86.738843310276025 193.2742203278093 0 193.2742203278093 659.94564725161581 0 0 0 0 -186.28510566169564 143.52189079136554 0 143.52189079136554 678.22581336107487 0 0 0 0 26.697368975763311 167.44400384694768 0 167.44400384694768 571.94669192764923 0 0 0 0 144.94619685671205 144.2710346553049 0 144.2710346553049 343.93726470473848 0 0 0 0 22.872280265511961 74.311972386764367 0 74.311972386764367 669.08802928224031 0 0 0 0 -73.207046593783161 168.64855353813255 0 168.64855353813255 345.68697518387012 0 0 0 0 -41.131089134491958 62.539643142977752 0 62.539643142977752 685.29609051538409 0 0 0 0 0.54087116794936918 2.7100568587776337 0 2.7100568587776337 8.291129662511473 0 0 0 0 -61.670402309346173 383.41867432934964 0 383.41867432934964 135.24814305489554 0 0 0 0 -111.18068579249211 224.95574533825447 0 224.95574533825447 903.79570163596236 0 0 0 0 472.4179279170985 -355.47491961155811 0 -355.47491961155811 747.52006864451664 0 0 0 0 51.702169680378006 135.01137722841145 0 135.01137722841145 232.43754614084582 0 0 0 0 17.502644276795763 -146.15887729209908 0 -146.15887729209908 679.24415158796819 0 0 0 0 348.14145011261826 303.54485227003806 0 303.54485227003806 346.70993159748195 0 0 0 0 77.473179637941939 -38.706879377041446 0 -38.706879377041446 -72.857736510191899 0 0 0 0 454.93844265617918 217.56878137799004 0 217.56878137799004 -718.07364110715275 0 0 0 0 -6.4200694759470593 0.35510782690935105 0 0.35510782690935105 -4.1329438146086055 0 0 0 0 -403.77089116002298 363.20087528279987 0 363.20087528279987 248.58206383226252 0 0 0 0 40.058418666930265 132.08108412845382 0 132.08108412845382 394.22012275944849 0 0 0 0 14.157307376105564 194.99533338431823 0 194.99533338431823 241.41662147101454 0 0 0 0 26.533939738957997 219.16217086650687 0 219.16217086650687 54.408289783717692 0 0 0 0 340.51353725150875 208.78823423282461 0 208.78823423282461 -146.78541053112258 0 0 0 0 2.188576774032299 6.4391297570593338 0 6.4391297570593338 6.5338790522591808 0 0 0 0 290.50771184822452 116.47583125886968 0 116.47583125886968 -20.557316129166793 0 0 0 0 -0.68256334025216425 2.2733077285710657 0 2.2733077285710657 0.88381826082738968 0 0 0 0 0.86280847166871766 1.2067058678834588 0 1.2067058678834588 0.74189473052469523 0 0 0 0 601.63769219722417 7.3527034405217364 0 7.3527034405217364 0.70111776024350547 0 0 0 0 -96.958407303740614 230.72924804827721 0 230.72924804827721 74.593249914977605 0 0 0 0 1.9339919350910932 4.6215871285230081 0 4.6215871285230081 6.3595988365839222 0 0 0 0 5.0225366751001275 10.253750151633994 0 10.253750151633994 -0.5433388128385559 0 0 0 0 3.3171953102046245 10.059483766063408 0 10.059483766063408 19.871615006446063 0 0 0 0 3.0038615934158273 1.40385516636176 0 1.40385516636176 -0.79468829862867152 0 0 0 0 6.8488836436663405 4.9479667932050688 0 4.9479667932050688 5.5960883891648336 0 0 0 0 6.3340921230774256 9.3430327604181684 0 9.3430327604181684 21.41343315996869 0 0 0 0 4.7137502220653076 2.9776844088221956 0 2.9776844088221956 4.5495308179768328 0 0 0 0 0.048244467090626131 22.868829741046682 0 22.868829741046682 91.551214149448015 0 0 0 0 7.6887835563611588 20.926928644734517 0 20.926928644734517 84.565314753326334 0 0 0 0 -5.6298988689432008 8.6867084090641242 0 8.6867084090641242 102.69540738640353 0 0 0 0 5.9363446034753977 4.6382227644514149 0 4.6382227644514149 -9.8259254399450739 0 0 0 0 11.906898337439998 39.133495544967843 0 39.133495544967843 234.82943074620874 0 0 0 0 0.98763839627235939 2.7948793895893296 0 2.7948793895893296 6.8964401870515246 0 0 0 0 88.16150727746026 115.12257035750744 0 115.12257035750744 172.12715959039858 0 0 0 0 28.75392445909165 4.7810664464082322 0 4.7810664464082322 -16.296919008314035 0 0 0 0 30.316459206323998 38.421580446925873 0 38.421580446925873 33.208097975155397 0 0 0 0 1.733846306848708 20.559635917871955 0 20.559635917871955 42.958514561241948 0 0 0 0 9.0334752831004153 17.531971614760323 0 17.531971614760323 78.990941676859848 0 0 0 0 6.8262017319406141 30.522715814668871 0 30.522715814668871 25.746880040405603 0 0 0 0 -0.77798810917010996 23.518847620543056 0 23.518847620543056 12.608206024429819 0 0 0 0 4.2986452342203947 11.285404233271228 0 11.285404233271228 20.748008039899528 0 0 0 0 16.029369934960712 35.209392224143912 0 35.209392224143912 -5.9163651233968597 0 0 0 0 132.68302926355773 115.63073793281708 0 115.63073793281708 53.305700167355212 0 0 0 0 12.027407430978201 26.728029525476813 0 26.728029525476813 102.76505602600218 0 0 0 0 46.659002177979346 -8.7260323740538297 0 -8.7260323740538297 84.872592600389908 0 0 0 0 3.8849313865612203 -63.171244696962731 0 -63.171244696962731 132.31886520946136 0 0 0 0 -20.605890353581344 27.950470967367437 0 27.950470967367437 110.03651445959645 0 0 0 0 22.805377347833655 87.95833176273527 0 87.95833176273527 40.125577931950829 0 0 0 0 1.8011327543909985 6.8883121591827283 0 6.8883121591827283 7.5475313404730571 0 0 0 0 25.345471337237541 81.388529416304664 0 81.388529416304664 81.677393590037354 0 0 0 0 186.82068872587843 -65.472996100961609 0 -65.472996100961609 88.926155192300939 0 0 0 0 23.376755384913849 72.854119415587775 0 72.854119415587775 56.689123701780773 0 0 0 0 22.110567664763948 54.635410255961688 0 54.635410255961688 106.37933551912101 0 0 0 0 1.0554230992824998 -1.1653261981532168 0 -1.1653261981532168 -2.5198631706436885 0 0 0 0 -3.3853847387108544 94.197374787294393 0 94.197374787294393 155.44281262311779 0 0 0 0 1.3005743504327256 101.24604540679866 0 101.24604540679866 131.84790838107983 0 0 0 0 -100.94309982959021 75.119678156341251 0 75.119678156341251 113.27884149177521 0 0 0 0 -250.31175379938941 -102.58397081399016 0 -102.58397081399016 285.29057759082934 0 0 0 0 -30.893147601906094 152.75952734297607 0 152.75952734297607 115.51739046955117 0 0 0 0 -320.64713783258048 -148.12528609354194 0 -148.12528609354194 563.09131211810018 0 0 0 0 -671.72200769112897 28.664669487126957 0 28.664669487126957 513.6678582618988 0 0 0 0 -1.2073568742534917 18.004589183195492 0 18.004589183195492 82.453676699025323 0 0 0 0 -2.0328036184964731 28.191561115114268 0 28.191561115114268 81.561629019001543 0 0 0 0 -4.6687967156631203 20.086541298620205 0 20.086541298620205 84.598401314477485 0 0 0 0 36.572319476805205 105.62414314668422 0 105.62414314668422 4.3712984441081062 0 0 0 0 6.655268533282495 26.709165303151799 0 26.709165303151799 63.750535040978477 0 0 0 0 -53.893265748432896 31.040262767954118 0 31.040262767954118 119.17874289955944 0 0 0 0 158.62284318260208 21.696741263294825 0 21.696741263294825 -62.162889899147558 0 0 0 0 123.63178315819096 -133.72596595843424 0 -133.72596595843424 95.891894240925467 0 0 0 0 12.399895550850488 56.42910354265041 0 56.42910354265041 111.36751382199873 0 0 0 0 6.3495857853049529 32.081151275488082 0 32.081151275488082 127.74488394532273 0 0 0 0 -48.914685727966571 -0.71843492129482911 0 -0.71843492129482911 130.33365230246272 0 0 0 0 5.7547739399044389 30.108585710644917 0 30.108585710644917 62.921355568419266 0 0 0 0 -35.197350169031552 43.02775614755415 0 43.02775614755415 70.595566493918 0 0 0 0 -9.6850166119711503 35.057399986178439 0 35.057399986178439 63.110859067785441 0 0 0 0 -41.583348034604569 47.385886906828091 0 47.385886906828091 85.297028456850967 0 0 0 0 -7.2546643177025949 -15.15028621070967 0 -15.15028621070967 34.154678483214575 0 0 0 0 -3.9054695812724418 -6.6790540992786642 0 -6.6790540992786642 30.21305450438582 0 0 0 0 -1.5066303923103987 1.2423449060711391 0 1.2423449060711391 28.320244067541353 0 0 0 0 -7.3706982247189607 -8.3234673879610774 0 -8.3234673879610774 61.233019641374618 0 0 0 0 -8.9106464604265057 10.445592631564068 0 10.445592631564068 62.07300114618738 0 0 0 0 -12.435065315294196 10.510196941217146 0 10.510196941217146 83.534360568861302 0 0 0 0 11.848713947016222 24.077230052800587 0 24.077230052800587 96.287227279215585 0 0 0 0 -12.447433434823324 9.8748040641694388 0 9.8748040641694388 110.73250883324181 0 0 0 0 0.87938369828407303 20.014857891143038 0 20.014857891143038 114.99067407257098 0 0 0 0 -17.263234104750154 4.3192525445665524 0 4.3192525445665524 97.746878263442341 0 0 0 0 -1.6857232536603988 -20.592072046109024 0 -20.592072046109024 70.38422588724643 0 0 0 0 -4.8990455459424993 4.7240268307978113 0 4.7240268307978113 41.704107320862022 0 0 0 0 -7.5608744112279709 -8.133286056716825 0 -8.133286056716825 26.752853300773538 0 0 0 0 -5.0791937173162296 -31.287431797967656 0 -31.287431797967656 113.95409246515976 0 0 0 0 -12.920067120967673 -6.9527930737260064 0 -6.9527930737260064 39.032368655312503 0 0 0 0 -9.9217846795833395 -15.356349162572025 0 -15.356349162572025 33.825778801867379 0 0 0 0 -7.4048486781612155 -5.4614941220270001 0 -5.4614941220270001 91.735197167919821 0 0 0 0 -1.1524436572472041 -29.664285778310784 0 -29.664285778310784 54.658937675622838 0 0 0 0 -4.559078955095174 -15.755524101983667 0 -15.755524101983667 74.861802640993346 0 0 0 0 -3.9471190763269988 -14.419878885706083 0 -14.419878885706083 59.320553598083507 0 0 0 0 1.546035921181101 14.684707668625379 0 14.684707668625379 -26.573763687789324 0 0 0 0 25.024076179099211 -328.88262193645642 0 -328.88262193645642 470.39356411120025 0 0 0 0 3.2589293652541471 1.4767401643297617 0 1.4767401643297617 0.37014094408633014 0 0 0 0 64.510541967101744 23.616049652246147 0 23.616049652246147 -25.42964527863478 0 0 0 0 71.456689322882994 -1.2211571658823459 0 -1.2211571658823459 141.52534637338249 0 0 0 0 3.6987011275232362 18.83802136547456 0 18.83802136547456 111.34497178897072 0 0 0 0 -2.0758692251438333 18.323211633602114 0 18.323211633602114 199.34837464719203 0 0 0 0 -34.977124781096791 12.866807472582877 0 12.866807472582877 49.607584352106187 0 0 0 0 -20.875203127519853 29.468098844878114 0 29.468098844878114 51.799022977844288 0 0 0 0 -2.3908922212322068 -15.990081909912988 0 -15.990081909912988 144.78846977230114 0 0 0 0 1.9374901494816896 4.4186484950461065 0 4.4186484950461065 11.136707655107394 0 0 0 0 3.9458541797976068 27.193356789821337 0 27.193356789821337 -13.779958224047732 0 0 0 0 -40.055729224459355 37.205614417041943 0 37.205614417041943 155.70773669015762 0 0 0 0 -9.7185231962139369 81.333538000711997 0 81.333538000711997 60.565105847403174 0 0 0 0 -9.8041329782826665 91.539640223507689 0 91.539640223507689 235.79115959058981 0 0 0 0 71.271240159160698 55.948498862387623 0 55.948498862387623 -49.296433712508588 0 0 0 0 62.29794032800055 94.419638744991971 0 94.419638744991971 -72.013929304142948 0 0 0 0 48.140986780686944 86.865233464428457 0 86.865233464428457 60.827055761631527 0 0 0 0 38.45554332482061 59.707347761268466 0 59.707347761268466 90.521372044931923 0 0 0 0 -38.268078520775816 -4.9316829687049903 0 -4.9316829687049903 51.97016906530007 0 0 0 0 -19.841247532049024 -10.872650169997172 0 -10.872650169997172 16.051181530155596 0 0 0 0 -0.2086659620305511 2.8524353845623773 0 2.8524353845623773 10.056026737345455 0 0 0 0 -19.320637253831592 -17.30604335152384 0 -17.30604335152384 28.02722615548555 0 0 0 0 0.14817336162559513 -8.5562418289882771 0 -8.5562418289882771 69.338117837516847 0 0 0 0 22.758123868427333 87.507953064240098 0 87.507953064240098 241.95494032210991 0 0 0 0 -9.7362481796699285 -39.451878529997884 0 -39.451878529997884 -20.871716511297564 0 0 0 0 0.21479706034137891 -0.65239671341901229 0 -0.65239671341901229 0.049796407061499792 0 0 0 0 21.698132796484117 102.43674730284027 0 102.43674730284027 258.88286434316251 0 0 0 0 8.108710548520321 21.730768794675726 0 21.730768794675726 76.754329243268955 0 0 0 0 -2.7162618435390868 47.471435536712562 0 47.471435536712562 145.71886117678474 0 0 0 0 3.6029252707976411 23.575645563615808 0 23.575645563615808 30.454898534702807 0 0 0 0 5.4231286641770566 31.776704384434197 0 31.776704384434197 65.836295076980946 0 0 0 0 3.570891639205179 22.259257994288934 0 22.259257994288934 34.624570696098182 0 0 0 0 -61.687080186540697 246.16739889068958 0 246.16739889068958 351.18165605763289 0 0 0 0 4.8226067111099837 -3.3410730552368477 0 -3.3410730552368477 25.572941242167872 0 0 0 0 0.72397511272490078 0.94205241865334166 0 0.94205241865334166 7.6409543020510071 0 0 0 0 -68.146294207781466 3.4096244409811334 0 3.4096244409811334 359.22790453311347 0 0 0 0 132.96112871989317 123.1010533830995 0 123.1010533830995 89.663921887457036 0 0 0 0 -255.10987352204393 8.1556854085210944 0 8.1556854085210944 139.73907326433141 0 0 0 0 118.07474436660959 -9.5074544199942466 0 -9.5074544199942466 487.34093666083936 0 0 0 0 6.1149708550821309 1.1775908605207093 0 1.1775908605207093 -7.9427278802051759 0 0 0 0 65.37782310062903 220.07354297552592 0 220.07354297552592 153.972501635566 0 0 0 0 170.89836546633251 -14.17239165350793 0 -14.17239165350793 -109.16005844782194 0 0 0 0 29.476598932109482 -183.58764763396994 0 -183.58764763396994 -214.82686478124378 0 0 0 0 -16.638395088238894 -31.02497209772423 0 -31.02497209772423 82.477496521965804 0 0 0 0 -148.29893885989259 51.013189106957952 0 51.013189106957952 31.729850056555733 0 0 0 0 -2.8878312895218272 1.0300879364799513 0 1.0300879364799513 18.812819068858133 0 0 0 0 0.28128635525534662 -5.364213061769 0 -5.364213061769 42.286636220083274 0 0 0 0 -39.141594494511082 111.8052605863486 0 111.8052605863486 -150.34072173284221 0 0 0 0 -111.26541328555322 -157.09384346349907 0 -157.09384346349907 30.829013466238393 0 0 0 0 -127.08175884252341 -96.604690461152131 0 -96.604690461152131 117.44181227246008 0 0 0 0 -83.492188990850991 -82.388639188880916 0 -82.388639188880916 110.15528253310549 0 0 0 0 0.64049888376112829 -3.2580312935194335 0 -3.2580312935194335 0.98309462349040189 0 0 0 0 -221.38880323843114 -14.626665508479164 0 -14.626665508479164 94.306345972308918 0 0 0 0 4.8706706314858366 -5.8810983262861214 0 -5.8810983262861214 44.256944075146748 0 0 0 0 -114.10512301068229 0.87966794401654624 0 0.87966794401654624 14.414474314475228 0 0 0 0 -20.455228446724504 -39.409392323881548 0 -39.409392323881548 42.24337854589794 0 0 0 0 -57.502782466606732 -53.024122740931489 0 -53.024122740931489 63.23833784728231 0 0 0 0 -57.337699024257745 -57.123419983130589 0 -57.123419983130589 -13.448577254027441 0 0 0 0 -43.657613264846077 -47.136618312408245 0 -47.136618312408245 38.974310314009927 0 0 0 0 -21.30217638049362 -3.2512585118820425 0 -3.2512585118820425 78.96673807409752 0 0 0 0 127.23248595957557 12.161842997515123 0 12.161842997515123 129.24802264282334 0 0 0 0 4.3497742570461924 27.3241695506224 0 27.3241695506224 129.66380471216689 0 0 0 0 -8.3678213258681353 -22.351198474902048 0 -22.351198474902048 100.56503062323281 0 0 0 0 32.514561485575541 -57.429595558125584 0 -57.429595558125584 82.52565917303582 0 0 0 0 -101.91300294483517 -22.072153532822995 0 -22.072153532822995 84.716697229228885 0 0 0 0 -43.240534562143239 104.891542775777 0 104.891542775777 138.76895575530216 0 0 0 0 -76.560438217962655 -90.636451825697804 0 -90.636451825697804 115.76333363510639 0 0 0 0 8.5377291575314302 85.561234186496222 0 85.561234186496222 264.24191072145777 0 0 0 0 -2.0910234040002251 66.270797624194529 0 66.270797624194529 243.42973313749292 0 0 0 0 1.1162143028486753 47.37735154792972 0 47.37735154792972 155.60365067130806 0 0 0 0 22.619737587994678 2.0591546858577203 0 2.0591546858577203 176.71123399858516 0 0 0 0 25.799414362098787 49.608666880497196 0 49.608666880497196 139.22994641335754 0 0 0 0 11.397614960499737 49.702823513579403 0 49.702823513579403 117.91184921088279 0 0 0 0 10.197992893190531 18.692725425258686 0 18.692725425258686 106.7959770509442 0 0 0 0 3.7217539473240322 36.663641836586976 0 36.663641836586976 87.643281827387909 0 0 0 0 38.697955175925017 -4.5366089059971273 0 -4.5366089059971273 78.91579126198485 0 0 0 0 -29.008669393664604 -10.970943482996518 0 -10.970943482996518 87.840240655970774 0 0 0 0 43.307882331771907 40.644090897125352 0 40.644090897125352 91.946828020641988 0 0 0 0 -15.047738238186867 5.9299607170923991 0 5.9299607170923991 98.507828975597022 0 0 0 0 5.3286161565847578 -0.32109816352385678 0 -0.32109816352385678 62.72931572088055 0 0 0 0 -35.538240763251451 -28.224044424245221 0 -28.224044424245221 51.769690459223057 0 0 0 0 -52.695620168139612 -9.0899181299873817 0 -9.0899181299873817 70.993346233979537 0 0 0 0 -23.748046536231413 -16.595729296937861 0 -16.595729296937861 46.590268330553954 0 0 0 0 -60.715986074409102 3.74348554801918 0 3.74348554801918 37.704167128031258 0 0 0 0 -72.021612362254473 -34.622898129633541 0 -34.622898129633541 49.565912707654206 0 0 0 0 -3.1189316658865778 37.249179895768577 0 37.249179895768577 90.969845873329177 0 0 0 0 -1.3805243500137294 9.9440455983203719 0 9.9440455983203719 70.762736635737383 0 0 0 0 -28.00483249185163 22.086695841964683 0 22.086695841964683 65.911959268611099 0 0 0 0 -45.788763808901422 6.479308108200712 0 6.479308108200712 39.528172879850899 0 0 0 0 -6.4253158767669358 -2.8209496735882507 0 -2.8209496735882507 35.702015582850436 0 0 0 0 -10.945420973712316 -23.676261447473735 0 -23.676261447473735 12.774378426549447 0 0 0 0 -65.447476248373277 -30.970098254680124 0 -30.970098254680124 -15.347147902670258 0 0 0 0 -79.626462235977669 -20.655730749589566 0 -20.655730749589566 35.376219508766326 0 0 0 0 -37.713699468450159 -10.126100416631743 0 -10.126100416631743 8.5350332408124814 0 0 0 0 -84.904347612082347 -29.107392820180394 0 -29.107392820180394 20.905613139595516 0 0 0 0 -109.53867171719685 -46.135002593076933 0 -46.135002593076933 5.9941788735486625 0 0 0 0 -87.309586623082396 -22.653985092384573 0 -22.653985092384573 5.8767858877035906 0 0 0 0 -104.48706766199757 -64.344453400790371 0 -64.344453400790371 -15.104169695958262 0 0 0 0 -83.52539816153876 -73.381036159910764 0 -73.381036159910764 -75.816498667772976 0 0 0 0 -150.38398491037697 -112.82324432459245 0 -112.82324432459245 -24.20176452441774 0 0 0 0 92.327321698361629 3.6090611922581957 0 3.6090611922581957 462.48603098403692 0 0 0 0 -101.58236296729228 -10.386536689875356 0 -10.386536689875356 35.01823331462947 0 0 0 0 -86.487905671474437 -12.003441327251494 0 -12.003441327251494 -42.184022884641308 0 0 0 0 100.19948173621378 232.5160237666405 0 232.5160237666405 109.68021632384261 0 0 0 0 -191.14266396976518 37.526372706284064 0 37.526372706284064 168.70083348885419 0 0 0 0 2.0567695082441846 -3.0754216744236089 0 -3.0754216744236089 72.011093922785506 0 0 0 0 -7.8505256756816379 13.15345806910409 0 13.15345806910409 -45.30396419801059 0 0 0 0 -79.324039313960384 133.58036279378484 0 133.58036279378484 55.777251412013356 0 0 0 0 327.42565512320289 111.44120548660885 0 111.44120548660885 -36.533124449102615 0 0 0 0 -49.095578173259128 -104.89102576931873 0 -104.89102576931873 146.04291462351102 0 0 0 0 0.53514999827051568 -2.346113155551973 0 -2.346113155551973 26.261616343688047 0 0 0 0 5.145762235937001 -13.653548467169319 0 -13.653548467169319 37.080985990622096 0 0 0 0 -11.315940736280027 47.961424653216454 0 47.961424653216454 -48.607217352648149 0 0 0 0 -2.4611794800830751 3.7214044577514418 0 3.7214044577514418 4.1557484229406043 0 0 0 0 -77.867471373671833 -103.54711531543035 0 -103.54711531543035 36.719073145584844 0 0 0 0 -105.17419682324908 -54.17390219738445 0 -54.17390219738445 68.702707878223009 0 0 0 0 -66.283951488381717 -55.686134437164583 0 -55.686134437164583 62.524777926024399 0 0 0 0 -78.563902534904628 -28.47461767587447 0 -28.47461767587447 56.374359542936872 0 0 0 0 -115.17989962254796 -14.088768107281794 0 -14.088768107281794 70.359387823373254 0 0 0 0 -95.244407179905465 -74.445848650439075 0 -74.445848650439075 103.03030933512491 0 0 0 0 18.122209065833886 -5.6968685558331345 0 -5.6968685558331345 96.383821325577856 0 0 0 0 6.7061773177370014 5.2932970666297479 0 5.2932970666297479 136.61991937915082 0 0 0 0 23.745036712865158 -26.549380229225335 0 -26.549380229225335 173.71622824570477 0 0 0 0 83.765751239466226 -28.4616608997203 0 -28.4616608997203 83.583005039163254 0 0 0 0 20.078281497942953 10.168256584656774 0 10.168256584656774 84.836512251086901 0 0 0 0 32.251187429384117 -4.3920383430149741 0 -4.3920383430149741 75.025518446796923 0 0 0 0 16.852157612571318 -3.2919406370201614 0 -3.2919406370201614 95.975867960368532 0 0 0 0 17.137302903032833 -6.5370605020725634 0 -6.5370605020725634 81.810712891567164 0 0 0 0 12.236190093622781 -1.2878150371061565 0 -1.2878150371061565 76.265136208854528 0 0 0 0 -6.4659601288973843 17.318266469070824 0 17.318266469070824 68.782997302718286 0 0 0 0 9.4004237963563355 -11.611087549999866 0 -11.611087549999866 46.409823505906388 0 0 0 0 9.3462336013981258 16.639369091468325 0 16.639369091468325 67.04283331100487 0 0 0 0 5.6323235197596659 13.740316285433437 0 13.740316285433437 90.767638247297327 0 0 0 0 2.3135143107629119 14.586388404511581 0 14.586388404511581 102.93302445221707 0 0 0 0 -6.1043089533633292 29.255169395001417 0 29.255169395001417 139.69240387621176 0 0 0 0 -6.9909324824166106 34.379428770567756 0 34.379428770567756 124.36384098726376 0 0 0 0 2.2131115095944551 39.770636017341531 0 39.770636017341531 115.694040800322 0 0 0 0 -0.103671223811034 28.052484215448203 0 28.052484215448203 99.033045419533664 0 0 0 0 -2.7443172306520864 36.384123141964665 0 36.384123141964665 133.32618305728101 0 0 0 0 -3.6371455383662123 44.792348903289962 0 44.792348903289962 139.36011336141382 0 0 0 0 -23.282404222797595 22.92074908635459 0 22.92074908635459 146.15770217613044 0 0 0 0 6.4737447950528804 35.544359013761095 0 35.544359013761095 133.1716445791908 0 0 0 0 1.6182894599824067 27.860333081440331 0 27.860333081440331 133.073888524832 0 0 0 0 28.207469652717009 51.809745836387265 0 51.809745836387265 142.84903866396962 0 0 0 0 0.64277606300538537 24.349752054280088 0 24.349752054280088 189.97607292121029 0 0 0 0 12.457663240433249 23.427333172272483 0 23.427333172272483 115.42899843350824 0 0 0 0 -6.3483524138742595 -17.569259902065369 0 -17.569259902065369 15.359685513773041 0 0 0 0 -9.4068029639802262 9.7471749735395861 0 9.7471749735395861 75.473186398245161 0 0 0 0 -21.509443750150481 -16.456395269976525 0 -16.456395269976525 29.008652671621547 0 0 0 0 16.719317113196666 57.087486111606268 0 57.087486111606268 152.83597644162001 0 0 0 0 65.234525427542394 49.539490437582572 0 49.539490437582572 93.342087247692689 0 0 0 0 26.11966161293185 47.235920215008264 0 47.235920215008264 119.61638917689379 0 0 0 0 -17.123225252485845 -19.478635073579419 0 -19.478635073579419 32.747379403884025 0 0 0 0 -3.0679793846811663 10.23699152593872 0 10.23699152593872 85.677366386273206 0 0 0 0 -5.5043956802478533 3.4260240851117487 0 3.4260240851117487 70.381854400166048 0 0 0 0 -17.171619558033854 36.325460660290446 0 36.325460660290446 168.14350353945883 0 0 0 0 -15.033571816311451 -26.325041376486979 0 -26.325041376486979 71.547424462003619 0 0 0 0 -10.46885176720869 -15.514525663715787 0 -15.514525663715787 16.879491082366663 0 0 0 0 35.796814624205581 45.126864715706688 0 45.126864715706688 95.966075554460986 0 0 0 0 -11.450938453821436 11.951946694682192 0 11.951946694682192 104.87148867614633 0 0 0 0 -23.402751080211601 35.264093820453127 0 35.264093820453127 140.79827805094828 0 0 0 0 -14.677046998063986 -13.532997594198427 0 -13.532997594198427 15.309475617392025 0 0 0 0 57.997095568436634 -2.1977391096952488 0 -2.1977391096952488 63.088747469970258 0 0 0 0 13.639545109221217 27.313803077955527 0 27.313803077955527 142.09985374709868 0 0 0 0 -5.2998991486189055 0.49616789861681454 0 0.49616789861681454 13.257052702103003 0 0 0 0 12.476583716030746 38.343600038700515 0 38.343600038700515 250.53913172680768 0 0 0 0 77.237122328755504 -2.3609817820833996 0 -2.3609817820833996 51.089349434754695 0 0 0 0 150.94648249122838 -21.046766111721809 0 -21.046766111721809 137.51678032150812 0 0 0 0 64.300344368981314 177.20108431955668 0 177.20108431955668 70.688839247792203 0 0 0 0 -5.896204607024405 -8.4837343352035504 0 -8.4837343352035504 12.548626737456814 0 0 0 0 -10.760272762077086 -20.637924946214717 0 -20.637924946214717 38.186552762872005 0 0 0 0 4.7726360308133735 16.201459284933662 0 16.201459284933662 82.209809670104733 0 0 0 0 -3.4243631521039788 13.392756353705408 0 13.392756353705408 81.313661671825685 0 0 0 0 -81.220607527469838 86.836171359504078 0 86.836171359504078 9.8003265776351327 0 0 0 0 3.0035374216175867 22.519014778192798 0 22.519014778192798 62.511481689906361 0 0 0 0 104.1571163723238 216.60855088897006 0 216.60855088897006 118.57793702107 0 0 0 0 -63.650498523245915 119.74224159599908 0 119.74224159599908 64.159545910628367 0 0 0 0 -0.45647216397583179 5.5325400007704957 0 5.5325400007704957 81.786917866629665 0 0 0 0 -16.556058729376673 6.6683848883803876 0 6.6683848883803876 84.250261676625087 0 0 0 0 -26.686870714820465 -9.4125320833762913 0 -9.4125320833762913 24.665463250550033 0 0 0 0 -2.5315850405586389 11.762796921260815 0 11.762796921260815 84.24530566242538 0 0 0 0 -16.8862727013857 -18.151526674357513 0 -18.151526674357513 4.8429230210172207 0 0 0 0 -12.981295641216093 -2.9075672606322769 0 -2.9075672606322769 83.207526278511068 0 0 0 0 -32.456279435724355 63.238406085145471 0 63.238406085145471 325.89463522897131 0 0 0 0 -8.7208356613919022 -3.4823939270590927 0 -3.4823939270590927 80.269473798616673 0 0 0 0 -7.7304660581867211 1.2277041682318668 0 1.2277041682318668 64.168773061388492 0 0 0 0 -8.758982787892819 -1.9761079112358857 0 -1.9761079112358857 72.90878978395358 0 0 0 0 -4.2934616770173548 -19.575823826086591 0 -19.575823826086591 11.725657522137137 0 0 0 0 13.671197386749554 90.344296412524272 0 90.344296412524272 376.89310004421714 0 0 0 0 71.618666408297031 174.04688303394687 0 174.04688303394687 506.8371605930879 0 0 0 0 64.439863532112213 131.75486782952794 0 131.75486782952794 332.7123718180228 0 0 0 0 77.137134160339883 63.450374458609758 0 63.450374458609758 400.00029993572389 0 0 0 0 57.0834990875328 104.15755587142212 0 104.15755587142212 385.25693015029537 0 0 0 0 79.293113803119923 93.368259071379725 0 93.368259071379725 351.117601166854 0 0 0 0 -1.0708116340706084 -4.9609093715337167 0 -4.9609093715337167 3.0218851544776157 0 0 0 0 -25.982096643609111 65.701600058149779 0 65.701600058149779 565.64754323672969 0 0 0 0 42.872941575935329 119.80013043375948 0 119.80013043375948 407.76481104308186 0 0 0 0 80.188178866129419 127.64934080089552 0 127.64934080089552 405.98536010968382 0 0 0 0 32.337738917698516 139.48896682509439 0 139.48896682509439 538.97256547550205 0 0 0 0 -1.4495997187811724 -0.79102153650333662 0 -0.79102153650333662 10.473961974555365 0 0 0 0 16.124970649883835 101.9321710936274 0 101.9321710936274 16.032840114574356 0 0 0 0 -21.609212427439161 49.320384744391049 0 49.320384744391049 -56.339231785415905 0 0 0 0 -0.94166934628191967 6.2606748821393978 0 6.2606748821393978 51.081381532590171 0 0 0 0 -70.710575743778463 80.828743058536929 0 80.828743058536929 43.810800379127613 0 0 0 0 -155.557951092851 78.69623053703981 0 78.69623053703981 121.96418953198736 0 0 0 0 1.8924963825105934 11.737451774957911 0 11.737451774957911 58.709767627018607 0 0 0 0 -31.462386764016628 49.031856790366874 0 49.031856790366874 4.6655583216161176 0 0 0 0 -32.822892685457191 26.214637529359607 0 26.214637529359607 133.11799311196955 0 0 0 0 -20.134564452599079 39.949653653358837 0 39.949653653358837 147.08661741072137 0 0 0 0 -10.221842593387919 -113.57325891200162 0 -113.57325891200162 311.79211320227114 0 0 0 0 23.607874535769952 3.6345526724689989 0 3.6345526724689989 76.53339027587208 0 0 0 0 15.924148045251059 -16.069257663373719 0 -16.069257663373719 39.98935997330409 0 0 0 0 -96.351075162379857 -73.175436893448932 0 -73.175436893448932 100.73833483774069 0 0 0 0 -9.2691369855729135 8.0872993844168377 0 8.0872993844168377 62.318481762104057 0 0 0 0 -22.823893027358736 10.290872462132938 0 10.290872462132938 67.865026571180351 0 0 0 0 233.77993747626624 237.80043447203934 0 237.80043447203934 174.90337498912049 0 0 0 0 199.91449333048331 190.03972553054064 0 190.03972553054064 127.29325881345721 0 0 0 0 206.02904584756789 168.57435933471061 0 168.57435933471061 96.776050208150991 0 0 0 0 107.63283422919449 162.2225561064588 0 162.2225561064588 136.70166608164436 0 0 0 0 196.03305011685279 169.04460562258828 0 169.04460562258828 117.02786078583449 0 0 0 0 159.58321851334767 264.78211852797904 0 264.78211852797904 190.70403187779448 0 0 0 0 -1.9963322037085192 -0.41241343587392976 0 -0.41241343587392976 2.9621786802250369 0 0 0 0 -52.383391073970415 190.69530917399243 0 190.69530917399243 241.74926444736775 0 0 0 0 102.70623313940632 221.25287480905172 0 221.25287480905172 191.348730888305 0 0 0 0 121.56057407118169 180.46469680361042 0 180.46469680361042 276.21313754697621 0 0 0 0 63.034433683560565 194.57194074229483 0 194.57194074229483 278.61321671577025 0 0 0 0 -2.1953117403778073 -0.94281963568217009 0 -0.94281963568217009 4.0195122091486013 0 0 0 0 16.086110763930265 216.52256247200421 0 216.52256247200421 662.55648347053648 0 0 0 0 44.505034807145421 249.04853406322945 0 249.04853406322945 330.376870050668 0 0 0 0 70.277915253713672 169.71343117794095 0 169.71343117794095 354.29621889951522 0 0 0 0 -0.69172959308653503 -0.8541217056649657 0 -0.8541217056649657 0.95625142802255425 0 0 0 0 44.280361945946879 57.470999735324767 0 57.470999735324767 -175.46088312669599 0 0 0 0 -64.190108778653666 118.51940498778276 0 118.51940498778276 192.06188985415611 0 0 0 0 -16.766106293755001 136.25625982793645 0 136.25625982793645 197.19030904796091 0 0 0 0 -1.0994610373668152 -0.98574166411115982 0 -0.98574166411115982 -0.67074818669244962 0 0 0 0 -230.99183033329973 354.0573750676449 0 354.0573750676449 -275.75669703658787 0 0 0 0 13.022569100914893 -132.78641453687305 0 -132.78641453687305 441.34065387512237 0 0 0 0 -288.95647942775031 147.65059035514059 0 147.65059035514059 347.57075625469588 0 0 0 0 -106.24075868773252 168.2297891872804 0 168.2297891872804 232.98936257367313 0 0 0 0 209.43330722161681 209.03731820216854 0 209.03731820216854 204.6443310592731 0 0 0 0 96.184323073411633 315.64888131178304 0 315.64888131178304 174.99528935253329 0 0 0 0 215.07968113616926 346.17923545509257 0 346.17923545509257 465.31777790060733 0 0 0 0 -2.6235706429097263 100.19939368320411 0 100.19939368320411 187.68854952391848 0 0 0 0 483.23799038564857 189.90473255494544 0 189.90473255494544 266.20084772802511 0 0 0 0 232.17424510730598 251.99252190707557 0 251.99252190707557 264.6527403831642 0 0 0 0 228.12641199288225 189.31713955225587 0 189.31713955225587 158.78888475857093 0 0 0 0 51.73452273688838 468.63251621044219 0 468.63251621044219 331.9236678044108 0 0 0 0 1.2714486316127029 2.600610919627556 0 2.600610919627556 4.8402426327969295 0 0 0 0 -59.446392351354007 13.435454748600023 0 13.435454748600023 746.31517126717154 0 0 0 0 298.5327170696346 -373.45903885173902 0 -373.45903885173902 456.29630264075968 0 0 0 0 61.683854184002485 -87.425180201214971 0 -87.425180201214971 125.98674641085381 0 0 0 0 -70.721644431096138 -52.215152460572426 0 -52.215152460572426 191.14081567231915 0 0 0 0 53.934221192311384 -155.99727202337226 0 -155.99727202337226 261.9649821951898 0 0 0 0 -198.13548445369815 -80.14419529488805 0 -80.14419529488805 385.91742384532336 0 0 0 0 -59.41029762984752 17.604790741555462 0 17.604790741555462 217.41134854219854 0 0 0 0 -181.72878507083078 -18.025741634373844 0 -18.025741634373844 131.99038475203997 0 0 0 0 -206.33865919600328 57.834962809469971 0 57.834962809469971 249.51517242378031 0 0 0 0 -73.811493568140577 -15.778036290772434 0 -15.778036290772434 237.86731087959197 0 0 0 0 -103.88396994316827 6.2349157704011304 0 6.2349157704011304 273.7960328158515 0 0 0 0 -38.459261904784483 -26.791378397187998 0 -26.791378397187998 105.62667155664531 0 0 0 0 -38.826973711183854 -6.9851383759772148 0 -6.9851383759772148 131.0047483889939 0 0 0 0 -8.5107218791358719 7.7676856451289495 0 7.7676856451289495 79.516723867141991 0 0 0 0 -13.105731872114347 30.991243636852232 0 30.991243636852232 136.05052464982145 0 0 0 0 20.438728270875799 -10.036699355576275 0 -10.036699355576275 10.236169686389985 0 0 0 0 14.085968941932379 -5.5166085067958193 0 -5.5166085067958193 55.400184510486724 0 0 0 0 66.608952093411062 -60.779643404035596 0 -60.779643404035596 99.376765716238879 0 0 0 0 0.73453494172181522 3.3380936886794785 0 3.3380936886794785 13.3838779799826 0 0 0 0 75.587364175763469 -76.462779294979555 0 -76.462779294979555 124.50003765305655 0 0 0 0 172.21252222278144 -127.17629569554265 0 -127.17629569554265 2.4130020205157052 0 0 0 0 -300.65717917520703 64.489822781729345 0 64.489822781729345 210.98462263563124 0 0 0 0 -11.858330831034436 -1.3130840836947755 0 -1.3130840836947755 89.003786611059695 0 0 0 0 -1.4238935975936657 3.6981270827129507 0 3.6981270827129507 82.663476822139074 0 0 0 0 -13.18465686320269 99.322778591187671 0 99.322778591187671 77.484909033425993 0 0 0 0 -0.19776728192648108 -4.9480653803496715 0 -4.9480653803496715 27.908011467726418 0 0 0 0 -58.96810424988962 -42.893635340172295 0 -42.893635340172295 238.52383411575101 0 0 0 0 25.446869128363545 3.0329956505696885 0 3.0329956505696885 128.91616012364284 0 0 0 0 -24.950508636088227 -6.7635592260867554 0 -6.7635592260867554 41.672010815789143 0 0 0 0 -20.59218049530682 44.203851223218408 0 44.203851223218408 207.28414669061021 0 0 0 0 -2.1216281210582508 -14.915506584942737 0 -14.915506584942737 35.877322118719704 0 0 0 0 -4.5210392799177477 5.4578275310149493 0 5.4578275310149493 72.125992047896005 0 0 0 0 -26.13617309330948 12.343063938711566 0 12.343063938711566 65.902261883673418 0 0 0 0 22.363571207228233 50.377340875144 0 50.377340875144 159.5402393995173 0 0 0 0 -127.52504795135792 -25.86129046970018 0 -25.86129046970018 191.80054986578762 0 0 0 0 -34.587242773005244 -3.5110278908757238 0 -3.5110278908757238 92.596628191540745 0 0 0 0 63.666883894245984 -17.630421071691671 0 -17.630421071691671 22.096430748053535 0 0 0 0 -12.241192517885047 -0.99457071089915416 0 -0.99457071089915416 25.529804756713929 0 0 0 0 -37.505308721752954 -12.115119585418142 0 -12.115119585418142 84.865382445335854 0 0 0 0 -21.712988261248896 26.392738313587756 0 26.392738313587756 129.76966419070288 0 0 0 0 -11.830315594085647 -7.8185382004194466 0 -7.8185382004194466 85.8918977780706 0 0 0 0 -93.805426310784242 -66.412037336063804 0 -66.412037336063804 229.24994053832779 0 0 0 0 -46.418197523798881 53.075593409379508 0 53.075593409379508 28.670516760837927 0 0 0 0 -13.685425971236867 -7.6732311741320132 0 -7.6732311741320132 23.151533610295786 0 0 0 0 -40.504535365413176 9.5794987539702561 0 9.5794987539702561 219.40036680691992 0 0 0 0 -2.901109964826901 280.53566820711421 0 280.53566820711421 338.97246928086679 0 0 0 0 1.4479409174891771 138.44248035421333 0 138.44248035421333 -255.23156211718742 0 0 0 0 -190.6554922741517 92.908495624409625 0 92.908495624409625 146.89032183788368 0 0 0 0 -4.7649406708330275 -2.0669885598527458 0 -2.0669885598527458 -2.4040550062812969 0 0 0 0 -129.03206717491867 145.98048227407344 0 145.98048227407344 668.09165721556928 0 0 0 0 -100.75681453137076 -255.74586178261961 0 -255.74586178261961 288.28583563971915 0 0 0 0 -203.95270323766454 -75.557331235846505 0 -75.557331235846505 317.26744603586849 0 0 0 0 0.35525214142475292 -2.3171992847675043 0 -2.3171992847675043 6.4106004979955742 0 0 0 0 130.82713593405788 387.02679904072284 0 387.02679904072284 406.20520197595761 0 0 0 0 -520.28246048716937 -163.10922127812955 0 -163.10922127812955 -333.43640312322532 0 0 0 0 -23.975459413784847 151.1379528020625 0 151.1379528020625 355.40783689759519 0 0 0 0 -149.41817201276172 98.47554597819726 0 98.47554597819726 350.08260964915098 0 0 0 0 -84.544095480412579 303.18251909559876 0 303.18251909559876 638.41887731465977 0 0 0 0 -842.23288942846921 -129.33444919924659 0 -129.33444919924659 259.00412493874319 0 0 0 0 190.7571570281907 173.92024764621601 0 173.92024764621601 209.26513022834115 0 0 0 0 -77.471408793622686 -143.55655055140232 0 -143.55655055140232 80.220999627383094 0 0 0 0 14.16322573168145 -61.141741306011681 0 -61.141741306011681 -72.837762678020226 0 0 0 0 -252.4186192000343 -659.01839043362997 0 -659.01839043362997 307.50968131789568 0 0 0 0 -15.458571023566655 -24.852067471839661 0 -24.852067471839661 60.844115243540443 0 0 0 0 -692.59117256145691 -268.46270882325189 0 -268.46270882325189 -53.769334165845066 0 0 0 0 -5.4246781057740101 -14.989724789947481 0 -14.989724789947481 4.8106157665498301 0 0 0 0 -1.4752528730039955 0.85021703283611316 0 0.85021703283611316 9.7176544940092526 0 0 0 0 -155.83609177770632 64.469442318892106 0 64.469442318892106 44.171583913615905 0 0 0 0 -34.448856954148141 -4.1111579604007602 0 -4.1111579604007602 91.072838451713324 0 0 0 0 -0.436407133737994 11.460629063407243 0 11.460629063407243 74.313097653054029 0 0 0 0 -356.75216655889199 -225.69267605406276 0 -225.69267605406276 -84.729076162431738 0 0 0 0 -225.48359241377466 -50.267680683351045 0 -50.267680683351045 107.06654276001791 0 0 0 0 -243.17097024835311 -146.92192346064257 0 -146.92192346064257 28.613718059466919 0 0 0 0 -88.025012558309754 34.500367490269127 0 34.500367490269127 46.842948901499767 0 0 0 0 1.8688734794501691 -7.1982068218417012 0 -7.1982068218417012 17.697473461688418 0 0 0 0 -104.61214872783239 -65.314785897186084 0 -65.314785897186084 -40.529187381787779 0 0 0 0 -72.038285686703603 32.294535660781548 0 32.294535660781548 108.01542815283756 0 0 0 0 3.606892922397261 15.35953662488431 0 15.35953662488431 64.148016256375115 0 0 0 0 30.849471838581849 -25.980539092484833 0 -25.980539092484833 81.967486645407917 0 0 0 0 -14.156257839995305 19.38059546828481 0 19.38059546828481 69.333978717822902 0 0 0 0 66.803034355874843 54.956160218753212 0 54.956160218753212 73.004402280525028 0 0 0 0 22.686686447504144 6.9485705075921942 0 6.9485705075921942 65.56253751955046 0 0 0 0 -51.710936443436367 56.024988650386149 0 56.024988650386149 92.327908046369885 0 0 0 0 0.84271791452343958 13.213202096567322 0 13.213202096567322 80.460698184885928 0 0 0 0 61.681238982860577 -69.483119448423167 0 -69.483119448423167 39.977087917090103 0 0 0 0 0.31666459814530334 12.109844241846076 0 12.109844241846076 83.403161776775335 0 0 0 0 -9.9204794829506682 27.714823357188379 0 27.714823357188379 70.173112255171873 0 0 0 0 -64.65814285038141 86.323694344690011 0 86.323694344690011 70.931646136033123 0 0 0 0 -22.745599344294533 39.303653515169572 0 39.303653515169572 45.300409084931744 0 0 0 0 -89.792413077928359 -46.386301613783871 0 -46.386301613783871 32.145687792486569 0 0 0 0 -0.71513191343748517 3.9436284304025762 0 3.9436284304025762 8.8880462560239692 0 0 0 0 -45.613386993421045 31.19727996383881 0 31.19727996383881 116.89838787395274 0 0 0 0 -39.141647542447117 34.275860334067147 0 34.275860334067147 46.464028034693911 0 0 0 0 -33.683279056720494 43.213906175886223 0 43.213906175886223 60.020166738431726 0 0 0 0 -15.309125808073986 -19.25918809423456 0 -19.25918809423456 40.842949138226686 0 0 0 0 -65.816928688157532 -9.5299873355506861 0 -9.5299873355506861 24.153654754234594 0 0 0 0 -75.778191187654556 -3.8644252700414654 0 -3.8644252700414654 70.634906160281389 0 0 0 0 -37.971148215783614 24.8049917917524 0 24.8049917917524 65.777289158767417 0 0 0 0 0.63928056142912304 10.063711318985774 0 10.063711318985774 58.509912042468471 0 0 0 0 -33.084463738943668 15.386275918324827 0 15.386275918324827 83.92578796089947 0 0 0 0 19.056458510742232 3.4441096517912229 0 3.4441096517912229 55.353503980455571 0 0 0 0 -6.3497550700831198 -12.430495615419204 0 -12.430495615419204 124.67906493705232 0 0 0 0 -23.816846646281192 -15.860429633394233 0 -15.860429633394233 127.51815598290341 0 0 0 0 -3.7320369466863514 -6.4014015009023133 0 -6.4014015009023133 2.4164134541362046 0 0 0 0 -19.302928839923261 -12.103080844902529 0 -12.103080844902529 36.772770238183568 0 0 0 0 -31.620169084231748 26.357146376394667 0 26.357146376394667 77.491684949422051 0 0 0 0 -62.03075015041577 7.1175361845198495 0 7.1175361845198495 77.089063535328023 0 0 0 0 -21.071909007016075 1.4408242138742935 0 1.4408242138742935 64.465134331869194 0 0 0 0 -32.39603874635759 8.2009377042522829 0 8.2009377042522829 77.104992462103837 0 0 0 0 -9.7351927654929682 -30.468900249659782 0 -30.468900249659782 3.7926374955386564 0 0 0 0 -36.31254558832979 5.3213166684326154 0 5.3213166684326154 32.110087468726057 0 0 0 0 -2.175594345699702 3.4204969577464794 0 3.4204969577464794 -4.514416249044416 0 0 0 0 0.38803188587689874 61.776568495217361 0 61.776568495217361 74.592213589101448 0 0 0 0 -41.172233187221536 23.206610640860163 0 23.206610640860163 147.00638491453719 0 0 0 0 -17.137183532255222 68.565774420480011 0 68.565774420480011 192.29804067243822 0 0 0 0 -15.771111713659138 45.84903678768751 0 45.84903678768751 130.23028228402836 0 0 0 0 11.65589830425866 10.013920097135269 0 10.013920097135269 112.66204042336904 0 0 0 0 -0.49068016788532987 22.650864417853882 0 22.650864417853882 147.65581254212884 0 0 0 0 -14.142946217636563 43.21459878787573 0 43.21459878787573 84.550997690581426 0 0 0 0 18.257555638593658 39.408799779346737 0 39.408799779346737 83.672637292926083 0 0 0 0 -6.8476477241696827 18.695513824991934 0 18.695513824991934 -0.4342852274680169 0 0 0 0 -13.977353436739577 81.220132175723847 0 81.220132175723847 123.86172440504015 0 0 0 0 -18.887711328978185 51.419789940657211 0 51.419789940657211 184.15850156672241 0 0 0 0 6.0445773731808004 27.293766696871899 0 27.293766696871899 123.19612443361257 0 0 0 0 -1.5331672887687091 54.999783826326166 0 54.999783826326166 166.71415348891605 0 0 0 0 -16.846139857012531 53.020604003373592 0 53.020604003373592 155.77638634193863 0 0 0 0 3.2249472051535122 46.682097886627162 0 46.682097886627162 148.13787626123667 0 0 0 0 -43.531077713025752 56.240862119635494 0 56.240862119635494 151.39720066822338 0 0 0 0 2.3856529251675642 16.300124262125223 0 16.300124262125223 84.045238024309754 0 0 0 0 66.321795572625888 18.801165122842576 0 18.801165122842576 90.116725677220529 0 0 0 0 -0.65709091924895446 17.85244053975552 0 17.85244053975552 18.355289337438105 0 0 0 0 -37.429785335087217 44.099577395099914 0 44.099577395099914 77.838974083966605 0 0 0 0 49.870338655446176 6.0458074874986778 0 6.0458074874986778 89.057980059806141 0 0 0 0 10.025319094333554 -18.397848760472698 0 -18.397848760472698 49.796722173850867 0 0 0 0 -2.5199930824433006 1.6259552988562902 0 1.6259552988562902 5.6565729505794025 0 0 0 0 75.662936580198675 -88.796038811995459 0 -88.796038811995459 -0.34581734355015215 0 0 0 0 -98.948411499536405 -81.739523640553671 0 -81.739523640553671 91.744184564173338 0 0 0 0 0.80808179764268218 4.3742594902324115 0 4.3742594902324115 16.323415881753476 0 0 0 0 -169.62825029236592 37.382116639091691 0 37.382116639091691 26.169913700621692 0 0 0 0 62.195096051176733 -33.330552559498756 0 -33.330552559498756 24.046878801404091 0 0 0 0 0.19700167323222217 -1.4403252048787607 0 -1.4403252048787607 21.417181785600633 0 0 0 0 -83.090487465494334 -14.111538587803807 0 -14.111538587803807 67.844114003426512 0 0 0 0 -43.829731166926649 -60.236910502644605 0 -60.236910502644605 61.609938295066968 0 0 0 0 -58.548198204938672 -14.268917165438324 0 -14.268917165438324 48.762335851999524 0 0 0 0 5.7271805002565088 -37.851176322721585 0 -37.851176322721585 17.135279574227752 0 0 0 0 -55.249192459905316 -43.126510249709099 0 -43.126510249709099 56.339202445829869 0 0 0 0 3.3082790363851302 -14.636624648698159 0 -14.636624648698159 36.760753116565724 0 0 0 0 9.1349908216843687 -1.6900001214053191 0 -1.6900001214053191 25.371457385597751 0 0 0 0 -26.893974002736286 -50.22479719700641 0 -50.22479719700641 26.789660682514295 0 0 0 0 5.3673049616306798 -12.324075814006903 0 -12.324075814006903 25.575744259375341 0 0 0 0 -138.30895197211794 -75.304917285138799 0 -75.304917285138799 20.489506993864779 0 0 0 0 -126.73579839599915 -12.935967968005571 0 -12.935967968005571 45.604744353397109 0 0 0 0 -88.735474837207221 -15.912081126465637 0 -15.912081126465637 61.72482706583105 0 0 0 0 -63.029630949899001 -37.965866571292281 0 -37.965866571292281 5.3436270673591935 0 0 0 0 -47.934699396719225 1.5110201924253488 0 1.5110201924253488 58.697384817898637 0 0 0 0 -51.609394154465917 -3.9980888057652919 0 -3.9980888057652919 93.571706067858031 0 0 0 0 -66.835635326990086 -21.032130023751961 0 -21.032130023751961 71.167395167562063 0 0 0 0 -15.603640874187477 -12.626620129194635 0 -12.626620129194635 71.414233303323272 0 0 0 0 -21.273221787410197 -14.712650562336108 0 -14.712650562336108 4.4454011161815501 0 0 0 0 -7.4586510750603807 -1.8471322555911911 0 -1.8471322555911911 8.0140191556009768 0 0 0 0 -28.022060528719521 -15.030432942483458 0 -15.030432942483458 111.29019057367987 0 0 0 0 -71.825994693576604 -13.912766156823636 0 -13.912766156823636 45.865390528451826 0 0 0 0 -25.831051851775683 7.1584212897192288 0 7.1584212897192288 8.9253606821599263 0 0 0 0 -11.4628665467053 -14.13744000434599 0 -14.13744000434599 40.896147502367967 0 0 0 0 -9.6176799498939545 -5.0611353962631256 0 -5.0611353962631256 18.833116878100554 0 0 0 0 -31.178330261645897 -19.228007687896024 0 -19.228007687896024 58.210394787209225 0 0 0 0 -25.3082822294976 -10.029682834620445 0 -10.029682834620445 9.9759748183723644 0 0 0 0 -11.884083386758903 -2.4216071553528309 0 -2.4216071553528309 71.518696232829825 0 0 0 0 -29.761496236133098 -17.646360008860938 0 -17.646360008860938 70.982271813384614 0 0 0 0 -30.185544863561145 -2.0014450035840241 0 -2.0014450035840241 12.108499275746652 0 0 0 0 -47.874665905350412 -31.841185203913483 0 -31.841185203913483 86.775953453048714 0 0 0 0 -5.8418080594718713 -4.9082937048140494 0 -4.9082937048140494 3.1789510218801524 0 0 0 0 -7.5831350919215765 -30.956259617356409 0 -30.956259617356409 5.0449278721353039 0 0 0 0 -17.927944491488233 -7.956083025332191 0 -7.956083025332191 15.661397218063939 0 0 0 0 -14.929136274193297 -13.397177704275236 0 -13.397177704275236 54.946733281263732 0 0 0 0 -19.825828954598421 -13.98313215248389 0 -13.98313215248389 35.652515891130804 0 0 0 0 -20.698942311694282 -14.222503042115932 0 -14.222503042115932 33.895966419288015 0 0 0 0 -32.294717782595399 -30.76243630299723 0 -30.76243630299723 60.878777729143621 0 0 0 0 -14.736335772037206 -13.569168949632655 0 -13.569168949632655 5.8133986494729157 0 0 0 0 -2.2391893559361051 -27.917878462452791 0 -27.917878462452791 36.036693277404993 0 0 0 0 -17.794135124898716 -11.538116165722656 0 -11.538116165722656 31.205172387093683 0 0 0 0 -23.019824919378152 -13.449437113213207 0 -13.449437113213207 48.230564111967396 0 0 0 0 -13.709544891447202 -17.164432906197987 0 -17.164432906197987 22.07402770563678 0 0 0 0 -16.155098399021192 -17.379569535782409 0 -17.379569535782409 28.452724838337403 0 0 0 0 -14.115291155864099 -2.2273035434132993 0 -2.2273035434132993 31.60701251346083 0 0 0 0 -23.414099362439629 15.076686389635142 0 15.076686389635142 80.32508664643683 0 0 0 0 -17.665102900480836 -6.0664310648054709 0 -6.0664310648054709 21.070416789361268 0 0 0 0 -18.513753657927282 -7.873860103332845 0 -7.873860103332845 24.015510275929955 0 0 0 0 -8.5021297259938979 -7.0626332776053999 0 -7.0626332776053999 23.427811228521534 0 0 0 0 -7.1383693364082319 -82.166071607040067 0 -82.166071607040067 132.6005941221083 0 0 0 0 -231.96217444288504 87.610950498798047 0 87.610950498798047 32.115236222321982 0 0 0 0 -2.6063138560142391 -1.9974326698322784 0 -1.9974326698322784 6.7172320365064415 0 0 0 0 -18.463893278150863 -15.299043199105654 0 -15.299043199105654 29.761872191627845 0 0 0 0 -161.60213345326599 27.367531736234014 0 27.367531736234014 102.41352873540018 0 0 0 0 -13.339009079015998 -10.303402051784495 0 -10.303402051784495 20.890467175171153 0 0 0 0 109.00168398766272 -311.1372676862602 0 -311.1372676862602 377.29632216015307 0 0 0 0 123.06679450743559 -231.48483973408293 0 -231.48483973408293 294.87792828480633 0 0 0 0 160.83584217741372 -266.54032690416352 0 -266.54032690416352 299.79689024033542 0 0 0 0 112.25760442239698 -194.72244624227096 0 -194.72244624227096 242.39933748937619 0 0 0 0 -28.651913400944522 -25.386801099575678 0 -25.386801099575678 63.366561287635705 0 0 0 0 -15.533647535413593 -214.3041602738158 0 -214.3041602738158 260.75538267215597 0 0 0 0 116.4039404327259 88.922853884185315 0 88.922853884185315 46.159463071759092 0 0 0 0 296.72629627939023 -195.46169857641507 0 -195.46169857641507 182.22911317995749 0 0 0 0 -2.3874469291514373 4.5994250958117053 0 4.5994250958117053 33.192228216059789 0 0 0 0 -5.1019821729128196 5.4314495897321819 0 5.4314495897321819 8.5201564532584371 0 0 0 0 199.37444078935732 -93.177428040391533 0 -93.177428040391533 7.6693709311366547 0 0 0 0 19.540403867626992 73.894083483828581 0 73.894083483828581 85.746340753685217 0 0 0 0 -36.545230927447392 -8.1999747879344795 0 -8.1999747879344795 87.841751085099531 0 0 0 0 -56.509401513955709 50.577503794091172 0 50.577503794091172 181.40798715711571 0 0 0 0 -101.22006889729528 183.67899670419865 0 183.67899670419865 192.11329126477358 0 0 0 0 50.003195923168278 168.43199346106121 0 168.43199346106121 3.8175323582836427 0 0 0 0 648.57608815827371 188.48666292247799 0 188.48666292247799 3.0434168699969177 0 0 0 0 1.0563830560621987 1.8632103284020278 0 1.8632103284020278 10.981961619935873 0 0 0 0 -3.4455358215885559 -1.6261498644057042 0 -1.6261498644057042 0.8089051220920993 0 0 0 0 -168.5340790735213 173.22541010189161 0 173.22541010189161 241.93273520313596 0 0 0 0 -87.242553512339043 88.045511137654103 0 88.045511137654103 417.05775940896274 0 0 0 0 -42.116562532858552 76.901247488167428 0 76.901247488167428 218.75215073973231 0 0 0 0 -22.725417823996061 -14.969783498869219 0 -14.969783498869219 353.56624374166131 0 0 0 0 -64.729897860650453 -101.91300408203097 0 -101.91300408203097 17.862322854939862 0 0 0 0 -47.918262332786526 -23.991588996879727 0 -23.991588996879727 209.30919580759655 0 0 0 0 26.878760839602819 115.94153663024917 0 115.94153663024917 334.10962463647593 0 0 0 0 51.926009672704268 14.288282281289867 0 14.288282281289867 340.89608343478267 0 0 0 0 -1.5826082240434141 -0.52084868904101711 0 -0.52084868904101711 2.0218553113975872 0 0 0 0 42.107710852586251 74.883768168496317 0 74.883768168496317 116.35311101118532 0 0 0 0 -14.954611694231623 -34.236496939331118 0 -34.236496939331118 291.84626260798541 0 0 0 0 24.106380218693857 40.050821283735786 0 40.050821283735786 256.67640897657839 0 0 0 0 -59.470480453869357 3.1333452060271156 0 3.1333452060271156 258.63245745770109 0 0 0 0 10.988377685789187 13.14930582928568 0 13.14930582928568 -0.15893899179912463 0 0 0 0 -138.23028712294172 -204.12774316747164 0 -204.12774316747164 -142.753009597036 0 0 0 0 -394.52379505144654 -277.32020806096989 0 -277.32020806096989 563.82283128271752 0 0 0 0 -159.69575336565867 359.80345926810696 0 359.80345926810696 582.59531872448861 0 0 0 0 -385.34588566815091 -116.1556502970052 0 -116.1556502970052 1169.1931608909781 0 0 0 0 -117.00382175000141 519.82144939581394 0 519.82144939581394 958.95755180883862 0 0 0 0 9.7411138892275879 15.619672939311727 0 15.619672939311727 -1.2497492611589838 0 0 0 0 1199.1972667917948 41.911006193138746 0 41.911006193138746 -846.43459113730205 0 0 0 0 -335.59391405973332 404.82402413495709 0 404.82402413495709 164.05465109615761 0 0 0 0 -339.85150550286835 -11.733284779824317 0 -11.733284779824317 1117.4262943638605 0 0 0 0 796.91897845469907 -791.77046835265355 0 -791.77046835265355 666.62435750187433 0 0 0 0 -159.89654411668027 -136.61495991448101 0 -136.61495991448101 533.91437540594779 0 0 0 0 577.94414203448287 20.526826144894585 0 20.526826144894585 187.26809867309385 0 0 0 0 -12.797778507553405 0.2728930261772291 0 0.2728930261772291 -3.175242266663183 0 0 0 0 81.00308297376796 -295.8176244765782 0 -295.8176244765782 348.18325806411303 0 0 0 0 -65.828857616448659 40.574995112117904 0 40.574995112117904 173.88543606702297 0 0 0 0 -67.934009883977524 -73.920791322772857 0 -73.920791322772857 327.59349899632798 0 0 0 0 -111.19254411627912 8.3621366841107374 0 8.3621366841107374 219.79979479295434 0 0 0 0 -231.3919720030085 27.23631160482546 0 27.23631160482546 280.38057886985189 0 0 0 0 3.9939881864775089 37.094595606757139 0 37.094595606757139 154.15624604345794 0 0 0 0 -22.637199004026265 2.634799119069811 0 2.634799119069811 29.835560803710074 0 0 0 0 -22.632860632743359 36.68689043696213 0 36.68689043696213 267.63175892636355 0 0 0 0 9.1563989398623562 20.537508795489885 0 20.537508795489885 182.01846135272353 0 0 0 0 -28.30649028433254 65.426923322454968 0 65.426923322454968 287.13232963435439 0 0 0 0 16.590981909603215 54.272642905154498 0 54.272642905154498 184.03510538954833 0 0 0 0 -38.557923040584683 47.099040805096593 0 47.099040805096593 255.62579899058619 0 0 0 0 54.121622145570655 17.191080563468859 0 17.191080563468859 258.89610356088633 0 0 0 0 4.9316471595850544 77.961298715454177 0 77.961298715454177 309.34400204451231 0 0 0 0 -14.836650635909791 22.218862756169983 0 22.218862756169983 289.6020385593074 0 0 0 0 2.2920579151227685 78.539446537215554 0 78.539446537215554 235.04471998693771 0 0 0 0 5.4582057736270144 53.809328408766305 0 53.809328408766305 196.89022433260834 0 0 0 0 -105.02760036104496 -51.086853752254683 0 -51.086853752254683 310.98193222509144 0 0 0 0 -46.575414024780912 36.953859933390049 0 36.953859933390049 375.38600521022454 0 0 0 0 -7.7400970325882659 -1.2387470784401842 0 -1.2387470784401842 1.4270179010002764 0 0 0 0 -264.08459120820271 -13.400444252212765 0 -13.400444252212765 411.4546422544372 0 0 0 0 339.58822903908322 452.38204463349393 0 452.38204463349393 384.80542216281901 0 0 0 0 -198.26113468710361 334.52609370793107 0 334.52609370793107 695.03600171138532 0 0 0 0 -39.246424807328822 19.251049132066328 0 19.251049132066328 38.860475985275116 0 0 0 0 0.18039924767745319 -0.49548403269514552 0 -0.49548403269514552 4.5548830785652115 0 0 0 0 201.11180729454554 -181.04908094595885 0 -181.04908094595885 115.53020926454337 0 0 0 0 85.974764300899523 120.54396479925708 0 120.54396479925708 131.20856068118883 0 0 0 0 -5.5214086127539304 27.011474332030048 0 27.011474332030048 152.3524217241411 0 0 0 0 0.4783717327881063 0.12458079165877223 0 0.12458079165877223 13.798656054787784 0 0 0 0 -42.834462154194071 -49.548399730698293 0 -49.548399730698293 180.61278634691553 0 0 0 0 -79.576166996328652 36.199562093112036 0 36.199562093112036 238.79291892969923 0 0 0 0 -62.951438566644697 86.596925643643772 0 86.596925643643772 389.35284228191267 0 0 0 0 -4.7259174798823551 6.4564898881835688 0 6.4564898881835688 62.37887480134259 0 0 0 0 5.6096435280785828 12.124770529482916 0 12.124770529482916 7.0203104368801572 0 0 0 0 28.85820653001042 14.659846745878895 0 14.659846745878895 32.150521551324346 0 0 0 0 25.057033404069443 2.8571371277212165 0 2.8571371277212165 43.535282292406919 0 0 0 0 -2.0933492939125582 -0.22126618970669654 0 -0.22126618970669654 7.3405646577140011 0 0 0 0 -25.783050778242796 39.995327341850498 0 39.995327341850498 4.2289909479111429 0 0 0 0 -167.97360289906032 -15.122283392229292 0 -15.122283392229292 159.49883107882488 0 0 0 0 -94.540558241133795 -57.935057696933654 0 -57.935057696933654 190.81294147521839 0 0 0 0 -45.0015244496999 -58.685591171917622 0 -58.685591171917622 178.72503353335924 0 0 0 0 -56.568832534455169 -132.46390793969294 0 -132.46390793969294 232.07370354433078 0 0 0 0 -40.96383452573491 -157.40301311193252 0 -157.40301311193252 239.22875432870933 0 0 0 0 125.3290133063947 -69.746444556629285 0 -69.746444556629285 5.4437975417858979 0 0 0 0 -13.074337171463412 -34.622702282911632 0 -34.622702282911632 238.17583805880349 0 0 0 0 -8.118031337361117 -84.496411607091432 0 -84.496411607091432 169.52150796787464 0 0 0 0 7.5097074357245219 -10.456414617713563 0 -10.456414617713563 252.62603951824713 0 0 0 0 -44.327952584631021 -168.09401974017237 0 -168.09401974017237 -141.19436123144988 0 0 0 0 72.836661013679759 156.05998706401442 0 156.05998706401442 299.91106493062398 0 0 0 0 -1.5480337201425947 -0.35510874851341612 0 -0.35510874851341612 1.0055530212475645 0 0 0 0 -67.49619574996359 -85.223815314624517 0 -85.223815314624517 180.01242211592034 0 0 0 0 170.88749374483632 39.69734242328559 0 39.69734242328559 -49.144060772137891 0 0 0 0 -94.93561648879222 -41.164957467968634 0 -41.164957467968634 156.06297502256348 0 0 0 0 -98.941705160716367 -157.66264805610547 0 -157.66264805610547 17.613878669610131 0 0 0 0 66.762596162744558 -4.034366536361631 0 -4.034366536361631 85.043845461477758 0 0 0 0 -16.120364313801474 -111.29630968705169 0 -111.29630968705169 156.56823844497558 0 0 0 0 -201.71554141733759 61.565845791506945 0 61.565845791506945 202.29156282191798 0 0 0 0 -3.7186594605979915 12.594854694699404 0 12.594854694699404 137.37776287490706 0 0 0 0 103.54190284346441 -91.236569996093749 0 -91.236569996093749 83.382990182202775 0 0 0 0 -111.23423659531818 6.8584408906426688 0 6.8584408906426688 136.9421740559992 0 0 0 0 -34.307165627379618 5.5600684188684681 0 5.5600684188684681 211.98501093858249 0 0 0 0 -9.0637307445485931 -49.446638746478129 0 -49.446638746478129 221.57284211157821 0 0 0 0 -34.835667158675278 -29.59015745286888 0 -29.59015745286888 306.42192617944465 0 0 0 0 -16.23312796781147 3.111849669363437 0 3.111849669363437 201.81735842314447 0 0 0 0 -16.40686522624037 3.9168191011704039 0 3.9168191011704039 198.79556320582196 0 0 0 0 -7.2401936188258809 11.941456958867441 0 11.941456958867441 139.65733535173956 0 0 0 0 -117.64858046001609 -55.319972461253201 0 -55.319972461253201 146.33157941542959 0 0 0 0 -100.52384018639032 -27.662572816631837 0 -27.662572816631837 176.37552072124527 0 0 0 0 -42.137615018431461 42.75765624568885 0 42.75765624568885 166.05145119257031 0 0 0 0 -1.080935956702028 -0.055471926837853403 0 -0.055471926837853403 37.44446765234531 0 0 0 0 -31.732354177414891 16.867853158946673 0 16.867853158946673 209.41946575824022 0 0 0 0 -2.2822222782218109 24.618396759443073 0 24.618396759443073 132.48574738366133 0 0 0 0 0.039896004547699704 28.841954616072599 0 28.841954616072599 139.33605819185323 0 0 0 0 -36.820262660884509 -49.479751209011738 0 -49.479751209011738 124.73445970704415 0 0 0 0 -10.429635122258333 -103.21398516386853 0 -103.21398516386853 196.85069222767231 0 0 0 0 -62.801789810804621 -75.756571288256964 0 -75.756571288256964 126.1870662076426 0 0 0 0 -109.05599473492111 1.5617041510267882 0 1.5617041510267882 158.42988931224318 0 0 0 0 -114.90815613167644 -11.501598888721901 0 -11.501598888721901 180.47476025379001 0 0 0 0 -59.730929608689621 -41.279114781165845 0 -41.279114781165845 193.27984801810271 0 0 0 0 -56.557640488923994 -25.183367126650865 0 -25.183367126650865 190.2540836900007 0 0 0 0 -72.825537936683759 46.501964822877198 0 46.501964822877198 179.70649411473278 0 0 0 0 -31.255898005683321 139.73053408801843 0 139.73053408801843 385.08667771378896 0 0 0 0 -110.33397861118101 25.088848723964475 0 25.088848723964475 258.59325860897479 0 0 0 0 -77.078407256353785 11.335836070090409 0 11.335836070090409 139.48486301603771 0 0 0 0 11.856724583256437 116.7994997082551 0 116.7994997082551 207.07224111312462 0 0 0 0 73.792946090894475 127.89006887455616 0 127.89006887455616 204.8221097415244 0 0 0 0 17.832135424298031 118.96612743070364 0 118.96612743070364 167.09080017895576 0 0 0 0 95.950463439328814 178.3418937677543 0 178.3418937677543 189.91274547274861 0 0 0 0 184.75362983612104 -84.889260723561165 0 -84.889260723561165 -16.900645795023593 0 0 0 0 183.01242137831287 179.37791569318324 0 179.37791569318324 108.82399152420112 0 0 0 0 -58.18865519438441 -92.512397941623931 0 -92.512397941623931 150.60713092628066 0 0 0 0 383.55747603401278 395.24598307008341 0 395.24598307008341 416.95255069394261 0 0 0 0 544.16404479669973 -155.05826956036867 0 -155.05826956036867 145.56496740717193 0 0 0 0 -25.821715406199644 14.230700263950439 0 14.230700263950439 66.912740871478491 0 0 0 0 -39.013314322807119 -20.734755157433227 0 -20.734755157433227 67.484014075528478 0 0 0 0 -138.86014442747728 -420.11538889771873 0 -420.11538889771873 -13.758824181082218 0 0 0 0 -133.44485983578488 -17.006098187392126 0 -17.006098187392126 101.67514989052506 0 0 0 0 -69.554644925436151 -101.21373922340354 0 -101.21373922340354 854.91509895051968 0 0 0 0 -98.968613484577872 80.940377289360185 0 80.940377289360185 121.20415680479573 0 0 0 0 -287.43993640309327 -2.3329293854710613 0 -2.3329293854710613 433.23200622950026 0 0 0 0 -241.66749327260277 -143.88397597832477 0 -143.88397597832477 124.90352922451711 0 0 0 0 -35.690725161868613 275.04296643204179 0 275.04296643204179 382.12435567896819 0 0 0 0 -147.14413373937168 149.82473468229273 0 149.82473468229273 395.27044446620857 0 0 0 0 342.00371765221371 474.08538919443072 0 474.08538919443072 486.03145557320568 0 0 0 0 23.015135440962695 41.270940578418049 0 41.270940578418049 132.36230922493405 0 0 0 0 92.221953718637451 171.75921078630927 0 171.75921078630927 209.90648062447144 0 0 0 0 35.803116532896638 88.305976726064955 0 88.305976726064955 190.49000851585151 0 0 0 0 23.127424509446428 40.343470952806456 0 40.343470952806456 317.3012276467598 0 0 0 0 -64.743111121473703 -76.605693450868785 0 -76.605693450868785 310.43358080023972 0 0 0 0 -62.16667799591869 -11.383569438093218 0 -11.383569438093218 745.21165815955646 0 0 0 0 -0.2166760280335378 -0.015691944492054688 0 -0.015691944492054688 10.642656112501712 0 0 0 0 39.836169239274113 -248.25318113440244 0 -248.25318113440244 184.29936724229992 0 0 0 0 16.949547190719386 -7.6461022185094407 0 -7.6461022185094407 -26.801459056693602 0 0 0 0 55.660502829974121 -84.977399150427118 0 -84.977399150427118 62.181808486009686 0 0 0 0 19.78871934927156 2.566518729663585 0 2.566518729663585 19.815047193908867 0 0 0 0 -234.52001219128397 -109.08844152794882 0 -109.08844152794882 64.207268749978539 0 0 0 0 79.742545785434231 -84.691624645581214 0 -84.691624645581214 -36.902513052988979 0 0 0 0 54.460451388627803 84.091528921509166 0 84.091528921509166 132.6621460521892 0 0 0 0 37.749015325785876 27.485757651124914 0 27.485757651124914 119.2291433883529 0 0 0 0 3.2392541890130815 50.579239734899602 0 50.579239734899602 129.84692408731553 0 0 0 0 -0.38108106997450442 -1.9258569297295018 0 -1.9258569297295018 28.275061765626738 0 0 0 0 33.727206912572001 30.111972410182261 0 30.111972410182261 12.726950496204154 0 0 0 0 -4.0415246396696602 -41.557947221665017 0 -41.557947221665017 35.978911410135652 0 0 0 0 25.423973087686136 37.684682995295589 0 37.684682995295589 110.96981478146336 0 0 0 0 39.599479416807299 9.8966079080846612 0 9.8966079080846612 41.26408127106879 0 0 0 0 16.099366901937174 -9.162745895308035 0 -9.162745895308035 65.471579262755768 0 0 0 0 -11.511237229737162 -8.8821249817974604 0 -8.8821249817974604 40.203140432432519 0 0 0 0 22.060556042182725 -23.696430973686802 0 -23.696430973686802 45.650848822286207 0 0 0 0 16.300407288515999 -30.955276062693883 0 -30.955276062693883 99.409120310490835 0 0 0 0 3.145579558255589 3.5029335467854956 0 3.5029335467854956 -0.71574128728183695 0 0 0 0 35.183760027437529 -2.5038335783165167 0 -2.5038335783165167 55.222143656685148 0 0 0 0 10.316763718594302 -1.4174426911044975 0 -1.4174426911044975 69.517097548901802 0 0 0 0 -367.02797297755114 -43.17764656992631 0 -43.17764656992631 331.9861979344787 0 0 0 0 -37.531873011475909 -31.730745726130863 0 -31.730745726130863 65.757954349032843 0 0 0 0 -2.1787747670699886 -5.5802574665540519 0 -5.5802574665540519 38.668268240083769 0 0 0 0 24.86246582577769 -153.59914285229706 0 -153.59914285229706 13.258515915222233 0 0 0 0 -122.31929668219709 359.76455575832006 0 359.76455575832006 167.61012532526365 0 0 0 0 0.82680168959422673 -4.373501237550208 0 -4.373501237550208 9.4086336143174165 0 0 0 0 -333.06425438446604 310.68394574923332 0 310.68394574923332 -385.80351737001911 0 0 0 0 -39.612827901075434 -195.87012081225294 0 -195.87012081225294 298.88670488315256 0 0 0 0 1.8342999468557988 -3.4666367339068813 0 -3.4666367339068813 0.68497956207383481 0 0 0 0 143.93982825362764 126.87180017950232 0 126.87180017950232 148.93608405099803 0 0 0 0 0.55075087545560564 -3.2865897940199105 0 -3.2865897940199105 5.7460578729522602 0 0 0 0 1.4178267271044547 -21.08843952143399 0 -21.08843952143399 2.8895089757765433 0 0 0 0 -3.2134233490417961 3.5445475752148781 0 3.5445475752148781 81.301021268902318 0 0 0 0 2.8954544367807102 -10.092496221564943 0 -10.092496221564943 -15.176800652359816 0 0 0 0 -174.58268467706102 -59.009277834256864 0 -59.009277834256864 200.3615948111692 0 0 0 0 -85.137444326970581 -177.05764460916907 0 -177.05764460916907 342.69434777565948 0 0 0 0 160.54027581899209 -133.93418449229739 0 -133.93418449229739 79.097111938608577 0 0 0 0 -69.071211190088434 -50.190168515715413 0 -50.190168515715413 163.94581434410429 0 0 0 0 -45.602001812985691 15.014106456063018 0 15.014106456063018 216.38313797175397 0 0 0 0 505.67281293262567 269.355615161483 0 269.355615161483 101.14377453019915 0 0 0 0 -0.86923566003300579 -0.44931464367149054 0 -0.44931464367149054 3.8207530544264046 0 0 0 0 -105.91449362102776 261.63230876392481 0 261.63230876392481 367.83132834350545 0 0 0 0 -228.21896099969035 178.61075877466328 0 178.61075877466328 397.70135928075251 0 0 0 0 -93.476287579060227 -121.12983967521996 0 -121.12983967521996 -78.901543941428827 0 0 0 0 -163.62339982382127 -68.100225462348135 0 -68.100225462348135 22.726843563781586 0 0 0 0 -142.53811918614883 -39.653474370946242 0 -39.653474370946242 26.102914237570076 0 0 0 0 -37.068907001976186 1.2772712382084137 0 1.2772712382084137 -5.7598572670904105 0 0 0 0 -6.8618688064982507 -9.2753474408470993 0 -9.2753474408470993 52.603343182265235 0 0 0 0 -96.699072413787462 -106.29048334665754 0 -106.29048334665754 50.037583332392387 0 0 0 0 -18.177532075531417 -58.889752514691281 0 -58.889752514691281 42.291478715825178 0 0 0 0 -9.3369046636316853 -25.760906708224866 0 -25.760906708224866 116.77542221646945 0 0 0 0 -40.58798134205972 -19.937268821231555 0 -19.937268821231555 116.11180042492106 0 0 0 0 -10.737372276423457 -19.201065957578521 0 -19.201065957578521 99.792323104298703 0 0 0 0 -14.599223990386236 -6.9113266272197507 0 -6.9113266272197507 108.04675463074273 0 0 0 0 10.940789093108833 -13.476618857906942 0 -13.476618857906942 71.147907889524504 0 0 0 0 12.360565681592561 5.9321258175077674 0 5.9321258175077674 74.085259136266473 0 0 0 0 14.119101861138233 -2.4091313813680699 0 -2.4091313813680699 94.607655609095673 0 0 0 0 12.699106404897066 7.8748138293549346 0 7.8748138293549346 80.674396677388359 0 0 0 0 7.0092991861638438 19.426575475674326 0 19.426575475674326 78.385281880256116 0 0 0 0 -0.53909475613727409 9.7750580461979553 0 9.7750580461979553 94.292244964066867 0 0 0 0 2.4601803075192947 16.812134062409314 0 16.812134062409314 102.89841625400004 0 0 0 0 -5.5816780107033992 25.040300320823007 0 25.040300320823007 119.56580415780945 0 0 0 0 0.27309116922646837 1.7514058799927454 0 1.7514058799927454 28.728660071110635 0 0 0 0 0.16649899016920244 30.498525207737657 0 30.498525207737657 97.324035578731127 0 0 0 0 2.1946301140874596 25.251753853892463 0 25.251753853892463 124.49088770194979 0 0 0 0 -11.928830447635846 12.425373399473756 0 12.425373399473756 165.25933659321777 0 0 0 0 -17.570645743285013 4.3504386815973248 0 4.3504386815973248 147.57308896839095 0 0 0 0 -22.533266104901486 30.570985168124025 0 30.570985168124025 140.00776894033334 0 0 0 0 -25.003269718930824 -33.20795556669691 0 -33.20795556669691 122.89313735880319 0 0 0 0 -22.706415570029094 -3.4292680870303229 0 -3.4292680870303229 131.2449670397109 0 0 0 0 17.537767964362502 -5.3559184449522945 0 -5.3559184449522945 130.82072547993084 0 0 0 0 -8.773752954446536 7.6655952949950006 0 7.6655952949950006 142.96030280134437 0 0 0 0 -37.439999719201296 -5.3759674726416051 0 -5.3759674726416051 149.4542786076272 0 0 0 0 -0.90924068216631126 -13.860679288423853 0 -13.860679288423853 -0.04220255020482 0 0 0 0 0.0083116622022471401 -0.10812987799465645 0 -0.10812987799465645 0.24507748812669661 0 0 0 0 3.8265194122813853 22.492987557285232 0 22.492987557285232 46.58834024395037 0 0 0 0 -4.6341523112259608 10.116030159988441 0 10.116030159988441 54.699633863972849 0 0 0 0 -0.017221163079146562 1.1459929037482652 0 1.1459929037482652 39.113655859873688 0 0 0 0 -2.8312750400014566 -9.8113947981473757 0 -9.8113947981473757 8.4884515380254015 0 0 0 0 5.6510290500325251 5.4819013499363791 0 5.4819013499363791 34.721767889765033 0 0 0 0 -6.2185602643173326 4.1422606004489353 0 4.1422606004489353 33.822861727887357 0 0 0 0 5.1208469951980247 -9.3288691108173225 0 -9.3288691108173225 31.306039836141281 0 0 0 0 -5.4433376386760912 -6.8422929737134837 0 -6.8422929737134837 47.967131832352607 0 0 0 0 -1.852404404601653 -4.6482807635481009 0 -4.6482807635481009 18.019304664644267 0 0 0 0 2.7722959167975887 2.3470545665768441 0 2.3470545665768441 30.970834135077894 0 0 0 0 -6.285441141924494 -4.2957011826583766 0 -4.2957011826583766 31.118603263647174 0 0 0 0 -2.9614083534911861 -2.0237879855163214 0 -2.0237879855163214 16.881399395313053 0 0 0 0 5.5881654344089773 -4.6439888678792443 0 -4.6439888678792443 10.553800964751417 0 0 0 0 7.9558132551312184 12.182025518923183 0 12.182025518923183 27.029718985722866 0 0 0 0 18.421456729477541 8.4368453012502869 0 8.4368453012502869 22.930294401681749 0 0 0 0 10.413981656862454 7.0377059140191705 0 7.0377059140191705 26.357010395615362 0 0 0 0 9.0662457730039705 8.0287057566747535 0 8.0287057566747535 26.966618544844096 0 0 0 0 3.4388349698360798 6.6907253881799988 0 6.6907253881799988 28.338515643612482 0 0 0 0 8.9455320842305355 3.2747098375402857 0 3.2747098375402857 29.273418403055985 0 0 0 0 4.9475121987554189 9.9440781904122559 0 9.9440781904122559 26.611214102566009 0 0 0 0 -1.6230621788266149 5.5196852581138955 0 5.5196852581138955 26.880404707957496 0 0 0 0 -6.4304095676140136 3.1572919874379295 0 3.1572919874379295 34.35673061592388 0 0 0 0 -2.6551194702067278 5.4376754893019097 0 5.4376754893019097 35.410854541478329 0 0 0 0 -1.7981471943897134 1.9949225898599252 0 1.9949225898599252 31.483292011063895 0 0 0 0 3.9611145542974988 4.179156014102773 0 4.179156014102773 31.47887301951414 0 0 0 0 -2.5874327856117532 5.9895827253349125 0 5.9895827253349125 30.987372197203513 0 0 0 0 2.9115819721453846 16.890436250236235 0 16.890436250236235 24.997882879950339 0 0 0 0 0.047832823922902404 -0.24229406522688635 0 -0.24229406522688635 0.43625835159750181 0 0 0 0 6.2405492758826853 5.9425757071076077 0 5.9425757071076077 9.982164657645626 0 0 0 0 -8.0742886712957898 -7.6013465167488903 0 -7.6013465167488903 13.262084396286809 0 0 0 0 -7.0771524075593675 12.088040038477629 0 12.088040038477629 14.270297305192798 0 0 0 0 2.6810237976333724 11.412668486213079 0 11.412668486213079 32.4697640784143 0 0 0 0 12.036372954941953 -1.4243882311930065 0 -1.4243882311930065 22.941172958206153 0 0 0 0 13.690227715750552 16.533850538588013 0 16.533850538588013 1.5643884590681409 0 0 0 0 -5.9536207467215121 -3.7120054830156732 0 -3.7120054830156732 18.351480693760095 0 0 0 0 1.9980219702119086 11.459242310440459 0 11.459242310440459 19.229856940645277 0 0 0 0 2.6797790640905355 4.3831635001042741 0 4.3831635001042741 -3.3033856268739328 0 0 0 0 -1.7985601586820337 4.9354275288133067 0 4.9354275288133067 18.497333472900209 0 0 0 0 0.044707520681110363 -1.7313019175053341 0 -1.7313019175053341 26.08244648812979 0 0 0 0 0.032764853641869755 -0.099307928962190317 0 -0.099307928962190317 -0.081624668680433388 0 0 0 0 -0.56409287742159853 20.354655427458056 0 20.354655427458056 48.118600476525899 0 0 0 0 0.14237808907600535 1.0808576794079272 0 1.0808576794079272 5.4012079523708962 0 0 0 0 0.0017770648255906532 -0.42707455955678597 0 -0.42707455955678597 4.3667224524251651 0 0 0 0 -0.18331227234119854 -0.10137284705908201 0 -0.10137284705908201 0.52789496868849994 0 0 0 0 -0.0024361098741800787 -0.35048900812398642 0 -0.35048900812398642 7.7111668791476404 0 0 0 0 -11.865517302197368 -32.766246132141532 0 -32.766246132141532 240.28161084391468 0 0 0 0 0.7066366890537239 -23.09772585061728 0 -23.09772585061728 162.27847383686458 0 0 0 0 -35.410496816984235 10.387270552280825 0 10.387270552280825 186.24293927827966 0 0 0 0 33.916553302217757 42.245776501542423 0 42.245776501542423 56.676519696804462 0 0 0 0 -0.03109265233403382 -27.023425867031431 0 -27.023425867031431 201.00909952796064 0 0 0 0 0.37580011603057567 0.18327609522830812 0 0.18327609522830812 0.69309960933119896 0 0 0 0 5.2933934750035956 21.596381951381773 0 21.596381951381773 204.27739540858602 0 0 0 0 -19.688802098052662 12.697586980881169 0 12.697586980881169 73.909807164352969 0 0 0 0 31.489040124860296 126.26423851185791 0 126.26423851185791 211.34987129311776 0 0 0 0 -2.5136605772439395 12.244667658793333 0 12.244667658793333 80.215894867957104 0 0 0 0 -22.322224524526405 30.309816498767759 0 30.309816498767759 153.72744264939683 0 0 0 0 -36.141520487944689 7.7423293351166649 0 7.7423293351166649 176.765182598916 0 0 0 0 1.3621191340613876 -2.9230119789717719 0 -2.9230119789717719 13.111727119874558 0 0 0 0 1.1064749104738076 -1.2191940762450315 0 -1.2191940762450315 0.43663517647802053 0 0 0 0 -0.46281027957720322 1.6198759644989877 0 1.6198759644989877 3.3201075585293722 0 0 0 0 0.0885645050104715 0.064796070435249931 0 0.064796070435249931 9.7445025668275775 0 0 0 0 0.84236208050506889 -3.8914193244636408 0 -3.8914193244636408 11.364748860651162 0 0 0 0 0.38481471635174103 -1.5183443147107027 0 -1.5183443147107027 13.75534891449206 0 0 0 0 49.733126723463386 37.395426091010449 0 37.395426091010449 6.7853268800390651 0 0 0 0 0.51036800946506766 -1.3831943722290703 0 -1.3831943722290703 2.226960504137601 0 0 0 0 1.8325700642328655 -3.5620716412912543 0 -3.5620716412912543 10.204123359336961 0 0 0 0 1.042141006315775 -3.2665905912385824 0 -3.2665905912385824 1.6822113292228948 0 0 0 0 -0.3565334113003823 6.5379674427848045 0 6.5379674427848045 8.9850125554025908 0 0 0 0 0.30957884921940604 -2.1642566447189893 0 -2.1642566447189893 27.040755024027021 0 0 0 0 1.4670240735722775 6.5171248543165348 0 6.5171248543165348 19.543457139385282 0 0 0 0 0.039983242787210528 0.25402089968690689 0 0.25402089968690689 1.9881809839081086 0 0 0 0 1.1886915206868522 5.3725911066649132 0 5.3725911066649132 30.387660593631153 0 0 0 0 -0.9327455774022575 4.9410713900797987 0 4.9410713900797987 30.310662832984235 0 0 0 0 0.045380545243237064 -0.11694085111136587 0 -0.11694085111136587 0.2205597261362584 0 0 0 0 -3.212728516942164 -7.975142546070856 0 -7.975142546070856 44.606668333661219 0 0 0 0 2.1815495501893123 16.637545929126532 0 16.637545929126532 47.212438932998339 0 0 0 0 5.1062920201966051 -2.5244168620192795 0 -2.5244168620192795 32.892865268637252 0 0 0 0 15.505334848862631 18.264105815425864 0 18.264105815425864 19.603655494138366 0 0 0 0 4.0192504797042261 7.7875775920529122 0 7.7875775920529122 30.444055880187079 0 0 0 0 -2.471321729005358 0.32146796283464596 0 0.32146796283464596 19.053766412161224 0 0 0 0 6.7075156183923355 9.8391079787688795 0 9.8391079787688795 20.827379282389302 0 0 0 0 4.1078639596730682 10.98932707811764 0 10.98932707811764 36.352964799734764 0 0 0 0 0.87997188615736377 17.098460553766927 0 17.098460553766927 37.954316824543639 0 0 0 0 2.6001689579777274 10.588167388718631 0 10.588167388718631 21.296571517399855 0 0 0 0 -0.22797934159049582 3.1463120940099145 0 3.1463120940099145 14.327022793169363 0 0 0 0 -4.6720490651805449 10.202849289380538 0 10.202849289380538 14.145248425949831 0 0 0 0 2.1289311505770456 11.769525901516317 0 11.769525901516317 32.253379552901606 0 0 0 0 0.83165195197204866 5.5272514996649988 0 5.5272514996649988 26.305321752966847 0 0 0 0 4.4139689214930851 10.560922001028359 0 10.560922001028359 16.250520860996062 0 0 0 0 -4.2149802234625895 3.8573074409359833 0 3.8573074409359833 25.941277898324188 0 0 0 0 -1.8862068386744157 2.7845912354797377 0 2.7845912354797377 19.622231277373771 0 0 0 0 -3.4807588208313973 4.0196995777878328 0 4.0196995777878328 21.839031620067544 0 0 0 0 0.63732418656961798 2.5973913056245976 0 2.5973913056245976 20.448279588147557 0 0 0 0 0.29376172421598312 5.5638265777670313 0 5.5638265777670313 37.37996318077785 0 0 0 0 2.655103365092442 9.7653644089671729 0 9.7653644089671729 11.627701342732706 0 0 0 0 -1.4339408480550446 3.0392656037874985 0 3.0392656037874985 25.622867607031367 0 0 0 0 3.7850884452714126 2.9928418016497744 0 2.9928418016497744 25.005617619754048 0 0 0 0 -4.0455786589664058 1.0483181835588766 0 1.0483181835588766 24.766512751928531 0 0 0 0 6.8255390950055244 -0.44394954973540734 0 -0.44394954973540734 22.15189458912937 0 0 0 0 4.0705470361190237 -0.31536753544060048 0 -0.31536753544060048 22.669111118302681 0 0 0 0 -0.82504967999898327 -3.4425443939981051 0 -3.4425443939981051 12.487659618986072 0 0 0 0 0.1201371385622525 0.47626160086417713 0 0.47626160086417713 3.6781997131265216 0 0 0 0 -7.1281877524007342 -34.159542529687315 0 -34.159542529687315 -3.8236241714475909 0 0 0 0 0.15798583384457743 -0.58110397805285174 0 -0.58110397805285174 23.100441800968838 0 0 0 0 -0.40939865241795825 0.42011379383723124 0 0.42011379383723124 5.7534397031293523 0 0 0 0 -0.28851499561329763 -3.4682887166423484 0 -3.4682887166423484 4.4265161390111984 0 0 0 0 -0.99285260117139273 -4.427605704021218 0 -4.427605704021218 5.6266217611389493 0 0 0 0 -4.0185815480771083 4.1078927551279776 0 4.1078927551279776 18.079386048251763 0 0 0 0 -0.26869398135113443 -2.5923352680692915 0 -2.5923352680692915 13.384690277744085 0 0 0 0 -1.7762819729192412 0.25310534331504186 0 0.25310534331504186 16.741143302305773 0 0 0 0 -0.019040388033317868 0.75053776914137416 0 0.75053776914137416 51.083638461932424 0 0 0 0 -2.4093556346849283 -5.4563645029529653 0 -5.4563645029529653 13.915416241380374 0 0 0 0 20.741289147234966 -27.898193705135782 0 -27.898193705135782 11.481754742315388 0 0 0 0 -1.4161805336295306 3.1712649865685592 0 3.1712649865685592 16.991749824363168 0 0 0 0 2.5918120491362586 -8.0408640832611127 0 -8.0408640832611127 18.891372050187329 0 0 0 0 -29.72528317734168 -28.555609189315874 0 -28.555609189315874 35.665387884655502 0 0 0 0 -10.803207089457374 -2.5350820332605508 0 -2.5350820332605508 8.0760814460518304 0 0 0 0 56.581371726633733 -23.159443688389729 0 -23.159443688389729 -0.81504975281859515 0 0 0 0 28.414760319782999 -83.740976439126825 0 -83.740976439126825 85.581003413506551 0 0 0 0 -43.103791006920801 -12.532053570132121 0 -12.532053570132121 129.89819518017612 0 0 0 0 -37.699233190846599 -13.123848439096037 0 -13.123848439096037 58.300808366795536 0 0 0 0 36.364661762632522 -71.680898354032252 0 -71.680898354032252 134.72024199125008 0 0 0 0 80.075337696646557 -123.61633821034775 0 -123.61633821034775 187.78568028018344 0 0 0 0 73.941055426539094 45.596849204237515 0 45.596849204237515 37.955837915709708 0 0 0 0 0.16541107217771323 1.1332663617444751 0 1.1332663617444751 4.4113025025764045 0 0 0 0 55.749272605267834 -65.445055935299024 0 -65.445055935299024 111.66237675941375 0 0 0 0 1.2778961136039921 0.96259837388893743 0 0.96259837388893743 0.66999997604423811 0 0 0 0 2.5091005671565654 6.0061992866685614 0 6.0061992866685614 71.149334582230949 0 0 0 0 4.5891472902717396 17.812889795703086 0 17.812889795703086 62.975822668398905 0 0 0 0 -0.33716046233894303 10.048606686956191 0 10.048606686956191 65.408950359385926 0 0 0 0 -108.52519745450809 13.04701608137475 0 13.04701608137475 126.33332533489738 0 0 0 0 -0.13737995839934669 3.9157896236131471 0 3.9157896236131471 50.200548312920432 0 0 0 0 -0.60787884976771966 2.4983435502590794 0 2.4983435502590794 41.315457352746392 0 0 0 0 12.901073327251652 0.77586125263587746 0 0.77586125263587746 66.275603839589166 0 0 0 0 -7.1264478283319477 -1.4072951025955263 0 -1.4072951025955263 29.564552502764855 0 0 0 0 -42.057243869474405 -45.710021926031914 0 -45.710021926031914 66.572867874299845 0 0 0 0 -1.5848942453644952 -2.5362503920528496 0 -2.5362503920528496 43.53524927686891 0 0 0 0 -2.2999450181783772 3.4287408875306369 0 3.4287408875306369 37.052234024025857 0 0 0 0 3.035432068427216 4.5811554156065881 0 4.5811554156065881 23.108213978024565 0 0 0 0 2.2828868783180951 3.0711859265138628 0 3.0711859265138628 41.746738040922537 0 0 0 0 2.6921824934088363 2.1749923448369373 0 2.1749923448369373 40.782257847604342 0 0 0 0 4.9518264803585428 6.1815801819789566 0 6.1815801819789566 32.351723012746902 0 0 0 0 4.8849413942134561 4.8421646702554426 0 4.8421646702554426 57.409509192715632 0 0 0 0 5.517234642970454 -0.59126273378197425 0 -0.59126273378197425 11.645795646311653 0 0 0 0 0.31973098407615907 -1.700851085857721 0 -1.700851085857721 63.05799478681547 0 0 0 0 5.9211040057452919 4.5504550326513709 0 4.5504550326513709 64.716775924913236 0 0 0 0 -0.071909191928170912 5.7770335172317573 0 5.7770335172317573 59.578541040216805 0 0 0 0 2.0986698491215066 2.1184827545366716 0 2.1184827545366716 65.140672960431857 0 0 0 0 0.57628988028145756 -1.0764415811563595 0 -1.0764415811563595 8.2422918927814752 0 0 0 0 -0.87970472156393953 4.0369464905961649 0 4.0369464905961649 45.019913639058359 0 0 0 0 0.24015175690166402 4.3870908479329955 0 4.3870908479329955 17.131252582660117 0 0 0 0 2.6723902774883754 2.368175143856206 0 2.368175143856206 36.672908045729855 0 0 0 0 -1.454420991978175 5.3955096407620289 0 5.3955096407620289 25.186935641576099 0 0 0 0 -4.3412831342484708 -6.4273320019010782 0 -6.4273320019010782 32.515839611934894 0 0 0 0 4.0052049005180379 7.9320799661363708 0 7.9320799661363708 33.736543480481487 0 0 0 0 2.8521332182017431 9.1786950042078388 0 9.1786950042078388 43.542877505416982 0 0 0 0 2.1267786662951975 6.1849650630194795 0 6.1849650630194795 32.928988220476356 0 0 0 0 6.6738105883141543 4.628071852523135 0 4.628071852523135 37.167216518399073 0 0 0 0 -1.0670240471836259 2.3721487876691469 0 2.3721487876691469 7.4986942362511826 0 0 0 0 10.584732769992115 6.1468572127923835 0 6.1468572127923835 34.850027880012931 0 0 0 0 16.899142524853232 19.518849631393095 0 19.518849631393095 36.135558574518654 0 0 0 0 6.2809173188261411 4.3979135905537987 0 4.3979135905537987 51.026330564927775 0 0 0 0 11.413937477707805 15.871592326264363 0 15.871592326264363 48.042341048829257 0 0 0 0 1.9802020295473994 10.102907108637737 0 10.102907108637737 47.992467849690001 0 0 0 0 4.2630793935932161 10.101332447957247 0 10.101332447957247 39.62006978696445 0 0 0 0 3.5779029261993855 18.946089694829425 0 18.946089694829425 58.049385253820219 0 0 0 0 3.4453751532382739 17.257121724658646 0 17.257121724658646 37.759126422170084 0 0 0 0 0.88354629267632845 16.621296351120691 0 16.621296351120691 37.726023113486008 0 0 0 0 6.3618849242766373 15.949238503730157 0 15.949238503730157 27.679528674692847 0 0 0 0 2.0684840880403499 11.847303297625331 0 11.847303297625331 35.834952099452494 0 0 0 0 0.51980897175501184 7.7898840802719249 0 7.7898840802719249 25.261785138694904 0 0 0 0 2.8903945706078957 15.069848176717642 0 15.069848176717642 35.538040014042053 0 0 0 0 6.49660677040265 12.091397868236527 0 12.091397868236527 30.519595415418735 0 0 0 0 -1.032278181363786 14.988501943926394 0 14.988501943926394 43.097230337712915 0 0 0 0 -10.239894967849978 11.238296858537069 0 11.238296858537069 30.177712317105033 0 0 0 0 0.80875359220437559 16.087070932209244 0 16.087070932209244 28.031150047002654 0 0 0 0 -0.92430925554208443 13.075099647405295 0 13.075099647405295 31.100770796736469 0 0 0 0 2.1807672642582929 21.00789344642908 0 21.00789344642908 24.860914334072731 0 0 0 0 -1.0565622939366222 -0.070039624202763662 0 -0.070039624202763662 50.696717780825566 0 0 0 0 6.5628944905640898 16.669628390119485 0 16.669628390119485 19.135507706651168 0 0 0 0 27.545393377996334 52.69260388641851 0 52.69260388641851 27.002824274322393 0 0 0 0 6.1276125753341244 3.9447448411649759 0 3.9447448411649759 -6.6188566396622264 0 0 0 0 -2.7827441711851861 9.0332196293165907 0 9.0332196293165907 34.158840350719402 0 0 0 0 -2.5987406433941942 10.428881696592725 0 10.428881696592725 41.431244770486956 0 0 0 0 -0.31021066092914396 8.4110794355084693 0 8.4110794355084693 24.792886187539551 0 0 0 0 -1.8816116878115281 10.396966310261632 0 10.396966310261632 27.650714376861288 0 0 0 0 -1.2772755467546215 10.520848097916099 0 10.520848097916099 32.414746227523665 0 0 0 0 -9.3603322197868692 6.9498537288454827 0 6.9498537288454827 40.291051841883018 0 0 0 0 -3.4386193725658813 3.6892819769855123 0 3.6892819769855123 38.8599799470976 0 0 0 0 2.8628503167692543 4.5191575421922607 0 4.5191575421922607 37.107565056569001 0 0 0 0 -1.0766805929426582 -1.9314044860330597 0 -1.9314044860330597 10.006425969458093 0 0 0 0 1.0817424318622093 11.794264906463031 0 11.794264906463031 61.102997921724295 0 0 0 0 -85.44614479426582 -64.346772708478966 0 -64.346772708478966 60.315192960188142 0 0 0 0 -62.213476686822105 -51.40563036815729 0 -51.40563036815729 56.009130037113209 0 0 0 0 -56.872208505193612 60.46199015831553 0 60.46199015831553 81.235799644346116 0 0 0 0 -52.731294218437142 -77.042166048384388 0 -77.042166048384388 24.225882705228287 0 0 0 0 1.3532324073612472 88.3500101424288 0 88.3500101424288 81.288872541443197 0 0 0 0 11.684297206369763 48.983088894065986 0 48.983088894065986 66.140001633015345 0 0 0 0 0.11001906491579039 5.7126599711038892 0 5.7126599711038892 4.1533012889854319 0 0 0 0 27.285230750537266 15.954169095341058 0 15.954169095341058 27.412166233612425 0 0 0 0 17.724533219726823 67.906694987814262 0 67.906694987814262 58.974980199796846 0 0 0 0 26.450038118553493 35.279902844813478 0 35.279902844813478 30.460543236375088 0 0 0 0 11.602100399843494 24.157117718030349 0 24.157117718030349 42.416772760509048 0 0 0 0 14.162549442122327 16.816765687333827 0 16.816765687333827 26.920195961203717 0 0 0 0 12.793507231491503 13.38571037606016 0 13.38571037606016 21.719415518746246 0 0 0 0 1.2079316627628316 -16.39586312299798 0 -16.39586312299798 5.2389149291411741 0 0 0 0 19.628891267452218 14.118743389750307 0 14.118743389750307 20.4331034761708 0 0 0 0 21.395876265894103 12.432763513570535 0 12.432763513570535 3.4194626628450351 0 0 0 0 19.667673516805589 11.338455703648719 0 11.338455703648719 21.066236042213859 0 0 0 0 21.893363902205692 13.476490506218397 0 13.476490506218397 20.590656090549601 0 0 0 0 -3.5160907229408758 -0.85259417590084752 0 -0.85259417590084752 18.032213707901008 0 0 0 0 24.057203287151424 9.2637258248432772 0 9.2637258248432772 21.596383756681462 0 0 0 0 5.1675736873362759 -5.1830401161343502 0 -5.1830401161343502 3.2142436267600658 0 0 0 0 90.792828689902521 134.44891883649598 0 134.44891883649598 -189.45778748109296 0 0 0 0 79.710426904385486 148.16954840951075 0 148.16954840951075 199.54959592520026 0 0 0 0 -137.73752759707713 35.177305834375147 0 35.177305834375147 381.49027000227215 0 0 0 0 -413.32755277018623 130.77024869460729 0 130.77024869460729 1481.4467140803026 0 0 0 0 -387.80055620341386 10.025089962400671 0 10.025089962400671 412.87503903024481 0 0 0 0 -184.65424214889367 1306.1560869231616 0 1306.1560869231616 589.833135648405 0 0 0 0 560.84593222692502 -836.56090701757057 0 -836.56090701757057 1588.0559701110615 0 0 0 0 1.1747914143390079 4.3272530189827165 0 4.3272530189827165 15.062000099629245 0 0 0 0 -280.98712058225385 -554.67503410774225 0 -554.67503410774225 867.11992222838307 0 0 0 0 516.40306997064624 751.50831284371816 0 751.50831284371816 301.2254701060665 0 0 0 0 -123.49132474238377 -249.86963832162292 0 -249.86963832162292 453.5739426550042 0 0 0 0 -200.68303897908936 -106.72203414270189 0 -106.72203414270189 458.51742839263989 0 0 0 0 -126.43462292429376 -228.70873915892298 0 -228.70873915892298 305.41071570679071 0 0 0 0 -82.112301274975835 -150.4972106700443 0 -150.4972106700443 305.72253336446664 0 0 0 0 34.207924690486379 -150.7117315196665 0 -150.7117315196665 235.15791885564977 0 0 0 0 0.47838767231018409 5.6794511893069313 0 5.6794511893069313 43.769288829732034 0 0 0 0 -306.35111971286233 56.985894303561508 0 56.985894303561508 225.27408300279058 0 0 0 0 -92.520985462799899 -58.557183433229511 0 -58.557183433229511 297.7571419805754 0 0 0 0 -23.011085100093624 -68.490279805191676 0 -68.490279805191676 118.68213558804928 0 0 0 0 -116.04842630502662 -110.79506803979166 0 -110.79506803979166 320.03121032522176 0 0 0 0 1.6302418652778314 2.7494166602861085 0 2.7494166602861085 3.6096878988779224 0 0 0 0 525.3722956251554 270.68461796174597 0 270.68461796174597 68.350763884111075 0 0 0 0 289.83350056369363 -153.78443273236189 0 -153.78443273236189 96.683243962223059 0 0 0 0 -106.26500434461514 -153.07832924912145 0 -153.07832924912145 296.20425739436178 0 0 0 0 540.60963971508863 478.72605260174169 0 478.72605260174169 120.44546832153901 0 0 0 0 154.08440447342082 211.90591813512583 0 211.90591813512583 602.20304280140044 0 0 0 0 157.58661984408718 255.6511156964043 0 255.6511156964043 384.74969986901488 0 0 0 0 83.174435520810107 226.48528109765039 0 226.48528109765039 502.0687820949679 0 0 0 0 83.196443232343427 334.76932566262985 0 334.76932566262985 442.21323256695177 0 0 0 0 79.919053692457453 318.24725119572031 0 318.24725119572031 359.06307476598886 0 0 0 0 187.8617163633885 330.47523374359298 0 330.47523374359298 267.8349858874426 0 0 0 0 213.54416758917432 414.21289690124104 0 414.21289690124104 506.07041190449308 0 0 0 0 93.43246937992626 226.53508905458148 0 226.53508905458148 255.99299969372078 0 0 0 0 185.04337209257483 96.998875714816677 0 96.998875714816677 49.971512603384326 0 0 0 0 141.20079831568455 231.34468818591267 0 231.34468818591267 217.95907166652614 0 0 0 0 115.30449381055951 207.90859619003459 0 207.90859619003459 199.40233541924681 0 0 0 0 67.1531461765816 283.50644802401183 0 283.50644802401183 405.20601306844037 0 0 0 0 65.03978393171792 204.58678325932851 0 204.58678325932851 240.20147807867033 0 0 0 0 20.71544997123442 70.765466821827431 0 70.765466821827431 175.17438446685264 0 0 0 0 74.346899085479663 158.40301806059506 0 158.40301806059506 251.98784481112671 0 0 0 0 -38.173584605662654 20.515667023457354 0 20.515667023457354 217.60620497049786 0 0 0 0 55.542008239773168 91.841529317956883 0 91.841529317956883 128.10414556981414 0 0 0 0 77.845805953115587 33.47026786605602 0 33.47026786605602 42.68283738460741 0 0 0 0 -23.269600200957939 -22.497384941787459 0 -22.497384941787459 27.384831628398388 0 0 0 0 26.635263146836735 19.832037970204055 0 19.832037970204055 5.6170779818348819 0 0 0 0 24.331983469141051 48.596998042601626 0 48.596998042601626 101.44728616064822 0 0 0 0 1.5370463308578479 4.0454763776792291 0 4.0454763776792291 12.154925658578378 0 0 0 0 62.615348536463898 7.6136644000725937 0 7.6136644000725937 41.896399235673016 0 0 0 0 -27.00316732302781 57.304061801711214 0 57.304061801711214 84.465667095486424 0 0 0 0 75.963998957286094 -128.90693764976459 0 -128.90693764976459 -58.992666485894006 0 0 0 0 -20.036138839461273 3.7988768705108669 0 3.7988768705108669 -10.262227600513143 0 0 0 0 -25.995820993515736 -32.631769383573555 0 -32.631769383573555 90.677436281679547 0 0 0 0 87.741645403915754 -93.092610346502624 0 -93.092610346502624 44.61690899261157 0 0 0 0 0.45429573636283749 -33.863620741787599 0 -33.863620741787599 47.982184103660984 0 0 0 0 52.954676200420408 61.264100585382494 0 61.264100585382494 82.829217410777346 0 0 0 0 15.434675781589249 16.826783887852798 0 16.826783887852798 34.467932231447776 0 0 0 0 3.3320052098879387 9.523930871320772 0 9.523930871320772 32.830837463210628 0 0 0 0 1.7084949764469117 8.2619884792053622 0 8.2619884792053622 18.07477762151936 0 0 0 0 -35.833340819036039 -7.6690321729292918 0 -7.6690321729292918 14.877550287084887 0 0 0 0 3.9161722264883281 15.538380755587426 0 15.538380755587426 15.978950719174037 0 0 0 0 5.3100303170658663 7.3055125714890892 0 7.3055125714890892 31.718308537238045 0 0 0 0 2.9762732558065181 9.8858625437496812 0 9.8858625437496812 29.614314018021105 0 0 0 0 2.0327105658697668 3.4206036962616224 0 3.4206036962616224 4.5081020494101125 0 0 0 0 -10.716217843082632 -7.7537219426303636 0 -7.7537219426303636 -6.3523116243886761 0 0 0 0 12.385795576956298 -19.868880221169093 0 -19.868880221169093 -0.0041040615251404233 0 0 0 0 -2.0321274050293141 40.982648331024393 0 40.982648331024393 50.40934632455901 0 0 0 0 0.39215207656267381 -0.3297010307002779 0 -0.3297010307002779 7.9629801711079864 0 0 0 0 3.9897589630309085 2.5259229795410647 0 2.5259229795410647 40.360047627047607 0 0 0 0 64.023696830743575 56.81509259226732 0 56.81509259226732 128.16606742783915 0 0 0 0 -13.706991134004056 -28.799495535320602 0 -28.799495535320602 119.30027604923816 0 0 0 0 2.2627310151462234 6.250782346809082 0 6.250782346809082 -2.6813776755853382 0 0 0 0 -148.28873544900853 -40.010575589200016 0 -40.010575589200016 206.60714063933119 0 0 0 0 37.301074426317427 51.262194166491099 0 51.262194166491099 25.325348221893364 0 0 0 0 -4.9796069843523583 3.8232219024866936 0 3.8232219024866936 73.563969966373406 0 0 0 0 -3.5010056475234208 -7.8628489494144418 0 -7.8628489494144418 25.779961841838599 0 0 0 0 -2.9216063695298544 -5.747663244927935 0 -5.747663244927935 52.568357237410964 0 0 0 0 -1.6343174455014378 5.2234747098409571 0 5.2234747098409571 62.566266692054342 0 0 0 0 -3.8396779470028584 -4.9437406112951976 0 -4.9437406112951976 14.303771200066791 0 0 0 0 1.8308498495825916 5.4566045954707079 0 5.4566045954707079 24.125636047757325 0 0 0 0 -0.32328845220945368 4.7552275829802966 0 4.7552275829802966 51.694260960633983 0 0 0 0 -3.0690477639094667 -4.7178158671939769 0 -4.7178158671939769 14.041249508489898 0 0 0 0 1.4717288934543902 8.2621555924201004 0 8.2621555924201004 13.639096090194531 0 0 0 0 0.55873888167866781 -0.46454225499957147 0 -0.46454225499957147 6.2108250480536435 0 0 0 0 -0.57355028102301731 7.8626857700583059 0 7.8626857700583059 55.318887034969521 0 0 0 0 1.5062139512247086 6.6763320029203896 0 6.6763320029203896 44.138915554081905 0 0 0 0 2.5716156383079145 -0.69558580170100015 0 -0.69558580170100015 6.7939023428020562 0 0 0 0 -10.709812438929818 -7.1321378459333147 0 -7.1321378459333147 23.218190274435671 0 0 0 0 2.7494309796210246 12.651100372473593 0 12.651100372473593 53.169610269513214 0 0 0 0 -0.064936769669657224 10.076037577782699 0 10.076037577782699 56.350887624783354 0 0 0 0 1.8772430831716065 9.0103414550267189 0 9.0103414550267189 55.894545209725038 0 0 0 0 -0.23499367682234151 10.441755680813003 0 10.441755680813003 57.225761602981947 0 0 0 0 0.83418964231470127 -2.0561283366967587 0 -2.0561283366967587 0.84067423298952804 0 0 0 0 18.413286991311907 -8.4366530067709391 0 -8.4366530067709391 17.842081939346826 0 0 0 0 3.5092644433898386 19.735253826056578 0 19.735253826056578 55.728484995088365 0 0 0 0 9.1483845001002919 1.9102036677140859 0 1.9102036677140859 20.417027412109746 0 0 0 0 15.181358362564424 18.211964493690175 0 18.211964493690175 39.195283912249579 0 0 0 0 7.381209989242052 15.587822278102976 0 15.587822278102976 51.774427757045487 0 0 0 0 1.4548919391472737 -0.86878997216263087 0 -0.86878997216263087 40.472812263040396 0 0 0 0 -1.4584408968103162 2.9212355440749889 0 2.9212355440749889 42.772372821455065 0 0 0 0 -26.781353317495814 -10.520688700926257 0 -10.520688700926257 70.881944032036699 0 0 0 0 13.611322679651494 -27.583833412711101 0 -27.583833412711101 21.1132186422019 0 0 0 0 0.14480385781380534 -1.1558179125142942 0 -1.1558179125142942 -0.52940649223197855 0 0 0 0 25.125403196702791 -25.949458882918407 0 -25.949458882918407 -15.69217592975474 0 0 0 0 25.011329793090226 -32.143800772770192 0 -32.143800772770192 20.513948115287349 0 0 0 0 27.999780862421176 -50.441859927908808 0 -50.441859927908808 9.1089273037796374 0 0 0 0 -64.406416343203546 -3.4440484748774907 0 -3.4440484748774907 458.98894773698157 0 0 0 0 23.966731000247819 -55.541956191431382 0 -55.541956191431382 2.7679482265521074 0 0 0 0 19.904270685310621 -59.797566092966008 0 -59.797566092966008 30.41143279451353 0 0 0 0 -17.070819338965521 -77.102755483072542 0 -77.102755483072542 35.922794017664273 0 0 0 0 35.48893418507032 -113.66828326803807 0 -113.66828326803807 55.663053051088355 0 0 0 0 40.737804500489801 -75.53796569667611 0 -75.53796569667611 17.511587739805691 0 0 0 0 -20.273852744283431 10.187939201241534 0 10.187939201241534 95.660364810857573 0 0 0 0 -61.421761589577727 -40.887923452210089 0 -40.887923452210089 82.319603354928404 0 0 0 0 -16.23669147310045 -101.17637984466819 0 -101.17637984466819 160.85629171947949 0 0 0 0 -51.533131686088382 -27.233628625755955 0 -27.233628625755955 106.60684523856617 0 0 0 0 -47.579967154149927 -15.259624643716961 0 -15.259624643716961 114.9564758016495 0 0 0 0 8.2450264530039554 3.9269599779924533 0 3.9269599779924533 0.6863050627640348 0 0 0 0 63.429943486772117 33.953928282906418 0 33.953928282906418 0.10714140412164852 0 0 0 0 24.268667959108825 106.81690566962061 0 106.81690566962061 -137.61046556333167 0 0 0 0 -10.915812095679939 11.010604185925331 0 11.010604185925331 57.230434657529258 0 0 0 0 -95.581961905656499 30.584976517449832 0 30.584976517449832 450.25779332943785 0 0 0 0 -69.825179565266808 321.3652531599364 0 321.3652531599364 726.23656085159746 0 0 0 0 -29.585269687410801 215.5069400613429 0 215.5069400613429 110.84461614133761 0 0 0 0 34.572113649595849 -26.198527231703338 0 -26.198527231703338 61.237648798418377 0 0 0 0 25.268937679244544 104.83684266792625 0 104.83684266792625 327.25077269220492 0 0 0 0 -86.951244513179518 123.62257120348659 0 123.62257120348659 240.34244229356409 0 0 0 0 176.2469522785002 -200.34695912834832 0 -200.34695912834832 -304.89446829537337 0 0 0 0 9.432673380611508 2.8509035519159482 0 2.8509035519159482 0.88025820242518193 0 0 0 0 -142.9734919468242 20.742425208027271 0 20.742425208027271 197.55220581534377 0 0 0 0 286.16087867529359 85.846029252221342 0 85.846029252221342 -206.1887101407774 0 0 0 0 4.7547810397718422 -81.741547338599048 0 -81.741547338599048 18.127780892711598 0 0 0 0 55.658025688923203 48.418051055756223 0 48.418051055756223 115.32260649407544 0 0 0 0 57.99120263605073 68.688769585227419 0 68.688769585227419 164.12397045590842 0 0 0 0 -0.88583624821631801 -1.5089501129813527 0 -1.5089501129813527 3.7294647523615367 0 0 0 0 -0.19466508529154503 -1.3906889297393121 0 -1.3906889297393121 3.3510764955282184 0 0 0 0 -8.4676605309423394 175.18076884419861 0 175.18076884419861 227.02373128414547 0 0 0 0 75.771100635778566 61.937531041068723 0 61.937531041068723 59.058201239095069 0 0 0 0 28.326501165106492 -57.257922307573608 0 -57.257922307573608 -6.843445937440265 0 0 0 0 -1.9133192175922886 4.436706546919595 0 4.436706546919595 -44.247096164093819 0 0 0 0 -47.024140921576418 2.1124375420549768 0 2.1124375420549768 17.015103302532225 0 0 0 0 20.397904469155947 -31.945970234181004 0 -31.945970234181004 -35.526263549254509 0 0 0 0 20.736144328973751 -25.956602670550637 0 -25.956602670550637 -4.7221173638245091 0 0 0 0 21.743582777483425 4.168175329834412 0 4.168175329834412 -3.2357312223612098 0 0 0 0 -17.181947510311147 9.9884441803151276 0 9.9884441803151276 3.9469114810017345 0 0 0 0 -21.613168055476763 21.895255299779819 0 21.895255299779819 -18.620897565560881 0 0 0 0 21.95192882628362 7.3631162215169752 0 7.3631162215169752 12.896283805093844 0 0 0 0 13.128509107745117 11.935965099575697 0 11.935965099575697 20.633789536477707 0 0 0 0 1.4264757369943952 -4.1637732622539829 0 -4.1637732622539829 6.3269532703560287 0 0 0 0 1.701943635274354 -4.1311174459883517 0 -4.1311174459883517 7.002332593603029 0 0 0 0 53.339850841653458 0.12434163023135625 0 0.12434163023135625 117.90882256456825 0 0 0 0 2.6068268585026999 -3.0443211608508136 0 -3.0443211608508136 -12.271982005680911 0 0 0 0 -31.407931519882709 -28.350361206079469 0 -28.350361206079469 -4.4550682215194684 0 0 0 0 -9.7254104998946787 -9.7126368083117995 0 -9.7126368083117995 0.73558483160741162 0 0 0 0 0.45145548387608869 12.284889638336608 0 12.284889638336608 12.768072850580211 0 0 0 0 -15.170317171744955 1.7820527278927329 0 1.7820527278927329 17.253592744040361 0 0 0 0 82.793960852757721 46.209734785899855 0 46.209734785899855 59.461903199386143 0 0 0 0 59.688765094950213 112.37063358586602 0 112.37063358586602 133.42386900950805 0 0 0 0 169.25534911200339 128.07522696485103 0 128.07522696485103 104.37408973128186 0 0 0 0 10.747200160205011 -3.0039203233172884 0 -3.0039203233172884 15.367477649211651 0 0 0 0 3.8692787193213878 -6.1960178655542109 0 -6.1960178655542109 7.8777796847075479 0 0 0 0 9.2360852414751662 7.9240718591026962 0 7.9240718591026962 25.424037677556043 0 0 0 0 -1.3301592755424281 1.378718843589013 0 1.378718843589013 31.677176346653141 0 0 0 0 28.073312292409355 64.473116190827568 0 64.473116190827568 133.52711556194117 0 0 0 0 167.24299491696001 122.02616151951952 0 122.02616151951952 56.022311872161708 0 0 0 0 120.54661133004674 129.82359997151434 0 129.82359997151434 132.34645638499205 0 0 0 0 288.65470449573149 178.90094119102287 0 178.90094119102287 128.95237103714499 0 0 0 0 135.91749620860105 123.4543902908772 0 123.4543902908772 160.19783350365469 0 0 0 0 361.63302753267089 115.46510151043185 0 115.46510151043185 152.89451850868136 0 0 0 0 352.07317908010555 257.00922070612432 0 257.00922070612432 188.00941416651403 0 0 0 0 71.33286044763463 22.320285705809511 0 22.320285705809511 158.75336411953322 0 0 0 0 221.06401425123204 74.623615996119042 0 74.623615996119042 127.29119107834413 0 0 0 0 173.44859974640804 51.550234297137649 0 51.550234297137649 120.18319046658871 0 0 0 0 395.0713243641153 339.12328024961607 0 339.12328024961607 203.85151820648753 0 0 0 0 178.84369171189883 91.655571561366742 0 91.655571561366742 236.42933846562664 0 0 0 0 234.27697455953262 135.78551729139872 0 135.78551729139872 706.06917135092226 0 0 0 0 158.741777841454 158.39708689515464 0 158.39708689515464 715.97500701412355 0 0 0 0 196.57017249611567 177.56990293693525 0 177.56990293693525 389.62287455128535 0 0 0 0 433.27873011042863 376.47777105378555 0 376.47777105378555 493.99887478888559 0 0 0 0 29.418433448277142 113.90601116651305 0 113.90601116651305 597.42892861919972 0 0 0 0 4.39784559271411 -0.22667612679934734 0 -0.22667612679934734 0.26842332439578342 0 0 0 0 47.593002805118886 312.57169150139089 0 312.57169150139089 1092.5824795962144 0 0 0 0 45.563338346380192 127.17147497866245 0 127.17147497866245 303.89313983988177 0 0 0 0 26.452422164961831 137.50839029910276 0 137.50839029910276 351.91792639179766 0 0 0 0 71.196704076610104 315.94410121181136 0 315.94410121181136 358.80262570253399 0 0 0 0 222.10202980914869 402.79452217957441 0 402.79452217957441 503.43076210935214 0 0 0 0 73.05335559364346 285.75988041371602 0 285.75988041371602 412.94988373524393 0 0 0 0 87.248113882861958 332.89172871612391 0 332.89172871612391 371.07842452289333 0 0 0 0 32.368063065774649 234.6125267235966 0 234.6125267235966 270.60048477056262 0 0 0 0 80.534830188033311 197.52268194394128 0 197.52268194394128 215.61118202160287 0 0 0 0 36.352376032358507 305.8289797834077 0 305.8289797834077 409.14229158277885 0 0 0 0 96.383069584328723 240.19220443186714 0 240.19220443186714 218.05338298467541 0 0 0 0 -81.301262189288991 103.77336829502019 0 103.77336829502019 249.53703930358279 0 0 0 0 -1.6016968697765037 121.94825711853082 0 121.94825711853082 98.41306127847929 0 0 0 0 1.5490900424941283 2.2624399513016158 0 2.2624399513016158 0.90392979788839511 0 0 0 0 216.43552167745565 64.138839064464264 0 64.138839064464264 40.77627508158912 0 0 0 0 168.55966655734699 131.11998569179741 0 131.11998569179741 227.26155652022862 0 0 0 0 281.76009581541894 244.13521698752447 0 244.13521698752447 312.1392592341399 0 0 0 0 -59.350780829041014 -67.504824079056561 0 -67.504824079056561 -17.799119493378385 0 0 0 0 -398.52656069261224 62.587789455999882 0 62.587789455999882 61.723564569583687 0 0 0 0 -6.4323764155419516 -0.80465804694989629 0 -0.80465804694989629 -0.54071030300083578 0 0 0 0 -43.646101577599438 1.0796381590116653 0 1.0796381590116653 23.627664626734258 0 0 0 0 -25.853954935461843 -13.655914137412765 0 -13.655914137412765 1.1810498665145133 0 0 0 0 26.807449708467743 100.41632318019401 0 100.41632318019401 65.029439109726809 0 0 0 0 -125.6721992687344 -24.137827737649786 0 -24.137827737649786 37.129171964937996 0 0 0 0 -134.1252658018102 113.3864268953912 0 113.3864268953912 191.42887590990176 0 0 0 0 99.401042430126381 145.84025886046948 0 145.84025886046948 -15.997319102585607 0 0 0 0 99.965041432681943 131.66687358512672 0 131.66687358512672 309.544125346496 0 0 0 0 -32.889950635093442 268.88496239158849 0 268.88496239158849 -116.98805972444825 0 0 0 0 176.63418670009355 -217.31425128205592 0 -217.31425128205592 -340.67749349011137 0 0 0 0 223.6341832817161 -755.49168189057673 0 -755.49168189057673 477.12186862497038 0 0 0 0 -197.25768060955937 -4.1775996820761065 0 -4.1775996820761065 914.1142782401148 0 0 0 0 77.789047795944953 -57.699859700551315 0 -57.699859700551315 303.49454140219314 0 0 0 0 126.37020136001672 -186.30188623274262 0 -186.30188623274262 275.51896829984616 0 0 0 0 -142.67767027359679 57.833659477379115 0 57.833659477379115 329.00255068736442 0 0 0 0 -47.550380176847057 97.693864939712512 0 97.693864939712512 325.59857246829324 0 0 0 0 -220.18713132912853 301.48888465304481 0 301.48888465304481 370.92366634282371 0 0 0 0 -9.0731616835330726 -551.89339370623202 0 -551.89339370623202 745.05904154836389 0 0 0 0 871.77533824445254 -451.03552886477337 0 -451.03552886477337 89.745313506093225 0 0 0 0 0.078653733863842668 -0.14083892226306105 0 -0.14083892226306105 14.430820622493798 0 0 0 0 141.5884028162011 871.26757499740779 0 871.26757499740779 -625.13887122790038 0 0 0 0 -389.47482468749041 141.81181209614442 0 141.81181209614442 910.79979461048788 0 0 0 0 -309.92537282427111 265.10683424548915 0 265.10683424548915 -259.99051303702799 0 0 0 0 -20.01640206070293 -5.702482327802386 0 -5.702482327802386 3.6391358932445286 0 0 0 0 -419.2498135132862 368.65530466746714 0 368.65530466746714 283.06698244076688 0 0 0 0 -473.24858330744109 -37.48705085390975 0 -37.48705085390975 472.48700813572577 0 0 0 0 -469.60937812930524 -179.26810968222708 0 -179.26810968222708 -29.077426985066268 0 0 0 0 27.18493107566718 -176.13228364563111 0 -176.13228364563111 -99.523388714049361 0 0 0 0 -452.1610396195033 -308.77033290701365 0 -308.77033290701365 278.33982617680158 0 0 0 0 -126.01504063922357 -103.68528903979313 0 -103.68528903979313 158.3134080368327 0 0 0 0 -79.005689795366379 -317.27720397371741 0 -317.27720397371741 241.70524262961771 0 0 0 0 -1.2640718146058134 -273.8225589910362 0 -273.8225589910362 158.57457167093162 0 0 0 0 -0.45659579456602872 0.43753858849900951 0 0.43753858849900951 41.149903300253214 0 0 0 0 -31.617545574046346 -214.8342752113067 0 -214.8342752113067 216.16142774904438 0 0 0 0 -375.33304625863138 40.351986346458943 0 40.351986346458943 108.24884701424162 0 0 0 0 -59.748837110754266 -189.70188039961795 0 -189.70188039961795 195.43266797593969 0 0 0 0 -50.19117079952207 -237.50120972780132 0 -237.50120972780132 348.6718101286242 0 0 0 0 -268.99523348559137 127.30682877771324 0 127.30682877771324 220.37962076530948 0 0 0 0 -199.20544336975036 -92.226422260020627 0 -92.226422260020627 706.54133531123807 0 0 0 0 -249.43931278715183 -68.361688205293831 0 -68.361688205293831 46.106875241268426 0 0 0 0 -190.36162330774926 76.668258162335405 0 76.668258162335405 77.392357766555506 0 0 0 0 -3.989752372774686 5.5306431244406262 0 5.5306431244406262 63.189221807101376 0 0 0 0 0.41901490739082781 13.317847696783861 0 13.317847696783861 37.122824939599525 0 0 0 0 -1.7042622990638008 2.9764695963596637 0 2.9764695963596637 18.174121359957248 0 0 0 0 -316.23209773629429 273.08800980472006 0 273.08800980472006 -100.41677471978801 0 0 0 0 -60.405418350513287 253.84273789892541 0 253.84273789892541 -268.60123416721763 0 0 0 0 -5.1460909128600845 18.526759228192276 0 18.526759228192276 12.282394251980236 0 0 0 0 -10.130957931320154 16.897460896427219 0 16.897460896427219 49.297609130007913 0 0 0 0 120.01269966774748 25.925752732793626 0 25.925752732793626 51.407163857249543 0 0 0 0 209.38982727378698 -34.717434031044831 0 -34.717434031044831 -88.012815253161534 0 0 0 0 34.114071090121342 -38.053652893817343 0 -38.053652893817343 4.7059739472751971 0 0 0 0 39.0341197981001 91.727375470210973 0 91.727375470210973 -212.3982810566813 0 0 0 0 -301.72384756598041 -38.103403264321969 0 -38.103403264321969 97.807716894414625 0 0 0 0 -143.48928163659724 -10.667707789762062 0 -10.667707789762062 100.15922347400192 0 0 0 0 -331.96812475661073 52.386813399309176 0 52.386813399309176 64.541445819515502 0 0 0 0 91.140302130739229 -67.732401092111104 0 -67.732401092111104 -5.372000798699446 0 0 0 0 87.132651737209812 -4.5641938890767051 0 -4.5641938890767051 -85.84270291030407 0 0 0 0 -6.395310358036852 2.6117615787443356 0 2.6117615787443356 3.0339711152482778 0 0 0 0 -5.7096445042263326 -14.911052176977137 0 -14.911052176977137 244.94375152980501 0 0 0 0 -146.72461592140769 5.512771824534866 0 5.512771824534866 34.59854171313782 0 0 0 0 -191.31650212108917 -77.354340873025649 0 -77.354340873025649 84.240997300978051 0 0 0 0 -14.337484050456624 130.676599403625 0 130.676599403625 8.4094446848903317 0 0 0 0 61.906299201102456 91.68306255817879 0 91.68306255817879 123.90497413395497 0 0 0 0 60.690593744755233 72.435615614114795 0 72.435615614114795 416.35184689377638 0 0 0 0 -135.25592351336945 222.12589452276006 0 222.12589452276006 1552.7594097020265 0 0 0 0 315.31166474573547 -140.78132625502622 0 -140.78132625502622 -980.35517683147145 0 0 0 0 4.472281593026441 2.5741146979876248 0 2.5741146979876248 0.57238737628518255 0 0 0 0 442.44027919599057 285.59897728978103 0 285.59897728978103 374.85985825536045 0 0 0 0 142.42169071693911 2.0495166392065585 0 2.0495166392065585 39.602796560968272 0 0 0 0 219.26351326939516 -111.87917537722387 0 -111.87917537722387 199.32118554820045 0 0 0 0 96.251495542428984 -94.832594010236789 0 -94.832594010236789 43.19543945674377 0 0 0 0 142.26171953199605 -109.46013867014699 0 -109.46013867014699 -22.959332083817571 0 0 0 0 58.610598404048687 -146.31172687801154 0 -146.31172687801154 79.238009557695477 0 0 0 0 161.75807004698959 47.998675915550848 0 47.998675915550848 -229.66084219553159 0 0 0 0 -0.35983463834070939 -0.84040073093498791 0 -0.84040073093498791 -0.84777948057470098 0 0 0 0 14.697914156125535 -27.848862092643685 0 -27.848862092643685 87.296433915151283 0 0 0 0 137.74177288491614 -84.585655729970313 0 -84.585655729970313 -75.503649092905107 0 0 0 0 -35.256163817255583 -8.0844035047339275 0 -8.0844035047339275 74.327988636898226 0 0 0 0 -56.835934241915311 7.4385764738690341 0 7.4385764738690341 67.427792741247686 0 0 0 0 -39.433162370039099 13.202281231675443 0 13.202281231675443 65.968515309286886 0 0 0 0 -27.874857383543713 -35.948809766880004 0 -35.948809766880004 117.40726888370409 0 0 0 0 17.923975317852637 -37.470677277604409 0 -37.470677277604409 71.509638299041399 0 0 0 0 152.10062214754399 359.24739052587393 0 359.24739052587393 -74.817634344304679 0 0 0 0 -8.622362501248972 -29.071671915742627 0 -29.071671915742627 68.974044604081428 0 0 0 0 -4.1707826670980541 -2.3345228858505607 0 -2.3345228858505607 -1.6870359116584268 0 0 0 0 -30.125991321160654 -2.2632949412582093 0 -2.2632949412582093 39.975615389681479 0 0 0 0 -7.0333977830669028 -20.620214899339771 0 -20.620214899339771 54.127864738431526 0 0 0 0 70.090967052898122 -127.14518373925239 0 -127.14518373925239 216.12910085206386 0 0 0 0 -113.43797012388521 281.36877219427424 0 281.36877219427424 796.41397603022051 0 0 0 0 -14.343486871538492 -4.8165707411086203 0 -4.8165707411086203 2.9587539504750566 0 0 0 0 9.8696666746564006 -75.757066585792927 0 -75.757066585792927 529.13290336795035 0 0 0 0 -250.36161554384012 249.39650493485533 0 249.39650493485533 912.15138215335037 0 0 0 0 336.44516890128489 150.8945681884361 0 150.8945681884361 -950.13597093105636 0 0 0 0 12.338855116535996 8.5495595076966993 0 8.5495595076966993 -0.86556026317822798 0 0 0 0 244.47789253264943 392.0549895504646 0 392.0549895504646 -51.809530447353609 0 0 0 0 469.58852042105184 -327.35068026012232 0 -327.35068026012232 136.58411862172943 0 0 0 0 217.01083641064361 57.406971901276847 0 57.406971901276847 -324.59879986923625 0 0 0 0 -183.47867476384272 21.918583255508565 0 21.918583255508565 -327.74342832014372 0 0 0 0 286.6581212469705 122.7211010207393 0 122.7211010207393 -425.91860633362376 0 0 0 0 137.51351915439727 -289.66789772520769 0 -289.66789772520769 77.606744962336961 0 0 0 0 90.862217906658088 -1.3809207576414337 0 -1.3809207576414337 67.582078697661927 0 0 0 0 278.48962675316579 151.99611771287164 0 151.99611771287164 179.60990909977409 0 0 0 0 151.74015693898809 -138.48092396750144 0 -138.48092396750144 204.89657136160531 0 0 0 0 137.12334363854188 -84.764388556770427 0 -84.764388556770427 267.62901356844304 0 0 0 0 157.61586321763207 -162.73555800033137 0 -162.73555800033137 357.58636546479102 0 0 0 0 99.524477234558844 -151.26336639457804 0 -151.26336639457804 232.01478762731131 0 0 0 0 135.00519629098699 76.320429415820399 0 76.320429415820399 163.83437348516964 0 0 0 0 111.51652337058977 42.575192073203652 0 42.575192073203652 306.48239399024169 0 0 0 0 135.68976939251161 135.9942693662606 0 135.9942693662606 645.20096739301516 0 0 0 0 343.75057296575233 171.7899471666824 0 171.7899471666824 457.55179936029162 0 0 0 0 397.26251871854288 420.57257094908164 0 420.57257094908164 599.80568191879138 0 0 0 0 394.15750628330352 692.76996118959141 0 692.76996118959141 529.65456872019422 0 0 0 0 0.89737359928064109 2.4339104201088375 0 2.4339104201088375 16.472865056567912 0 0 0 0 259.5022046153872 606.47831355833114 0 606.47831355833114 1059.7607592460554 0 0 0 0 397.273418385691 -412.84216640488739 0 -412.84216640488739 1231.674204548377 0 0 0 0 1086.2533217529474 56.533531547487655 0 56.533531547487655 81.064254850549332 0 0 0 0 167.88854987441573 57.562387982074142 0 57.562387982074142 440.36888967439882 0 0 0 0 -289.62440105704724 33.232788117118844 0 33.232788117118844 72.647796315650339 0 0 0 0 272.93542404311575 698.15443678859447 0 698.15443678859447 502.72853844421479 0 0 0 0 -296.27830779525129 -6.8875108079446363 0 -6.8875108079446363 1200.4828790859865 0 0 0 0 508.05475123328279 -691.35670100703101 0 -691.35670100703101 642.26850013824878 0 0 0 0 2.7423503198593706 12.576863642686334 0 12.576863642686334 38.674777585847892 0 0 0 0 -822.66775046120983 118.68789679803012 0 118.68789679803012 393.26873847656134 0 0 0 0 -121.18541228135541 -323.66847774709822 0 -323.66847774709822 259.52231406170176 0 0 0 0 -440.20942935944203 393.29611791653952 0 393.29611791653952 306.82433935752488 0 0 0 0 -240.50244359799123 -14.274640930907481 0 -14.274640930907481 67.512854511012847 0 0 0 0 -783.55342035043077 565.1667567090044 0 565.1667567090044 181.92458420874755 0 0 0 0 4.5420167203284123 17.509438681064495 0 17.509438681064495 51.434551245299645 0 0 0 0 -511.99350874031074 90.876382162372465 0 90.876382162372465 229.66266356430424 0 0 0 0 -360.51893356452661 -91.245110492287495 0 -91.245110492287495 120.92029216891387 0 0 0 0 5.9476105756347044 22.09553050610306 0 22.09553050610306 56.101346221151914 0 0 0 0 -308.07977496400963 332.1074549848563 0 332.1074549848563 -213.64238874967123 0 0 0 0 -52.317522147796808 480.91913761734759 0 480.91913761734759 -128.69892904923472 0 0 0 0 -247.71851242749563 206.5678114287839 0 206.5678114287839 38.694997619350033 0 0 0 0 -101.0254489249528 202.93619376829884 0 202.93619376829884 -364.28725748091892 0 0 0 0 234.59560848972433 196.33543938001094 0 196.33543938001094 -368.35510808006984 0 0 0 0 40.944201123281346 256.67766786296124 0 256.67766786296124 -410.46915137878386 0 0 0 0 1069.6452441085946 289.89272462572262 0 289.89272462572262 -129.7651797610456 0 0 0 0 11.785930383162052 12.466349669835722 0 12.466349669835722 11.00193507076326 0 0 0 0 2.8157837577164622 11.588064596179329 0 11.588064596179329 29.560902553158769 0 0 0 0 1102.9945753759434 1281.4118373359524 0 1281.4118373359524 -453.63630503039167 0 0 0 0 -1382.2060700894749 -58.736465344700264 0 -58.736465344700264 1428.615575012489 0 0 0 0 786.82936645667814 928.61068124354642 0 928.61068124354642 -820.69115135987522 0 0 0 0 2.1386306229261147 5.0699996546834001 0 5.0699996546834001 12.224128391483077 0 0 0 0 1246.4175505100607 961.33469821152903 0 961.33469821152903 -881.71979389066109 0 0 0 0 -387.75529803227869 -147.8914456079583 0 -147.8914456079583 1916.9178411330795 0 0 0 0 176.69111718073327 -529.45476197224343 0 -529.45476197224343 1594.8797014027077 0 0 0 0 5.8358821528389164 8.0942371925674479 0 8.0942371925674479 5.2334039177490013 0 0 0 0 1159.4191593559206 813.3827424586234 0 813.3827424586234 -900.45839181725751 0 0 0 0 -1.9269998434379176 1.4137320191144198 0 1.4137320191144198 2.0378183209725194 0 0 0 0 -148.46083431387837 -557.62737487931008 0 -557.62737487931008 318.9378235431177 0 0 0 0 -35.512287917142658 -8.7944859345971054 0 -8.7944859345971054 51.601074164893362 0 0 0 0 -16.476669214743527 8.7352439190576519 0 8.7352439190576519 31.545043547636055 0 0 0 0 836.56795836683955 604.74396738088399 0 604.74396738088399 -1137.6750026474328 0 0 0 0 727.58061101686337 1204.2047688058592 0 1204.2047688058592 -338.12811520071409 0 0 0 0 -195.05383027255448 530.36579735051055 0 530.36579735051055 1731.4545577887329 0 0 0 0 -258.74634794884355 -113.11893332583713 0 -113.11893332583713 3172.0802502596052 0 0 0 0 188.95977011877039 -576.04299675942821 0 -576.04299675942821 1233.9027957455255 0 0 0 0 -16.960228544551569 -180.2977152972453 0 -180.2977152972453 -397.15629982717087 0 0 0 0 -37.525499704205686 1.2801939820337793 0 1.2801939820337793 43.706426576158265 0 0 0 0 -36.40583458589208 14.70800421423337 0 14.70800421423337 50.904220748860098 0 0 0 0 -117.89683997302927 35.847606353716401 0 35.847606353716401 543.09697059159953 0 0 0 0 -133.2419982799546 123.76350149407517 0 123.76350149407517 194.71225375671929 0 0 0 0 -204.36716998298408 412.23584552094553 0 412.23584552094553 571.11220009921817 0 0 0 0 -280.85249617305789 -26.896932671872491 0 -26.896932671872491 908.8268072517385 0 0 0 0 -244.43098632799922 6.946924813084479 0 6.946924813084479 414.23299937059346 0 0 0 0 -486.23354606931838 25.361875773058273 0 25.361875773058273 425.15509075246518 0 0 0 0 28.290506613828853 -64.848774320889788 0 -64.848774320889788 201.235360010367 0 0 0 0 -17.085790661252368 -21.720468891122437 0 -21.720468891122437 204.89885600010166 0 0 0 0 -38.108700565825671 78.444812976427784 0 78.444812976427784 19.316289636844886 0 0 0 0 -174.39491018705351 -117.34218748771855 0 -117.34218748771855 -34.574929971204256 0 0 0 0 -5.0887081248212001 2.05242101361614 0 2.05242101361614 11.683472016962822 0 0 0 0 -137.59392177854807 -181.24047618179611 0 -181.24047618179611 -38.046689736525877 0 0 0 0 83.514555605590445 -81.255009083699406 0 -81.255009083699406 184.69546717393678 0 0 0 0 24.333306433692755 -5.3829455343984591 0 -5.3829455343984591 227.24855118945197 0 0 0 0 -52.700610909362027 7.4877430558371998 0 7.4877430558371998 255.62626389700381 0 0 0 0 -205.43389196454393 97.982814864582906 0 97.982814864582906 504.81712497401168 0 0 0 0 -139.54165107401681 42.050427097530701 0 42.050427097530701 218.33526407425234 0 0 0 0 58.455619766684791 29.572514210143709 0 29.572514210143709 179.50090176544109 0 0 0 0 -1.1828855299475489 0.66241343350583293 0 0.66241343350583293 0.21226374910270351 0 0 0 0 38.260060050942343 -3.0122426318303042 0 -3.0122426318303042 229.55369898064237 0 0 0 0 0.26474956722199144 27.33424946955347 0 27.33424946955347 207.13457526251841 0 0 0 0 47.629999567750723 44.488124596158741 0 44.488124596158741 210.49713508688001 0 0 0 0 96.538348523825675 158.36779593308165 0 158.36779593308165 350.72350316558732 0 0 0 0 176.52661124581329 50.99323149924021 0 50.99323149924021 201.74131610082259 0 0 0 0 -0.39880601053625675 54.510796491620567 0 54.510796491620567 240.21737179781485 0 0 0 0 6.0729322004360711 18.83663048712333 0 18.83663048712333 234.88903213151207 0 0 0 0 1.7160331162673184 138.19184225520894 0 138.19184225520894 432.530639008648 0 0 0 0 -0.8099644319260576 0.27219245823734184 0 0.27219245823734184 3.2065781951670829 0 0 0 0 495.5608587542082 702.19938713595184 0 702.19938713595184 840.24912221070917 0 0 0 0 282.26420027416339 263.05618165855412 0 263.05618165855412 600.60836848444887 0 0 0 0 -3.5484382094108469 212.93113858992729 0 212.93113858992729 360.60733563446774 0 0 0 0 -359.40133561289025 105.97491361429068 0 105.97491361429068 226.99192540130753 0 0 0 0 36.19710237799957 -24.202467587820138 0 -24.202467587820138 139.17323643648706 0 0 0 0 -41.498992803557655 229.15209239649994 0 229.15209239649994 238.35482846585546 0 0 0 0 387.0007638541976 199.21244210310397 0 199.21244210310397 212.48547647456871 0 0 0 0 577.36884700124688 371.52921326831711 0 371.52921326831711 217.11651745295967 0 0 0 0 1.9283819143088294 133.347113016207 0 133.347113016207 439.72994839709281 0 0 0 0 170.75326675141133 356.91312560881124 0 356.91312560881124 -82.8943192702136 0 0 0 0 247.85121719538336 661.08840043980581 0 661.08840043980581 612.54450145584997 0 0 0 0 -3.3108448676500952 -8.3426962418670882 0 -8.3426962418670882 12.845581548390328 0 0 0 0 4.1029694624795363 2.0198088259712677 0 2.0198088259712677 17.186396674558637 0 0 0 0 1.337938535791682 2.78158673516009 0 2.78158673516009 8.908638658496784 0 0 0 0 0.0085321711754625766 -2.9911272524113883 0 -2.9911272524113883 22.983358058918384 0 0 0 0 -0.0023545880348684938 -4.0961740234319501 0 -4.0961740234319501 1.8610082513041561 0 0 0 0 -2.8588544879741677 -1.5305974859757896 0 -1.5305974859757896 8.9626449233387291 0 0 0 0 636.99561587826702 808.98249657130236 0 808.98249657130236 630.43015294871293 0 0 0 0 -4.1801096651655225 -0.6229975752584096 0 -0.6229975752584096 7.3347479352388163 0 0 0 0 -49.224380611527067 33.310577198622923 0 33.310577198622923 7.8847544122108957 0 0 0 0 -92.895183327494806 68.91953598416876 0 68.91953598416876 68.537175334771746 0 0 0 0 -3.0125898004635872 76.517762769144611 0 76.517762769144611 47.905085772275925 0 0 0 0 0.94785323787909892 150.86629897258535 0 150.86629897258535 94.543353185974411 0 0 0 0 -1.177793924479912 0.11883968811534373 0 0.11883968811534373 -0.28096632521229736 0 0 0 0 39.150022432768878 45.647416351028369 0 45.647416351028369 -127.84165731884787 0 0 0 0 252.88869928556457 -229.16067034691514 0 -229.16067034691514 158.22720028435288 0 0 0 0 -18.763177434044678 -72.53673082163732 0 -72.53673082163732 324.17397653791704 0 0 0 0 -100.47510966358374 21.858689574743039 0 21.858689574743039 38.152946410278673 0 0 0 0 -62.27658285854136 -84.00184314508806 0 -84.00184314508806 175.53222690863186 0 0 0 0 -4.1966040804497453 24.876702907103208 0 24.876702907103208 25.455687048553955 0 0 0 0 -90.89249633860031 -27.844887298042863 0 -27.844887298042863 52.885147106135264 0 0 0 0 18.207386076099056 -11.060356892270647 0 -11.060356892270647 -3.7852117117581656 0 0 0 0 1.2822740718748349 -11.892910219014613 0 -11.892910219014613 41.830356050863998 0 0 0 0 -28.524185822805521 -20.960336814663606 0 -20.960336814663606 99.280495726852678 0 0 0 0 22.842157261339025 -43.846273124439904 0 -43.846273124439904 18.085149892111076 0 0 0 0 -5.3842476300533946 7.05525244441138 0 7.05525244441138 4.7444217211212276 0 0 0 0 -40.447997442187898 29.024756930302829 0 29.024756930302829 17.094782780797686 0 0 0 0 -0.69395425879269146 -3.9956307269575859 0 -3.9956307269575859 11.808161878677653 0 0 0 0 -15.946522489874042 -57.855042264345684 0 -57.855042264345684 21.682140586584865 0 0 0 0 10.210796367798567 -5.0739484424429975 0 -5.0739484424429975 7.7231057437938233 0 0 0 0 4.8954466002699064 -4.6925089296564693 0 -4.6925089296564693 37.821124970830169 0 0 0 0 9.0040128275853704 -6.9296220843389165 0 -6.9296220843389165 33.056573648151243 0 0 0 0 25.501219755914974 18.880119388160892 0 18.880119388160892 35.842202205807553 0 0 0 0 4.2577250704259768 -1.9151885339306318 0 -1.9151885339306318 32.837034840122215 0 0 0 0 2.3568884292053207 -0.28284868972676236 0 -0.28284868972676236 6.7478686039430897 0 0 0 0 -4.8591052750167592 -1.3105404301459203 0 -1.3105404301459203 33.280930872409954 0 0 0 0 0.27383694943243253 -4.4913358516312023 0 -4.4913358516312023 28.403281558526714 0 0 0 0 8.3076057491773554 -4.2348771817341913 0 -4.2348771817341913 27.243040471468703 0 0 0 0 36.4879939867144 -92.443927020693081 0 -92.443927020693081 373.8021507976373 0 0 0 0 127.3502417960118 -105.87260301297647 0 -105.87260301297647 106.72518961832429 0 0 0 0 89.563592062588441 -148.38808857246477 0 -148.38808857246477 253.9516172309668 0 0 0 0 -0.61776632373136176 0.06434985235019397 0 0.06434985235019397 19.528850813335566 0 0 0 0 102.99574167393351 -290.75408983427133 0 -290.75408983427133 561.67176783240575 0 0 0 0 82.227948483023908 -50.429112750884087 0 -50.429112750884087 250.17421765060863 0 0 0 0 -47.286422335100895 -271.15372218378616 0 -271.15372218378616 759.25621557317208 0 0 0 0 606.25174781561611 -639.88336003102449 0 -639.88336003102449 432.42030590587183 0 0 0 0 0.20214417480498481 -0.39134316238088829 0 -0.39134316238088829 7.6036616180332999 0 0 0 0 27.800651573519986 201.12700582428079 0 201.12700582428079 50.349791205424481 0 0 0 0 -9.2844512881880803 -163.72870915889507 0 -163.72870915889507 182.06859802467807 0 0 0 0 -75.576912043370271 -50.595491906402458 0 -50.595491906402458 -6.1082237644368433 0 0 0 0 20.011996026017187 -26.666884826539899 0 -26.666884826539899 -200.07827516297039 0 0 0 0 0.1943267983438739 -162.19171654553429 0 -162.19171654553429 155.30659551121062 0 0 0 0 -121.59711883967037 149.94350322119863 0 149.94350322119863 658.29708175751148 0 0 0 0 -0.36024181093632907 -230.32676959096716 0 -230.32676959096716 945.79089488479076 0 0 0 0 447.17914273137086 -62.875328635998812 0 -62.875328635998812 502.51239555340726 0 0 0 0 296.87866084089791 -381.59239791176333 0 -381.59239791176333 639.38076348976756 0 0 0 0 0.19881602240203675 -102.84671726913439 0 -102.84671726913439 525.22053876882455 0 0 0 0 213.26162548013804 -135.53680233874184 0 -135.53680233874184 232.20688302361668 0 0 0 0 -78.113004956901591 361.45930275205501 0 361.45930275205501 -291.08661473957181 0 0 0 0 143.26290967498102 -26.690514777539647 0 -26.690514777539647 77.587282388860331 0 0 0 0 -178.8217114516689 183.54696873722605 0 183.54696873722605 124.37606830227014 0 0 0 0 98.043568791159046 3.2165403819308267 0 3.2165403819308267 286.34131623325811 0 0 0 0 -98.830523431751431 182.97607382597198 0 182.97607382597198 153.11064632546913 0 0 0 0 54.919474903681021 -96.217770405040937 0 -96.217770405040937 234.61464033326774 0 0 0 0 18.077672764458725 -60.044980231894442 0 -60.044980231894442 679.31070104608079 0 0 0 0 245.71797668959601 -213.58541576185962 0 -213.58541576185962 393.98806673554645 0 0 0 0 -63.987532623579341 -424.85561947269161 0 -424.85561947269161 1090.3698012270761 0 0 0 0 203.03057534053985 71.619402260002971 0 71.619402260002971 764.23581180817564 0 0 0 0 -158.73715981054374 -488.83855600230163 0 -488.83855600230163 466.03166807785601 0 0 0 0 133.87151948458131 258.51146624179455 0 258.51146624179455 654.64488653724402 0 0 0 0 0.53988172365296716 -1.9094916630165528 0 -1.9094916630165528 3.8451926029292736 0 0 0 0 -111.20454605318287 83.735418373005814 0 83.735418373005814 111.3270266987638 0 0 0 0 1.2754444334075838 -1.4673421760081169 0 -1.4673421760081169 11.470303604490311 0 0 0 0 -231.9678509884086 11.848251427578361 0 11.848251427578361 86.387383204251819 0 0 0 0 92.784650829089401 153.6796028066492 0 153.6796028066492 36.453524756820116 0 0 0 0 -161.43241114114022 134.67430985027841 0 134.67430985027841 -0.60219159674306866 0 0 0 0 -6.4538308373319655 0.98620955202986238 0 0.98620955202986238 6.4240728525854252 0 0 0 0 -125.12505369702319 65.280620470824942 0 65.280620470824942 -40.589212448394392 0 0 0 0 -33.705003743375528 40.083846770248783 0 40.083846770248783 30.352109335792193 0 0 0 0 -13.820625428573749 31.46853932351587 0 31.46853932351587 34.011993762185739 0 0 0 0 -12.231989885963205 6.9443453549617402 0 6.9443453549617402 32.804848128309857 0 0 0 0 30.546805533189399 59.454706783213624 0 59.454706783213624 122.92967723820766 0 0 0 0 19.222949267653803 42.970655337237986 0 42.970655337237986 115.86724000746472 0 0 0 0 14.935150503160759 12.435014825590969 0 12.435014825590969 11.552223037720523 0 0 0 0 -1.0722447746711623 26.10471715539461 0 26.10471715539461 224.66008706315188 0 0 0 0 -0.28464762532121313 184.31429523101906 0 184.31429523101906 168.47737378074089 0 0 0 0 99.505416797853741 86.650639019273513 0 86.650639019273513 126.72688177019245 0 0 0 0 -142.04434301600668 90.706383833217842 0 90.706383833217842 236.74785302077362 0 0 0 0 -34.429793625223311 -223.31511724785469 0 -223.31511724785469 311.63002642487118 0 0 0 0 -100.54508084631811 82.911602879822567 0 82.911602879822567 59.062481609958922 0 0 0 0 -23.000286959074856 -394.74281815111681 0 -394.74281815111681 709.5603933387174 0 0 0 0 36.449171774172555 -357.38710564683061 0 -357.38710564683061 435.04982574431051 0 0 0 0 10.613183740831801 -308.00504185446334 0 -308.00504185446334 610.89948651014129 0 0 0 0 24.97707885705131 -171.94309066892311 0 -171.94309066892311 354.03151602595244 0 0 0 0 15.687190935333689 -223.57170153064908 0 -223.57170153064908 581.10611601077835 0 0 0 0 87.92368779073422 -335.6889425040572 0 -335.6889425040572 733.08370530465072 0 0 0 0 332.66637889423578 -209.82837385644234 0 -209.82837385644234 557.9366974076911 0 0 0 0 174.59262354935413 -261.29686967507587 0 -261.29686967507587 545.70744648748951 0 0 0 0 46.267755704772753 -337.49946847020328 0 -337.49946847020328 560.15875829150718 0 0 0 0 185.49476138485511 -244.48836203113387 0 -244.48836203113387 448.40988379316696 0 0 0 0 51.536041497887481 -225.0420329807821 0 -225.0420329807821 454.04064989266044 0 0 0 0 -13.169864058755138 -170.19951339188265 0 -170.19951339188265 477.90664807275061 0 0 0 0 1.2584631903934409 0.75342762161085375 0 0.75342762161085375 0.013492880169508226 0 0 0 0 164.58905265227168 -94.270394155490067 0 -94.270394155490067 63.991265630189446 0 0 0 0 14.1857993785693 -79.53579196051578 0 -79.53579196051578 -101.46727129363239 0 0 0 0 10.288053735870776 -3.3052853801458753 0 -3.3052853801458753 -0.51833305669016205 0 0 0 0 -10.482636877703271 -31.290301905544766 0 -31.290301905544766 -123.80989520903677 0 0 0 0 -7.7045887152284456 -89.249785554631671 0 -89.249785554631671 -129.800021109113 0 0 0 0 8.4174865782333956 -2.6868742559083785 0 -2.6868742559083785 0.3453980173049338 0 0 0 0 62.249172663362863 -56.419031730001734 0 -56.419031730001734 -281.00886385744798 0 0 0 0 312.60083247707689 12.587638858014543 0 12.587638858014543 -343.0150214231578 0 0 0 0 3.3953278550686292 -0.21910325864831748 0 -0.21910325864831748 0.3893532445670882 0 0 0 0 49.934041561634785 65.883461936966341 0 65.883461936966341 -102.18959052368882 0 0 0 0 22.447190058584511 -134.64709586601384 0 -134.64709586601384 753.60478758362115 0 0 0 0 279.18175037590618 -358.59680735595612 0 -358.59680735595612 940.14412836768315 0 0 0 0 33.9296384042932 -196.42522384926997 0 -196.42522384926997 540.56033517458854 0 0 0 0 383.85771917895408 -183.67064918992401 0 -183.67064918992401 564.78940606293327 0 0 0 0 73.637427974501406 -103.52114625342074 0 -103.52114625342074 603.75511034766532 0 0 0 0 491.09660943674817 -337.38605567895138 0 -337.38605567895138 128.52416691280814 0 0 0 0 3.1803503501751038 -75.092034253910242 0 -75.092034253910242 290.18912161903063 0 0 0 0 77.280246572742612 -89.881695359523292 0 -89.881695359523292 292.24576865103154 0 0 0 0 16.690037223642321 -86.190326661471772 0 -86.190326661471772 158.79712134668443 0 0 0 0 -92.650006844684867 51.010108056718309 0 51.010108056718309 307.3839407023188 0 0 0 0 -84.349550434431876 -7.0113712988095358 0 -7.0113712988095358 359.80133257442503 0 0 0 0 -114.55307586511117 36.263146163983038 0 36.263146163983038 396.39813437787234 0 0 0 0 -75.681678645409193 -39.722798861206684 0 -39.722798861206684 477.46460165596363 0 0 0 0 -57.147171602399624 29.272296501654637 0 29.272296501654637 304.14742954276153 0 0 0 0 -60.699384210804624 52.802773783788325 0 52.802773783788325 330.54012778316974 0 0 0 0 -136.13061509256295 7.3036325668654172 0 7.3036325668654172 365.03535596185247 0 0 0 0 -72.651020265733678 7.3856821680310532 0 7.3856821680310532 256.66926556979888 0 0 0 0 -72.587953884999934 -10.92896845317955 0 -10.92896845317955 370.08674172275641 0 0 0 0 -51.765723578648249 -0.98024451756646158 0 -0.98024451756646158 258.98787901529795 0 0 0 0 -34.099787904446202 23.408821480656115 0 23.408821480656115 177.28695897023135 0 0 0 0 14.227139543787416 50.465863580429868 0 50.465863580429868 112.48372826758714 0 0 0 0 -38.053311131808186 12.842695957093383 0 12.842695957093383 172.03666435444029 0 0 0 0 -46.29441298781876 56.396099081503053 0 56.396099081503053 303.15069203429448 0 0 0 0 -3.2587582108952446 0.60049329245543959 0 0.60049329245543959 -0.70872129404646245 0 0 0 0 -3.1489329156938766 110.12626722941059 0 110.12626722941059 204.40733272157377 0 0 0 0 64.022754432007787 -275.11131425361964 0 -275.11131425361964 -125.36027149741858 0 0 0 0 -110.77902086248105 -32.238988560711732 0 -32.238988560711732 4.8150053400895558 0 0 0 0 72.814157751141707 86.221324850877181 0 86.221324850877181 265.36436959629646 0 0 0 0 2.5283189307045077 -2.9884674941462066 0 -2.9884674941462066 4.0137847851584922 0 0 0 0 -6.9373189268726492 116.09267533865932 0 116.09267533865932 436.51791984765987 0 0 0 0 50.239947519758289 60.663943708819716 0 60.663943708819716 262.83919733247603 0 0 0 0 169.4161644960368 -296.17113461091867 0 -296.17113461091867 49.053885318746325 0 0 0 0 56.422036955766089 168.30948320142488 0 168.30948320142488 793.11678538268825 0 0 0 0 1.6073323385478311 -1.1990322279581704 0 -1.1990322279581704 1.2977553695255608 0 0 0 0 -84.697551860014755 24.31512856054178 0 24.31512856054178 120.74886917800177 0 0 0 0 -2.3754680047026557 1.2705869122179649 0 1.2705869122179649 -0.58234238701473373 0 0 0 0 -34.4588194368107 -23.372186940010579 0 -23.372186940010579 97.486499788625224 0 0 0 0 -56.526132898223295 51.748562756518368 0 51.748562756518368 17.647844031176646 0 0 0 0 -42.347934477722447 -9.5475225775517174 0 -9.5475225775517174 47.635080482090416 0 0 0 0 -9.8615091308478959 2.5513692899507419 0 2.5513692899507419 1.6433742419416291 0 0 0 0 33.826027846647776 0.82692260007024743 0 0.82692260007024743 -6.9667862452733971 0 0 0 0 -136.50189275186972 -239.0880132827042 0 -239.0880132827042 674.21428136597387 0 0 0 0 85.847859877789233 290.45239734486677 0 290.45239734486677 -161.27006679629631 0 0 0 0 3.4625857485613558 2.0050920605799547 0 2.0050920605799547 1.4725944563244298 0 0 0 0 -75.800427279826636 -37.121516463550506 0 -37.121516463550506 397.14884188470023 0 0 0 0 22.722460135782057 80.041266813444963 0 80.041266813444963 209.7584498016513 0 0 0 0 -104.32028319017991 116.39701278517168 0 116.39701278517168 -30.970089210321021 0 0 0 0 10.181486065588741 6.684523876103583 0 6.684523876103583 4.1157593070855398 0 0 0 0 58.514005273631483 132.71473056243121 0 132.71473056243121 -147.73347411291616 0 0 0 0 -79.515675006932042 23.047341750992928 0 23.047341750992928 42.928093099748367 0 0 0 0 -83.783523246311233 20.733756178240583 0 20.733756178240583 123.8942164175387 0 0 0 0 -39.643890707664468 37.599536578505649 0 37.599536578505649 48.178490310223424 0 0 0 0 -32.596358660193289 27.423206214445372 0 27.423206214445372 14.375263022346189 0 0 0 0 -58.833849010746235 52.440919295841013 0 52.440919295841013 47.133995191732538 0 0 0 0 111.45397943095566 83.970140152383692 0 83.970140152383692 269.48522801167564 0 0 0 0 121.49339689331168 -103.49045347736683 0 -103.49045347736683 136.90204526144225 0 0 0 0 -41.179245115100002 27.839557252045779 0 27.839557252045779 332.53906943871698 0 0 0 0 55.50181744585052 233.57393211987073 0 233.57393211987073 140.22077798596729 0 0 0 0 70.914529022011493 182.56098462609225 0 182.56098462609225 42.026199881482171 0 0 0 0 1.5876491091073299 0.56594565221067228 0 0.56594565221067228 2.1666670629335272 0 0 0 0 176.97136606106096 71.530814093748631 0 71.530814093748631 -10.732053998333868 0 0 0 0 2.4255859025134896 13.755937301695667 0 13.755937301695667 454.41968355233257 0 0 0 0 -8.1227384189238574 -0.89984903335252397 0 -0.89984903335252397 8.2097366774511897 0 0 0 0 -9.0357080440731021 -1.5973678605978989 0 -1.5973678605978989 4.5125822703174379 0 0 0 0 -163.21319114472544 -40.885183409824094 0 -40.885183409824094 59.706091257805383 0 0 0 0 -7.2364654005695002 -1.0250640094527625 0 -1.0250640094527625 10.566763499635272 0 0 0 0 81.46388554155601 298.56093508654158 0 298.56093508654158 63.36153445715172 0 0 0 0 -301.04790523181509 241.12760362525296 0 241.12760362525296 474.63338984528673 0 0 0 0 8.4450977191754646 3.7530428901081905 0 3.7530428901081905 26.214319435740435 0 0 0 0 557.27271491187184 128.2751214068121 0 128.2751214068121 -65.727855994744459 0 0 0 0 1.501798029446423 -5.8333283257166926 0 -5.8333283257166926 7.1530959067190452 0 0 0 0 -301.22048157922563 75.880443575326353 0 75.880443575326353 278.03454203248111 0 0 0 0 -8.6197634312056834 -4.4235116646705137 0 -4.4235116646705137 29.910438409227936 0 0 0 0 -17.654281654261467 -0.48188345260859933 0 -0.48188345260859933 34.183629926367757 0 0 0 0 -10.389777424125167 0.74599417580367344 0 0.74599417580367344 6.53380039238154 0 0 0 0 -16.691050835044948 -4.5622536818434014 0 -4.5622536818434014 14.680777339076144 0 0 0 0 -60.971553414379059 20.858751831934569 0 20.858751831934569 17.030359678305103 0 0 0 0 -36.275169271270286 -10.201554508199479 0 -10.201554508199479 -33.178112100067665 0 0 0 0 -41.407627316012473 -15.193656371845208 0 -15.193656371845208 9.2444249608237001 0 0 0 0 -30.291415491269067 -40.976540293073413 0 -40.976540293073413 76.269590494979639 0 0 0 0 -32.854823861806096 8.160985782444186 0 8.160985782444186 -34.179418042738689 0 0 0 0 -43.659336399202374 -0.40186402920517139 0 -0.40186402920517139 8.0526962959265802 0 0 0 0 -47.941864373116346 -39.351326189978863 0 -39.351326189978863 52.506501178009785 0 0 0 0 9.1212598843645196 -76.607477734811255 0 -76.607477734811255 14.945188266960031 0 0 0 0 7.5013215034077243 -154.27538489797462 0 -154.27538489797462 169.35449575135135 0 0 0 0 -61.707774005016596 -56.026669849437894 0 -56.026669849437894 69.517191543767694 0 0 0 0 -101.87812231826865 2.5145385994110256 0 2.5145385994110256 8.8805203688098118 0 0 0 0 -35.173407215519774 -34.223169055811013 0 -34.223169055811013 5.0792663466418162 0 0 0 0 -2.2036531471015177 -4.6975588085781226 0 -4.6975588085781226 4.7989959245973921 0 0 0 0 -78.152564658618303 52.276080002397066 0 52.276080002397066 -16.928800063120434 0 0 0 0 -6.1002469697298709 -0.90629709024842953 0 -0.90629709024842953 8.7765446103506974 0 0 0 0 -61.825298554433346 21.369562188985583 0 21.369562188985583 37.936139483630541 0 0 0 0 91.246614582686547 -24.744251657797577 0 -24.744251657797577 3.9097145795421966 0 0 0 0 1.3563103822285472 -2.8836580214474736 0 -2.8836580214474736 4.6504821359144159 0 0 0 0 145.27477502560174 -185.14817902868526 0 -185.14817902868526 101.40096486392576 0 0 0 0 71.596081442850206 -294.50986904891033 0 -294.50986904891033 225.52921719176811 0 0 0 0 -72.043419184834448 -180.29615853133873 0 -180.29615853133873 161.48347029322758 0 0 0 0 -209.39057941212079 -112.22070620725572 0 -112.22070620725572 636.48064709578466 0 0 0 0 91.908708384065847 180.29492574010328 0 180.29492574010328 197.55862977524521 0 0 0 0 250.04822252852551 -217.95046740552971 0 -217.95046740552971 225.12093183983234 0 0 0 0 -1.083464060745996 23.864910931020859 0 23.864910931020859 519.99275759485317 0 0 0 0 2.3093647907700188 21.273127385774387 0 21.273127385774387 38.195301539162756 0 0 0 0 5.1358352992120899 20.554503397306689 0 20.554503397306689 37.022217537294637 0 0 0 0 -315.63901042123257 -39.881245042757655 0 -39.881245042757655 133.37108393346716 0 0 0 0 0.98506012265385501 9.9272671057461981 0 9.9272671057461981 34.457487689265633 0 0 0 0 -310.45079343805156 168.01162902177748 0 168.01162902177748 152.03057138404984 0 0 0 0 -230.96432533382159 7.6729124237554061 0 7.6729124237554061 169.59851436689496 0 0 0 0 -260.50150347838212 -50.232190257171169 0 -50.232190257171169 58.799722556250344 0 0 0 0 -279.96033984096147 -144.89595352458127 0 -144.89595352458127 -91.078584039292764 0 0 0 0 -282.95941836707209 -147.35192919200927 0 -147.35192919200927 310.55707588263613 0 0 0 0 -92.588617178627942 -212.43860858751577 0 -212.43860858751577 190.54521303404181 0 0 0 0 -269.56753483685367 -192.43023887589516 0 -192.43023887589516 377.14988342937431 0 0 0 0 -111.98254845862778 -11.37222589875455 0 -11.37222589875455 572.12209442231688 0 0 0 0 0.22207721844430717 3.5737752826557596 0 3.5737752826557596 6.3415758333590375 0 0 0 0 28.442851108515612 -167.05152523175275 0 -167.05152523175275 743.16870375495637 0 0 0 0 2.7006337714063773 5.383047847983363 0 5.383047847983363 -1.1336898249319347 0 0 0 0 -0.080749024061788077 136.14178883261047 0 136.14178883261047 465.41074898259831 0 0 0 0 22.194501234138961 72.279422339152461 0 72.279422339152461 295.78384230016673 0 0 0 0 -12.016381074459211 -50.582659920836704 0 -50.582659920836704 345.62337906175526 0 0 0 0 7.6187162106853101 14.587245992357964 0 14.587245992357964 -0.14379357596316922 0 0 0 0 -45.201007371366728 21.132031277036731 0 21.132031277036731 273.67930042565422 0 0 0 0 75.130153488871031 -53.838086330018996 0 -53.838086330018996 79.801648800013936 0 0 0 0 -61.618705085822789 -49.48743163261679 0 -49.48743163261679 208.13541503554734 0 0 0 0 -70.602232010088414 2.8456274084892357 0 2.8456274084892357 278.71319671110541 0 0 0 0 -13.745808150018547 -5.1133209000399802 0 -5.1133209000399802 167.31497592470168 0 0 0 0 72.453585047341448 78.425973373923625 0 78.425973373923625 259.56381044798763 0 0 0 0 47.75908356943637 13.287415847269585 0 13.287415847269585 166.53368014531588 0 0 0 0 -75.615683681742865 18.376730966767354 0 18.376730966767354 300.60924284852808 0 0 0 0 7.6956462444168849 -2.2364381312872865 0 -2.2364381312872865 80.686394439719152 0 0 0 0 -53.984080282543971 27.558906628233672 0 27.558906628233672 88.511534031240444 0 0 0 0 -12.996235495496506 26.376150795840658 0 26.376150795840658 -8.3825107879238203 0 0 0 0 -35.732399254611209 -62.769676729018101 0 -62.769676729018101 81.357652403346037 0 0 0 0 35.85857468011983 -29.00516441151558 0 -29.00516441151558 -50.662152810327825 0 0 0 0 -17.740862985971965 -17.963019818119477 0 -17.963019818119477 1.7384762621689305 0 0 0 0 -19.731000642242634 -247.72093739914999 0 -247.72093739914999 -52.240781768371562 0 0 0 0 -122.67003107921005 12.180983242513321 0 12.180983242513321 503.5493010503269 0 0 0 0 -101.22836169285893 187.74789165855327 0 187.74789165855327 480.22623821625893 0 0 0 0 -233.51554681141806 141.82250753369135 0 141.82250753369135 515.15232885972364 0 0 0 0 -153.96887452996089 92.587399740921683 0 92.587399740921683 530.29074055657838 0 0 0 0 -86.764662406220168 41.169861245558423 0 41.169861245558423 378.44802597063244 0 0 0 0 46.565093232359686 103.31092206435278 0 103.31092206435278 402.98958925069746 0 0 0 0 228.25836952370628 451.27602257252147 0 451.27602257252147 233.59719225332083 0 0 0 0 -17.45640657306285 846.52896460075863 0 846.52896460075863 803.77121774246916 0 0 0 0 -289.30672991018582 457.86828648940718 0 457.86828648940718 644.90848131226085 0 0 0 0 -1043.4363077433118 130.8644501084782 0 130.8644501084782 970.44030129503517 0 0 0 0 -205.78817166361932 291.37012051514557 0 291.37012051514557 460.45348457401269 0 0 0 0 -4.2564672481748858 242.74364632105426 0 242.74364632105426 431.21731627559348 0 0 0 0 -51.224233093563271 69.124169003525822 0 69.124169003525822 -65.162977197149303 0 0 0 0 -130.97674783808816 -47.076336411904776 0 -47.076336411904776 144.76218071134645 0 0 0 0 -108.25851815883652 -49.587596095108893 0 -49.587596095108893 41.848699971766109 0 0 0 0 -0.06294746978644028 16.945862373998466 0 16.945862373998466 32.640515393121461 0 0 0 0 -202.27910507445995 -35.31649848719826 0 -35.31649848719826 88.641525297280168 0 0 0 0 -6.0869999916340021 -51.903092692755308 0 -51.903092692755308 190.22304504703789 0 0 0 0 20.88514869361461 -23.645593569046468 0 -23.645593569046468 101.0361385138458 0 0 0 0 -3.970397685547141 -63.827905745798489 0 -63.827905745798489 248.15199644446693 0 0 0 0 -10.157597873454961 -25.523913951282793 0 -25.523913951282793 208.15299761868664 0 0 0 0 42.512292634066398 -132.22312043847342 0 -132.22312043847342 266.73003342265292 0 0 0 0 5.3238800269372604 6.6395346220404221 0 6.6395346220404221 9.2298548847556958 0 0 0 0 123.23233986862431 -346.80578610702014 0 -346.80578610702014 792.81652430194663 0 0 0 0 120.45415455829698 -364.23270759844854 0 -364.23270759844854 1045.5433498529019 0 0 0 0 108.86254354484845 169.79233488238242 0 169.79233488238242 538.22638986234961 0 0 0 0 99.820150324387214 206.61032457595138 0 206.61032457595138 1408.1149720935791 0 0 0 0 -50.947829538346923 112.42868518449541 0 112.42868518449541 528.86620376542123 0 0 0 0 307.07714599458814 105.98929611053609 0 105.98929611053609 48.948931854392868 0 0 0 0 -123.02339646914697 -41.450196772768322 0 -41.450196772768322 546.17929856784758 0 0 0 0 -43.001169520846815 135.98068049813446 0 135.98068049813446 348.30477737076581 0 0 0 0 -66.335123743815984 36.441656963879723 0 36.441656963879723 141.65639816482144 0 0 0 0 -106.93435325019072 17.993543993761705 0 17.993543993761705 258.00077671020699 0 0 0 0 -23.448235800071416 25.952689823025139 0 25.952689823025139 -12.58707218458585 0 0 0 0 -156.76287988167405 -129.29144312228163 0 -129.29144312228163 37.340330803053803 0 0 0 0 -60.769614503998127 -299.9450055348716 0 -299.9450055348716 -130.69048652012498 0 0 0 0 10.969074044226788 -15.259209904993696 0 -15.259209904993696 15.700077444110718 0 0 0 0 -0.51556537267401836 -27.391674669610438 0 -27.391674669610438 6.3564282118022675 0 0 0 0 -581.84298130945535 -200.34724073699908 0 -200.34724073699908 -83.887859342954471 0 0 0 0 -74.936857225831773 -419.02812664187513 0 -419.02812664187513 -143.4419008710538 0 0 0 0 3.1253377384939096 -4.6386066357338507 0 -4.6386066357338507 2.9305542926064732 0 0 0 0 28.517318734616651 -5.7587733787186153 0 -5.7587733787186153 -6.96886085953156 0 0 0 0 14.508294075253843 -15.026602128171362 0 -15.026602128171362 1.7669783491874114 0 0 0 0 10.645954126578369 -13.961153085882842 0 -13.961153085882842 1.6267726052235503 0 0 0 0 15.183718162308484 -18.76338363175541 0 -18.76338363175541 3.7840244370510163 0 0 0 0 7.6426102924169159 -10.41892369376103 0 -10.41892369376103 -5.1009274845004313 0 0 0 0 11.087347719441823 -16.605316197983484 0 -16.605316197983484 3.8064855281845666 0 0 0 0 9.0662420441894938 -11.314177850959823 0 -11.314177850959823 1.0429574745503487 0 0 0 0 10.417436885507396 -12.835791347209408 0 -12.835791347209408 9.414949987769603 0 0 0 0 -164.68766220405814 81.15859913485474 0 81.15859913485474 -15.09301489481004 0 0 0 0 11.838705523952804 -15.333434566351471 0 -15.333434566351471 6.8118356202864163 0 0 0 0 3.0897192245634848 -7.3338720291645387 0 -7.3338720291645387 -0.67889062328399064 0 0 0 0 -752.40929594664703 111.76299039568403 0 111.76299039568403 5.5662095198058523 0 0 0 0 -0.66316109956321334 0.070520308043924729 0 0.070520308043924729 0.57896122150623341 0 0 0 0 5.3349917036866827 10.082910108249052 0 10.082910108249052 18.204496359816403 0 0 0 0 2.6408455857309949 -9.6935461739609394 0 -9.6935461739609394 14.468238976606756 0 0 0 0 -10.447824821706376 128.94356296602746 0 128.94356296602746 345.8770446498238 0 0 0 0 65.536806780110055 -10.794349038114888 0 -10.794349038114888 19.441358464711811 0 0 0 0 39.363934890446899 -82.629079401987838 0 -82.629079401987838 238.24039805599023 0 0 0 0 -513.35147325907928 -205.69539587505278 0 -205.69539587505278 352.50116331168101 0 0 0 0 -771.47526789579024 714.25899526806461 0 714.25899526806461 1465.6543690394028 0 0 0 0 546.20245425661415 -898.09202573103539 0 -898.09202573103539 222.04474594280327 0 0 0 0 915.29001723982583 493.23414281377336 0 493.23414281377336 345.27765248715878 0 0 0 0 214.64582442809842 -173.2059981389757 0 -173.2059981389757 -146.80063099327526 0 0 0 0 108.24178894970282 -104.10980152052798 0 -104.10980152052798 87.40823415631894 0 0 0 0 -910.31141221495636 -102.3854843264271 0 -102.3854843264271 264.10148300568108 0 0 0 0 -666.95376910256891 -378.90365067691891 0 -378.90365067691891 278.88851420208812 0 0 0 0 -612.45730383336195 -186.18325126275886 0 -186.18325126275886 26.642394171794876 0 0 0 0 -888.48920761554473 -230.38092237869569 0 -230.38092237869569 319.79291527692112 0 0 0 0 -25.10957738248203 -40.452887373841804 0 -40.452887373841804 38.627813039915054 0 0 0 0 4.9322975262075488 -7.147635231478489 0 -7.147635231478489 16.821702330875269 0 0 0 0 29.164210672495756 -29.0759878374447 0 -29.0759878374447 23.473093723558122 0 0 0 0 0.67672365901992393 -1.7375596392996826 0 -1.7375596392996826 0.73605676704627854 0 0 0 0 78.803888131356018 -46.721738856438606 0 -46.721738856438606 11.400047820905456 0 0 0 0 46.151581174121475 -19.388451897131745 0 -19.388451897131745 -3.4724404087901348 0 0 0 0 79.610366911697383 -41.519727435719687 0 -41.519727435719687 3.9568641385922092 0 0 0 0 13.078138040876638 -13.896702885889681 0 -13.896702885889681 2.0502545847557485 0 0 0 0 23.73530629521224 -46.872714944984182 0 -46.872714944984182 9.4085815249272855 0 0 0 0 8.2125875188869628 -4.7346987063178645 0 -4.7346987063178645 -6.6241455541581047 0 0 0 0 8.8145919434548077 -11.400875892444148 0 -11.400875892444148 4.7990936775608759 0 0 0 0 10.392952974154014 -24.063044563921721 0 -24.063044563921721 -0.49395559488038998 0 0 0 0 14.410776954445041 -18.093883472445377 0 -18.093883472445377 15.563124184562241 0 0 0 0 -113.76928470735766 -205.15947193371539 0 -205.15947193371539 -163.97017363755003 0 0 0 0 -111.97571626446924 -41.450437125486758 0 -41.450437125486758 -6.9485138134768931 0 0 0 0 -5.6102229769844598 -20.88517338361271 0 -20.88517338361271 20.938740604397026 0 0 0 0 12.740907546801482 -16.186160392716786 0 -16.186160392716786 16.236349892689475 0 0 0 0 13.622021671616107 -14.232719772928789 0 -14.232719772928789 14.42257174118572 0 0 0 0 -0.2981628721800007 -29.979473251609306 0 -29.979473251609306 5.0975716437533265 0 0 0 0 8.7569240731318132 -16.706948182829365 0 -16.706948182829365 8.5572180603921879 0 0 0 0 6.9983625986424158 -19.806081488059135 0 -19.806081488059135 2.6820883516666072 0 0 0 0 -1.613192275808359 -6.7643207687069662 0 -6.7643207687069662 5.4031778041098733 0 0 0 0 1.3907916698481131 -19.16423082210531 0 -19.16423082210531 17.412859231524635 0 0 0 0 7.5202591342664391 -23.449888775310683 0 -23.449888775310683 9.4790337418962736 0 0 0 0 2.4258088296885321 -8.8312081116013275 0 -8.8312081116013275 9.8273076244878439 0 0 0 0 8.2812582379883679 -11.677929164761736 0 -11.677929164761736 14.314765144627017 0 0 0 0 12.346016743502148 -12.812274066546479 0 -12.812274066546479 12.581444877021909 0 0 0 0 0.29818654371030107 -21.009656267086484 0 -21.009656267086484 10.121711141604465 0 0 0 0 4.3065911410305944 -17.819556268417728 0 -17.819556268417728 7.1525312032972579 0 0 0 0 1.1925865019738922 -16.366608686555992 0 -16.366608686555992 10.623729841187014 0 0 0 0 8.7278388013888595 -9.4836184977661446 0 -9.4836184977661446 6.4804983253758763 0 0 0 0 4.9453422771503028 -16.080233506494551 0 -16.080233506494551 7.7467066961835371 0 0 0 0 19.468748390490816 -37.24780923891376 0 -37.24780923891376 126.63662952480081 0 0 0 0 4.1231924981181649 -2.4827812072189062 0 -2.4827812072189062 -4.1989749905009148 0 0 0 0 38.908635853455621 9.0014334035076899 0 9.0014334035076899 137.02463048454956 0 0 0 0 -3.1747474377076417 -5.2131755275973859 0 -5.2131755275973859 4.9251874435266956 0 0 0 0 1.578617251112064 -4.001222642546054 0 -4.001222642546054 46.239250909002294 0 0 0 0 2.9057475208624055 -35.153770969598554 0 -35.153770969598554 172.98646143048609 0 0 0 0 15.970388930071749 52.565400315921579 0 52.565400315921579 163.10811413201736 0 0 0 0 11.916382399613212 28.461349631717894 0 28.461349631717894 66.74847736096126 0 0 0 0 -17.320757041325578 -6.7915291022509336 0 -6.7915291022509336 74.792410900074174 0 0 0 0 -17.295748543777336 -8.25336893950589 0 -8.25336893950589 125.37523641464941 0 0 0 0 -17.060016765313264 -14.516357975786377 0 -14.516357975786377 72.830743696467835 0 0 0 0 -18.20790381507868 -5.4337758132314775 0 -5.4337758132314775 75.072967108302691 0 0 0 0 -8.8005032565307246 -4.1587911155619395 0 -4.1587911155619395 7.2571767395765789 0 0 0 0 -9.9276208810624667 -9.3439561323757516 0 -9.3439561323757516 16.031923515976814 0 0 0 0 -1.7909673916748101 -2.344364941067397 0 -2.344364941067397 0.86378763132825043 0 0 0 0 -5.5161493608491128 -27.627008181741985 0 -27.627008181741985 80.767643130500801 0 0 0 0 31.58021123574963 -65.407801379900775 0 -65.407801379900775 42.214125903155946 0 0 0 0 58.547716433889263 -45.060163024962094 0 -45.060163024962094 32.969386115160887 0 0 0 0 93.141530899653844 -48.516211689384363 0 -48.516211689384363 32.873949121509213 0 0 0 0 59.089905821877437 -45.336875395849347 0 -45.336875395849347 31.108263355527015 0 0 0 0 -29.318450348157285 -23.477088515381183 0 -23.477088515381183 73.58612267425633 0 0 0 0 -14.128472909977045 -3.4630778819451109 0 -3.4630778819451109 -0.99903324972129326 0 0 0 0 65.910438247226921 -46.401784449692059 0 -46.401784449692059 43.898930813177685 0 0 0 0 -0.16747225337758209 -43.624224007260636 0 -43.624224007260636 86.955842580500757 0 0 0 0 -52.790061571853784 3.4170279608538294 0 3.4170279608538294 43.190799794188933 0 0 0 0 20.678157648009801 -63.289425201284757 0 -63.289425201284757 69.802509072469547 0 0 0 0 -0.067548734568275925 -4.5177043818665794 0 -4.5177043818665794 7.7236934219738487 0 0 0 0 -57.843611278107801 -32.082174607156048 0 -32.082174607156048 88.677189723719493 0 0 0 0 -24.309898455616803 -29.525248333899071 0 -29.525248333899071 58.048395697835076 0 0 0 0 -25.452560866984413 -20.577984929882405 0 -20.577984929882405 106.23889340495225 0 0 0 0 -22.439948410631814 -34.308855463008513 0 -34.308855463008513 42.687701648712391 0 0 0 0 -17.088966440085642 -37.010245353651044 0 -37.010245353651044 44.041319488926092 0 0 0 0 -10.169808300368345 -15.369781721754407 0 -15.369781721754407 36.219369058148004 0 0 0 0 1.068945038652124 -19.068968167793045 0 -19.068968167793045 32.372736229022593 0 0 0 0 1.8696602901059123 -45.237804080075875 0 -45.237804080075875 30.628397830860195 0 0 0 0 4.9691628212834873 -22.840662180913696 0 -22.840662180913696 26.210192766586943 0 0 0 0 -292.91996711338669 367.41643427143163 0 367.41643427143163 3497.3236694939696 0 0 0 0 -292.55865593829031 368.97413046529846 0 368.97413046529846 3492.7273491923479 0 0 0 0 2.0877520882707064 -7.3465819984778875 0 -7.3465819984778875 7.1686364610151898 0 0 0 0 646.75755877144263 -843.4653019919424 0 -843.4653019919424 1090.1536282892484 0 0 0 0 0.65315634694161417 -17.343502610277937 0 -17.343502610277937 34.00083139421622 0 0 0 0 1382.3881478559226 1902.2003728965065 0 1902.2003728965065 2657.8931123650982 0 0 0 0 2.7959881217628082 -2.1770024540543673 0 -2.1770024540543673 1.9507937417584174 0 0 0 0 418.64882711125352 397.12392000035106 0 397.12392000035106 454.44103201961843 0 0 0 0 0.57306021006701857 -5.481852905637 0 -5.481852905637 19.266317019208856 0 0 0 0 -477.67671817150978 -554.98682234037915 0 -554.98682234037915 3480.1690039584059 0 0 0 0 8.2884709716424823 -11.339730448886257 0 -11.339730448886257 -8.7094117977612768 0 0 0 0 3.2869014786039639 -5.2748056540483503 0 -5.2748056540483503 3.0534156210802053 0 0 0 0 2.6674364509519952 -21.269778735224605 0 -21.269778735224605 -1.5248801375944936 0 0 0 0 7.8750003697977036 -48.729943544811249 0 -48.729943544811249 32.816332763708488 0 0 0 0 3.800711279068878 -42.562599126675195 0 -42.562599126675195 24.430166866834043 0 0 0 0 2.9111251606639477 -20.459150403384371 0 -20.459150403384371 -7.9647596402608798 0 0 0 0 31.590229647298884 -23.346867732594546 0 -23.346867732594546 -5.6585697497357614 0 0 0 0 36.091042983214493 -82.183967495209799 0 -82.183967495209799 85.930990670196479 0 0 0 0 17.200245486168569 -33.238160992863413 0 -33.238160992863413 18.459194821407436 0 0 0 0 64.800925335748644 -33.774664968281286 0 -33.774664968281286 9.2251273789588595 0 0 0 0 -11.952884782860792 -55.51929722542809 0 -55.51929722542809 84.054592046246398 0 0 0 0 19.020928222061684 -49.588993236320675 0 -49.588993236320675 32.603035411941164 0 0 0 0 -9.1441992557220146 -32.759229968985892 0 -32.759229968985892 67.322026732188533 0 0 0 0 17.768066236471782 -38.671916265018808 0 -38.671916265018808 106.02098841947736 0 0 0 0 -5.3471964705231585 -48.594780539257044 0 -48.594780539257044 131.39136612559378 0 0 0 0 -2.722437814509135 -16.033394361489627 0 -16.033394361489627 108.66870593072963 0 0 0 0 147.73320517183993 -134.06526352159563 0 -134.06526352159563 119.76210006489418 0 0 0 0 25.387694608624997 -73.704434656538069 0 -73.704434656538069 156.43347999766411 0 0 0 0 43.570059100505659 -9.633183264915715 0 -9.633183264915715 173.43115923665755 0 0 0 0 12.511418633695598 -67.055091171689128 0 -67.055091171689128 259.11672725182143 0 0 0 0 -462.58793551226609 209.08870299650152 0 209.08870299650152 291.88623624251341 0 0 0 0 -5.3393007553418101 53.91889592372172 0 53.91889592372172 133.36178025397112 0 0 0 0 -60.29051361934404 101.40579896601412 0 101.40579896601412 137.04913977985416 0 0 0 0 -5.6064153773340877 57.095705387546332 0 57.095705387546332 249.06473771812398 0 0 0 0 -0.20045382509112503 -0.11981485402030501 0 -0.11981485402030501 0.5882570359460999 0 0 0 0 167.58041624336315 274.15799283817614 0 274.15799283817614 252.73893804206455 0 0 0 0 264.02893166076001 -564.08926126323911 0 -564.08926126323911 1281.0778602265782 0 0 0 0 174.59954563434033 145.83101111002179 0 145.83101111002179 1039.1912013809197 0 0 0 0 -93.644815447694555 -41.034969685773831 0 -41.034969685773831 721.14821348928672 0 0 0 0 -109.55963097530095 -265.99282028570269 0 -265.99282028570269 742.27490276665776 0 0 0 0 252.43643394389471 -294.00329088057333 0 -294.00329088057333 506.31931822460319 0 0 0 0 0.46296149322462476 -6.6296902048790951 0 -6.6296902048790951 0.5189167184888106 0 0 0 0 -227.70262676474351 -199.32807716576008 0 -199.32807716576008 -137.89595757554343 0 0 0 0 -115.4301441556172 97.579483444416837 0 97.579483444416837 28.544114495409303 0 0 0 0 -143.77330318785744 -416.90834929220728 0 -416.90834929220728 265.26165927964757 0 0 0 0 -1.9776782747692589 -2.5712358109895632 0 -2.5712358109895632 6.5974581074823107 0 0 0 0 390.06946587819448 -462.08911299849569 0 -462.08911299849569 482.52477136130256 0 0 0 0 97.335272340032603 -1173.0938848947662 0 -1173.0938848947662 2361.863331866065 0 0 0 0 693.26649261367231 -1369.8569524211198 0 -1369.8569524211198 450.23722399851977 0 0 0 0 -159.74790936052648 -1250.0935295583513 0 -1250.0935295583513 2350.68941293026 0 0 0 0 2197.1448974845061 -1945.6336180873632 0 -1945.6336180873632 1647.397773097895 0 0 0 0 131.90201356584012 -1900.5647403746261 0 -1900.5647403746261 3494.2715956506186 0 0 0 0 -145.65536131081961 -463.98754174841588 0 -463.98754174841588 2441.4433676978588 0 0 0 0 -106.57406192237256 -620.2593430742927 0 -620.2593430742927 2480.3584602058691 0 0 0 0 -339.6812663696827 -1141.8354335834301 0 -1141.8354335834301 3500.7343323973678 0 0 0 0 185.00825064229394 -694.36582837218521 0 -694.36582837218521 1165.6652563804091 0 0 0 0 52.802363554621593 -722.67112943083339 0 -722.67112943083339 2423.9369847466987 0 0 0 0 8.0318430012985935 -3.9795355522223019 0 -3.9795355522223019 3.0250130582904262 0 0 0 0 55.632976066583183 -388.19338082839022 0 -388.19338082839022 2402.6931940780487 0 0 0 0 31.778440026037416 -628.88703407968023 0 -628.88703407968023 2173.2297871017945 0 0 0 0 -246.51650271079586 -23.567905313451774 0 -23.567905313451774 1965.7135375525904 0 0 0 0 21.791863044034471 -183.90215047405218 0 -183.90215047405218 -228.93619991746527 0 0 0 0 16.575166232063072 -10.943779403081123 0 -10.943779403081123 6.9562311404771293 0 0 0 0 239.56515351032749 -86.735578064442961 0 -86.735578064442961 6.4715693085308885 0 0 0 0 4.1404710586494948 -2.0051546215379688 0 -2.0051546215379688 -0.5005881560267369 0 0 0 0 226.71547853753179 117.451740132552 0 117.451740132552 -189.74924954117887 0 0 0 0 -40.668281033326821 -201.47280974334717 0 -201.47280974334717 -7.8910982695524581 0 0 0 0 157.29865699883214 90.924060862929764 0 90.924060862929764 -23.352278009668225 0 0 0 0 70.51156357193554 -29.386496055569296 0 -29.386496055569296 -57.014857061541989 0 0 0 0 118.58700269662495 36.622961282373581 0 36.622961282373581 -41.587402212453526 0 0 0 0 212.29878789115537 -4.166935273908166 0 -4.166935273908166 -59.268856737660826 0 0 0 0 78.012641375712974 -78.085715934910695 0 -78.085715934910695 -55.554260252778477 0 0 0 0 -15.373437430859667 -36.29901214982965 0 -36.29901214982965 -62.257844627023587 0 0 0 0 8.4713157150099505 -107.21600909530753 0 -107.21600909530753 -99.809810148566612 0 0 0 0 49.722499691240046 -17.525545281787345 0 -17.525545281787345 -51.596702670591185 0 0 0 0 -106.70781581043411 -167.9447527869379 0 -167.9447527869379 -124.89365442238341 0 0 0 0 -50.185715949018231 -65.808475351965171 0 -65.808475351965171 -128.01348185804818 0 0 0 0 6.7287246233080804 -9.6036308623386475 0 -9.6036308623386475 8.0823070278509874 0 0 0 0 13.955774721142497 -11.088222062278419 0 -11.088222062278419 5.8971016409446975 0 0 0 0 6.3017222385633431 -15.305908150505275 0 -15.305908150505275 -6.6276033637914225 0 0 0 0 -89.986557310790886 -73.272154614962346 0 -73.272154614962346 -42.222840528811503 0 0 0 0 -97.758115763192109 -201.99452254757125 0 -201.99452254757125 -150.81237352008611 0 0 0 0 5.8229920153262356 -115.54553774603846 0 -115.54553774603846 -145.89144088698959 0 0 0 0 44.581183518591388 -138.45798396313694 0 -138.45798396313694 -18.777486598555697 0 0 0 0 -51.076537949537851 -102.53685229139228 0 -102.53685229139228 54.159825027181796 0 0 0 0 -61.862184862202582 -16.534506064583638 0 -16.534506064583638 103.28532106841158 0 0 0 0 257.21153127815023 -115.86395401845948 0 -115.86395401845948 23.192892987230152 0 0 0 0 193.11316087583168 -45.485812388920749 0 -45.485812388920749 -6.205463123798836 0 0 0 0 216.71646978771366 15.560745139720893 0 15.560745139720893 -63.008057892227953 0 0 0 0 126.55752178719649 -60.548912123354967 0 -60.548912123354967 14.112866078128718 0 0 0 0 70.866622295238358 -10.686346318388587 0 -10.686346318388587 -28.85775570468104 0 0 0 0 63.052522395404083 -76.27920109481056 0 -76.27920109481056 -30.677983506291639 0 0 0 0 155.34075703437992 -39.951427104017057 0 -39.951427104017057 -56.978117972321343 0 0 0 0 148.504043470179 -35.684939422208117 0 -35.684939422208117 -44.960827209579293 0 0 0 0 199.09537120912591 28.367669456245494 0 28.367669456245494 -69.474567424273118 0 0 0 0 287.38073944821735 -27.509949825413059 0 -27.509949825413059 -82.753054357770452 0 0 0 0 25.913628938624555 -20.92635992027499 0 -20.92635992027499 -57.953065978712402 0 0 0 0 9.0424043619407257 -92.323276669609186 0 -92.323276669609186 -28.733720530442952 0 0 0 0 39.886150634696207 -116.15374779968261 0 -116.15374779968261 -86.698388870318013 0 0 0 0 16.296056283827511 -132.59033637944231 0 -132.59033637944231 2.5048878156012506 0 0 0 0 -1.7027183310194687 -66.180853460216895 0 -66.180853460216895 -67.193854850782373 0 0 0 0 -44.580036891431973 -127.9600209875789 0 -127.9600209875789 45.902010587487894 0 0 0 0 98.737461795421723 -143.97298723666609 0 -143.97298723666609 -0.14759956228954252 0 0 0 0 5.3918292717589793 -150.68349644263799 0 -150.68349644263799 42.232316134803114 0 0 0 0 106.04035125679388 -188.84382836939039 0 -188.84382836939039 52.912210598064121 0 0 0 0 97.858914095362366 -175.53270594136848 0 -175.53270594136848 58.293612299123197 0 0 0 0 -145.06904392404431 -152.76026162567723 0 -152.76026162567723 135.09106102757505 0 0 0 0 8.6517370995518377 -181.54700622620294 0 -181.54700622620294 98.597269341902575 0 0 0 0 -76.791080704303113 -156.9122915335829 0 -156.9122915335829 132.22188069588447 0 0 0 0 -44.529991521672287 -261.75767998401352 0 -261.75767998401352 196.37427998591738 0 0 0 0 11.963099079984204 -334.36245907930061 0 -334.36245907930061 376.19155616083299 0 0 0 0 273.229867148903 -218.29229797935841 0 -218.29229797935841 49.421622208421468 0 0 0 0 233.56933474921678 -153.62119565023386 0 -153.62119565023386 110.88603732339107 0 0 0 0 173.288306105679 -30.093904603558258 0 -30.093904603558258 -44.336565248071565 0 0 0 0 359.98796573726844 -84.253119793416772 0 -84.253119793416772 -32.674733338331862 0 0 0 0 243.79752886145661 -127.64937934922636 0 -127.64937934922636 -16.855636620523001 0 0 0 0 235.01308316832501 23.517557133192895 0 23.517557133192895 -25.712047629560402 0 0 0 0 343.20997030771105 -102.10378702820162 0 -102.10378702820162 63.798013162377174 0 0 0 0 586.13205328445031 -104.29302607189311 0 -104.29302607189311 -149.86489349980184 0 0 0 0 671.47742889023891 -304.63145358657857 0 -304.63145358657857 -39.542355068269899 0 0 0 0 141.07812989349259 -170.63604419247349 0 -170.63604419247349 1380.4375371916185 0 0 0 0 473.67718639453597 -523.96115430371901 0 -523.96115430371901 456.64137858005415 0 0 0 0 465.93537961574197 104.18507971648523 0 104.18507971648523 1358.5917602405243 0 0 0 0 602.55685023843421 -506.25004214520595 0 -506.25004214520595 2223.8454074501387 0 0 0 0 137.4944814178167 -444.86596198017833 0 -444.86596198017833 2442.717777110207 0 0 0 0 -147.10319492113513 357.85753143396869 0 357.85753143396869 2218.8019293867828 0 0 0 0 -396.75543820567162 384.46029843832184 0 384.46029843832184 2215.9840688294425 0 0 0 0 -243.44328626234483 -65.654635099192092 0 -65.654635099192092 3498.0916400720816 0 0 0 0 -708.65931399204601 1025.6562422759816 0 1025.6562422759816 2379.2703732699301 0 0 0 0 -775.0364802478199 854.97647516502184 0 854.97647516502184 3500.8028989827922 0 0 0 0 -310.73424061044716 385.97025917534484 0 385.97025917534484 1011.1364289154735 0 0 0 0 -513.87468158766148 1473.4633153172617 0 1473.4633153172617 2141.867816063299 0 0 0 0 -372.19598977317924 620.6388726554469 0 620.6388726554469 400.0009999852191 0 0 0 0 -730.27703899186645 236.91776175460836 0 236.91776175460836 578.58039528763038 0 0 0 0 -172.7064817400078 -134.22877225933189 0 -134.22877225933189 961.80413766379456 0 0 0 0 -143.91933266950946 600.1642796006854 0 600.1642796006854 987.93982571690867 0 0 0 0 141.43520581513968 -264.85542966620829 0 -264.85542966620829 292.49802486436965 0 0 0 0 -186.31612125535352 -16.884677534947514 0 -16.884677534947514 -46.9081975913723 0 0 0 0 -372.57095432845324 -332.93051888569971 0 -332.93051888569971 306.94624079864298 0 0 0 0 -99.987744175124135 -135.11201396924298 0 -135.11201396924298 149.23117125613499 0 0 0 0 -247.15382506900596 219.9728973751844 0 219.9728973751844 -116.84276570017755 0 0 0 0 -542.19296412127301 64.969225799446576 0 64.969225799446576 169.63787472476542 0 0 0 0 -4.827197113814055 -0.64800438912558889 0 -0.64800438912558889 -0.57685083321931074 0 0 0 0 -34.324012234831287 4.3718257216823986 0 4.3718257216823986 135.45290848144941 0 0 0 0 -71.72963952732789 2.4040284959264682 0 2.4040284959264682 71.859881276217493 0 0 0 0 -12.405487461391477 -5.448762078583286 0 -5.448762078583286 13.918058183513111 0 0 0 0 -10.766564890800737 12.705822497257032 0 12.705822497257032 36.138651738670887 0 0 0 0 -7.0831557873611928 44.904654917023436 0 44.904654917023436 51.497262065822724 0 0 0 0 -3.8530287953785782 9.3080734782957961 0 9.3080734782957961 60.224688800646561 0 0 0 0 -48.15264357504438 17.592989664550259 0 17.592989664550259 70.736918190683355 0 0 0 0 -594.44825045499033 17.089432282198686 0 17.089432282198686 144.50333251760458 0 0 0 0 -45.862564362187641 28.899531878603739 0 28.899531878603739 117.44812076247035 0 0 0 0 -348.12970950869169 373.97305954351759 0 373.97305954351759 -274.70888792350888 0 0 0 0 -2.9977631874584332 -0.33951785212531149 0 -0.33951785212531149 0.96071152277474159 0 0 0 0 -129.90923705036832 753.8386132258729 0 753.8386132258729 870.88188499980606 0 0 0 0 1445.3421512177054 340.77541149932222 0 340.77541149932222 124.44923686961386 0 0 0 0 1095.9238987519191 -1057.1702922719505 0 -1057.1702922719505 1066.9004373010976 0 0 0 0 -12.356886223489116 0.1164452975827146 0 0.1164452975827146 18.307673829611932 0 0 0 0 3.5283962624193093 6.9784410634106706 0 6.9784410634106706 23.671127609962014 0 0 0 0 -614.1278815993328 1467.8621849077063 0 1467.8621849077063 3493.6748372332077 0 0 0 0 714.99347023745167 1797.3319446385649 0 1797.3319446385649 2115.2287049723091 0 0 0 0 -283.06882645481039 -589.73787178213388 0 -589.73787178213388 3491.9085657180235 0 0 0 0 -0.73527392804714453 -2.0863792245409059 0 -2.0863792245409059 16.586084786153108 0 0 0 0 1.6042589081167289 -224.16293998859692 0 -224.16293998859692 1641.724849811595 0 0 0 0 0.8592170908525818 -1.7906736640884446 0 -1.7906736640884446 1.4507828150991422 0 0 0 0 0.026637502987647409 12.940946354465268 0 12.940946354465268 84.112651713847299 0 0 0 0 -2.9269661341136164 0.53745762517792173 0 0.53745762517792173 115.67520924442601 0 0 0 0 -17.229792430494669 4.3946916262430022 0 4.3946916262430022 91.296455746746005 0 0 0 0 3.4519166632265552 2.0139287575948401 0 2.0139287575948401 62.501759519858751 0 0 0 0 4.1994194481661893 -2.0658696825994411 0 -2.0658696825994411 81.246623213228304 0 0 0 0 -24.242411180716303 30.942636093881447 0 30.942636093881447 70.644209895383028 0 0 0 0 -3.2983537702657597 11.210265384837619 0 11.210265384837619 60.457164864454796 0 0 0 0 3.1046699353967853 18.20745081025234 0 18.20745081025234 60.316642787671299 0 0 0 0 -11.927553293090849 6.3777996914213873 0 6.3777996914213873 99.533715409692377 0 0 0 0 -2.6010602172449686 6.1043630112803413 0 6.1043630112803413 3.9684445114806977 0 0 0 0 24.916012720036619 43.166977895773016 0 43.166977895773016 14.293202547938563 0 0 0 0 -4.4980287885274164 1.039048245534957 0 1.039048245534957 48.367633810228682 0 0 0 0 -0.027914132740455386 17.07770541748323 0 17.07770541748323 70.745482564241684 0 0 0 0 6.4517283363575766 -4.8927563868710422 0 -4.8927563868710422 29.797920071010594 0 0 0 0 8.1962481158422822 9.1014584815929993 0 9.1014584815929993 75.293906015111133 0 0 0 0 -7.4023852997199739 -8.3200086657161592 0 -8.3200086657161592 61.341900874125713 0 0 0 0 0.12455324947078369 -1.141724810718614 0 -1.141724810718614 5.8260369369472187 0 0 0 0 0.0084809113511661576 3.3695313668868039 0 3.3695313668868039 39.752944635518361 0 0 0 0 0.72237599746949421 -8.1065475928371598 0 -8.1065475928371598 10.153005374668282 0 0 0 0 -3.4164547780648364 -2.5090099375265709 0 -2.5090099375265709 43.403075752488803 0 0 0 0 -4.8390890886485636 -62.110803647570719 0 -62.110803647570719 33.448640642032842 0 0 0 0 5.508926293961891 -15.817904345792208 0 -15.817904345792208 44.623260406800853 0 0 0 0 2.8043975312883025 -3.5754592405653653 0 -3.5754592405653653 13.493333204047019 0 0 0 0 -64.863439997833666 -12.301553861711 0 -12.301553861711 62.867884923165548 0 0 0 0 -1.5246734353324882 -15.41066003263586 0 -15.41066003263586 59.524745511793299 0 0 0 0 -10.047926015767189 -0.60426373578957282 0 -0.60426373578957282 21.633684363492648 0 0 0 0 -3.6789006376455391 -5.0349447292585268 0 -5.0349447292585268 37.778635101231316 0 0 0 0 2.9767181802929699 -6.8524876990704797 0 -6.8524876990704797 35.85037713922793 0 0 0 0 -3.3485882765902244 0.10975958091414384 0 0.10975958091414384 28.435964739146925 0 0 0 0 -91.37777731386177 2.4882231252122438 0 2.4882231252122438 59.145619524349058 0 0 0 0 -52.814500611255653 22.852332925634983 0 22.852332925634983 45.458038038152154 0 0 0 0 -205.52895521667051 54.065365961745556 0 54.065365961745556 72.077293313501286 0 0 0 0 -216.14725960689884 -68.613198247243417 0 -68.613198247243417 218.40362827400895 0 0 0 0 -117.02658572690279 -94.929011560947401 0 -94.929011560947401 111.80740327914828 0 0 0 0 -129.04289363778435 -107.87062290539143 0 -107.87062290539143 144.87381571470178 0 0 0 0 -117.85516448853832 -38.787142390545341 0 -38.787142390545341 81.763179002788092 0 0 0 0 -90.075190488221779 -10.407171219514566 0 -10.407171219514566 104.26385686315189 0 0 0 0 -77.437308484816185 -32.797961465865228 0 -32.797961465865228 30.2945989924483 0 0 0 0 -71.435327491886824 -55.178187406881989 0 -55.178187406881989 72.392752062121872 0 0 0 0 -47.349641462504223 -61.353796651705125 0 -61.353796651705125 46.654478034834028 0 0 0 0 -48.852837758299756 -71.469107308214006 0 -71.469107308214006 30.444713287623017 0 0 0 0 -44.759904485731902 -116.93989018837249 0 -116.93989018837249 62.01940046112577 0 0 0 0 -49.737201261081282 -80.125826717994642 0 -80.125826717994642 46.687200684275012 0 0 0 0 -50.636240439566791 -95.429879443574464 0 -95.429879443574464 19.750991544337012 0 0 0 0 -3.0976675203003197 -64.729806390128942 0 -64.729806390128942 17.013916214666096 0 0 0 0 -29.944328748036241 -76.642780242269509 0 -76.642780242269509 14.924407310416427 0 0 0 0 -27.334759810672153 -56.766517879783351 0 -56.766517879783351 37.524979450623505 0 0 0 0 4.9710256771884902 -15.971109726059282 0 -15.971109726059282 41.440470372615891 0 0 0 0 -53.169088234200444 -55.21871016539626 0 -55.21871016539626 41.584192473412259 0 0 0 0 -40.195151731075384 -43.929203960578889 0 -43.929203960578889 24.777789618827228 0 0 0 0 2.7016623900140244 -7.9390949564748077 0 -7.9390949564748077 2.2432402876930837 0 0 0 0 -27.6822847309694 -28.444379476954055 0 -28.444379476954055 80.901704890875408 0 0 0 0 -57.01755776867833 -66.790393277347903 0 -66.790393277347903 106.50780063026468 0 0 0 0 -0.0035539625970451203 1.1957624310937762 0 1.1957624310937762 2.9698573344212491 0 0 0 0 121.57236645973832 -50.063846674092929 0 -50.063846674092929 67.683952377803507 0 0 0 0 -0.074159301872671168 -0.36806189161570302 0 -0.36806189161570302 2.2784719515715892 0 0 0 0 -0.065205290271217048 1.3820660855986873 0 1.3820660855986873 5.5046175290124211 0 0 0 0 0.0020159724877733469 1.2028506412638471 0 1.2028506412638471 2.9685606010607444 0 0 0 0 -1.7649924672199031 3.1500490685357363 0 3.1500490685357363 8.182260554437562 0 0 0 0 108.00642221960459 -50.601965077979912 0 -50.601965077979912 -0.15326941704552155 0 0 0 0 22.627730097450694 7.1320589416600342 0 7.1320589416600342 62.438614742777645 0 0 0 0 -3.0814922046180855 -2.9882422257243135 0 -2.9882422257243135 45.685506621089978 0 0 0 0 14.93301586580219 -2.0363446583187397 0 -2.0363446583187397 93.455606101688318 0 0 0 0 -19.687375027021815 -1.6736328441292017 0 -1.6736328441292017 60.807198701354537 0 0 0 0 3.4189479359393169 17.403083504251462 0 17.403083504251462 65.805941202501202 0 0 0 0 -5.4733830149722413 -0.61264276972922715 0 -0.61264276972922715 16.102663504556478 0 0 0 0 -75.789415062746684 10.128247150397328 0 10.128247150397328 116.39727215921982 0 0 0 0 -143.17688997521213 114.14899285703405 0 114.14899285703405 48.462665784289044 0 0 0 0 -13.431644165347812 1.8477474076273666 0 1.8477474076273666 145.42879045797258 0 0 0 0 -8.3450952897678903 -0.039012909682107022 0 -0.039012909682107022 86.223380810905383 0 0 0 0 -21.794272578620621 -49.309018515035859 0 -49.309018515035859 162.11490831289848 0 0 0 0 -20.620493419383592 -10.868182171810076 0 -10.868182171810076 76.401454282986379 0 0 0 0 -30.573424359161436 -12.264428387003136 0 -12.264428387003136 141.70890410538414 0 0 0 0 -8.2914103403215975 -24.33210790852802 0 -24.33210790852802 75.584289575370207 0 0 0 0 -31.834542338753636 -21.689145972413826 0 -21.689145972413826 195.08379881778092 0 0 0 0 58.082435914898269 79.737180008094583 0 79.737180008094583 216.6717783548811 0 0 0 0 -12.221937285326021 18.915741703309322 0 18.915741703309322 278.93257647505379 0 0 0 0 54.795477118125746 -121.13437223149958 0 -121.13437223149958 192.36890388902975 0 0 0 0 18.889751142613477 -25.357615116354282 0 -25.357615116354282 57.19858774360182 0 0 0 0 -170.06935106459306 -12.961812993293279 0 -12.961812993293279 281.10746347423265 0 0 0 0 49.521253160330488 62.923795936778106 0 62.923795936778106 79.955218053881254 0 0 0 0 -80.871706206776082 -79.437667828286067 0 -79.437667828286067 132.7180857945641 0 0 0 0 -1.2616403746854745 -30.910312397173008 0 -30.910312397173008 89.993727932130753 0 0 0 0 301.4294795910555 -73.579911308450392 0 -73.579911308450392 -59.99138939819386 0 0 0 0 2.1181140484951158 0.77594776098185125 0 0.77594776098185125 1.6550171442486601 0 0 0 0 3.6847619206572588 6.7772739705769283 0 6.7772739705769283 34.727816105756915 0 0 0 0 8.9903817674821767 -7.9567443975975038 0 -7.9567443975975038 71.650295160376118 0 0 0 0 5.3369651841683208 -8.1909221199093736 0 -8.1909221199093736 73.574996854360506 0 0 0 0 -5.6726059143371454 -5.7382912521698994 0 -5.7382912521698994 57.583259175025148 0 0 0 0 1.6742980652934421 -6.9118272256018827 0 -6.9118272256018827 73.694193704184727 0 0 0 0 -0.47030155781864758 -32.627050577082137 0 -32.627050577082137 7.0203849824152371 0 0 0 0 6.0021911434259891 -6.4474350751916063 0 -6.4474350751916063 71.816591941707884 0 0 0 0 -25.129716368138816 -53.383796696267382 0 -53.383796696267382 50.287200125992968 0 0 0 0 10.364912922804479 -14.003594883490223 0 -14.003594883490223 63.444350952988316 0 0 0 0 -1.2286130082687228 -22.326702792335308 0 -22.326702792335308 46.922550235649808 0 0 0 0 -4.5928903999431956 -13.869726934311814 0 -13.869726934311814 35.217183136137407 0 0 0 0 36.434944565449769 -17.861335187903023 0 -17.861335187903023 6.5242652396009362 0 0 0 0 -44.120760845066627 21.93830208809095 0 21.93830208809095 108.46159025406814 0 0 0 0 -29.843014493022565 -36.25366073785699 0 -36.25366073785699 4.1214151046297047 0 0 0 0 -3.8569312316806355 3.1369519647191737 0 3.1369519647191737 12.080040956244744 0 0 0 0 4.1975348266951826 -27.44850465367756 0 -27.44850465367756 46.918315390361386 0 0 0 0 27.758870623345729 -8.5224464397288102 0 -8.5224464397288102 62.019744069199987 0 0 0 0 -27.750722442755205 -14.799565757153687 0 -14.799565757153687 34.462110452583147 0 0 0 0 -2.2978072055809187 -11.309688394765395 0 -11.309688394765395 36.368099602322104 0 0 0 0 -1.6451135497188263 -16.511927401357298 0 -16.511927401357298 44.382628661641519 0 0 0 0 4.2746215491744124 -8.3242765036775381 0 -8.3242765036775381 72.214925108550233 0 0 0 0 -7.4623737982193425 -16.873929256863221 0 -16.873929256863221 44.307326283138536 0 0 0 0 -6.8349455863437854 -7.4777008786671857 0 -7.4777008786671857 37.027894126083595 0 0 0 0 -17.159485111256799 -24.792885811897577 0 -24.792885811897577 54.275459072872763 0 0 0 0 0.010270274338836316 -8.7761533723441971 0 -8.7761533723441971 33.553807576950931 0 0 0 0 -6.665875879302007 -20.724844722151829 0 -20.724844722151829 41.788457374101199 0 0 0 0 0.23277719059797153 -5.9016717340182554 0 -5.9016717340182554 28.665525710912846 0 0 0 0 30.257356029344578 -3.4295651370430278 0 -3.4295651370430278 34.415857700842025 0 0 0 0 -22.094468139388255 -15.949278866522945 0 -15.949278866522945 44.055391344527379 0 0 0 0 33.519328083652852 -11.917964675188614 0 -11.917964675188614 56.075959445803164 0 0 0 0 60.442315873600364 -0.37024093776199152 0 -0.37024093776199152 44.305487819422524 0 0 0 0 26.401588287184381 -3.8780249986270974 0 -3.8780249986270974 46.285257186391391 0 0 0 0 -62.805939996502474 -12.627959657972283 0 -12.627959657972283 142.1223733773781 0 0 0 0 14.979754297764202 35.435155813223901 0 35.435155813223901 85.457956066955376 0 0 0 0 -38.157152499982885 79.504066377857725 0 79.504066377857725 101.45033076035816 0 0 0 0 3.8276306492441456 16.395031714354101 0 16.395031714354101 54.533965085843199 0 0 0 0 -0.037167087245200459 6.0186108122266742 0 6.0186108122266742 22.725129926703332 0 0 0 0 59.83305671296975 78.885592322343427 0 78.885592322343427 40.807044548942486 0 0 0 0 -112.60344615891226 71.741775995446233 0 71.741775995446233 40.493563508586703 0 0 0 0 -95.006634716013025 53.02641312483297 0 53.02641312483297 -10.51973020388732 0 0 0 0 -99.439639427005091 86.731034349940273 0 86.731034349940273 39.274058565295491 0 0 0 0 -126.38640530187013 -57.363551980653483 0 -57.363551980653483 11.796281839115011 0 0 0 0 16.030763152596677 61.792465634048568 0 61.792465634048568 25.717915637661235 0 0 0 0 33.656359713306472 9.6780878304292344 0 9.6780878304292344 154.64062250373792 0 0 0 0 443.30570879836171 234.21856773907382 0 234.21856773907382 -38.870696439330914 0 0 0 0 -66.729205971819454 87.093295434339552 0 87.093295434339552 89.755977818607334 0 0 0 0 -89.015158296870197 80.244803216886226 0 80.244803216886226 169.90336321216046 0 0 0 0 -76.63727544984809 81.143380957255431 0 81.143380957255431 70.571694726726491 0 0 0 0 -89.446867056431927 91.373817481038259 0 91.373817481038259 60.888946960454632 0 0 0 0 -95.154702802772817 52.60767953850268 0 52.60767953850268 126.10799668820073 0 0 0 0 -85.758334732695914 95.519235328497416 0 95.519235328497416 65.054123217841152 0 0 0 0 -78.474234717136824 8.032747516981658 0 8.032747516981658 179.72378053519151 0 0 0 0 -77.806352238456157 -7.5759804781448565 0 -7.5759804781448565 80.947786032159911 0 0 0 0 -111.9629894985909 -8.635326647451393 0 -8.635326647451393 167.06125756622623 0 0 0 0 -50.959322216107239 -35.015719327257329 0 -35.015719327257329 201.19845463017123 0 0 0 0 -32.907889224504856 -16.100552023139585 0 -16.100552023139585 212.42280339583931 0 0 0 0 -39.070575057027781 -23.495233620740919 0 -23.495233620740919 239.15516959691058 0 0 0 0 -22.22223867043455 -68.236502062608849 0 -68.236502062608849 219.80820838281807 0 0 0 0 -82.371577390234961 -65.236780102853345 0 -65.236780102853345 199.09349972698715 0 0 0 0 -77.325846277557801 -38.094163248206343 0 -38.094163248206343 161.90997418972347 0 0 0 0 -73.315435265780735 -19.57752419912913 0 -19.57752419912913 241.87218179888441 0 0 0 0 -15.737508838582357 -36.966006581889133 0 -36.966006581889133 223.51264281316196 0 0 0 0 -18.63973790476566 -54.870078526198711 0 -54.870078526198711 245.92623573401261 0 0 0 0 -195.59264978500062 576.13479483770266 0 576.13479483770266 150.29738738415654 0 0 0 0 33.62653739597576 -41.641557949111075 0 -41.641557949111075 90.119185571324579 0 0 0 0 -0.17513713205829551 -0.88751895633794464 0 -0.88751895633794464 6.4947513374838346 0 0 0 0 -184.12801256749168 1.427782583064868 0 1.427782583064868 291.5849478706491 0 0 0 0 -243.607873815034 -83.371338901770059 0 -83.371338901770059 181.07881328624535 0 0 0 0 11.599868095732234 85.984336156569157 0 85.984336156569157 305.95354884451172 0 0 0 0 400.33632959215015 -115.81427325592472 0 -115.81427325592472 202.15931893145262 0 0 0 0 -26.387148791853065 -33.561351073768719 0 -33.561351073768719 188.05696479978008 0 0 0 0 -3.522338165125575 -108.08269159508404 0 -108.08269159508404 218.52341698901455 0 0 0 0 -254.79431568148766 -247.90638207141956 0 -247.90638207141956 606.8524166570287 0 0 0 0 -382.13335705930842 40.841545935780402 0 40.841545935780402 345.86027175067102 0 0 0 0 -95.192378882952198 -32.015605194268346 0 -32.015605194268346 159.41237624678433 0 0 0 0 -16.248400834739002 -64.886840558940065 0 -64.886840558940065 52.838080138355053 0 0 0 0 39.076793592628746 -60.164816248049647 0 -60.164816248049647 139.84438783017526 0 0 0 0 -26.859827751810712 -23.736495196026681 0 -23.736495196026681 120.02989760739501 0 0 0 0 -58.857846097501692 -18.452223195692113 0 -18.452223195692113 49.503021527055353 0 0 0 0 24.072556641985557 -54.705754095684824 0 -54.705754095684824 63.959367364550872 0 0 0 0 -24.047552929317 -20.623411354183819 0 -20.623411354183819 64.758065863090053 0 0 0 0 -27.854186784163176 -30.720360114564755 0 -30.720360114564755 24.87227484509674 0 0 0 0 -51.919529624958223 -100.55178245088933 0 -100.55178245088933 62.023054876487549 0 0 0 0 42.24480477843553 10.140588395077852 0 10.140588395077852 133.79996658700202 0 0 0 0 1.4713821525016328 -27.311340226128323 0 -27.311340226128323 126.68936990062269 0 0 0 0 34.490950844066184 -20.271809407304715 0 -20.271809407304715 87.127587506285181 0 0 0 0 38.548794598495647 -31.317033746813081 0 -31.317033746813081 41.86125665319878 0 0 0 0 -31.168171177052045 19.563559903240957 0 19.563559903240957 66.743973096733953 0 0 0 0 -3.9940350774292028 -19.73492043269664 0 -19.73492043269664 38.780594035760828 0 0 0 0 1.5894540322632282 4.0659911573460121 0 4.0659911573460121 15.893186703537655 0 0 0 0 21.358976380292006 20.519412341470343 0 20.519412341470343 20.048639451029885 0 0 0 0 -3.0468583932359943 -55.389452146427431 0 -55.389452146427431 14.048776795286358 0 0 0 0 14.732268750949515 -166.7452831890605 0 -166.7452831890605 -172.17915945567438 0 0 0 0 -22.770240978955375 -11.527298537638096 0 -11.527298537638096 73.202388300885616 0 0 0 0 29.84608385429965 54.723972086867434 0 54.723972086867434 -127.09357293094217 0 0 0 0 -55.795397876853258 -19.925157438666247 0 -19.925157438666247 28.062454212311422 0 0 0 0 118.76947217253837 67.523314281164858 0 67.523314281164858 -30.45976901864924 0 0 0 0 29.97125628592039 123.21991170588444 0 123.21991170588444 135.07799627080385 0 0 0 0 -33.0503831040769 32.407437238434795 0 32.407437238434795 100.98515864611818 0 0 0 0 -46.188168211444463 165.92872771733346 0 165.92872771733346 168.16488405614291 0 0 0 0 -5.1991988869363581 9.2183397543202101 0 9.2183397543202101 16.121916782869079 0 0 0 0 -45.909948377066939 4.5155628070706371 0 4.5155628070706371 73.186354382713034 0 0 0 0 -17.048575572542632 -9.4086628798631864 0 -9.4086628798631864 64.656017421832075 0 0 0 0 -36.011444104864495 15.167395652759296 0 15.167395652759296 71.461549235347775 0 0 0 0 -4.2941026508970221 -3.0815650169990363 0 -3.0815650169990363 66.866960976563604 0 0 0 0 -16.533959873529966 -14.554512762151717 0 -14.554512762151717 76.829189437444711 0 0 0 0 -24.00379681889217 -24.030432855619438 0 -24.030432855619438 109.36327337168041 0 0 0 0 -8.9916642407911471 -10.014090760547109 0 -10.014090760547109 74.550249730548529 0 0 0 0 -13.740940447203684 -0.63809915827732766 0 -0.63809915827732766 55.375388038155506 0 0 0 0 -24.216641987319235 -6.6870721596860676 0 -6.6870721596860676 144.24196540675257 0 0 0 0 -23.89104523014889 -14.522829759990682 0 -14.522829759990682 80.981373250493078 0 0 0 0 -40.337452761472377 -23.192239661064377 0 -23.192239661064377 66.75572012973862 0 0 0 0 -90.993938206938651 -2.2162678991012399 0 -2.2162678991012399 145.55307491049885 0 0 0 0 -10.101809872290071 20.775853516772528 0 20.775853516772528 10.20847712074665 0 0 0 0 -50.001054721533734 -4.597680637085432 0 -4.597680637085432 222.25529095255479 0 0 0 0 -0.079507319322421388 -35.342435367689383 0 -35.342435367689383 93.805151986911341 0 0 0 0 -16.139591670510981 -146.04658647491306 0 -146.04658647491306 37.77144501476505 0 0 0 0 36.853814064198104 34.839269903004606 0 34.839269903004606 121.78330073921825 0 0 0 0 -14.456990235508783 -15.508983664352854 0 -15.508983664352854 102.2253801596089 0 0 0 0 -12.446719740010394 -18.664473240751249 0 -18.664473240751249 86.272027164523024 0 0 0 0 -1.0790178344386732 -21.928571700853354 0 -21.928571700853354 86.855388513378784 0 0 0 0 -13.893594443529764 -20.787712045828812 0 -20.787712045828812 93.347227581260086 0 0 0 0 -12.214600184398932 -6.1760629570489982 0 -6.1760629570489982 77.897464814319392 0 0 0 0 2.7150186299027155 -26.472062744178402 0 -26.472062744178402 6.6174852743570227 0 0 0 0 -0.20943699611441957 -0.91494115971629242 0 -0.91494115971629242 18.933155926472985 0 0 0 0 -7.5385559433853508 -6.2382580753691883 0 -6.2382580753691883 82.322545983073098 0 0 0 0 -22.470008363960005 -11.372478064891766 0 -11.372478064891766 91.538422923651524 0 0 0 0 35.369216373266681 52.453800438826875 0 52.453800438826875 161.19978839841497 0 0 0 0 -33.658097314453698 3.6332990929622611 0 3.6332990929622611 75.32636064120743 0 0 0 0 -7.5183657359079916 50.242184857437678 0 50.242184857437678 183.48804028886661 0 0 0 0 32.060119408165519 44.157490111831066 0 44.157490111831066 156.29357879067538 0 0 0 0 -2.5569474387484661 56.834597781991761 0 56.834597781991761 153.12098108141799 0 0 0 0 -6.0285370510426901 35.601420834814235 0 35.601420834814235 139.43458333895251 0 0 0 0 36.366633760077093 32.27646442924015 0 32.27646442924015 124.05375296176499 0 0 0 0 -10.834847036738211 52.0888036176475 0 52.0888036176475 124.73223136054003 0 0 0 0 34.488410815169118 23.954347778832016 0 23.954347778832016 174.6995009681159 0 0 0 0 135.6315963566185 -4.8964681875040696 0 -4.8964681875040696 109.55276107880854 0 0 0 0 49.814988363718385 54.732873411521723 0 54.732873411521723 121.44713567629515 0 0 0 0 -4.4033403591315228 8.3007773032941365 0 8.3007773032941365 138.20342314724425 0 0 0 0 -9.36487226475856 -14.760539708309807 0 -14.760539708309807 87.512874344018201 0 0 0 0 -43.21492952929475 21.935760891996324 0 21.935760891996324 49.222434282317408 0 0 0 0 -76.767982202019994 0.5387614958526683 0 0.5387614958526683 -32.108294402547472 0 0 0 0 -66.688695084709479 -43.116024058281255 0 -43.116024058281255 45.768262059791596 0 0 0 0 -38.340045245958891 3.9144445655310847 0 3.9144445655310847 102.0652056717081 0 0 0 0 -44.048123032903277 26.384112083629589 0 26.384112083629589 59.23013432062362 0 0 0 0 -68.779497761949642 -21.393044570329948 0 -21.393044570329948 74.166228310728911 0 0 0 0 -48.00160836957275 27.881292103418673 0 27.881292103418673 95.058592713216058 0 0 0 0 -48.397636541349584 7.4239146328454808 0 7.4239146328454808 129.55895215697819 0 0 0 0 -24.914433249131434 52.512749816487485 0 52.512749816487485 125.20445275275779 0 0 0 0 -61.52743836245736 -17.402138454533997 0 -17.402138454533997 110.84605211880262 0 0 0 0 -34.044348001229537 -19.463817826384911 0 -19.463817826384911 73.022557342173968 0 0 0 0 -81.306340157298109 -4.2667083469132194 0 -4.2667083469132194 68.135933145400486 0 0 0 0 -45.743605689840479 -4.1205983667605324 0 -4.1205983667605324 -1.858272019715514 0 0 0 0 -44.246887557661921 -48.972026443847426 0 -48.972026443847426 -29.963121864508139 0 0 0 0 -78.53518377248065 -58.370673916804662 0 -58.370673916804662 -37.028154130937764 0 0 0 0 -7.3048123427874998 80.707678709608444 0 80.707678709608444 148.87348432794806 0 0 0 0 -2.4799679677792268 0.077456360144964265 0 0.077456360144964265 4.0118820418256291 0 0 0 0 0.080119264285476888 1.381426840084842 0 1.381426840084842 3.2039743532347167 0 0 0 0 -94.758934737725099 -64.628864260487717 0 -64.628864260487717 -0.28402346727671102 0 0 0 0 1.5135963935342316 10.108077167266771 0 10.108077167266771 16.873658806950115 0 0 0 0 9.8001323418199604 -0.63407459274003486 0 -0.63407459274003486 79.557438322626695 0 0 0 0 -12.692708874823893 9.9319784768849786 0 9.9319784768849786 76.26949049754694 0 0 0 0 -3.0688641445854188 -0.94084722524236497 0 -0.94084722524236497 44.338453594540567 0 0 0 0 -3.4943207310426914 16.728083187270386 0 16.728083187270386 104.47021239741298 0 0 0 0 4.6263034756766501 9.9095340551284607 0 9.9095340551284607 42.24988917337032 0 0 0 0 -2.9171195722241983 -4.7098906686941788 0 -4.7098906686941788 44.138786099733835 0 0 0 0 -11.034390210896163 -27.945404889382189 0 -27.945404889382189 70.029919994987722 0 0 0 0 -21.824452380598018 -2.8894016766171262 0 -2.8894016766171262 64.461624513409333 0 0 0 0 -4.076699350717556 -8.0358954013677675 0 -8.0358954013677675 27.520694628307666 0 0 0 0 5.5605480539311429 -11.791511831219395 0 -11.791511831219395 72.735330912050813 0 0 0 0 5.2494356995370426 29.73883292869013 0 29.73883292869013 117.54601155548153 0 0 0 0 -9.8040730391729198 1.0762838272385125 0 1.0762838272385125 118.48463058176276 0 0 0 0 -1.9849120756081082 -10.625787229545011 0 -10.625787229545011 67.856790330239903 0 0 0 0 -17.480447758996831 -19.602457339278772 0 -19.602457339278772 87.590532864509441 0 0 0 0 -5.6512744168721891 2.9394071355680182 0 2.9394071355680182 20.425365504676961 0 0 0 0 4.0296763548303343 20.154518016527135 0 20.154518016527135 3.6004837214732106 0 0 0 0 -41.704116485011127 102.65641041153867 0 102.65641041153867 259.99026694646454 0 0 0 0 -23.249479806017916 92.505981416368741 0 92.505981416368741 265.57297465519514 0 0 0 0 -4.2151372806091443 20.568525448404586 0 20.568525448404586 -4.8557858976338117 0 0 0 0 -50.595986935716212 46.922969037914299 0 46.922969037914299 319.67499203112038 0 0 0 0 -23.158950554619651 -68.945610819566355 0 -68.945610819566355 117.55492371293076 0 0 0 0 15.873053310607673 0.65123779142413696 0 0.65123779142413696 134.07319129203097 0 0 0 0 -11.828117232743807 64.571879343166074 0 64.571879343166074 163.04645889581298 0 0 0 0 3.4744707678804048 30.400741161500264 0 30.400741161500264 130.69188510206004 0 0 0 0 -44.527256343782255 16.699904838002112 0 16.699904838002112 199.22693998882642 0 0 0 0 3.6907151597462189 20.612423124643101 0 20.612423124643101 55.135784516590093 0 0 0 0 11.883363643467888 19.839935167521617 0 19.839935167521617 32.912089022844157 0 0 0 0 -25.692098309097716 6.1715133133766358 0 6.1715133133766358 243.90921629073455 0 0 0 0 2.3119547560185478 14.123669863801496 0 14.123669863801496 -3.7187872945694167 0 0 0 0 29.800282336612071 5.8515028399961011 0 5.8515028399961011 115.1004378039579 0 0 0 0 -2.0630159024465251 13.337277399274171 0 13.337277399274171 67.109782909331898 0 0 0 0 10.306760750621896 7.7839732654647378 0 7.7839732654647378 36.855944577211631 0 0 0 0 -2.0439586162634455 14.540846276261448 0 14.540846276261448 5.9792238130037134 0 0 0 0 -17.922394784584355 -5.2793075550653157 0 -5.2793075550653157 143.00831080798343 0 0 0 0 -33.849046277629668 -34.636237409780733 0 -34.636237409780733 96.017820701337769 0 0 0 0 11.664879676855008 -23.414394288876792 0 -23.414394288876792 91.044528236263432 0 0 0 0 -19.097348575682616 -13.78097447586515 0 -13.78097447586515 88.629783480879269 0 0 0 0 -383.2138034782306 101.23106414725771 0 101.23106414725771 74.165112463859259 0 0 0 0 139.95892242825221 131.91090884268488 0 131.91090884268488 205.08242366777267 0 0 0 0 3.2883129841769438 3.1416370659738249 0 3.1416370659738249 1.0914186155877701 0 0 0 0 -498.74826126395988 163.71469722181791 0 163.71469722181791 223.93067294309731 0 0 0 0 5.7953742969343809 -14.402297773615544 0 -14.402297773615544 10.269290079262003 0 0 0 0 10.024176186401249 -28.852047010150272 0 -28.852047010150272 42.841184590311968 0 0 0 0 348.83643238170362 193.15234818414319 0 193.15234818414319 -362.86679903178265 0 0 0 0 -3.5586122829802709 -42.665881296627504 0 -42.665881296627504 90.392613614269067 0 0 0 0 -19.009542291524838 -13.977827147522476 0 -13.977827147522476 128.46039391261729 0 0 0 0 11.317396510522769 -47.679673473714502 0 -47.679673473714502 145.87589734675566 0 0 0 0 -1.626226375721564 5.7406458311296547 0 5.7406458311296547 97.364856622269144 0 0 0 0 -0.46361312453893577 -17.726316339588095 0 -17.726316339588095 1.0524827624290971 0 0 0 0 20.395880271675424 -42.759671693806013 0 -42.759671693806013 6.4381303745612968 0 0 0 0 482.41332292477159 -257.34410963312985 0 -257.34410963312985 -560.88308017540294 0 0 0 0 -60.743090749851945 -23.232170467112155 0 -23.232170467112155 138.05513048778994 0 0 0 0 30.684568961568033 22.573144115805917 0 22.573144115805917 131.66093139746226 0 0 0 0 168.67045769769092 570.81930799762358 0 570.81930799762358 1007.552714537218 0 0 0 0 34.845675716383369 75.747951017692685 0 75.747951017692685 10.595329185809533 0 0 0 0 -0.7738075103001143 -2.2278353758013338 0 -2.2278353758013338 7.6379897118704889 0 0 0 0 -177.30061429048965 -141.51638500136141 0 -141.51638500136141 933.10681606546859 0 0 0 0 -174.0893113833306 168.74665537726469 0 168.74665537726469 985.01610071962932 0 0 0 0 345.51699948483468 213.55284880578256 0 213.55284880578256 -18.058892124900012 0 0 0 0 -13.052326808256183 33.480315178116143 0 33.480315178116143 1029.423666868528 0 0 0 0 2.7628622280720609 -4.4205604527251836 0 -4.4205604527251836 9.0203941524841298 0 0 0 0 148.91796129286718 -410.44565268340375 0 -410.44565268340375 289.63838418805972 0 0 0 0 148.96701246359493 -65.368096374926949 0 -65.368096374926949 -3.6048405439942144 0 0 0 0 -71.225538939737589 -308.43717815200944 0 -308.43717815200944 1043.1933948710794 0 0 0 0 787.46231829956105 -108.73886356502771 0 -108.73886356502771 277.10855842987075 0 0 0 0 -57.178871789310733 407.9177144415371 0 407.9177144415371 854.08895865923841 0 0 0 0 -207.21371067222003 51.008683611755259 0 51.008683611755259 647.04274445652845 0 0 0 0 -49.940006705463929 189.27058532117735 0 189.27058532117735 65.773189381245174 0 0 0 0 -176.94834853654334 180.14934217411974 0 180.14934217411974 280.77041328549967 0 0 0 0 71.819952327846323 -48.124648922604138 0 -48.124648922604138 228.0154424712091 0 0 0 0 28.007916147673768 -211.29488757108629 0 -211.29488757108629 439.34180247183394 0 0 0 0 -112.77963912711488 -125.01331041807862 0 -125.01331041807862 390.05957609013421 0 0 0 0 324.10814697324463 -31.013431573966955 0 -31.013431573966955 -4.1491764218517346 0 0 0 0 -0.68594226473755859 -2.336186529840937 0 -2.336186529840937 0.90957864092325735 0 0 0 0 558.6370950407736 -296.2405138545073 0 -296.2405138545073 138.31852146303572 0 0 0 0 204.13580739948929 -186.10682810677099 0 -186.10682810677099 56.77330945769063 0 0 0 0 -0.87589255382988862 -1.9164250000719996 0 -1.9164250000719996 1.4375770494584685 0 0 0 0 418.39670311579675 -79.831333472320694 0 -79.831333472320694 -27.813576981847291 0 0 0 0 -13.936439138311641 -53.620428485402954 0 -53.620428485402954 20.810490920004668 0 0 0 0 -53.673427036460453 -25.784134828903916 0 -25.784134828903916 18.68558182646666 0 0 0 0 -53.713189744751389 -23.241085715337249 0 -23.241085715337249 0.93672681050520623 0 0 0 0 -204.11509244533556 -44.932644126189189 0 -44.932644126189189 34.086838709219592 0 0 0 0 -49.621578641882024 -25.82070535778621 0 -25.82070535778621 13.229599704009161 0 0 0 0 7.8841340559606632 -14.973490824137372 0 -14.973490824137372 20.056793065735775 0 0 0 0 -49.196294132140167 -24.031380006729705 0 -24.031380006729705 17.331471137309563 0 0 0 0 59.58937758913396 9.1759553859737935 0 9.1759553859737935 -41.254803461837582 0 0 0 0 7.4726353019045746 -69.517965933231608 0 -69.517965933231608 -26.800694555878181 0 0 0 0 -88.276749517537723 -80.822727265891444 0 -80.822727265891444 100.79812461240363 0 0 0 0 -51.492400475542183 -65.525989301437221 0 -65.525989301437221 14.500510969752213 0 0 0 0 -0.91546571001719246 -17.318271261438227 0 -17.318271261438227 69.999387088766724 0 0 0 0 -91.272117726469503 -66.010601111767755 0 -66.010601111767755 73.432062845979999 0 0 0 0 10.769693597752507 -1.549392115613955 0 -1.549392115613955 72.596940843955963 0 0 0 0 -76.090528233660393 -83.68281516769639 0 -83.68281516769639 85.286949472254491 0 0 0 0 -38.270150245442721 -67.919252508690988 0 -67.919252508690988 67.910161733903806 0 0 0 0 -79.284123517819495 -33.989023274966257 0 -33.989023274966257 138.07971116718545 0 0 0 0 -86.6511382960162 -105.85083473655686 0 -105.85083473655686 21.846684078176622 0 0 0 0 -0.24510856635002309 1.3294471469149585 0 1.3294471469149585 14.033465149429684 0 0 0 0 -43.255734872145638 -28.485982874932233 0 -28.485982874932233 197.22940510438639 0 0 0 0 -49.194553968188714 -1.529324279254979 0 -1.529324279254979 170.75031768386543 0 0 0 0 4.9468402517621257 72.854100551894589 0 72.854100551894589 232.03743701097846 0 0 0 0 -57.106941169299262 182.94062909757486 0 182.94062909757486 195.51164580371551 0 0 0 0 -4.3693132083233195 111.99841547392134 0 111.99841547392134 240.58233306249895 0 0 0 0 -76.833201046565364 92.177070000390813 0 92.177070000390813 247.32857500613136 0 0 0 0 -76.122388631888668 87.884382225540321 0 87.884382225540321 262.33618833204673 0 0 0 0 -101.52427199426279 88.583477802247216 0 88.583477802247216 386.31240788809373 0 0 0 0 -78.352849586134539 -44.98112990169102 0 -44.98112990169102 146.13318970538967 0 0 0 0 -249.90933366542129 -43.43889944091643 0 -43.43889944091643 198.54407068603905 0 0 0 0 -147.66422556297061 -14.570236309344182 0 -14.570236309344182 189.92709272843058 0 0 0 0 -211.00249798071474 -176.84682403291208 0 -176.84682403291208 41.975933666093624 0 0 0 0 -34.105878657601068 -106.95192830526503 0 -106.95192830526503 -99.559377304052759 0 0 0 0 -3.3512898212202833 -4.7675007847571322 0 -4.7675007847571322 17.225143352015493 0 0 0 0 -7.7486750828561526 -47.00671542751661 0 -47.00671542751661 317.34608891706739 0 0 0 0 -19.318589113374742 68.759710581736726 0 68.759710581736726 -30.946693006640999 0 0 0 0 -219.24028166326468 -271.91447649729525 0 -271.91447649729525 30.8091448680334 0 0 0 0 74.91557680238202 -157.93623870878218 0 -157.93623870878218 110.24651885961066 0 0 0 0 70.6134612793023 -113.71047212832264 0 -113.71047212832264 63.266067280914285 0 0 0 0 -76.516697251145843 -187.24941159807349 0 -187.24941159807349 76.660103775868265 0 0 0 0 -69.664019922127295 -23.747408650509897 0 -23.747408650509897 84.286428345272725 0 0 0 0 -170.03055134270846 -89.508351846532605 0 -89.508351846532605 47.023270444420632 0 0 0 0 -255.25332161345449 31.091327303463459 0 31.091327303463459 68.878042420648853 0 0 0 0 -8.9397151564322712 -22.364945959099714 0 -22.364945959099714 49.455485251950449 0 0 0 0 -6.6705633641404347 -23.281039800807775 0 -23.281039800807775 35.092011257482227 0 0 0 0 -2.2523339886595517 -17.732896755971012 0 -17.732896755971012 51.974512382087084 0 0 0 0 7.3178964014119856 -12.373398401836312 0 -12.373398401836312 57.038143851124914 0 0 0 0 1.8881857182536614 -21.164062365391388 0 -21.164062365391388 36.583510413292345 0 0 0 0 2.9578038045249437 -14.340284214861299 0 -14.340284214861299 58.872056289286263 0 0 0 0 13.274692358440689 -2.326969223402557 0 -2.326969223402557 61.392423160119506 0 0 0 0 -19.854289746171574 -61.283530753036757 0 -61.283530753036757 14.437681467461516 0 0 0 0 -2.4778033273120172 -16.715051186718426 0 -16.715051186718426 56.258106076083806 0 0 0 0 17.748594701044027 -12.6394907202166 0 -12.6394907202166 52.387033001927193 0 0 0 0 1.6863159937109913 -2.2129773471970111 0 -2.2129773471970111 74.292045142767165 0 0 0 0 1.3664971213368977 -19.667406055662429 0 -19.667406055662429 32.466178060886477 0 0 0 0 11.373739809871211 -13.258961682422523 0 -13.258961682422523 23.958548164089734 0 0 0 0 3.862318105198483 -11.135523538658163 0 -11.135523538658163 48.404538553397288 0 0 0 0 -1.0558388099779505 -20.586575301596042 0 -20.586575301596042 36.865479258628952 0 0 0 0 5.1164375492283156 -18.571991766002313 0 -18.571991766002313 61.30366254964396 0 0 0 0 -9.8315879033979812 -82.922434525951303 0 -82.922434525951303 12.752687211430384 0 0 0 0 18.696166397083857 -33.120002415170802 0 -33.120002415170802 13.608814933224494 0 0 0 0 27.144413796211722 -37.581682442468264 0 -37.581682442468264 32.070562398428592 0 0 0 0 51.567486017606839 -67.450357635794717 0 -67.450357635794717 11.833490992339648 0 0 0 0 -66.619579612988289 -84.280781678966378 0 -84.280781678966378 80.887808469460651 0 0 0 0 3.4589011694296232 -13.463812002089981 0 -13.463812002089981 58.541562566744688 0 0 0 0 0.50332483005872131 -27.42801066791948 0 -27.42801066791948 53.516198566900904 0 0 0 0 -73.528771076739645 -112.84608822057635 0 -112.84608822057635 52.437650546475197 0 0 0 0 -20.053209181510283 -39.167548453056952 0 -39.167548453056952 22.527885954499652 0 0 0 0 -0.83113420024895035 -21.975040236443064 0 -21.975040236443064 36.234941610324483 0 0 0 0 -1.4219010732988748 -14.863193168896949 0 -14.863193168896949 50.049416488417762 0 0 0 0 5.7702472089199546 -6.4831833679818374 0 -6.4831833679818374 71.360014319463517 0 0 0 0 51.528676931622726 -77.995622904738411 0 -77.995622904738411 99.500451567349955 0 0 0 0 -84.599984731044515 -209.68295346204832 0 -209.68295346204832 33.428408832027344 0 0 0 0 -36.222624068328287 -112.07463869804633 0 -112.07463869804633 -16.501443902234314 0 0 0 0 -23.911799042702341 -154.94614916202954 0 -154.94614916202954 -81.631685636297334 0 0 0 0 16.466115249754694 -15.426151130461221 0 -15.426151130461221 75.314993067702744 0 0 0 0 -17.269984052002201 -35.431906894311396 0 -35.431906894311396 73.789240690661245 0 0 0 0 -6.7947268414224702 -14.489433646433817 0 -14.489433646433817 22.022063935584754 0 0 0 0 -2.3579891296208353 -33.609018186278099 0 -33.609018186278099 72.056439472168506 0 0 0 0 12.723797778079415 -96.315481599165651 0 -96.315481599165651 -61.89573867866784 0 0 0 0 4.6097507484423659 -52.504270725847164 0 -52.504270725847164 -2.2084644020469568 0 0 0 0 -9.3727095854309557 -26.359712161091522 0 -26.359712161091522 62.816548170058368 0 0 0 0 -0.33961310066298656 -24.740345062844462 0 -24.740345062844462 59.510354365625005 0 0 0 0 -62.393361620993225 -57.932718999748431 0 -57.932718999748431 56.217501237320903 0 0 0 0 -8.2840601763109589 -20.489610271928541 0 -20.489610271928541 89.764772839618672 0 0 0 0 -0.63186096536825875 -29.417951935675223 0 -29.417951935675223 58.928973795699569 0 0 0 0 -2.0609891622846135 -40.258636344704428 0 -40.258636344704428 74.721573609203915 0 0 0 0 1.1656875035552545 -4.9579076562646875 0 -4.9579076562646875 13.838348191536696 0 0 0 0 -182.82944006637791 13.752644095948199 0 13.752644095948199 85.812095755551127 0 0 0 0 16.464608265168181 -45.632427645014104 0 -45.632427645014104 51.376801035836252 0 0 0 0 -17.970399339794767 -32.898051472806401 0 -32.898051472806401 73.750019587358111 0 0 0 0 1.4454410735852461 -21.145140805242534 0 -21.145140805242534 62.538530871013734 0 0 0 0 -5.4978009290187728 -26.187958852652798 0 -26.187958852652798 45.174379352084117 0 0 0 0 -449.50859037312512 626.36256113503998 0 626.36256113503998 1984.9384452151571 0 0 0 0 -0.68787480495599906 -2.3756911441565665 0 -2.3756911441565665 35.794845400478053 0 0 0 0 -261.09718824730385 -98.831936779230091 0 -98.831936779230091 71.158280525080045 0 0 0 0 20.445299812522329 -101.86015843591673 0 -101.86015843591673 15.687736127187236 0 0 0 0 120.56084504756791 -24.091973532216798 0 -24.091973532216798 25.656358051609459 0 0 0 0 70.06659581033 -121.88386168698162 0 -121.88386168698162 73.309608355797991 0 0 0 0 303.79769216239373 66.535560255375458 0 66.535560255375458 100.43960840298678 0 0 0 0 50.619799228108249 -30.715264332991296 0 -30.715264332991296 163.42684461628596 0 0 0 0 65.918953124148089 -97.16695414381843 0 -97.16695414381843 66.915078011257719 0 0 0 0 -148.89664162561868 -103.00470817685164 0 -103.00470817685164 143.26252399290388 0 0 0 0 2.8482360807879559 -4.2298888648729189 0 -4.2298888648729189 12.445200113208557 0 0 0 0 6.103831463196002 -12.778485098388046 0 -12.778485098388046 -20.847979021491483 0 0 0 0 8.2508144500156959 4.2834310433318024 0 4.2834310433318024 13.023867932570283 0 0 0 0 8.9451029477567658 -23.600616065139548 0 -23.600616065139548 31.249099680120707 0 0 0 0 12.44249744990725 -13.389075854658586 0 -13.389075854658586 1.0736403415357927 0 0 0 0 -50.461418312953356 -20.832773222875403 0 -20.832773222875403 15.571091805915785 0 0 0 0 0.02272657801099065 -6.457980794539921 0 -6.457980794539921 1.9271555427573048 0 0 0 0 -109.93348700871593 4.7233467040350661 0 4.7233467040350661 17.595077876767391 0 0 0 0 -51.197498596473793 -20.535274947642392 0 -20.535274947642392 23.878133703765343 0 0 0 0 23.9819193315127 -46.843208551072166 0 -46.843208551072166 -41.090044725075131 0 0 0 0 -1.785215755047215 -0.76304087028219669 0 -0.76304087028219669 -0.6317656596721406 0 0 0 0 -207.67523120185797 42.046298970752105 0 42.046298970752105 28.182203221153031 0 0 0 0 -168.06257978775147 -84.89999698853353 0 -84.89999698853353 18.781105218913581 0 0 0 0 -8.1636073401202793 -59.085468046505412 0 -59.085468046505412 3.8412701318302425 0 0 0 0 -35.859712559309457 -39.360857739789935 0 -39.360857739789935 36.386796295060776 0 0 0 0 -72.325965280163018 -76.459767936023127 0 -76.459767936023127 29.269882255990524 0 0 0 0 3.2110690522722507 112.2762053293427 0 112.2762053293427 186.96814725903096 0 0 0 0 -1.4764148515816551 -10.994139301170961 0 -10.994139301170961 10.378235076502222 0 0 0 0 99.23930720095035 -53.156530252559605 0 -53.156530252559605 -38.785209557463531 0 0 0 0 71.959511068740312 -243.73218199907205 0 -243.73218199907205 -66.884014260042022 0 0 0 0 21.818863059025716 -14.925546670565382 0 -14.925546670565382 20.146906126286922 0 0 0 0 -2.2548696046252625 -24.249604037293764 0 -24.249604037293764 45.543265264453936 0 0 0 0 38.182077692559233 48.684057895665319 0 48.684057895665319 100.94058837723423 0 0 0 0 -10.44168512755428 -46.641057709882261 0 -46.641057709882261 64.054792858849396 0 0 0 0 -0.89276321874822773 -19.662207765969235 0 -19.662207765969235 59.916122358034045 0 0 0 0 -3.0212709535527438 -7.2594485671179427 0 -7.2594485671179427 59.303011410313047 0 0 0 0 -412.25389565752573 -1024.9257378431064 0 -1024.9257378431064 910.94688234666683 0 0 0 0 9.6371891859944299 64.75450680112408 0 64.75450680112408 134.99525554418574 0 0 0 0 -10.210744261247825 -15.221977900255297 0 -15.221977900255297 69.639235552109312 0 0 0 0 -8.4512175009986095 -16.256083900885642 0 -16.256083900885642 60.454015841693035 0 0 0 0 -5.1445724160227098 -21.467509073921377 0 -21.467509073921377 43.736173573475924 0 0 0 0 48.815689087659081 4.2756661548223747 0 4.2756661548223747 -104.14869425361394 0 0 0 0 -137.45709073011517 -22.480596742021589 0 -22.480596742021589 137.45606216954184 0 0 0 0 -50.945522713775517 -95.986659098685777 0 -95.986659098685777 -57.293687707431673 0 0 0 0 -86.617875419091433 -118.47809657210746 0 -118.47809657210746 -3.6321190812595887 0 0 0 0 7.9972016479246122 -94.788414675254899 0 -94.788414675254899 97.144020203661057 0 0 0 0 -119.26564166585149 -76.944840836171352 0 -76.944840836171352 111.65462729586579 0 0 0 0 -85.081549169816753 -93.470451849789242 0 -93.470451849789242 144.50903448644021 0 0 0 0 -14.355173205343364 -6.4494477939594788 0 -6.4494477939594788 10.307357887660217 0 0 0 0 43.604853706195172 -77.092427640891401 0 -77.092427640891401 146.33955633662117 0 0 0 0 -144.2211771831785 -21.611065188864814 0 -21.611065188864814 21.837309983529849 0 0 0 0 -0.67787087422326353 -0.50074517834453047 0 -0.50074517834453047 0.32667665707347737 0 0 0 0 127.95709727863868 -89.67488518198661 0 -89.67488518198661 68.309164931750274 0 0 0 0 -18.323557596301725 -22.061109583404686 0 -22.061109583404686 -4.3107581714430125 0 0 0 0 -4.7236036900423723 -10.432577704710013 0 -10.432577704710013 26.551466149584968 0 0 0 0 -10.809679852039039 -23.086959376323648 0 -23.086959376323648 54.102834741392599 0 0 0 0 4.0484965077746295 -22.664908339199059 0 -22.664908339199059 41.896693337638652 0 0 0 0 9.7693927416995621 -9.7888696690133656 0 -9.7888696690133656 52.4618690196221 0 0 0 0 -7.7950817386251856 -29.144294780580822 0 -29.144294780580822 75.229467097698944 0 0 0 0 26.625782266200076 -48.74412665577438 0 -48.74412665577438 39.371300442449865 0 0 0 0 -0.35964830453422536 -28.11208211604179 0 -28.11208211604179 60.940100737308967 0 0 0 0 2.6872000453854321 -26.881735940559466 0 -26.881735940559466 39.373155711256118 0 0 0 0 -6.8522607047317479 -15.219140099354263 0 -15.219140099354263 53.061846737342421 0 0 0 0 -2.6045173612058257 -35.360989009979676 0 -35.360989009979676 73.070969808395603 0 0 0 0 -7.4503279726103528 -38.9093272472237 0 -38.9093272472237 38.532033157356636 0 0 0 0 0.15261555786457848 -17.755256371790892 0 -17.755256371790892 31.672159116191324 0 0 0 0 -7.6310745575653769 -17.189478354878389 0 -17.189478354878389 51.572320064053471 0 0 0 0 0.22644274825120192 -26.318832204837236 0 -26.318832204837236 53.291033200672473 0 0 0 0 173.04459477475257 129.92520164740563 0 129.92520164740563 -16.021173928580538 0 0 0 0 149.56102510329077 210.98150809140134 0 210.98150809140134 84.828811150991896 0 0 0 0 -26.805621582994263 -16.546165253526851 0 -16.546165253526851 60.828574998980912 0 0 0 0 -13.55156776288203 -38.282266285827063 0 -38.282266285827063 78.564531393887592 0 0 0 0 -3.9316252518951673 -23.50745029303846 0 -23.50745029303846 51.896735386562312 0 0 0 0 -244.76521767425194 108.20951342181434 0 108.20951342181434 145.66614311501326 0 0 0 0 -2.5850954953076322 -1.6715148076536224 0 -1.6715148076536224 20.923970400554794 0 0 0 0 -149.84732158060518 563.04918056906899 0 563.04918056906899 217.616920172557 0 0 0 0 522.97573698944075 747.90146085365996 0 747.90146085365996 0.43743194791386486 0 0 0 0 134.27402994153516 294.50672683396306 0 294.50672683396306 104.50411447780789 0 0 0 0 -226.07046712116232 436.24077591451532 0 436.24077591451532 69.782094329792017 0 0 0 0 501.95674682667709 264.81620179414858 0 264.81620179414858 69.545574567368021 0 0 0 0 251.76925916672997 -100.57909553823993 0 -100.57909553823993 11.830823454449273 0 0 0 0 357.16652886988635 471.15809216315847 0 471.15809216315847 -193.26373285576119 0 0 0 0 -778.35493365846446 338.28387087270676 0 338.28387087270676 3485.4030773412233 0 0 0 0 -787.34010205689776 -559.49280437559719 0 -559.49280437559719 1924.7443445371828 0 0 0 0 1328.565095336402 482.76235747171995 0 482.76235747171995 -25.110021441760182 0 0 0 0 469.98492767062066 1002.5589813845654 0 1002.5589813845654 2126.997426300506 0 0 0 0 5.8166250176545597 4.3607361467571693 0 4.3607361467571693 8.453748463241098 0 0 0 0 118.4560345227992 -18.273748954634357 0 -18.273748954634357 384.48103670699129 0 0 0 0 623.25275883018139 -67.198700461128283 0 -67.198700461128283 70.277667075228237 0 0 0 0 133.44905346086352 -79.057407591822994 0 -79.057407591822994 118.32056035553978 0 0 0 0 53.515730399941731 121.1921967026683 0 121.1921967026683 89.302597680433792 0 0 0 0 -28.929244480244378 317.19239202996323 0 317.19239202996323 1197.4936546074459 0 0 0 0 8.0308611874803351 7.8086798158106703 0 7.8086798158106703 29.11319136421956 0 0 0 0 -82.654532245001292 -1219.0529576069166 0 -1219.0529576069166 3495.3548678858206 0 0 0 0 -110.81688965614701 -120.1842552582566 0 -120.1842552582566 1192.3731488175326 0 0 0 0 98.680694699675371 101.26842998931534 0 101.26842998931534 1146.5547571126663 0 0 0 0 6.0776388538506882 -12.338951664755811 0 -12.338951664755811 27.742504971971229 0 0 0 0 -267.88348477576778 891.16327545797685 0 891.16327545797685 3497.6345869092079 0 0 0 0 -90.455850584275993 39.245278125297773 0 39.245278125297773 2196.6164887383056 0 0 0 0 188.54122996318122 -67.001898373786389 0 -67.001898373786389 1708.7793986733013 0 0 0 0 625.0908348405444 2282.0308341893833 0 2282.0308341893833 2504.1389151962358 0 0 0 0 0.055424194326881615 -0.38464954434974175 0 -0.38464954434974175 2.8897148453541561 0 0 0 0 788.43116575054933 1225.3976910889032 0 1225.3976910889032 77.624201775935944 0 0 0 0 -1.1521448206710829 -28.53293770599339 0 -28.53293770599339 36.989347411428753 0 0 0 0 4.1761058853493296 -12.650613957133828 0 -12.650613957133828 39.009018665157782 0 0 0 0 279.97347768062536 652.14089905170113 0 652.14089905170113 1237.0416159648792 0 0 0 0 -50.717393399835146 284.32450334305759 0 284.32450334305759 1484.4908115858543 0 0 0 0 98.961692074754751 424.40043057833645 0 424.40043057833645 208.20732165014033 0 0 0 0 1.260862205990529 2.5537039554212768 0 2.5537039554212768 0.67832694920099357 0 0 0 0 86.608123674788885 -53.311750683115861 0 -53.311750683115861 1226.7445105247898 0 0 0 0 177.22061676399494 -107.61514676513616 0 -107.61514676513616 126.39071034761946 0 0 0 0 56.455532584539952 82.012605059295311 0 82.012605059295311 851.09138784161769 0 0 0 0 0.046786228490173352 0.77429791936435854 0 0.77429791936435854 11.575539183597272 0 0 0 0 -446.01833707172409 -156.82820684638682 0 -156.82820684638682 -505.41250556999148 0 0 0 0 1053.0273840235898 499.60273538370166 0 499.60273538370166 -195.41584330689511 0 0 0 0 -10.38185732696445 -279.45174598678932 0 -279.45174598678932 -77.925830455722462 0 0 0 0 139.86851847343382 80.770638834580495 0 80.770638834580495 -196.00231482872914 0 0 0 0 41.510374043713909 529.18573420512257 0 529.18573420512257 571.32939759202418 0 0 0 0 184.34301980405291 -835.76761196066855 0 -835.76761196066855 -723.54682115361356 0 0 0 0 -1.2524962722551263 5.1054892699787375 0 5.1054892699787375 27.608005168377275 0 0 0 0 -1575.072496629457 287.8884544340799 0 287.8884544340799 2361.203595704832 0 0 0 0 0.94293947484054863 3.6849787755539616 0 3.6849787755539616 11.59469479446544 0 0 0 0 27.310284531769838 373.25404141575109 0 373.25404141575109 1425.4217077837093 0 0 0 0 -62.086770727463346 633.71913477711951 0 633.71913477711951 1058.7492921589073 0 0 0 0 842.18773407674109 999.15483699905235 0 999.15483699905235 1785.4543482343688 0 0 0 0 583.5537248890879 237.50748542979181 0 237.50748542979181 -185.49482949304365 0 0 0 0 1958.2561431399999 2452.4924321025937 0 2452.4924321025937 1159.4882485611615 0 0 0 0 0.61615249236601422 5.4789614023328932 0 5.4789614023328932 16.114785853970034 0 0 0 0 374.03329943364145 2069.8175139789928 0 2069.8175139789928 3494.4088631383383 0 0 0 0 -78.910775782592893 1150.1466761225538 0 1150.1466761225538 1827.9620260142146 0 0 0 0 -278.85007538555561 1195.874515076071 0 1195.874515076071 3500.0469532463467 0 0 0 0 -484.94273339330164 583.13818921242091 0 583.13818921242091 2306.843674854912 0 0 0 0 -8.7415372173146011 539.51106383612932 0 539.51106383612932 2306.4252642705815 0 0 0 0 -553.75851520773529 545.70517103829843 0 545.70517103829843 3499.1799452000487 0 0 0 0 -536.79438907114934 132.06129205548837 0 132.06129205548837 3238.4507703535819 0 0 0 0 -533.62476094374392 156.42077947043163 0 156.42077947043163 2574.1789609151838 0 0 0 0 -240.33641172905362 110.98702108716986 0 110.98702108716986 3695.8549735410834 0 0 0 0 -481.0613964484391 -39.017143735529316 0 -39.017143735529316 3500.1191242713558 0 0 0 0 -211.32380867431434 13.299038416277654 0 13.299038416277654 3180.6489775556056 0 0 0 0 -310.21308728856724 -167.58493250116226 0 -167.58493250116226 3335.0748460946888 0 0 0 0 -284.7676871125999 -153.73776139661095 0 -153.73776139661095 2575.6449477785645 0 0 0 0 -100.1739931270028 -623.99402387258851 0 -623.99402387258851 3609.0524840063354 0 0 0 0 -98.365691624321272 -499.08605587792226 0 -499.08605587792226 2438.6978615279204 0 0 0 0 167.94372820526979 -226.92454615920445 0 -226.92454615920445 1803.0795060215241 0 0 0 0 141.81590590630526 -506.01312005234649 0 -506.01312005234649 2004.856499540263 0 0 0 0 -309.20278244041742 -140.87823449815915 0 -140.87823449815915 2570.477512344306 0 0 0 0 46.840360438431048 -382.63233569236218 0 -382.63233569236218 2341.9946833866479 0 0 0 0 31.479160594319012 -296.64014092672869 0 -296.64014092672869 1896.5732747725269 0 0 0 0 -162.1564188077125 -222.76809730884452 0 -222.76809730884452 1868.6065038506767 0 0 0 0 -175.93008579934099 -98.136256165424129 0 -98.136256165424129 773.22662884495526 0 0 0 0 -44.320736302594696 299.60089171945947 0 299.60089171945947 53.229227187087247 0 0 0 0 201.47631275978767 -768.89208518517626 0 -768.89208518517626 839.46999246507039 0 0 0 0 10.7979099673141 22.057649880025135 0 22.057649880025135 37.146927277340353 0 0 0 0 1.355539061405838 3.3389758366913043 0 3.3389758366913043 10.269002686185985 0 0 0 0 364.62654543359128 -377.16061518969218 0 -377.16061518969218 33.381985158579482 0 0 0 0 -7.0356356006006227 -5.7463522774026252 0 -5.7463522774026252 10.136835503535202 0 0 0 0 -359.55615434424931 124.9641880266372 0 124.9641880266372 2577.7985102422726 0 0 0 0 -115.88177691207801 206.34968721118184 0 206.34968721118184 1488.9793468235166 0 0 0 0 -265.61773001330255 -9.5362964702062527 0 -9.5362964702062527 1807.5864322636298 0 0 0 0 -149.95519033570076 -453.30283532709836 0 -453.30283532709836 1501.2278121662039 0 0 0 0 81.737271043900137 120.15776723372437 0 120.15776723372437 941.39911346167719 0 0 0 0 132.57026927313836 -5.270884703883894 0 -5.270884703883894 508.32317782750033 0 0 0 0 184.12067058593681 27.989671239944073 0 27.989671239944073 507.13956730552309 0 0 0 0 0.11440131136232762 0.51936628186730127 0 0.51936628186730127 0.88554370396660431 0 0 0 0 151.19289982474254 -107.03007273240291 0 -107.03007273240291 64.492013262521141 0 0 0 0 151.65826953041949 154.49571379361078 0 154.49571379361078 122.19067349506258 0 0 0 0 27.903570672406431 111.80132443417097 0 111.80132443417097 202.21217252571296 0 0 0 0 7.3270718491239677 68.644097764839898 0 68.644097764839898 140.6306716315521 0 0 0 0 28.5178508794246 -155.98798091636127 0 -155.98798091636127 574.28296375399077 0 0 0 0 218.27763473909692 14.162730460367584 0 14.162730460367584 92.860795792043064 0 0 0 0 -3.8232427160860425 20.940213367724937 0 20.940213367724937 261.14362869797151 0 0 0 0 103.38557103155219 83.139236741963941 0 83.139236741963941 -81.802946681265894 0 0 0 0 0.35944418788781429 -0.63010652478261164 0 -0.63010652478261164 -1.2913866279653519 0 0 0 0 -20.043899414561494 -55.679631935591544 0 -55.679631935591544 14.44879142967693 0 0 0 0 19.083154275272904 -11.245335424342329 0 -11.245335424342329 -8.6942830696716555 0 0 0 0 -15.492837638613096 -12.068998366980683 0 -12.068998366980683 55.101712208383404 0 0 0 0 -22.653544645496595 -21.728162778412297 0 -21.728162778412297 65.79791314016984 0 0 0 0 26.275048590274537 26.558046158334037 0 26.558046158334037 46.176657937749951 0 0 0 0 -28.435432465139769 28.721324919754352 0 28.721324919754352 238.92703553194224 0 0 0 0 -23.110066754034506 49.398424591701769 0 49.398424591701769 177.14374386869531 0 0 0 0 -4.1655692412156213 12.929231926183093 0 12.929231926183093 130.09652049993019 0 0 0 0 29.813912352810348 10.734203297519343 0 10.734203297519343 102.93197686772692 0 0 0 0 51.401543580557018 78.284062627804815 0 78.284062627804815 142.7337606011497 0 0 0 0 30.426765864685535 47.146048547698683 0 47.146048547698683 137.35336073066355 0 0 0 0 4.1397707948081006 -39.369800163056425 0 -39.369800163056425 183.86747004511017 0 0 0 0 30.521449983025377 4.6757210514952021 0 4.6757210514952021 115.58149814968056 0 0 0 0 16.72322712584355 2.1293063441953564 0 2.1293063441953564 148.61292101510844 0 0 0 0 26.701911041486255 -23.416612091383286 0 -23.416612091383286 108.47932646413756 0 0 0 0 51.143245014112381 8.1459017580455111 0 8.1459017580455111 33.870647862355327 0 0 0 0 -1.15438720359806 0.46503524453778766 0 0.46503524453778766 10.00278154968791 0 0 0 0 40.381470357437593 -15.956553740757954 0 -15.956553740757954 69.457807125323598 0 0 0 0 -19.408810739852925 8.465509077286697 0 8.465509077286697 61.60567679500673 0 0 0 0 5.6213539325253343 8.8888271674486461 0 8.8888271674486461 -5.446278987931187 0 0 0 0 65.293534701503859 36.361007911920751 0 36.361007911920751 89.703662788723705 0 0 0 0 66.215201901906426 46.017319126167422 0 46.017319126167422 63.388521315202524 0 0 0 0 1.2205235520878759 -1.4052436973419873 0 -1.4052436973419873 2.3136427389438978 0 0 0 0 11.578782947234004 18.010187709962338 0 18.010187709962338 85.631118586505181 0 0 0 0 47.051852398507719 5.2489886585431123 0 5.2489886585431123 6.4800093570665922 0 0 0 0 0.84512657005142144 -14.721074835748198 0 -14.721074835748198 5.6028995554302981 0 0 0 0 54.867799249389691 -42.999446009733219 0 -42.999446009733219 14.929414104499301 0 0 0 0 2.0885188349723736 -1.1689205732214882 0 -1.1689205732214882 1.8155245625801797 0 0 0 0 80.988293570650626 74.050069275805072 0 74.050069275805072 43.331154828691069 0 0 0 0 73.595656600646521 45.068706616875829 0 45.068706616875829 -59.444171134146018 0 0 0 0 -18.579897176078475 93.616278945076374 0 93.616278945076374 -166.83612898694446 0 0 0 0 -32.170035832967244 40.260586827871975 0 40.260586827871975 -23.279096335074428 0 0 0 0 -32.170035832967073 40.260586827871748 0 40.260586827871748 -23.279096335067152 0 0 0 0 -107.76967330043979 237.82748839488477 0 237.82748839488477 -53.382842075327972 0 0 0 0 -3.0511680272659341 -1.4988678839655809 0 -1.4988678839655809 15.152485361202437 0 0 0 0 -18.109514816364481 224.91465356038361 0 224.91465356038361 -216.93758263745713 0 0 0 0 -99.231529959212821 151.14263220126759 0 151.14263220126759 82.399834626661686 0 0 0 0 -96.353840521555355 190.45074788915008 0 190.45074788915008 -74.164442649030207 0 0 0 0 -88.304610592173844 80.323560745966461 0 80.323560745966461 90.854636317987115 0 0 0 0 -81.872510356704964 116.76540040858666 0 116.76540040858666 25.159831230145755 0 0 0 0 -90.115294747566963 103.69112645186124 0 103.69112645186124 67.45300207594704 0 0 0 0 -86.998029794950071 116.55656139998791 0 116.55656139998791 25.151375879762611 0 0 0 0 -80.649741754116093 133.76407567718729 0 133.76407567718729 -31.754478615705011 0 0 0 0 -38.384704171481189 59.212709060112502 0 59.212709060112502 -60.816408901686373 0 0 0 0 -72.426737592542452 95.709257373823903 0 95.709257373823903 12.159722798690382 0 0 0 0 -45.399366623816888 66.73195726406334 0 66.73195726406334 -1.061344008987362 0 0 0 0 -32.170035832967187 40.260586827869702 0 40.260586827869702 -23.279096335068061 0 0 0 0 -47.244844999429233 80.620024289711182 0 80.620024289711182 -37.809649790734511 0 0 0 0 -36.293773955992719 85.779343752331442 0 85.779343752331442 -77.759133133288287 0 0 0 0 -67.976493799763375 99.70118641096451 0 99.70118641096451 13.213081539197447 0 0 0 0 -86.256919485854723 108.47500730409308 0 108.47500730409308 17.46481392365331 0 0 0 0 -89.80694327099522 70.123804171386951 0 70.123804171386951 37.066178988851334 0 0 0 0 -74.170308904748254 84.356369080036529 0 84.356369080036529 27.308808297041651 0 0 0 0 -79.685177778215404 65.090142517552067 0 65.090142517552067 37.489875646525434 0 0 0 0 -90.96193444627032 83.455442869866374 0 83.455442869866374 28.449177998492814 0 0 0 0 8.2750286310674745 35.407515903971316 0 35.407515903971316 27.332892479160321 0 0 0 0 -64.614020991332779 47.431042652719043 0 47.431042652719043 28.45029955775999 0 0 0 0 11.919420884412148 9.8089954213048713 0 9.8089954213048713 5.5853815905638839 0 0 0 0 22.686640146829177 22.410865099733201 0 22.410865099733201 23.070326418488548 0 0 0 0 17.420542222497716 46.252379238787398 0 46.252379238787398 23.436718914344965 0 0 0 0 7.9723014733394617 22.321572495552235 0 22.321572495552235 31.151941749359921 0 0 0 0 44.695222161038373 -29.343286004715992 0 -29.343286004715992 103.9167367318114 0 0 0 0 128.50221157599208 160.59533068313249 0 160.59533068313249 95.855149883751437 0 0 0 0 0.88541475889006582 10.503843766648874 0 10.503843766648874 6.7457091609888522 0 0 0 0 -21.924583564368731 146.74685953190692 0 146.74685953190692 229.5503660421673 0 0 0 0 17.035144553370628 56.382431645837642 0 56.382431645837642 62.820331247889044 0 0 0 0 -11.981564346411146 -17.882518133772688 0 -17.882518133772688 59.109828181226895 0 0 0 0 -98.743866697873727 -19.860368289979306 0 -19.860368289979306 93.168099405995235 0 0 0 0 99.03800530442777 106.85280586751287 0 106.85280586751287 76.030389187442779 0 0 0 0 -97.603596085398294 65.918223620948993 0 65.918223620948993 172.32075677263492 0 0 0 0 60.455544558899589 22.962184138418564 0 22.962184138418564 -40.544424964761674 0 0 0 0 36.447850004999736 -183.43169542552096 0 -183.43169542552096 66.559437332383823 0 0 0 0 -13.632027378263874 -18.297597183836196 0 -18.297597183836196 55.568109691121201 0 0 0 0 31.308350611772994 97.401080287212608 0 97.401080287212608 109.12462553650766 0 0 0 0 -46.72620076305293 -16.374327982652289 0 -16.374327982652289 28.686853240362836 0 0 0 0 -145.9599282043946 -289.98441342600017 0 -289.98441342600017 18.927614555263268 0 0 0 0 348.28888352481795 170.64553602800629 0 170.64553602800629 208.24624784050658 0 0 0 0 137.91443281679176 -86.207718148306753 0 -86.207718148306753 95.073250298396829 0 0 0 0 -12.167045316530505 -133.14867676462342 0 -133.14867676462342 -94.897931492001021 0 0 0 0 -11.655099238967523 39.289713487588585 0 39.289713487588585 14.651676075147691 0 0 0 0 182.09864796536834 57.764819960065893 0 57.764819960065893 302.17877122259796 0 0 0 0 239.05974821037654 197.10251311305132 0 197.10251311305132 93.904594395819572 0 0 0 0 72.523460896607958 -10.228169671061949 0 -10.228169671061949 1137.7414976196715 0 0 0 0 329.45241738797836 364.55070645119025 0 364.55070645119025 674.3487371723669 0 0 0 0 267.87928047666117 50.633737897424083 0 50.633737897424083 427.07981218247369 0 0 0 0 470.7619585644548 594.82966479126526 0 594.82966479126526 1081.8470297051408 0 0 0 0 67.692909127134214 105.15592579994768 0 105.15592579994768 1765.0592905351725 0 0 0 0 99.76737442945057 290.70457388355749 0 290.70457388355749 1553.9038292720286 0 0 0 0 -226.4363202305226 -112.72191476816818 0 -112.72191476816818 175.98247606631526 0 0 0 0 -259.16214760155981 159.17828422742832 0 159.17828422742832 146.80867420851916 0 0 0 0 476.31368530979506 105.59186121327292 0 105.59186121327292 244.69872840654443 0 0 0 0 33.152475000143795 -174.07488001566958 0 -174.07488001566958 313.14711532310434 0 0 0 0 -35.416895946464592 -87.166017577199909 0 -87.166017577199909 348.71306061793166 0 0 0 0 652.67524374513732 1191.8714798445135 0 1191.8714798445135 404.63593514266893 0 0 0 0 332.89339382256037 -883.22024494860671 0 -883.22024494860671 2294.4832929220006 0 0 0 0 6.3835406193253199 8.1129895809388195 0 8.1129895809388195 13.116707246320303 0 0 0 0 350.52421466063845 -1111.5605427854839 0 -1111.5605427854839 5175.3638652134159 0 0 0 0 -86.343610578900993 212.51174633909659 0 212.51174633909659 4333.4072301215383 0 0 0 0 205.99565850843646 -211.54496000525319 0 -211.54496000525319 3499.6829456324704 0 0 0 0 1258.233219950356 -272.3246535831513 0 -272.3246535831513 3039.4149621720653 0 0 0 0 731.63179503850836 375.01926236925192 0 375.01926236925192 3806.779805480629 0 0 0 0 355.60965922935083 -94.239322520158112 0 -94.239322520158112 3499.8020960721333 0 0 0 0 -309.67516389534904 170.17673215986997 0 170.17673215986997 3057.5386046451927 0 0 0 0 -203.6493656186492 -216.49944421471787 0 -216.49944421471787 2083.086769589363 0 0 0 0 33.293236026844454 355.43046627480317 0 355.43046627480317 2051.9022387935088 0 0 0 0 60.399802518565835 -549.17654360226425 0 -549.17654360226425 3155.371120690299 0 0 0 0 -562.3379000181792 -435.62164761539691 0 -435.62164761539691 3499.9244329621542 0 0 0 0 -625.05071750254638 -698.0782462415566 0 -698.0782462415566 2622.2910803722434 0 0 0 0 -444.43250218182527 -551.16531535687511 0 -551.16531535687511 2630.2267262850601 0 0 0 0 -214.51642729163601 -141.96243080230397 0 -141.96243080230397 1853.7254026419132 0 0 0 0 -167.17701695301207 -529.46098779180215 0 -529.46098779180215 810.19681508930034 0 0 0 0 -126.74983126406687 -762.49895274950245 0 -762.49895274950245 1699.968402076448 0 0 0 0 -767.81561054485246 -1055.7667319646634 0 -1055.7667319646634 3498.8022960233848 0 0 0 0 -475.69568921692922 -1002.9824455527189 0 -1002.9824455527189 2768.3810312546734 0 0 0 0 2.5081361621335092 3.0030781193358642 0 3.0030781193358642 17.161537893376206 0 0 0 0 2025.9311438902821 -2200.9604847924652 0 -2200.9604847924652 2404.7794724347204 0 0 0 0 174.69374890754958 -1723.7654151014399 0 -1723.7654151014399 3501.1050911053298 0 0 0 0 1739.2263198694561 61.759654625348048 0 61.759654625348048 5247.869763893963 0 0 0 0 593.42947131058122 -706.36421112962694 0 -706.36421112962694 857.51626511871223 0 0 0 0 -5.3381572325624873 -3.1830281591613909 0 -3.1830281591613909 19.927925839008708 0 0 0 0 -184.75594827168692 -1606.2530802986998 0 -1606.2530802986998 2344.8384511166678 0 0 0 0 -338.99334782125936 -375.58595324718777 0 -375.58595324718777 1038.6942000825049 0 0 0 0 -302.66476990910769 -344.40117578768951 0 -344.40117578768951 322.51058992679202 0 0 0 0 -355.9168191536138 -199.98616837212103 0 -199.98616837212103 -1.4089255508944234 0 0 0 0 -306.7587359056306 -81.003102534531536 0 -81.003102534531536 -15.019089149198408 0 0 0 0 -2.7439708414477861 7.1000611929164856 0 7.1000611929164856 86.565871098762358 0 0 0 0 -831.95531529762911 -328.66889105227983 0 -328.66889105227983 790.62261446088814 0 0 0 0 -94.315584591799734 -64.427752445906663 0 -64.427752445906663 -57.284709291726813 0 0 0 0 -151.84989377700981 202.39571269598412 0 202.39571269598412 194.64214157247824 0 0 0 0 -332.47558414545699 185.48663171116397 0 185.48663171116397 49.480038415824964 0 0 0 0 -252.48902998448972 -74.550839642881627 0 -74.550839642881627 490.94628834005766 0 0 0 0 40.78668906073915 165.70414239150543 0 165.70414239150543 477.20821012366196 0 0 0 0 50.417098933129751 -13.240235826189121 0 -13.240235826189121 727.43546712896227 0 0 0 0 90.47044739558639 137.23305043064292 0 137.23305043064292 907.48001934616605 0 0 0 0 -35.947692545909831 -332.04668187143193 0 -332.04668187143193 1576.3948897177745 0 0 0 0 -32.477209419219989 -138.61590433596942 0 -138.61590433596942 929.09055849426193 0 0 0 0 -134.42546965374675 -65.389881183184059 0 -65.389881183184059 448.077696388655 0 0 0 0 -125.11676720307855 -191.71599230347522 0 -191.71599230347522 899.76004858875604 0 0 0 0 55.968016676268235 -86.596498318325757 0 -86.596498318325757 1000.4318573248675 0 0 0 0 90.115489414003264 456.7905614473093 0 456.7905614473093 241.68187497934559 0 0 0 0 1011.9263113412489 1427.643698576223 0 1427.643698576223 665.02404923256108 0 0 0 0 312.18122508523038 -1169.5032862269509 0 -1169.5032862269509 3498.9009335233986 0 0 0 0 781.52100747050076 708.8241792116014 0 708.8241792116014 -1574.8359372549821 0 0 0 0 7.2978648777787907 6.9827035143876657 0 6.9827035143876657 6.6218997235195616 0 0 0 0 -511.33367381048311 44.632144328734284 0 44.632144328734284 147.99863227704191 0 0 0 0 210.18345991890601 152.93227900747661 0 152.93227900747661 137.98138196488799 0 0 0 0 -24.390489402860112 745.50385129310371 0 745.50385129310371 -1337.739030523775 0 0 0 0 -345.28101839301598 -137.46522432605343 0 -137.46522432605343 -139.87453604600341 0 0 0 0 15.234612980292727 21.301298985040805 0 21.301298985040805 13.925837165682225 0 0 0 0 -211.37239022456333 -367.38510493580088 0 -367.38510493580088 2448.8505157446252 0 0 0 0 1255.5852394644551 -1462.4710228355386 0 -1462.4710228355386 4194.9066179324036 0 0 0 0 -593.47663103745947 -219.73053413162779 0 -219.73053413162779 3500.0200952504929 0 0 0 0 645.76486038362248 766.10104134278185 0 766.10104134278185 925.75709661491419 0 0 0 0 716.83872968415744 766.4638602035775 0 766.4638602035775 -1395.646479961506 0 0 0 0 9.5748986824682163 23.177969335766818 0 23.177969335766818 33.132792797592344 0 0 0 0 -562.63917674443451 692.81744739035457 0 692.81744739035457 119.13673653550359 0 0 0 0 -0.1613621397177738 -4.3146874544488778 0 -4.3146874544488778 9.3804063370882886 0 0 0 0 -719.16142989254195 172.50766421122171 0 172.50766421122171 1235.4863962439958 0 0 0 0 -724.54238455595851 235.27491144337546 0 235.27491144337546 1619.6370924807925 0 0 0 0 -305.38944032161089 374.7838219076184 0 374.7838219076184 150.06149123194564 0 0 0 0 229.09259038042183 51.273515216318629 0 51.273515216318629 -192.1578665163579 0 0 0 0 1160.4814797279009 -254.86989226678634 0 -254.86989226678634 -628.60967588641142 0 0 0 0 0.88336766140382927 -0.92804618061459543 0 -0.92804618061459543 17.750024168261206 0 0 0 0 641.24323169641775 262.36210166063029 0 262.36210166063029 18.577005656476103 0 0 0 0 -153.7771076877907 798.31990934765417 0 798.31990934765417 1274.3412899203176 0 0 0 0 0.95908174923760692 2.6462793507655675 0 2.6462793507655675 3.9005752365175255 0 0 0 0 -181.57613076198322 -215.69196451060452 0 -215.69196451060452 1194.4869573322994 0 0 0 0 -151.92786752153484 -470.03327676425488 0 -470.03327676425488 1000.5967328644838 0 0 0 0 52.879690804977599 -115.14545123168864 0 -115.14545123168864 -116.2298641069101 0 0 0 0 -240.79247917522292 295.02121122184508 0 295.02121122184508 255.35216802714422 0 0 0 0 84.467486434621378 -35.234257996646193 0 -35.234257996646193 66.29770337788068 0 0 0 0 90.922732422403328 -86.853974221485259 0 -86.853974221485259 247.76549736589368 0 0 0 0 147.34405110404623 -1.337917420813028 0 -1.337917420813028 223.04068992252724 0 0 0 0 -180.60502472413737 103.71478610238228 0 103.71478610238228 845.19673351845995 0 0 0 0 -15.801687092699808 -101.80250344904562 0 -101.80250344904562 998.02122257279734 0 0 0 0 -1.0435969189761636 -74.453727439835347 0 -74.453727439835347 109.35049973746936 0 0 0 0 15.92594058822533 -124.79280365355953 0 -124.79280365355953 72.953433608410705 0 0 0 0 63.778307040775758 -84.622086197410681 0 -84.622086197410681 101.41533793513736 0 0 0 0 60.517204762708587 -70.623053164546945 0 -70.623053164546945 48.443182371091098 0 0 0 0 118.96597601583363 -77.113341108686654 0 -77.113341108686654 62.854955445109226 0 0 0 0 100.58233598781129 -165.58477231576444 0 -165.58477231576444 17.266027831094107 0 0 0 0 -10.619898742248097 -110.50441880130529 0 -110.50441880130529 73.550797276715457 0 0 0 0 -204.23201242937057 -62.541583759023524 0 -62.541583759023524 130.238030956476 0 0 0 0 -95.262687098010701 -205.96735201488264 0 -205.96735201488264 38.185654609180347 0 0 0 0 1.1174912250328521 3.3636700699782764 0 3.3636700699782764 5.8284761326777641 0 0 0 0 1.3857053330123108 -25.439956537067701 0 -25.439956537067701 105.35998324984394 0 0 0 0 -50.521189124274315 -103.68821557076808 0 -103.68821557076808 144.54687160514732 0 0 0 0 -0.39915061845795208 -60.480268105253344 0 -60.480268105253344 174.56939486894771 0 0 0 0 0.1304970176024729 -3.3499783839358432 0 -3.3499783839358432 61.077051061330323 0 0 0 0 530.14109091475575 -171.94440430930717 0 -171.94440430930717 -349.89782848898903 0 0 0 0 -190.35113304595689 124.19416928993815 0 124.19416928993815 148.71626934119558 0 0 0 0 144.93985745591544 -119.70492841343003 0 -119.70492841343003 165.11307298269094 0 0 0 0 -210.76225342443195 159.93273900192344 0 159.93273900192344 94.851722268736921 0 0 0 0 -494.36319529178468 -308.49471252489639 0 -308.49471252489639 618.05710957922929 0 0 0 0 0.26128270126981978 -7.6764494166595885 0 -7.6764494166595885 16.93990562086347 0 0 0 0 0.79553977557745559 -6.0692438812896512 0 -6.0692438812896512 7.1036156159362207 0 0 0 0 -323.33551101430862 151.23570431727967 0 151.23570431727967 346.64671596274638 0 0 0 0 216.8346450559153 -140.95664580726998 0 -140.95664580726998 -59.076573317801376 0 0 0 0 -719.35894238106789 358.17682433274058 0 358.17682433274058 341.27677883343677 0 0 0 0 316.67755501116426 -485.00859157418472 0 -485.00859157418472 394.06000237150789 0 0 0 0 -4.6412374709600401 10.539050389151196 0 10.539050389151196 13.983637747761877 0 0 0 0 -187.05412608733968 229.12752524513689 0 229.12752524513689 -398.38146273171878 0 0 0 0 -317.68190422902592 -614.20614662267462 0 -614.20614662267462 7.1612963351890357 0 0 0 0 -1.2989306861412617 2.3420925663838066 0 2.3420925663838066 109.08575967054593 0 0 0 0 8.1837511060045927 40.87398280612797 0 40.87398280612797 192.67250041887746 0 0 0 0 -252.65902076189332 -181.55204091571431 0 -181.55204091571431 948.07450686636184 0 0 0 0 -109.34931584066362 -42.648424071798217 0 -42.648424071798217 1409.9707528983708 0 0 0 0 15.214166520102026 23.998895119453664 0 23.998895119453664 116.72557715178118 0 0 0 0 -0.25501479831401586 -11.817501804531641 0 -11.817501804531641 6.9726011963082897 0 0 0 0 -116.6199455460569 -51.299593650572206 0 -51.299593650572206 1698.7060305554478 0 0 0 0 15.629973067543688 29.249590801111481 0 29.249590801111481 144.71130337393333 0 0 0 0 -21.070136348265805 -92.027396328543546 0 -92.027396328543546 -3.9986269691435155 0 0 0 0 5.075494579567021 -27.707039493681805 0 -27.707039493681805 100.9009635450202 0 0 0 0 19.014153563608488 -8.6271765445853816 0 -8.6271765445853816 98.826822839091619 0 0 0 0 16.991916319708253 -17.397159633641422 0 -17.397159633641422 67.973912861547433 0 0 0 0 10.589064021780359 -1.2438936152066162 0 -1.2438936152066162 127.15228055670741 0 0 0 0 1.1527971666981296 2.002002094022906 0 2.002002094022906 1.0511805158116942 0 0 0 0 171.2579181873989 -110.06770992382371 0 -110.06770992382371 -283.86930947063956 0 0 0 0 -106.63284505386127 -77.74844914422647 0 -77.74844914422647 -446.84657276293729 0 0 0 0 -2.5655462487802652 -79.09077191979668 0 -79.09077191979668 294.76604298805614 0 0 0 0 -7.0365584021697032 -51.975261598763609 0 -51.975261598763609 166.69655046053231 0 0 0 0 -4.338451909248306 2.2245535426118295 0 2.2245535426118295 170.69456825024099 0 0 0 0 -9.928869728395739 -8.4588447156747861 0 -8.4588447156747861 214.23033065724303 0 0 0 0 -18.940213162500186 15.086683444009395 0 15.086683444009395 276.45502817170382 0 0 0 0 16.007868241517599 14.012488912498156 0 14.012488912498156 136.84361265788903 0 0 0 0 12.429081235160993 2.0717454815676319 0 2.0717454815676319 123.9685646671569 0 0 0 0 -3.1047336617293695 -3.9804204564497923 0 -3.9804204564497923 129.66681347750273 0 0 0 0 7.8253274202106695 -9.187337646533706 0 -9.187337646533706 107.50562189484481 0 0 0 0 1.7243644667232729 7.4437144488547347 0 7.4437144488547347 137.0810235622921 0 0 0 0 -8.5887934586830852 4.628499133807054 0 4.628499133807054 147.74671434356424 0 0 0 0 -2.5667005288519249 19.229096335988288 0 19.229096335988288 173.03537475258054 0 0 0 0 -10.586737350254396 17.154785021061798 0 17.154785021061798 155.18613063359226 0 0 0 0 -7.9420236887860938 8.0438409228336241 0 8.0438409228336241 167.74707569324528 0 0 0 0 -15.36279460698097 12.765735671164293 0 12.765735671164293 151.44691624892585 0 0 0 0 -16.888442642621321 29.13620577850088 0 29.13620577850088 155.5335930512083 0 0 0 0 -16.646797386994365 25.512470992942326 0 25.512470992942326 162.20884288052912 0 0 0 0 1.7383941022478666 19.08942432890035 0 19.08942432890035 146.32509185327581 0 0 0 0 17.509302885167301 13.335443714284338 0 13.335443714284338 127.55747600836185 0 0 0 0 -7.7939756904852402 -12.444624105843104 0 -12.444624105843104 145.60617329723755 0 0 0 0 21.417791395556833 -28.932262216683739 0 -28.932262216683739 152.21199103484105 0 0 0 0 27.754483994355098 -16.137685191758464 0 -16.137685191758464 101.02127662606654 0 0 0 0 -136.89076811209361 157.31726285494017 0 157.31726285494017 40.943159022333703 0 0 0 0 32.057163122499787 262.46960924624216 0 262.46960924624216 -65.071349589154011 0 0 0 0 51.565751797791421 229.00956169411251 0 229.00956169411251 -79.940510879008343 0 0 0 0 60.599871775126417 274.01148533511343 0 274.01148533511343 41.116014199076176 0 0 0 0 94.934557379680996 274.02594057972124 0 274.02594057972124 -103.08609096236887 0 0 0 0 125.82499291745683 146.41187708140356 0 146.41187708140356 81.415927263195272 0 0 0 0 157.80492362016929 288.73585069394801 0 288.73585069394801 350.7992410237494 0 0 0 0 -87.039183084115166 37.238478469528587 0 37.238478469528587 352.85087498872724 0 0 0 0 22.823819236477675 286.23088382549628 0 286.23088382549628 136.27320763151931 0 0 0 0 -447.45539998860147 -4.2432026903805991 0 -4.2432026903805991 111.57702299132995 0 0 0 0 -1.5450683970430825 1.8227111406900391 0 1.8227111406900391 64.719982881369873 0 0 0 0 -737.29253387825452 223.67093337249707 0 223.67093337249707 294.12582893922308 0 0 0 0 -389.71581846898596 -153.6806114936611 0 -153.6806114936611 139.30595530592109 0 0 0 0 -0.65046798428289831 1.0367867414936029 0 1.0367867414936029 37.657950258441204 0 0 0 0 -132.60729760463221 139.88898821954263 0 139.88898821954263 -30.731241971962845 0 0 0 0 -145.22786179918921 192.08858172624582 0 192.08858172624582 -87.931231774322214 0 0 0 0 -379.87830370127017 231.62012335063395 0 231.62012335063395 29.14339486618212 0 0 0 0 -164.12654822464015 83.793005612132788 0 83.793005612132788 -50.813684822948289 0 0 0 0 136.29966136542942 143.67860788448161 0 143.67860788448161 -85.516437885229379 0 0 0 0 271.40137836119629 -287.0764364953468 0 -287.0764364953468 152.07698182170861 0 0 0 0 -527.20780761742822 -306.69122665643408 0 -306.69122665643408 352.64779887822806 0 0 0 0 -215.29913622451204 114.35701687360279 0 114.35701687360279 61.436733193578903 0 0 0 0 599.6456841223021 -638.55732338631765 0 -638.55732338631765 399.45006628778629 0 0 0 0 115.06963871701646 241.42458598915573 0 241.42458598915573 125.23106286373832 0 0 0 0 0.28461011940232184 -0.1156619434714492 0 -0.1156619434714492 12.080112112789694 0 0 0 0 38.626954708414132 74.532822360042474 0 74.532822360042474 189.16227718835179 0 0 0 0 0.60204496629415871 239.65351916924919 0 239.65351916924919 164.03368800999851 0 0 0 0 36.144218176942672 190.78111883707265 0 190.78111883707265 -59.832621766491116 0 0 0 0 -45.859262070712731 82.284871299331769 0 82.284871299331769 -136.18629167975541 0 0 0 0 19.183982982264354 198.58704209849543 0 198.58704209849543 69.796470147750824 0 0 0 0 32.74213454166545 134.23080864940562 0 134.23080864940562 56.68928004365381 0 0 0 0 -78.557084338858871 53.973695206698579 0 53.973695206698579 323.90611300256342 0 0 0 0 -22.75096115421843 239.54307604189603 0 239.54307604189603 608.39446138968242 0 0 0 0 198.99461317460919 -289.02648629352586 0 -289.02648629352586 533.73462724787851 0 0 0 0 30.278763062982989 -74.387945310452551 0 -74.387945310452551 212.43247952722913 0 0 0 0 57.571344337449716 -44.595191464678692 0 -44.595191464678692 220.31269047762908 0 0 0 0 38.083157437425029 -23.748058587329524 0 -23.748058587329524 232.84987234053006 0 0 0 0 65.067350612196435 -91.97557151068554 0 -91.97557151068554 219.51667087184998 0 0 0 0 228.50702895962118 21.672010634618573 0 21.672010634618573 238.87352516316287 0 0 0 0 3.064085999175397 160.00418474568352 0 160.00418474568352 -174.78528435599492 0 0 0 0 -134.04537710434693 442.09467711717934 0 442.09467711717934 110.14792337288441 0 0 0 0 16.181095987624246 44.391164317627045 0 44.391164317627045 236.0556025366968 0 0 0 0 219.30931539233228 68.647066849175246 0 68.647066849175246 2.3072531007769612 0 0 0 0 243.08545000131073 394.38947734336057 0 394.38947734336057 160.09338672619288 0 0 0 0 7.2863782831552726 127.96357397744578 0 127.96357397744578 -91.978438603402083 0 0 0 0 563.81372714380609 -148.86147233109637 0 -148.86147233109637 45.879275967645071 0 0 0 0 -304.53063128069704 214.62868591482538 0 214.62868591482538 708.95280743971171 0 0 0 0 -3.7851857115417453 -2.4124838333273928 0 -2.4124838333273928 42.607985273815707 0 0 0 0 -726.03229111645283 120.5979169741488 0 120.5979169741488 232.832286794146 0 0 0 0 -2.9108413023289383 -31.997331279267414 0 -31.997331279267414 74.712745685887569 0 0 0 0 8.4203974997280966 -32.447632166273252 0 -32.447632166273252 86.678724097786471 0 0 0 0 -7.6362014739520419 -46.319443810050871 0 -46.319443810050871 94.47019714277485 0 0 0 0 13.512088924331692 -36.897306246616154 0 -36.897306246616154 94.603819318323076 0 0 0 0 -23.363437125047426 -27.683395950470008 0 -27.683395950470008 156.95724855392044 0 0 0 0 1.098880952462423 -31.135192554414971 0 -31.135192554414971 97.214199170441134 0 0 0 0 4.417542000865069 -29.731124193895084 0 -29.731124193895084 96.045395389170153 0 0 0 0 2.3205343173067376 -28.598636079594144 0 -28.598636079594144 102.22204027019325 0 0 0 0 3.6870879112302646 -31.616138742450858 0 -31.616138742450858 94.121992584216059 0 0 0 0 22.955864294983954 -51.878360699613495 0 -51.878360699613495 90.451835793726787 0 0 0 0 -20.379005150699186 -50.685652293610019 0 -50.685652293610019 109.45043923424601 0 0 0 0 -20.407077702723882 -20.278178818878587 0 -20.278178818878587 92.707033506988751 0 0 0 0 -395.08412293188093 -132.98790239744358 0 -132.98790239744358 169.18405410686773 0 0 0 0 -52.831006093681168 -18.792104026848392 0 -18.792104026848392 141.16949085239321 0 0 0 0 -39.700128045568796 -15.943481427343954 0 -15.943481427343954 128.18867923409562 0 0 0 0 -53.356108378774593 -20.191593154406291 0 -20.191593154406291 148.19446449860789 0 0 0 0 -35.139259119827784 -0.50634715183696244 0 -0.50634715183696244 149.97477706398058 0 0 0 0 -28.841099234335957 14.904179180108258 0 14.904179180108258 160.10782756128174 0 0 0 0 -53.011469230100943 3.5453976575445267 0 3.5453976575445267 160.42140812193975 0 0 0 0 -29.148519183870576 15.377647627370607 0 15.377647627370607 161.50126943447867 0 0 0 0 -36.565565082782086 -10.419403191634046 0 -10.419403191634046 138.35100886956934 0 0 0 0 -22.178088761877916 2.4316288981717662 0 2.4316288981717662 146.9134283921303 0 0 0 0 -26.698365130674574 2.5190594934101682 0 2.5190594934101682 149.32313355788756 0 0 0 0 -28.866083696111673 -11.867187796051439 0 -11.867187796051439 136.37712022387132 0 0 0 0 -39.601182346671521 -23.475912257257733 0 -23.475912257257733 128.9900628861069 0 0 0 0 -17.98826659938095 -43.852148868245422 0 -43.852148868245422 105.39740553333468 0 0 0 0 -30.994937347842097 -21.199149306703475 0 -21.199149306703475 126.2314922518126 0 0 0 0 -29.649037469904215 -22.029451091504598 0 -22.029451091504598 125.49658824221115 0 0 0 0 -33.323701730535504 -28.273237469038577 0 -28.273237469038577 122.48487621237655 0 0 0 0 -23.198866897635753 -23.733223075339993 0 -23.733223075339993 121.01965909363935 0 0 0 0 -25.61683799938146 -15.614067116235674 0 -15.614067116235674 131.44048627116717 0 0 0 0 -29.09991927763032 -20.402923122129891 0 -20.402923122129891 125.67296887174598 0 0 0 0 -18.453477315969394 -9.7060440304667281 0 -9.7060440304667281 130.72965205232322 0 0 0 0 -17.871283141493677 -9.6083831934283808 0 -9.6083831934283808 129.682017666928 0 0 0 0 -22.64206841905434 -23.496124851197237 0 -23.496124851197237 120.63969646080659 0 0 0 0 -16.786955338027838 -35.351888777469867 0 -35.351888777469867 109.64112783095652 0 0 0 0 -5.1613441911104019 -12.881625319481827 0 -12.881625319481827 119.85098418021335 0 0 0 0 -0.84673216138799035 -20.624024733238912 0 -20.624024733238912 114.43780964184043 0 0 0 0 -6.5484290765282367 -26.015999045032004 0 -26.015999045032004 109.34601596547873 0 0 0 0 -29.923129529814105 -34.994729124678997 0 -34.994729124678997 117.68841831455939 0 0 0 0 -23.543730012860053 -9.0612624317777488 0 -9.0612624317777488 42.929346351961598 0 0 0 0 -30.727370502732811 -29.624135269352337 0 -29.624135269352337 116.42764515371528 0 0 0 0 -23.03684617090812 19.469995844949153 0 19.469995844949153 93.920963781740284 0 0 0 0 -18.078452926129746 -12.492946624404006 0 -12.492946624404006 24.266231177563157 0 0 0 0 -32.531410021760166 -21.733054213451396 0 -21.733054213451396 126.3104355744872 0 0 0 0 -31.275675589399725 -22.253402105736313 0 -22.253402105736313 125.58030409753701 0 0 0 0 -25.95893852708025 -22.636591229173064 0 -22.636591229173064 89.753129153520149 0 0 0 0 -33.715829302222119 -4.0790341079700738 0 -4.0790341079700738 40.683344014338218 0 0 0 0 -35.338488015069402 -32.275248148653191 0 -32.275248148653191 100.37532103336707 0 0 0 0 -33.113483879340492 -16.712259487736446 0 -16.712259487736446 118.67350875333068 0 0 0 0 -31.88717644451765 -17.332854561296699 0 -17.332854561296699 92.892575094463609 0 0 0 0 -29.350849150215822 -23.668678855796315 0 -23.668678855796315 29.600409610997303 0 0 0 0 -56.076670669989085 -36.363254463183694 0 -36.363254463183694 128.39219667340512 0 0 0 0 -56.693811197841924 -28.188196900449839 0 -28.188196900449839 143.01708932909241 0 0 0 0 -16.272212259705157 -4.7795273365045432 0 -4.7795273365045432 58.107980817585485 0 0 0 0 -28.25865248217815 -26.713529654083686 0 -26.713529654083686 43.201200737539693 0 0 0 0 0.58142175026171827 4.3545738122096509 0 4.3545738122096509 8.6912032679425941 0 0 0 0 -36.181084591507897 -1.3224547231857287 0 -1.3224547231857287 64.746909708999738 0 0 0 0 -30.797028618701916 -9.0943952804136643 0 -9.0943952804136643 48.230541011624155 0 0 0 0 -31.935120180738465 -1.4909493460334033 0 -1.4909493460334033 65.416545041589416 0 0 0 0 -16.610878950158622 11.769852318249832 0 11.769852318249832 66.19830939715564 0 0 0 0 -23.163247737849815 0.20845307952549774 0 0.20845307952549774 64.281181824997475 0 0 0 0 -23.507692865956415 1.1951450802025647 0 1.1951450802025647 65.475274025917315 0 0 0 0 -24.556191741168732 0.72499595738190692 0 0.72499595738190692 64.838499732273021 0 0 0 0 -25.908117210489763 -2.9717695429017112 0 -2.9717695429017112 61.873315156037279 0 0 0 0 -22.312101982020977 -0.13514875928012771 0 -0.13514875928012771 63.428154828696279 0 0 0 0 -22.589125358626916 -0.43793196920159971 0 -0.43793196920159971 63.634488783929555 0 0 0 0 182.17446903163255 -158.13858301385653 0 -158.13858301385653 5.0515534076539552 0 0 0 0 -601.98100318198726 272.60259759289761 0 272.60259759289761 89.589421519549091 0 0 0 0 -1.0069550326791576 2.5818532090583388 0 2.5818532090583388 24.293978918751844 0 0 0 0 -19.666481088094088 -1.4775563700569236 0 -1.4775563700569236 64.181398198382212 0 0 0 0 -11.61869772546288 5.6156489608365519 0 5.6156489608365519 72.730459720067302 0 0 0 0 -11.945678005436589 15.120077000118338 0 15.120077000118338 72.35749813256669 0 0 0 0 36.102801490823282 218.85728776224823 0 218.85728776224823 335.19584461352588 0 0 0 0 -0.48369713444827189 0.0053482625121599181 0 0.0053482625121599181 8.2652817291584846 0 0 0 0 388.19344166393898 -548.74243684323324 0 -548.74243684323324 -819.61126255924228 0 0 0 0 -9.1562637394936246 21.191096087732149 0 21.191096087732149 77.707510040690977 0 0 0 0 -5.2553113635108275 25.344298887854166 0 25.344298887854166 69.964492950013664 0 0 0 0 -4.1752751936691084 20.0100058317812 0 20.0100058317812 93.824639116828621 0 0 0 0 -13.236001801685688 11.62231895345576 0 11.62231895345576 62.398950467319082 0 0 0 0 -11.390809211771739 11.089766793062154 0 11.089766793062154 59.395710760856673 0 0 0 0 -1.1050081845460227 31.359887749160407 0 31.359887749160407 58.888243815744772 0 0 0 0 -17.140852711946991 0.97726813077224506 0 0.97726813077224506 42.13226941940593 0 0 0 0 -13.862224310472357 26.634420461659829 0 26.634420461659829 44.497941387515311 0 0 0 0 -9.620972120211718 20.427245709314775 0 20.427245709314775 53.567901455651736 0 0 0 0 -0.33150053476938979 18.937945657470536 0 18.937945657470536 -4.9080844465978188 0 0 0 0 37.857681211517956 -21.55014846438462 0 -21.55014846438462 -44.949068618363526 0 0 0 0 -7.3573881731886104 -50.813893573200858 0 -50.813893573200858 98.595309191397973 0 0 0 0 27.607623859411206 97.715706995864821 0 97.715706995864821 104.95541515814693 0 0 0 0 -4.7776626438135281 74.753899176826963 0 74.753899176826963 224.56529977093669 0 0 0 0 5.8608978948795993 8.4217392192622356 0 8.4217392192622356 85.074857632596832 0 0 0 0 -61.176617803403133 35.38953054675585 0 35.38953054675585 75.123950815857825 0 0 0 0 8.5151233757292175 110.10866693343905 0 110.10866693343905 85.263103203018545 0 0 0 0 -9.3049307082073938 76.475841911827956 0 76.475841911827956 37.86495690717129 0 0 0 0 -15.14583267775229 23.730673917050176 0 23.730673917050176 17.841554927543449 0 0 0 0 -7.3647317909790218 30.192943888795526 0 30.192943888795526 82.534111452278012 0 0 0 0 57.349901327324005 14.823735892430705 0 14.823735892430705 -31.527401761801229 0 0 0 0 -6.0417537308413358 21.525530254614907 0 21.525530254614907 -12.413344196409675 0 0 0 0 9.3517042795128873 50.740675243054284 0 50.740675243054284 129.66565364938833 0 0 0 0 -8.799827254979391 108.79941728965787 0 108.79941728965787 85.384633035745537 0 0 0 0 -74.348948491890042 118.97435469141783 0 118.97435469141783 90.267286122696532 0 0 0 0 -32.674998415049117 3.395226840885698 0 3.395226840885698 137.31770072201471 0 0 0 0 -17.795494655972067 29.13663006814707 0 29.13663006814707 114.75915195179151 0 0 0 0 -17.532942128324294 22.7280137062268 0 22.7280137062268 107.42249812170583 0 0 0 0 -23.910761880326618 11.916346899957716 0 11.916346899957716 93.145885613882683 0 0 0 0 -48.385082400297776 39.808121192115777 0 39.808121192115777 107.19328847578777 0 0 0 0 -24.420631368842891 36.063539984229237 0 36.063539984229237 -1.677383777499017 0 0 0 0 -58.87356930435044 111.79125339410166 0 111.79125339410166 23.456069807412405 0 0 0 0 8.3245980519753005 55.648228177488306 0 55.648228177488306 -88.02823722932817 0 0 0 0 10.185466520848934 40.881554203689575 0 40.881554203689575 -2.0562491574310684 0 0 0 0 4.4707851717714568 4.6167371181923222 0 4.6167371181923222 3.7249434047743932 0 0 0 0 55.386023031595926 -86.491774647892271 0 -86.491774647892271 121.15953074536674 0 0 0 0 1.0035997623848201 1.286956733746349 0 1.286956733746349 2.2262646176615206 0 0 0 0 53.047322899857875 -87.134555433067135 0 -87.134555433067135 272.88157157010176 0 0 0 0 9.8676261890316255 -26.886984271181063 0 -26.886984271181063 -27.038285510975129 0 0 0 0 -214.22969413880105 283.51029231302982 0 283.51029231302982 194.58746029477481 0 0 0 0 -88.640560244577671 211.45277363665673 0 211.45277363665673 203.15934407164559 0 0 0 0 -168.12173715267093 396.92491425102901 0 396.92491425102901 373.25059155006875 0 0 0 0 163.56240879522306 547.69921100090733 0 547.69921100090733 1229.2275333887537 0 0 0 0 -8.5440338168655821 24.767546132564071 0 24.767546132564071 80.62052760195462 0 0 0 0 -293.23801348426582 -197.65225538299683 0 -197.65225538299683 547.59094307855594 0 0 0 0 -3.4111762918496038 0.034238098221640811 0 0.034238098221640811 34.391393432166808 0 0 0 0 -117.08720775932727 -113.09168363448043 0 -113.09168363448043 -600.82902264415134 0 0 0 0 -7.8565262713182165 40.273665652333875 0 40.273665652333875 30.202451499379094 0 0 0 0 -8.4773344995167577 -30.704951471831009 0 -30.704951471831009 100.26302529721397 0 0 0 0 6.7637484490103903 19.095812570713647 0 19.095812570713647 20.358007230955195 0 0 0 0 19.960644013363719 -8.837077863398008 0 -8.837077863398008 36.269357626013516 0 0 0 0 -0.87296521867529009 2.8725961510681373 0 2.8725961510681373 17.626156974129117 0 0 0 0 2.967777262382242 39.783556771901203 0 39.783556771901203 -30.397750819716748 0 0 0 0 14.228787552117314 24.092836491916273 0 24.092836491916273 24.125395168196292 0 0 0 0 -65.464872780841688 125.33942819160802 0 125.33942819160802 53.98664834005649 0 0 0 0 -35.026824931625924 52.301512816160539 0 52.301512816160539 -48.314201369852526 0 0 0 0 -100.58992124567931 6.4488283062200935 0 6.4488283062200935 272.68098811735399 0 0 0 0 1.539834128749316 4.756551663919609 0 4.756551663919609 5.6006437362814694 0 0 0 0 -42.395316777206972 21.383343119341589 0 21.383343119341589 86.865118787492975 0 0 0 0 16.817746037427241 -72.120670798478386 0 -72.120670798478386 121.96210499219524 0 0 0 0 -17.305600772953767 -80.455054257628944 0 -80.455054257628944 232.27032236749801 0 0 0 0 -25.801980102941798 -104.95350925815546 0 -104.95350925815546 211.64836598918191 0 0 0 0 -24.9946292322619 -174.67765424549384 0 -174.67765424549384 248.63068937005301 0 0 0 0 -64.248661352508861 -115.72772764036199 0 -115.72772764036199 403.83712385437684 0 0 0 0 -47.832845565422758 -152.73366624467599 0 -152.73366624467599 429.23045467321936 0 0 0 0 -89.122444047135104 -122.92594899388314 0 -122.92594899388314 639.14988379658462 0 0 0 0 15.292802209944966 -254.40739200376993 0 -254.40739200376993 450.16018400196481 0 0 0 0 -46.147297302567495 -125.89884825861373 0 -125.89884825861373 515.25380278454031 0 0 0 0 451.81397774701691 -262.75109043102566 0 -262.75109043102566 432.79201879641732 0 0 0 0 308.66548690011905 186.11279747671142 0 186.11279747671142 434.87445988993204 0 0 0 0 56.597119995854541 -60.866024911426848 0 -60.866024911426848 364.86355889742845 0 0 0 0 59.432892051036561 -231.79647192094853 0 -231.79647192094853 126.46516430447809 0 0 0 0 45.227284124780567 64.143744093918031 0 64.143744093918031 -35.812180297587474 0 0 0 0 4.0303058504796825 6.6887130578077461 0 6.6887130578077461 6.8236759456077323 0 0 0 0 1.0154583095541057 -1.1315326410840498 0 -1.1315326410840498 44.900781822262616 0 0 0 0 2.9246484165899291 7.9485361117135227 0 7.9485361117135227 11.206383762883021 0 0 0 0 -0.11995762434798962 4.453899447726144 0 4.453899447726144 44.202762769309629 0 0 0 0 2.901494879923959 127.14214655714522 0 127.14214655714522 424.01980699092383 0 0 0 0 38.424872468147328 -29.256029340023815 0 -29.256029340023815 614.94737033635465 0 0 0 0 27.698075800744846 -0.59497756249038503 0 -0.59497756249038503 29.16867484922841 0 0 0 0 4.2053015076831581 4.2390164277329774 0 4.2390164277329774 3.7718275185861501 0 0 0 0 12.704700324607618 15.528991415581409 0 15.528991415581409 15.999033170686161 0 0 0 0 0.31048187043325015 41.935472110639239 0 41.935472110639239 19.005940166533037 0 0 0 0 -5.9569334169116246 -183.67418029716646 0 -183.67418029716646 755.76222620553017 0 0 0 0 -20.846853050424215 6.5816178807071992 0 6.5816178807071992 38.908479139676274 0 0 0 0 0.19254697160249634 -23.941881782788187 0 -23.941881782788187 58.857914578045893 0 0 0 0 -13.676605274354188 35.29293870741094 0 35.29293870741094 32.108792785693367 0 0 0 0 27.986349973814868 12.439502478118811 0 12.439502478118811 45.544795953312132 0 0 0 0 14.170138742910922 1.5802656780388133 0 1.5802656780388133 39.528646403152379 0 0 0 0 11.831285220099289 27.849917267253659 0 27.849917267253659 45.424086972896475 0 0 0 0 39.988763331366499 17.829109049460385 0 17.829109049460385 46.37947034422541 0 0 0 0 17.175295508044655 1.8839454225089867 0 1.8839454225089867 61.089848898496712 0 0 0 0 26.22960410910764 12.650038227564437 0 12.650038227564437 24.827695767919067 0 0 0 0 25.013847755079041 14.120812357774412 0 14.120812357774412 52.927415427009691 0 0 0 0 53.706441283175081 38.894060858772718 0 38.894060858772718 47.719822402548743 0 0 0 0 20.179735145811719 15.621686004968069 0 15.621686004968069 68.420814694924047 0 0 0 0 2.1448347816349269 -0.16106445119385171 0 -0.16106445119385171 37.852831684569537 0 0 0 0 1.463847944496365 5.0883035676270083 0 5.0883035676270083 37.774187619463191 0 0 0 0 -5.737378339570121 2.6399049670277464 0 2.6399049670277464 7.0932073601262005 0 0 0 0 1.2595953322816058 25.109165204848978 0 25.109165204848978 31.35049405702739 0 0 0 0 -7.0570930716093816 -0.651492081392405 0 -0.651492081392405 21.045843294383786 0 0 0 0 24.08007750665638 30.659167503938079 0 30.659167503938079 30.555231668895431 0 0 0 0 2.1743817567112274 19.354199937646626 0 19.354199937646626 55.423839484690689 0 0 0 0 14.058540598096442 45.3188173918752 0 45.3188173918752 95.729153375767055 0 0 0 0 -118.10637269055042 105.15019327625487 0 105.15019327625487 96.888364885995543 0 0 0 0 2.3505718555104647 5.1848055302746481 0 5.1848055302746481 -2.4072949345993209 0 0 0 0 -61.487520067038076 134.0204772660727 0 134.0204772660727 -125.34701381497143 0 0 0 0 -61.631268939235269 65.298649535969162 0 65.298649535969162 85.028072635306671 0 0 0 0 86.136396031701224 92.465243654660298 0 92.465243654660298 46.135409755854198 0 0 0 0 -87.384153613123544 57.885657687553248 0 57.885657687553248 355.17075562904938 0 0 0 0 -121.36835258926931 19.168040534137617 0 19.168040534137617 20.446174818804138 0 0 0 0 24.9389343728526 7.3027446940905065 0 7.3027446940905065 -5.4594303196026885 0 0 0 0 26.024127800588758 -15.058686120566563 0 -15.058686120566563 -84.31853400725231 0 0 0 0 46.685462057826953 -29.099323719485255 0 -29.099323719485255 12.102783366008225 0 0 0 0 53.355836030336832 -22.555550665332703 0 -22.555550665332703 -7.0364311844168697 0 0 0 0 17.913160491752933 33.356893471409421 0 33.356893471409421 -11.873825166498136 0 0 0 0 -7.9599373933269817 22.96526077366434 0 22.96526077366434 20.694460705046367 0 0 0 0 0.032802117525505103 7.9711331014223354 0 7.9711331014223354 35.182941791460507 0 0 0 0 -43.502861404544092 20.596518354814179 0 20.596518354814179 32.627565491078713 0 0 0 0 -97.996634598264791 -7.1000217042774239 0 -7.1000217042774239 36.110906021523988 0 0 0 0 -65.678270772554242 86.742459184111794 0 86.742459184111794 -42.311136102134697 0 0 0 0 -0.1210320505142839 1.8069204203255111 0 1.8069204203255111 5.7459951148109099 0 0 0 0 20.097272485199937 32.304482940864546 0 32.304482940864546 15.350984787079142 0 0 0 0 -38.952105918245252 14.914478186850829 0 14.914478186850829 38.997970617125247 0 0 0 0 25.18126946628945 51.959499844928359 0 51.959499844928359 27.605722732562299 0 0 0 0 11.903768809962457 -7.13013684726684 0 -7.13013684726684 55.845875063037965 0 0 0 0 -6.5847937926280586 3.8806827012890466 0 3.8806827012890466 9.9455354623061112 0 0 0 0 -54.237322830940684 103.11217065632809 0 103.11217065632809 143.14481190601145 0 0 0 0 -28.591361069281447 1.7856615105974925 0 1.7856615105974925 55.971329166233772 0 0 0 0 -12.961713056101871 33.41162489699127 0 33.41162489699127 44.741617835695251 0 0 0 0 -0.039852256032981259 3.717603491027055 0 3.717603491027055 36.2630850041309 0 0 0 0 -1.4640456605648069 15.786885541241645 0 15.786885541241645 -3.12162867519055 0 0 0 0 -12.691377774716784 40.999509031604248 0 40.999509031604248 -6.9772184665926034 0 0 0 0 -3.1093949437395327 13.699657283393435 0 13.699657283393435 19.34558908327196 0 0 0 0 -4.8837251783961619 -17.821817510495748 0 -17.821817510495748 -10.198214025818743 0 0 0 0 26.919024677710695 45.747236714487372 0 45.747236714487372 46.77483111279389 0 0 0 0 -9.6160685352239295 4.7361671904401348 0 4.7361671904401348 4.8413683553589095 0 0 0 0 105.33894012658038 2.7013825773901772 0 2.7013825773901772 -23.873285862940975 0 0 0 0 -2.3073761329164881 -18.24423324179952 0 -18.24423324179952 40.49103250799817 0 0 0 0 -4.1180121426386904 -26.804842746782924 0 -26.804842746782924 5.9169664087239653 0 0 0 0 1.0830622175973339 -0.29962264221052237 0 -0.29962264221052237 -0.39586792266858595 0 0 0 0 -1.0759872226540708 5.5672664014211932 0 5.5672664014211932 20.356623328952992 0 0 0 0 -15.163594878579261 17.88837537629297 0 17.88837537629297 55.382946199679282 0 0 0 0 -0.45387265607587324 -6.6448710707372811 0 -6.6448710707372811 25.337622028215264 0 0 0 0 -0.46924320829407407 -4.0099661728290812 0 -4.0099661728290812 42.964786918266327 0 0 0 0 4.2396634828110109 -4.4530838804785162 0 -4.4530838804785162 24.370724703399901 0 0 0 0 4.4804954063329205 -5.0827509592782008 0 -5.0827509592782008 3.4718041045125574 0 0 0 0 2.2525908665356837 -5.9499973575402691 0 -5.9499973575402691 25.254933140211506 0 0 0 0 6.0095575099336997 6.7298401296511656 0 6.7298401296511656 34.811478838470066 0 0 0 0 3.3427597389976995 -6.1359844220892228 0 -6.1359844220892228 26.323175752913812 0 0 0 0 -3.1267972321493289 2.6923154673859244 0 2.6923154673859244 48.643440557410941 0 0 0 0 3.5228241650184593 0.3523995892216476 0 0.3523995892216476 -0.37460011597658216 0 0 0 0 450.79600712447836 279.15801666573134 0 279.15801666573134 -227.63556959151538 0 0 0 0 -18.199455792404478 0.33519868859912094 0 0.33519868859912094 51.013879069425457 0 0 0 0 -5.8963570842115587 3.6832352964156598 0 3.6832352964156598 54.796360611944692 0 0 0 0 -23.481990779243461 2.0831622523510305 0 2.0831622523510305 69.724981258259504 0 0 0 0 -15.029062366847938 -30.806268123342306 0 -30.806268123342306 61.309293504375091 0 0 0 0 5.407287395040953 41.430641504232426 0 41.430641504232426 39.420651339612959 0 0 0 0 -5.1001524452430385 8.3364638494882151 0 8.3364638494882151 45.541175141685713 0 0 0 0 -8.7906412743686815 10.675695305188128 0 10.675695305188128 84.126087325807021 0 0 0 0 -4.6912871484931316 3.4603827740006921 0 3.4603827740006921 11.763083376570876 0 0 0 0 -13.858447821641221 -8.7859704147558659 0 -8.7859704147558659 26.197118659954867 0 0 0 0 1.1120922362763679 2.2139379903614866 0 2.2139379903614866 9.0049805497856426 0 0 0 0 -12.868264304513104 1.7670281191640242 0 1.7670281191640242 22.79436325228744 0 0 0 0 -9.9567994722278854 -4.9498099244847253 0 -4.9498099244847253 33.875291321142868 0 0 0 0 -1.5015965097090156 -1.5268349634856264 0 -1.5268349634856264 1.5485613245630727 0 0 0 0 121.40560208565967 -152.24640577453101 0 -152.24640577453101 -336.29482357505185 0 0 0 0 -156.86490307182521 3.8174986844023806 0 3.8174986844023806 -120.56580055465747 0 0 0 0 -4.5416991005922682 -4.1880962021714367 0 -4.1880962021714367 27.487868234604321 0 0 0 0 -4.6014567862998774 -1.9549495445971843 0 -1.9549495445971843 21.183416381805728 0 0 0 0 -16.879061982569965 -3.4685346709393343 0 -3.4685346709393343 55.773125273000915 0 0 0 0 -9.5329069320743738 -7.5242287524435909 0 -7.5242287524435909 12.999489238821706 0 0 0 0 -8.8422032562906807 -8.1685257183188043 0 -8.1685257183188043 24.420405875817906 0 0 0 0 -24.951486204239472 -39.086347401091189 0 -39.086347401091189 11.347454284921696 0 0 0 0 -4.1787206532106653 -4.6069717557062777 0 -4.6069717557062777 18.106534299728764 0 0 0 0 46.842537203016263 -74.842292809258652 0 -74.842292809258652 -176.05315511775552 0 0 0 0 -357.39324941196583 -144.86256083193075 0 -144.86256083193075 -141.90182290720986 0 0 0 0 -0.95484540677690288 -2.3455061797634542 0 -2.3455061797634542 0.53412145355156326 0 0 0 0 -64.488136852030493 -54.427418370949454 0 -54.427418370949454 103.60889297330868 0 0 0 0 -89.512455418132049 -45.988914305358776 0 -45.988914305358776 175.15277590302867 0 0 0 0 -49.734977282646014 -45.095950989118137 0 -45.095950989118137 102.44090330625386 0 0 0 0 -57.074612109490545 -74.594672331750189 0 -74.594672331750189 10.803684181068093 0 0 0 0 -103.12200116086296 -78.547603100392735 0 -78.547603100392735 129.79147967872268 0 0 0 0 -35.519264747681518 -40.414344806209556 0 -40.414344806209556 17.9798242936522 0 0 0 0 -164.64737817955984 -8.4900366930596647 0 -8.4900366930596647 -50.533381431916496 0 0 0 0 -213.27927395485585 -113.94719815216376 0 -113.94719815216376 58.070671582900104 0 0 0 0 -160.12979007977128 -43.455882187368843 0 -43.455882187368843 158.98833516586456 0 0 0 0 -107.31875274689537 -105.82586254482158 0 -105.82586254482158 58.062740701701841 0 0 0 0 -140.94058038917274 -46.692301780796697 0 -46.692301780796697 262.81526766295428 0 0 0 0 -87.944568559968047 -57.750674751434417 0 -57.750674751434417 130.84555025776262 0 0 0 0 -11.367465020686723 -168.44079653790322 0 -168.44079653790322 499.63547433648637 0 0 0 0 -103.83965843986815 20.723945433139988 0 20.723945433139988 292.27377700613579 0 0 0 0 -99.815431671721853 -73.92518928971549 0 -73.92518928971549 171.10333896432712 0 0 0 0 -123.7572000318487 -98.557249944307841 0 -98.557249944307841 77.876374417406623 0 0 0 0 -37.268089965311901 -30.71266785365151 0 -30.71266785365151 -121.69039921257354 0 0 0 0 67.353186602555752 -43.140197369222733 0 -43.140197369222733 162.35341000187327 0 0 0 0 -1.7585098625731916 -200.96917847628356 0 -200.96917847628356 140.33340398961445 0 0 0 0 -82.121214502052737 128.08452510048573 0 128.08452510048573 585.23093603757297 0 0 0 0 104.01580384651879 297.90473353963171 0 297.90473353963171 394.89848833442011 0 0 0 0 19.543516566630387 160.31852024257023 0 160.31852024257023 187.65890118345851 0 0 0 0 -97.841270558165206 37.745399891982743 0 37.745399891982743 271.11116811777174 0 0 0 0 -82.427941860094961 35.565235074122029 0 35.565235074122029 260.46765604648613 0 0 0 0 -101.68522319266827 -3.0415913264259871 0 -3.0415913264259871 210.06777368245821 0 0 0 0 -45.3752193915725 109.04717469761817 0 109.04717469761817 302.86617052411748 0 0 0 0 -65.208580417415988 64.000432096470831 0 64.000432096470831 213.15747995831771 0 0 0 0 -52.526775408417961 50.181930418548291 0 50.181930418548291 221.80620188301873 0 0 0 0 -60.969001140271985 25.398381976006931 0 25.398381976006931 176.6744955445829 0 0 0 0 -43.759502880840955 33.353207374682825 0 33.353207374682825 179.48008363453846 0 0 0 0 -47.595883244888455 15.56701885347502 0 15.56701885347502 182.40191778390727 0 0 0 0 -74.272382634020914 -9.2347091551418998 0 -9.2347091551418998 182.86295225634422 0 0 0 0 -77.965166093869357 -18.932660530212161 0 -18.932660530212161 175.15056781659951 0 0 0 0 -119.63427073970479 -27.242983754629677 0 -27.242983754629677 433.74679592813663 0 0 0 0 6.5350663098197401 -169.26167502730095 0 -169.26167502730095 338.15123195108026 0 0 0 0 -11.226692478318228 225.17007458097942 0 225.17007458097942 601.46848839364247 0 0 0 0 0.31077069244505573 1.6236604455856494 0 1.6236604455856494 3.3015319913720447 0 0 0 0 -238.8861151349497 124.68133430576563 0 124.68133430576563 356.19969655332534 0 0 0 0 -42.077407599102116 -323.03793446128111 0 -323.03793446128111 -76.757097264766344 0 0 0 0 349.99619197272386 -168.25954517781793 0 -168.25954517781793 210.63157702531316 0 0 0 0 273.14704038073069 400.51555654768163 0 400.51555654768163 529.29998475140019 0 0 0 0 31.396271822297422 167.91874959650886 0 167.91874959650886 305.55927427840652 0 0 0 0 367.79094679399032 197.89534150665531 0 197.89534150665531 33.961648074204277 0 0 0 0 -33.985547623435195 -0.66627071296898066 0 -0.66627071296898066 748.01647185968977 0 0 0 0 2.1872035212238599 2.6314792429349012 0 2.6314792429349012 2.5794807333531082 0 0 0 0 260.87647956001365 509.81116546412522 0 509.81116546412522 121.22777683479944 0 0 0 0 -19.34826561667569 -34.91055609324394 0 -34.91055609324394 224.38225907462402 0 0 0 0 -92.738957646613926 -459.81359211790186 0 -459.81359211790186 -108.56654531115237 0 0 0 0 -11.495498010526717 16.769250127617852 0 16.769250127617852 30.21249034500579 0 0 0 0 21.045470597180611 -60.821081991300161 0 -60.821081991300161 84.149010169516259 0 0 0 0 -83.602273997644716 -4.3963935064748512 0 -4.3963935064748512 126.90648508605955 0 0 0 0 -38.469261116155167 -53.337275456971838 0 -53.337275456971838 92.997709263130673 0 0 0 0 29.960773857396816 75.13810016320349 0 75.13810016320349 188.87499860790194 0 0 0 0 -22.695946069135971 -34.039728577949063 0 -34.039728577949063 122.37854164397868 0 0 0 0 -66.893246828899919 18.143453426939232 0 18.143453426939232 169.80081498700019 0 0 0 0 -5.6893016860049102 3.4934300415116013 0 3.4934300415116013 125.24018035063273 0 0 0 0 -141.38690126192387 65.267335415908747 0 65.267335415908747 276.19103816381175 0 0 0 0 21.265556121709096 -88.458662183867091 0 -88.458662183867091 175.74661774278502 0 0 0 0 -63.439581111232656 -32.364129165667691 0 -32.364129165667691 318.82261101160111 0 0 0 0 -71.231294047853225 9.6879941964143654 0 9.6879941964143654 200.69972308894648 0 0 0 0 1.7754418040788433 0.72835531753143812 0 0.72835531753143812 0.093390684913016386 0 0 0 0 -57.523630017299411 102.76256154111434 0 102.76256154111434 214.28286910839233 0 0 0 0 49.125367062937215 -9.269330149221787 0 -9.269330149221787 4.1362453826950514 0 0 0 0 7.7567959240045639 -5.0257952590181958 0 -5.0257952590181958 25.593713589507388 0 0 0 0 3.5237014154110966 -3.8857141747430433 0 -3.8857141747430433 59.396601352405469 0 0 0 0 34.391737211719558 97.822094962820302 0 97.822094962820302 2.9964158135189791 0 0 0 0 32.166941178704292 -46.650015230319696 0 -46.650015230319696 98.365210065705469 0 0 0 0 -27.544022657290157 22.824284527909185 0 22.824284527909185 118.09936328081312 0 0 0 0 3.9974463755779652 -46.125327039265358 0 -46.125327039265358 114.36459877333982 0 0 0 0 -6.2615045116200463 -24.071292283251751 0 -24.071292283251751 88.833269637281774 0 0 0 0 47.304884269371087 -54.903898542932438 0 -54.903898542932438 88.337912070186576 0 0 0 0 74.242551602819844 4.2362200694406056 0 4.2362200694406056 124.8732694261198 0 0 0 0 7.3681214034070308 -59.928487537425099 0 -59.928487537425099 107.91565151298346 0 0 0 0 -12.920208738398742 -31.255990548728732 0 -31.255990548728732 111.99787634576933 0 0 0 0 3.1191812486729305 -63.866897054438596 0 -63.866897054438596 111.62321863071702 0 0 0 0 -30.40781453419504 -36.409649923771212 0 -36.409649923771212 110.20251371152335 0 0 0 0 -30.114448832090147 -17.560800025334174 0 -17.560800025334174 67.53493519939002 0 0 0 0 16.269869130135419 -71.483438527975522 0 -71.483438527975522 120.93639195155993 0 0 0 0 16.597426322910223 -58.686094130665879 0 -58.686094130665879 118.50927431181299 0 0 0 0 30.793916935550101 -97.731907647268599 0 -97.731907647268599 219.7138318604193 0 0 0 0 -18.345179506396335 -20.92129773826673 0 -20.92129773826673 255.42179462368949 0 0 0 0 -4.690448667082137 -33.254806337354239 0 -33.254806337354239 184.48292104110442 0 0 0 0 -9.8036826442536267 -23.816422976437025 0 -23.816422976437025 175.37758487071551 0 0 0 0 -26.936885105347301 58.647900780641066 0 58.647900780641066 234.38030291483301 0 0 0 0 -76.257624957550206 72.90727033073199 0 72.90727033073199 232.13460121777462 0 0 0 0 -54.164939795640294 24.390703021592344 0 24.390703021592344 286.77594353241147 0 0 0 0 -23.771471092509728 110.80783839349897 0 110.80783839349897 255.38375579411877 0 0 0 0 -54.18547765901576 112.60959416168043 0 112.60959416168043 277.96739585339674 0 0 0 0 -55.929258409639118 131.75168797317838 0 131.75168797317838 185.41995736840181 0 0 0 0 6.0400043311992704 225.05626077601482 0 225.05626077601482 247.20034482986375 0 0 0 0 -195.02443777705594 85.993989345428417 0 85.993989345428417 295.09561216368093 0 0 0 0 -134.42872992328807 187.19104762472853 0 187.19104762472853 422.65727635612711 0 0 0 0 16.23359773389484 -57.378322992721223 0 -57.378322992721223 275.68346359081625 0 0 0 0 -1.7331718997475249 1.2692765997237387 0 1.2692765997237387 4.9972298495834906 0 0 0 0 -149.56776661622098 -65.564655224356102 0 -65.564655224356102 -17.450144181508222 0 0 0 0 -77.770656980521835 32.288391532587411 0 32.288391532587411 145.21234606912185 0 0 0 0 -86.164337254640827 68.313774949521758 0 68.313774949521758 146.71185469195188 0 0 0 0 -54.793727423859082 179.23559840755115 0 179.23559840755115 230.25231808057652 0 0 0 0 -59.367057572311523 211.37432769640873 0 211.37432769640873 11.40041482349352 0 0 0 0 -70.135895454793399 312.78015514006984 0 312.78015514006984 38.899449027550872 0 0 0 0 -24.65363238732931 134.91380712570935 0 134.91380712570935 294.75296252923727 0 0 0 0 0.83225131385138273 4.5446838824745193 0 4.5446838824745193 -1.111720617558916 0 0 0 0 29.058939280746472 140.68013503921247 0 140.68013503921247 135.15906000856194 0 0 0 0 -11.214511144112407 7.9300035437672705 0 7.9300035437672705 -45.260583789175143 0 0 0 0 -20.241921256710611 41.223541950988874 0 41.223541950988874 127.97780598956115 0 0 0 0 -10.38705103109487 37.845702286700543 0 37.845702286700543 124.59387047317432 0 0 0 0 -4.5995256386080001 -33.215339689054645 0 -33.215339689054645 82.147744354486349 0 0 0 0 -84.589357696184379 -53.614700694237399 0 -53.614700694237399 45.789607886392332 0 0 0 0 -130.8552312571419 52.613590181994368 0 52.613590181994368 58.003253864670114 0 0 0 0 -169.43614813118347 -8.3164827519940445 0 -8.3164827519940445 121.12524740028311 0 0 0 0 -0.14480718209943344 2.6554860429407228 0 2.6554860429407228 6.0784603683452474 0 0 0 0 -20.419062011924325 -35.452219481347129 0 -35.452219481347129 90.182975617866759 0 0 0 0 24.305749590482719 -45.337246639541263 0 -45.337246639541263 86.390772672290041 0 0 0 0 -33.86063627192334 -42.688477011521172 0 -42.688477011521172 131.33358560303168 0 0 0 0 -0.54100020886440525 0.94943587659041384 0 0.94943587659041384 2.9845849297661005 0 0 0 0 44.945146415285365 -167.26837895263589 0 -167.26837895263589 292.514955837054 0 0 0 0 -74.448217660689579 110.03805100801765 0 110.03805100801765 314.74463428271702 0 0 0 0 15.395844386338467 57.942605950665893 0 57.942605950665893 26.835148390964605 0 0 0 0 -0.85874537648146543 82.189106827993783 0 82.189106827993783 40.503485967128654 0 0 0 0 -22.222128605227113 75.161241474147573 0 75.161241474147573 38.276878932876571 0 0 0 0 3.8499016791522997 19.179290735672314 0 19.179290735672314 29.434656812533461 0 0 0 0 -7.6546764346057898 35.557595262864197 0 35.557595262864197 30.613563754981442 0 0 0 0 7.836354367685999 20.138089150714222 0 20.138089150714222 17.901923132509182 0 0 0 0 -11.681907215300726 52.666976084074122 0 52.666976084074122 25.939455529376573 0 0 0 0 -5.4017068740863277 20.607793600915045 0 20.607793600915045 -15.578048533059047 0 0 0 0 35.234004218845058 69.798641974211932 0 69.798641974211932 3.9554415195379988 0 0 0 0 -51.395354874163104 85.533985882266279 0 85.533985882266279 10.497825845379339 0 0 0 0 42.143855510059026 52.723963736075348 0 52.723963736075348 19.441662573466601 0 0 0 0 -35.755503943721692 32.655981615018391 0 32.655981615018391 32.516067108026618 0 0 0 0 -84.271962872308336 19.556845487550163 0 19.556845487550163 42.516222352249315 0 0 0 0 -38.960306574588799 47.350486208490111 0 47.350486208490111 30.73815378373547 0 0 0 0 -117.19970069089823 64.273689385059697 0 64.273689385059697 32.550456739358197 0 0 0 0 -0.28953690298254731 2.148234496792746 0 2.148234496792746 34.061277224509894 0 0 0 0 0.33688581005752249 0.2720388616549414 0 0.2720388616549414 16.550950631967652 0 0 0 0 -7.4343953413376482 55.688900701144121 0 55.688900701144121 30.304503606908838 0 0 0 0 -72.802585393280594 8.0307535657848348 0 8.0307535657848348 31.084425881766947 0 0 0 0 -242.48476351822546 -168.91987828849233 0 -168.91987828849233 45.500716230046237 0 0 0 0 -89.032498546773695 37.713773158820914 0 37.713773158820914 63.29997752320196 0 0 0 0 -0.95571470309097506 4.5541869196851152 0 4.5541869196851152 30.053077482757772 0 0 0 0 -85.239047874984863 30.52616364723508 0 30.52616364723508 65.530442484639934 0 0 0 0 18.745776321238054 -10.59835138384733 0 -10.59835138384733 30.418218531987804 0 0 0 0 44.887982671899749 59.398824014548154 0 59.398824014548154 48.356118200696073 0 0 0 0 214.73728589719349 -69.107807515509194 0 -69.107807515509194 117.0972354409605 0 0 0 0 -25.239928246646855 62.281890758276859 0 62.281890758276859 49.691209869342856 0 0 0 0 -9.6174069366575736 44.702473963910961 0 44.702473963910961 37.836462500185007 0 0 0 0 -4.1449914793219422 14.058019867175787 0 14.058019867175787 -16.94004578507726 0 0 0 0 -43.522839819115347 59.342992378777126 0 59.342992378777126 50.311803563687135 0 0 0 0 85.600514612250208 -4.7614418390185165 0 -4.7614418390185165 39.958570914797747 0 0 0 0 59.71555924836025 31.988664153439458 0 31.988664153439458 75.783378148280462 0 0 0 0 33.811572461516789 34.803260385344402 0 34.803260385344402 118.36152626776311 0 0 0 0 4.4792152319289471 52.845117936625684 0 52.845117936625684 133.64877995212009 0 0 0 0 -6.3577427928770476 50.207113534379459 0 50.207113534379459 173.08083984072437 0 0 0 0 12.390776679192186 101.3647400106347 0 101.3647400106347 178.38244575073986 0 0 0 0 19.931076979287582 81.903470581553847 0 81.903470581553847 148.98936797319038 0 0 0 0 40.037003773784363 79.91531665588991 0 79.91531665588991 85.201391901122406 0 0 0 0 94.958453510483196 136.5447700691002 0 136.5447700691002 134.03692972583667 0 0 0 0 18.952572417166493 119.57954400810559 0 119.57954400810559 168.81062078637478 0 0 0 0 66.247297171712034 33.354942753035175 0 33.354942753035175 34.813541863273713 0 0 0 0 147.44634063873127 86.595119460242131 0 86.595119460242131 42.608999169409799 0 0 0 0 67.700204840228935 37.836676655193514 0 37.836676655193514 43.743362456072646 0 0 0 0 80.673828271802449 83.516990079428069 0 83.516990079428069 77.697164240686106 0 0 0 0 60.821192459765371 50.160818508466036 0 50.160818508466036 26.478796873117972 0 0 0 0 39.462255342906246 15.921157642711478 0 15.921157642711478 13.045431714775987 0 0 0 0 13.034246557952883 0.65990811697429308 0 0.65990811697429308 12.782994699715346 0 0 0 0 -64.14342884512098 10.703715362369621 0 10.703715362369621 35.838631835384149 0 0 0 0 31.061887988754279 49.726056828043511 0 49.726056828043511 31.691141760948085 0 0 0 0 43.574513201223908 16.363472291639482 0 16.363472291639482 45.026259798381943 0 0 0 0 -5.4107784060970516 54.472738820144514 0 54.472738820144514 32.480772857561533 0 0 0 0 315.61260347010921 -100.78500211581377 0 -100.78500211581377 -43.729008769754728 0 0 0 0 46.074621264467169 43.872598444795585 0 43.872598444795585 37.412920538954495 0 0 0 0 -34.162495227072213 -63.008758874217165 0 -63.008758874217165 68.931172524782596 0 0 0 0 1.3607323479031517 0.64357535281414258 0 0.64357535281414258 4.6948581643304976 0 0 0 0 3.2515755390385435 4.4531896924188388 0 4.4531896924188388 9.9845141121517713 0 0 0 0 3.5993480372761333 6.297001513879664 0 6.297001513879664 19.271204330425604 0 0 0 0 -0.024435481002370807 4.1953731336676121 0 4.1953731336676121 10.494334190077808 0 0 0 0 5.0912151929971969 18.085228714004188 0 18.085228714004188 13.339704311889363 0 0 0 0 -41.997738702098559 -24.232738893591886 0 -24.232738893591886 92.370340086774377 0 0 0 0 12.517494226266535 6.7224658772029215 0 6.7224658772029215 15.06608801481525 0 0 0 0 47.424774229410559 34.607270159536711 0 34.607270159536711 17.726624695067585 0 0 0 0 8.6780912016592993 25.817353529280808 0 25.817353529280808 42.107997699833504 0 0 0 0 -1.154215863776106 2.1182076561203047 0 2.1182076561203047 7.9203841050918129 0 0 0 0 -191.69692157186705 34.153031069067765 0 34.153031069067765 41.240809832161176 0 0 0 0 -33.246322682799928 136.5379683306619 0 136.5379683306619 -69.949369847774506 0 0 0 0 2.8342684384206223 45.725512989449271 0 45.725512989449271 1.2635401507577626 0 0 0 0 -29.21664222667323 -6.6941889721492771 0 -6.6941889721492771 -13.088488701578171 0 0 0 0 101.75152441199361 19.623144277218671 0 19.623144277218671 -9.4237137923228147 0 0 0 0 101.15734873115616 -1.3069524673337582 0 -1.3069524673337582 11.525219218343409 0 0 0 0 54.55561195336486 71.690929351962041 0 71.690929351962041 -32.369619927034364 0 0 0 0 69.648502914113124 -0.33212838631516206 0 -0.33212838631516206 -10.461666074650566 0 0 0 0 116.76342249877871 41.138858972888556 0 41.138858972888556 8.3231985251841252 0 0 0 0 126.41379619945792 4.8716356265158538 0 4.8716356265158538 -7.465801753802225 0 0 0 0 197.71198800149898 -56.317911932987045 0 -56.317911932987045 21.248553729594278 0 0 0 0 208.8588452902593 -88.331603048220131 0 -88.331603048220131 55.668432192796899 0 0 0 0 225.40942779050101 -37.315082898541732 0 -37.315082898541732 33.512551069801702 0 0 0 0 135.76397625352274 -92.578272140970512 0 -92.578272140970512 46.186484205321904 0 0 0 0 165.03621734698402 -32.050424180521077 0 -32.050424180521077 8.6476875798907713 0 0 0 0 96.264130490456097 -2.8525283855633461 0 -2.8525283855633461 23.010535366352997 0 0 0 0 76.436972484205285 -36.229190814512549 0 -36.229190814512549 87.691147336256108 0 0 0 0 -46.702972084571115 89.972953399279504 0 89.972953399279504 1078.3887666201445 0 0 0 0 250.44056848730543 -235.77323724816688 0 -235.77323724816688 747.1549652361573 0 0 0 0 172.24317259660756 -79.179102281199448 0 -79.179102281199448 214.29512340916699 0 0 0 0 125.80475556932981 30.771535685369599 0 30.771535685369599 579.39401143727628 0 0 0 0 254.72899981984483 -146.93476727407324 0 -146.93476727407324 244.03752237091976 0 0 0 0 141.38671380794949 -103.78780134717817 0 -103.78780134717817 565.8917771522465 0 0 0 0 267.27680902816206 -23.253107172722139 0 -23.253107172722139 258.38135853040149 0 0 0 0 180.57938565695622 -91.575582944933558 0 -91.575582944933558 228.41865057291579 0 0 0 0 55.24674044218591 -59.146223820043815 0 -59.146223820043815 245.86619865235843 0 0 0 0 224.02589037177404 -68.81595968050533 0 -68.81595968050533 0.90655281655426734 0 0 0 0 213.71384536897449 -39.860302874209083 0 -39.860302874209083 243.59037477138918 0 0 0 0 204.16070415836748 -73.058686630705779 0 -73.058686630705779 537.37904002270079 0 0 0 0 101.54986056610596 -124.06275063962312 0 -124.06275063962312 1035.9517184633078 0 0 0 0 277.13150868137529 16.355870238150374 0 16.355870238150374 560.18967216422607 0 0 0 0 276.03240694864508 -65.616001410558965 0 -65.616001410558965 1021.0035922146362 0 0 0 0 114.77567762053968 -53.848980198537902 0 -53.848980198537902 1176.8393337635498 0 0 0 0 167.14199479107265 -194.23615124523712 0 -194.23615124523712 672.25918413864565 0 0 0 0 57.679768544085164 -244.43045236484613 0 -244.43045236484613 1054.1070381555546 0 0 0 0 40.597861934678804 -209.7381151222944 0 -209.7381151222944 1144.0277103441604 0 0 0 0 128.41000692270245 -258.60187336180388 0 -258.60187336180388 1155.4646590676966 0 0 0 0 -249.71918759905748 373.77106872898003 0 373.77106872898003 426.7893249527333 0 0 0 0 -467.58412476552076 -469.25937257156329 0 -469.25937257156329 1316.2612853545434 0 0 0 0 -116.12455141986902 67.36705671458185 0 67.36705671458185 577.76889127249888 0 0 0 0 137.24672076914612 98.470812882122118 0 98.470812882122118 502.22388521568064 0 0 0 0 64.91315310477512 5.9437886309533496 0 5.9437886309533496 832.67978169361595 0 0 0 0 -244.61531353547821 -131.25810144788466 0 -131.25810144788466 381.40433324621699 0 0 0 0 206.27670640039423 173.94333961994562 0 173.94333961994562 43.783396181359421 0 0 0 0 -35.405234427435062 -158.077648333252 0 -158.077648333252 508.63583862493761 0 0 0 0 -0.65987090017226535 1.698307254696072 0 1.698307254696072 3.605533683329611 0 0 0 0 45.976061024372939 -132.37381473876303 0 -132.37381473876303 -127.51870708169099 0 0 0 0 56.723657378031476 -15.775022322264704 0 -15.775022322264704 33.732146442540397 0 0 0 0 -3.7320849819159552 2.2137589111023317 0 2.2137589111023317 -1.5966220110286855 0 0 0 0 145.88899240734622 29.72989555156073 0 29.72989555156073 -5.9576078671088908 0 0 0 0 -97.730525452915344 91.709749142078181 0 91.709749142078181 504.65943643043283 0 0 0 0 66.632373394994829 -211.36189929547254 0 -211.36189929547254 359.45073152247642 0 0 0 0 -253.1274626911752 264.76912262542373 0 264.76912262542373 722.1257222948916 0 0 0 0 18.786650727746746 -254.17005689315556 0 -254.17005689315556 1039.6578361923603 0 0 0 0 -57.79600795602164 18.256816858047387 0 18.256816858047387 1364.1831747759425 0 0 0 0 162.33133917242822 -190.83546470784313 0 -190.83546470784313 672.0145033997178 0 0 0 0 -77.554501201301719 -126.14759209463591 0 -126.14759209463591 1481.8713079780136 0 0 0 0 36.472031932176833 6.9306636932960828 0 6.9306636932960828 1541.3673047120064 0 0 0 0 -52.891329445461452 -213.67442765109081 0 -213.67442765109081 1918.8340102369402 0 0 0 0 -147.10144022045915 -95.268060387821606 0 -95.268060387821606 1971.2114052752004 0 0 0 0 25.496489196631956 -237.98957923778653 0 -237.98957923778653 1643.4560604445578 0 0 0 0 271.13068392387504 -173.68635801469281 0 -173.68635801469281 1984.8680663025298 0 0 0 0 -48.236539785194509 125.30325845324114 0 125.30325845324114 2352.3837424321573 0 0 0 0 -233.65321700598179 -168.77872564398058 0 -168.77872564398058 2726.9925063416995 0 0 0 0 -35.605990412770616 -173.94820350126793 0 -173.94820350126793 3499.4029677223298 0 0 0 0 -14.417283734153262 0.81423861913008011 0 0.81423861913008011 6.3551608795784702 0 0 0 0 -14.362447986791516 1.501049543071197 0 1.501049543071197 6.0381207526954999 0 0 0 0 -161.30263016199251 -264.17343031479686 0 -264.17343031479686 2619.9723500397704 0 0 0 0 -83.629550985124595 -56.443943683249017 0 -56.443943683249017 3216.5932470374355 0 0 0 0 17.144607479169281 73.23050839662028 0 73.23050839662028 2226.2328609480428 0 0 0 0 69.236224270027378 -49.646817053930135 0 -49.646817053930135 1647.8663208637445 0 0 0 0 -187.83119720606373 -167.57564734781772 0 -167.57564734781772 1618.5587525942246 0 0 0 0 34.885695247485728 -314.77093373051503 0 -314.77093373051503 1778.8373614395387 0 0 0 0 -28.954396950602131 -97.999970523786033 0 -97.999970523786033 1680.3006055614023 0 0 0 0 54.100689891093225 -134.38893979991008 0 -134.38893979991008 1745.8436130285772 0 0 0 0 82.888974584443531 72.873714187728183 0 72.873714187728183 1845.7764055946827 0 0 0 0 211.70191345687169 -322.39243967049242 0 -322.39243967049242 1993.3262967226474 0 0 0 0 317.1291555307098 -44.348755651375541 0 -44.348755651375541 1710.7304976291816 0 0 0 0 -225.45338357294276 94.93831841778956 0 94.93831841778956 3501.2291258707228 0 0 0 0 -6.1419675414343331 0.37906913983770352 0 0.37906913983770352 3.6278801012859692 0 0 0 0 -399.08337013049754 813.06098672343342 0 813.06098672343342 1552.7021723897778 0 0 0 0 -745.05383149087663 1761.251815532567 0 1761.251815532567 3491.0136817530429 0 0 0 0 110.35753589549546 640.15782813517467 0 640.15782813517467 1843.0061023591479 0 0 0 0 -243.26870985196319 28.738010493219917 0 28.738010493219917 2962.0136353387425 0 0 0 0 228.88220647136313 -190.09005976219851 0 -190.09005976219851 1284.9016787288092 0 0 0 0 311.28007383663635 277.1420807065806 0 277.1420807065806 659.50519670081121 0 0 0 0 -264.21257439652106 380.65042352201635 0 380.65042352201635 -246.89049674085391 0 0 0 0 152.41496626203855 -145.77318656323769 0 -145.77318656323769 -320.15825641293213 0 0 0 0 -393.46295111845671 193.70852943496357 0 193.70852943496357 691.2456138964335 0 0 0 0 -284.00786982927593 231.94204846626599 0 231.94204846626599 -140.0257966500094 0 0 0 0 -1.5380995976641927 -7.0198946793895907 0 -7.0198946793895907 -1.606791876327236 0 0 0 0 -1328.975810520599 32.272609461575485 0 32.272609461575485 372.16912038371083 0 0 0 0 -583.42194689034613 -177.84044148070825 0 -177.84044148070825 121.59970487006649 0 0 0 0 -2.998849254949056 -4.5170012005979636 0 -4.5170012005979636 55.471425092825882 0 0 0 0 -4.1442141659713423 7.8836364830153585 0 7.8836364830153585 4.8757644270818332 0 0 0 0 -43.863531294347013 135.09057186739301 0 135.09057186739301 -160.48577800633848 0 0 0 0 -363.50130693530303 -7.2859578193310881 0 -7.2859578193310881 48.079306789892144 0 0 0 0 -34.078980344389279 220.44517341764049 0 220.44517341764049 -88.452222695050295 0 0 0 0 -2.5822651329679749 4.756543216807124 0 4.756543216807124 1.671340725495071 0 0 0 0 46.638925491684859 -305.07198353196145 0 -305.07198353196145 82.496336727945163 0 0 0 0 -459.67533959037974 -97.358837315106939 0 -97.358837315106939 64.143841525845346 0 0 0 0 -109.89546628447056 -18.754065966815688 0 -18.754065966815688 14.842536697018659 0 0 0 0 -152.39096534492222 -11.459463522420265 0 -11.459463522420265 20.049476610711281 0 0 0 0 -222.82387447580879 53.49269109582383 0 53.49269109582383 38.008036328312301 0 0 0 0 95.555348562173208 80.829632021195721 0 80.829632021195721 -76.118768125168572 0 0 0 0 -87.307379642463005 167.27272760366577 0 167.27272760366577 -70.790927365174866 0 0 0 0 53.261145151621591 55.216991495530237 0 55.216991495530237 -13.689694172317104 0 0 0 0 1.2846161033755261 12.30039423368747 0 12.30039423368747 15.110327551979481 0 0 0 0 76.670002710674083 68.213383150870868 0 68.213383150870868 -40.505651089828461 0 0 0 0 96.941644845264278 18.597239387527225 0 18.597239387527225 6.0669588223792061 0 0 0 0 70.719170567511611 21.23818416782342 0 21.23818416782342 35.035859762072505 0 0 0 0 -12.753874165791103 181.71613205720132 0 181.71613205720132 78.328211981737695 0 0 0 0 112.47404362588213 -34.775036288712727 0 -34.775036288712727 -114.72668175900981 0 0 0 0 -8.4036548637671444 13.030044948187069 0 13.030044948187069 1.0814484845610508 0 0 0 0 175.15210729683713 -71.54601751123846 0 -71.54601751123846 149.2646205159308 0 0 0 0 45.607220758984795 -478.89292133582421 0 -478.89292133582421 1133.2116358162239 0 0 0 0 69.177001657866185 -265.62164784160632 0 -265.62164784160632 1400.8558729259385 0 0 0 0 -85.272345855963266 -265.85039038788454 0 -265.85039038788454 1704.1148579209475 0 0 0 0 460.42637131866388 -75.866509787945688 0 -75.866509787945688 -19.469222779673146 0 0 0 0 1.0106239222285509 1.9232019303429979 0 1.9232019303429979 8.9110765280749149 0 0 0 0 -68.788972545598881 -41.70092130255216 0 -41.70092130255216 2224.0009157327295 0 0 0 0 450.16175204134015 -472.88881596840656 0 -472.88881596840656 2109.1547194864424 0 0 0 0 71.124325907183447 -88.40457965868336 0 -88.40457965868336 1720.4183041414362 0 0 0 0 29.143857472285163 -286.25742354323302 0 -286.25742354323302 1412.9649136478074 0 0 0 0 -37.315842048019476 43.452849246459664 0 43.452849246459664 1706.8845808598708 0 0 0 0 115.39868549358016 -192.06372560128148 0 -192.06372560128148 1867.5161696421419 0 0 0 0 292.70334142331376 23.858905665852944 0 23.858905665852944 2025.1083241587003 0 0 0 0 -69.993438149839506 -11.338680311853523 0 -11.338680311853523 1959.2255207340349 0 0 0 0 89.544676857389277 -380.84295646979808 0 -380.84295646979808 2259.0750985307459 0 0 0 0 -128.75771780071898 -281.08601737900244 0 -281.08601737900244 3407.712598767539 0 0 0 0 -144.97924603453703 -270.8554454044197 0 -270.8554454044197 3500.0839910358663 0 0 0 0 80.03269443631234 151.11080724633212 0 151.11080724633212 2303.6419867293716 0 0 0 0 -599.71762812416182 -1096.9543711045117 0 -1096.9543711045117 2840.9576728067477 0 0 0 0 -6.326853286558328 0.84353009447971772 0 0.84353009447971772 4.5385052148281773 0 0 0 0 -273.01479666150323 -178.63569814562652 0 -178.63569814562652 2712.3528996811074 0 0 0 0 -656.9933591937554 -702.77958809921984 0 -702.77958809921984 2132.5642961790072 0 0 0 0 -212.15753078604862 -1729.0001365039898 0 -1729.0001365039898 3494.7787498100988 0 0 0 0 -679.83272971770793 -755.63933490871568 0 -755.63933490871568 2216.1345482706238 0 0 0 0 332.57470020760923 -1683.7969637216775 0 -1683.7969637216775 2098.9636138887145 0 0 0 0 315.35624406306789 -1554.1897272811548 0 -1554.1897272811548 1607.0195059740072 0 0 0 0 -218.31489775321927 -1587.0885158458768 0 -1587.0885158458768 2208.9037930931559 0 0 0 0 7.3017490430441967 -1091.715884422214 0 -1091.715884422214 1690.856980405486 0 0 0 0 62.079143735333076 -1103.7671292434461 0 -1103.7671292434461 1665.9354620677132 0 0 0 0 484.17808732431513 -838.94343314780781 0 -838.94343314780781 513.69107315673318 0 0 0 0 6.3278210456779789 -44.120892353979798 0 -44.120892353979798 437.0153070629749 0 0 0 0 -156.66781445788033 -181.49064160941634 0 -181.49064160941634 1831.0931936233028 0 0 0 0 -812.13230413914289 294.01209915903019 0 294.01209915903019 501.88323542416765 0 0 0 0 -438.63911304856799 -398.66716214443295 0 -398.66716214443295 -14.1980413395504 0 0 0 0 -2.5636486281600286 1.0215203488114633 0 1.0215203488114633 53.813442903059581 0 0 0 0 -106.68088989993771 -320.87005039410724 0 -320.87005039410724 1025.5220119269507 0 0 0 0 100.38692258762092 453.80748962357302 0 453.80748962357302 -187.52493684392539 0 0 0 0 1102.0246626618632 -382.17168430949823 0 -382.17168430949823 -475.9096547440422 0 0 0 0 1434.3418245488861 -1036.4891928902434 0 -1036.4891928902434 112.82940535827947 0 0 0 0 488.18519007434998 -949.97383729686408 0 -949.97383729686408 813.81666743804817 0 0 0 0 -660.50908805576319 -257.12952492140903 0 -257.12952492140903 -86.195668202417437 0 0 0 0 1963.8371040816276 -1820.6561594349805 0 -1820.6561594349805 1175.6510876970715 0 0 0 0 2.5570607621254124 -2.1270977754001317 0 -2.1270977754001317 22.403592192313766 0 0 0 0 1020.075722922013 1221.0063569343602 0 1221.0063569343602 849.71957447878958 0 0 0 0 1246.8316153727731 -1754.3448818159886 0 -1754.3448818159886 997.94484701674628 0 0 0 0 1167.6727093380096 -2339.9145372306302 0 -2339.9145372306302 2274.10412388236 0 0 0 0 -638.91264482352744 1233.9801559967709 0 1233.9801559967709 3494.802183991178 0 0 0 0 157.33159703062796 1776.8075911425767 0 1776.8075911425767 2451.7132692848827 0 0 0 0 -482.79078347044248 608.3077289788805 0 608.3077289788805 2587.9474114315963 0 0 0 0 -480.53027426439257 622.58029625518247 0 622.58029625518247 2393.4848907682535 0 0 0 0 -34.479725177899098 363.15434660353412 0 363.15434660353412 1531.2376458369254 0 0 0 0 -134.77476455369015 991.95121331931296 0 991.95121331931296 2125.4139008725069 0 0 0 0 -59.012706405943803 227.12363437744807 0 227.12363437744807 1097.1008624695387 0 0 0 0 90.541805904331696 -229.25795026543165 0 -229.25795026543165 1437.7003434945509 0 0 0 0 -165.06587138141765 582.76653117724345 0 582.76653117724345 1010.1198661543021 0 0 0 0 165.6569207088026 211.66001448958559 0 211.66001448958559 -545.09134725002514 0 0 0 0 -68.20527409930537 692.05989142346516 0 692.05989142346516 880.74518891268235 0 0 0 0 -47.378503097144971 310.81856696087198 0 310.81856696087198 1019.405897060642 0 0 0 0 -63.084187018543844 -21.127296397738974 0 -21.127296397738974 126.97385180493438 0 0 0 0 -745.1006000717598 -509.07750993370428 0 -509.07750993370428 178.3534673473041 0 0 0 0 -358.121316697547 114.97463564692225 0 114.97463564692225 220.25410276462208 0 0 0 0 -423.93015472086716 -240.76694186746681 0 -240.76694186746681 291.38442173936346 0 0 0 0 -641.93191008270765 117.76780288328882 0 117.76780288328882 -71.035637106688228 0 0 0 0 -349.75451092755384 -193.86915774022782 0 -193.86915774022782 -108.48300805400777 0 0 0 0 -353.97054741412444 -209.17573744237598 0 -209.17573744237598 131.32733614212339 0 0 0 0 -47.77800169022214 -185.42661264765047 0 -185.42661264765047 15.981961035562563 0 0 0 0 -60.02381672379056 -190.10211009179966 0 -190.10211009179966 409.59345816621499 0 0 0 0 135.65237023241974 -32.091365586762549 0 -32.091365586762549 375.77620896227745 0 0 0 0 326.85608798690623 -76.9873833945976 0 -76.9873833945976 96.295120033319108 0 0 0 0 266.91589664285118 -296.78433691811369 0 -296.78433691811369 92.241599275956105 0 0 0 0 -48.408834878974176 -189.12576037514373 0 -189.12576037514373 59.124986357659509 0 0 0 0 179.35090272367859 -73.834336334995896 0 -73.834336334995896 -90.012958931220055 0 0 0 0 107.56710774247063 -252.70359211913456 0 -252.70359211913456 -15.974346388604317 0 0 0 0 -43.487951283015633 -149.84292006445867 0 -149.84292006445867 -36.766337542183464 0 0 0 0 -110.2114851195106 -230.16935049369931 0 -230.16935049369931 19.196584633697057 0 0 0 0 -266.41722894854593 -119.82540189672727 0 -119.82540189672727 50.740233909204107 0 0 0 0 -286.33369244076721 -166.36821255763789 0 -166.36821255763789 23.56233775606961 0 0 0 0 -507.13334773468353 -245.21533952674508 0 -245.21533952674508 56.19325227176887 0 0 0 0 -286.98942996431447 -205.88924063626473 0 -205.88924063626473 32.181852697758586 0 0 0 0 -288.35537996585828 -210.49535824028044 0 -210.49535824028044 57.326900733532966 0 0 0 0 -46.002301207103756 -257.90107738943334 0 -257.90107738943334 29.035411475932051 0 0 0 0 -13.766576734184127 -33.984349597274559 0 -33.984349597274559 -67.809614972763029 0 0 0 0 3.5597086296956766 -4.1325764442430355 0 -4.1325764442430355 3.7308621258168841 0 0 0 0 3.3955243622110629 -37.321911581599124 0 -37.321911581599124 -46.302133283490548 0 0 0 0 29.048002253726736 39.962911430258828 0 39.962911430258828 -34.169045871567505 0 0 0 0 370.76347380125731 -173.18090118803229 0 -173.18090118803229 -38.978576617417275 0 0 0 0 273.3405594987571 120.14204675373185 0 120.14204675373185 -37.46798214429873 0 0 0 0 108.48406529845597 -266.02842161842131 0 -266.02842161842131 1096.429442586712 0 0 0 0 510.78611544344949 -430.17181141396577 0 -430.17181141396577 564.53819117113017 0 0 0 0 568.73602407155818 -113.7029067066178 0 -113.7029067066178 83.674255403908319 0 0 0 0 2.3714547478780026 -2.127080551695002 0 -2.127080551695002 1.7058680001224502 0 0 0 0 119.64128328558081 199.7084568657192 0 199.7084568657192 -18.591084880579729 0 0 0 0 47.04927135225148 131.38937874832482 0 131.38937874832482 -56.126197768913698 0 0 0 0 16.896233791211444 -930.55691765631855 0 -930.55691765631855 3054.4257892809546 0 0 0 0 -265.01035344915965 61.705430234080268 0 61.705430234080268 917.66091250343015 0 0 0 0 581.75851537732456 -883.7622677674226 0 -883.7622677674226 789.08924606002711 0 0 0 0 151.40506377851034 -271.09354325168533 0 -271.09354325168533 2431.0681307032792 0 0 0 0 248.34504447326435 -357.26642346656445 0 -357.26642346656445 1108.694579490154 0 0 0 0 -378.14336251242759 -12.970666962686664 0 -12.970666962686664 3500.1557997112868 0 0 0 0 569.476977402177 -470.76985698306908 0 -470.76985698306908 3566.2196797240758 0 0 0 0 336.17154756155128 104.15010907027681 0 104.15010907027681 3008.1315592256942 0 0 0 0 109.73141313673601 -270.57380748689684 0 -270.57380748689684 3499.492266221816 0 0 0 0 -63.612660272282952 -632.13857489694419 0 -632.13857489694419 2882.1614091339288 0 0 0 0 10.557908755519975 -14.007145022282202 0 -14.007145022282202 35.779674069617613 0 0 0 0 82.052249941616537 478.95395737125364 0 478.95395737125364 2171.3206711057646 0 0 0 0 5.1237816479460649 -2.1942428606619728 0 -2.1942428606619728 9.4676407016172845 0 0 0 0 -3.1117779311136688 -2.028431154042579 0 -2.028431154042579 7.5147941280616379 0 0 0 0 7.3347847964912045 -6.9008776955621016 0 -6.9008776955621016 7.7812117389407831 0 0 0 0 31.909545369668876 366.7066001241401 0 366.7066001241401 -124.12971622137411 0 0 0 0 121.77055791260645 40.652823634336528 0 40.652823634336528 3632.419167215482 0 0 0 0 232.4796939166522 -278.87273609533077 0 -278.87273609533077 -53.660892971332942 0 0 0 0 -1.7185208641574312 0.83497467486182586 0 0.83497467486182586 9.7123767818495992 0 0 0 0 167.00089876176639 -784.18189034839043 0 -784.18189034839043 3719.8056664671312 0 0 0 0 111.768863753384 -1001.4463571948106 0 -1001.4463571948106 3630.6215180716317 0 0 0 0 0.78707804998993558 -0.1764133772580827 0 -0.1764133772580827 0.84758159913513964 0 0 0 0 113.88481286897901 -975.66060835307871 0 -975.66060835307871 3499.9595156199284 0 0 0 0 -293.0249870411651 -608.6021121020749 0 -608.6021121020749 3309.169518133247 0 0 0 0 869.47629606706118 -1269.249187605436 0 -1269.249187605436 1867.3466970631416 0 0 0 0 6.023266077707377 -3.2330052222574182 0 -3.2330052222574182 4.5748148015397021 0 0 0 0 9.3954664649834285 -7.7327224755426869 0 -7.7327224755426869 25.499192871662672 0 0 0 0 3.6294555344884429 -15.311742577738187 0 -15.311742577738187 35.565125505287142 0 0 0 0 0.79981224452704858 -8.0135275564751076 0 -8.0135275564751076 28.390067417902117 0 0 0 0 -66.928997428462225 -39.486469215020406 0 -39.486469215020406 96.334369695468922 0 0 0 0 62.310327058963367 -52.549796511229943 0 -52.549796511229943 12.808583096804796 0 0 0 0 1.0974157609580573 -12.179114502375342 0 -12.179114502375342 23.23854136117734 0 0 0 0 -2.1713367753863224 -47.377596401781375 0 -47.377596401781375 15.823312895910931 0 0 0 0 5.3465201423467894 -13.521295572730379 0 -13.521295572730379 25.551321530156969 0 0 0 0 50.633672229708282 -33.968377007680829 0 -33.968377007680829 45.760738214834419 0 0 0 0 6.8112603305308124 -14.502801274987334 0 -14.502801274987334 21.245285435117367 0 0 0 0 7.9824561814452863 -26.462065324201831 0 -26.462065324201831 93.315442361556052 0 0 0 0 1.0790401123213353 -0.069154883601669326 0 -0.069154883601669326 9.6908680804222875 0 0 0 0 4.6054650366742464 -6.3087200188488168 0 -6.3087200188488168 31.986522724146198 0 0 0 0 -2.7289798734946089 -3.6830917781480821 0 -3.6830917781480821 70.544026929514075 0 0 0 0 5.5846604893896696 -9.7208670167031066 0 -9.7208670167031066 33.57125434085944 0 0 0 0 14.496049724179102 148.63039677836059 0 148.63039677836059 54.08651035380899 0 0 0 0 13.321092380362415 42.098584387007577 0 42.098584387007577 191.80634970010215 0 0 0 0 10.32926817644443 21.040378293393587 0 21.040378293393587 47.207931418502994 0 0 0 0 20.885098715598019 22.600945341857368 0 22.600945341857368 45.788386793043173 0 0 0 0 7.284977444366648 -13.894245108681901 0 -13.894245108681901 13.295649700833437 0 0 0 0 135.06502989341516 11.971132093265624 0 11.971132093265624 46.762353155230812 0 0 0 0 25.987863163477414 7.0974511925305706 0 7.0974511925305706 141.08195417585375 0 0 0 0 -17.042219111778309 4.5801203758455813 0 4.5801203758455813 57.783399565694367 0 0 0 0 25.444401580442445 22.14398845624055 0 22.14398845624055 -15.868711244977021 0 0 0 0 104.64411777777241 21.271438325669806 0 21.271438325669806 -13.188665333946119 0 0 0 0 30.198816207985374 17.624194352309132 0 17.624194352309132 -27.828846347132639 0 0 0 0 72.111329112007752 -23.922192429843562 0 -23.922192429843562 0.83027249236238276 0 0 0 0 3.0838642964224929 -3.6151645510543133 0 -3.6151645510543133 2.855512202246814 0 0 0 0 -58.196571324733668 -102.38022262326922 0 -102.38022262326922 -20.574928688190994 0 0 0 0 -10.798356413964029 -65.371438794369169 0 -65.371438794369169 37.717554558385018 0 0 0 0 -48.309297548707491 -2.3959565995128287 0 -2.3959565995128287 81.4157202574861 0 0 0 0 24.80255314693386 -0.65356621215323685 0 -0.65356621215323685 43.449362387531437 0 0 0 0 1.2063674113344542 -9.3241101870999046 0 -9.3241101870999046 49.444593341382358 0 0 0 0 67.130626183666209 40.097364357076003 0 40.097364357076003 81.711493353872811 0 0 0 0 76.18295696588757 -8.7325235361568048 0 -8.7325235361568048 44.698317990597388 0 0 0 0 0.32234102492860606 -9.551309438207209 0 -9.551309438207209 53.903160766577258 0 0 0 0 34.52976177002364 -13.456069692467736 0 -13.456069692467736 59.76019836627529 0 0 0 0 1.6934171973452976 -43.248504914834484 0 -43.248504914834484 73.524282392911118 0 0 0 0 73.293408370964016 -242.78013890331204 0 -242.78013890331204 110.61494581168517 0 0 0 0 0.66858180928033228 -4.1390632448582361 0 -4.1390632448582361 29.13727348086141 0 0 0 0 0.44183550403229255 7.8735695622444979 0 7.8735695622444979 22.464894552689458 0 0 0 0 6.7964484159128915 -3.6455544557429675 0 -3.6455544557429675 34.411484095435299 0 0 0 0 -78.359416047967443 18.653416601056961 0 18.653416601056961 66.12207940324879 0 0 0 0 -31.380844795173743 -32.847042616787803 0 -32.847042616787803 -43.921191809437005 0 0 0 0 -87.898296516294522 -23.461691200594942 0 -23.461691200594942 147.31137439840677 0 0 0 0 181.47351884718501 -47.114277454133116 0 -47.114277454133116 -5.3478345764888218 0 0 0 0 1.8726970196629065 -1.7504780246182889 0 -1.7504780246182889 0.66963006117018153 0 0 0 0 271.49792808784787 37.858492557592399 0 37.858492557592399 90.454307614372283 0 0 0 0 6.6865931400867904 16.583881004331985 0 16.583881004331985 16.284100432214217 0 0 0 0 -41.209323605570717 -76.741051449895167 0 -76.741051449895167 167.07330824401288 0 0 0 0 -51.113053017846596 -29.143602646636282 0 -29.143602646636282 135.63872371725301 0 0 0 0 -63.106894107359039 -27.169577516986465 0 -27.169577516986465 138.1837931178743 0 0 0 0 -34.064201478163341 55.626970040539163 0 55.626970040539163 165.19573366936129 0 0 0 0 -48.771562134373767 -41.436070044386724 0 -41.436070044386724 192.37775924320158 0 0 0 0 -49.571083261852039 -0.09035436061094515 0 -0.09035436061094515 93.724017212196486 0 0 0 0 -34.907875378145945 -50.768439993356878 0 -50.768439993356878 103.36009489947992 0 0 0 0 37.284154360857656 -79.573005526530324 0 -79.573005526530324 11.116461247725965 0 0 0 0 58.149158320946071 -185.57981884783658 0 -185.57981884783658 92.839141908581951 0 0 0 0 -33.809970831090141 -27.029098859216901 0 -27.029098859216901 201.52155634603332 0 0 0 0 -32.3957332212062 -99.714486687335011 0 -99.714486687335011 445.61091960206249 0 0 0 0 23.174574026927701 135.15784345179418 0 135.15784345179418 382.23884147572971 0 0 0 0 -27.179805821091577 28.136345673035976 0 28.136345673035976 262.62085085255239 0 0 0 0 66.799901905056913 75.530863780873915 0 75.530863780873915 348.89642016879588 0 0 0 0 185.27223552845186 -16.091811241261894 0 -16.091811241261894 563.17844203518325 0 0 0 0 389.28421641009868 -144.33494565398723 0 -144.33494565398723 474.28633477894618 0 0 0 0 152.77918533951382 -220.6442339985224 0 -220.6442339985224 305.26898194983369 0 0 0 0 -12.029659622573945 -44.697835643804865 0 -44.697835643804865 533.12191440990136 0 0 0 0 69.573220196470857 114.90741030657955 0 114.90741030657955 449.50971042816673 0 0 0 0 -24.919350453981451 64.595981045044027 0 64.595981045044027 340.57378397091816 0 0 0 0 -11.23446982368398 -57.273877976607764 0 -57.273877976607764 307.66973021737067 0 0 0 0 -12.690620010024759 81.784124950565456 0 81.784124950565456 316.16970694489964 0 0 0 0 25.245688076928388 33.067272565935127 0 33.067272565935127 313.55198871012544 0 0 0 0 160.61705716543611 145.25470740849869 0 145.25470740849869 104.1252952440409 0 0 0 0 49.893929650744099 45.318150132006849 0 45.318150132006849 53.83564304580068 0 0 0 0 162.98741129590053 184.01040299294618 0 184.01040299294618 399.30233129935004 0 0 0 0 53.196240588581645 -207.29122810740409 0 -207.29122810740409 297.56139936570253 0 0 0 0 157.35267727971276 -174.79950917831957 0 -174.79950917831957 -30.056173814220529 0 0 0 0 1.0442329315309062 -1.3576020172067942 0 -1.3576020172067942 2.4082483580039877 0 0 0 0 -27.799445677584686 -30.984592139386223 0 -30.984592139386223 -43.130739739952787 0 0 0 0 103.57406880195276 -91.172523358120088 0 -91.172523358120088 -112.17776822824089 0 0 0 0 -122.31580039966099 -153.82116331136422 0 -153.82116331136422 -78.52319615923625 0 0 0 0 2.5188249631600206 -4.210992096430239 0 -4.210992096430239 5.5531342754765092 0 0 0 0 82.728957969284124 66.542142182348471 0 66.542142182348471 26.557687804197485 0 0 0 0 -89.91520498210798 -84.516772749731899 0 -84.516772749731899 -98.463561547967402 0 0 0 0 -251.11343997878703 -89.361597186354629 0 -89.361597186354629 -6.6695434600696899 0 0 0 0 -122.65128551641938 -148.66973692663089 0 -148.66973692663089 -36.059992848546244 0 0 0 0 -122.92029562926723 -140.34940479909244 0 -140.34940479909244 13.595272604230558 0 0 0 0 42.200872201887918 -71.816169996812732 0 -71.816169996812732 -90.36663182227494 0 0 0 0 23.4820412595991 -147.64811473140799 0 -147.64811473140799 -84.042369021321065 0 0 0 0 158.52828295380618 -95.861608858449472 0 -95.861608858449472 -105.25526006615473 0 0 0 0 165.4727249824536 -2.3100585341303486 0 -2.3100585341303486 -84.118474228162086 0 0 0 0 57.573984899938068 -45.983535419538384 0 -45.983535419538384 -97.945581387299171 0 0 0 0 56.917608743754727 -30.010529557541304 0 -30.010529557541304 -53.559662768284397 0 0 0 0 -42.680396328133696 -46.301054865767583 0 -46.301054865767583 -13.785533144029614 0 0 0 0 36.820635949298776 -76.391041194769059 0 -76.391041194769059 -3.3842435740152723 0 0 0 0 100.35296826085676 -93.829761993330067 0 -93.829761993330067 -44.532643006416038 0 0 0 0 2.329199341782612 21.827755771228112 0 21.827755771228112 25.170357780196355 0 0 0 0 -22.839622834936804 -0.17981926964421291 0 -0.17981926964421291 30.018433336459566 0 0 0 0 0.34652192006033011 2.5460199712870617 0 2.5460199712870617 2.2041178571283808 0 0 0 0 -17.393217652593677 30.402887565403944 0 30.402887565403944 -13.087106730978121 0 0 0 0 -0.081255654991990639 0.56867591868686418 0 0.56867591868686418 2.3830735572861172 0 0 0 0 -0.16557322873263142 9.3029138669081988 0 9.3029138669081988 3.8091522065213823 0 0 0 0 151.59950079072135 85.416186821243173 0 85.416186821243173 -160.95018521943712 0 0 0 0 19.035938648881512 21.003040574418264 0 21.003040574418264 13.052310765662696 0 0 0 0 -28.017570260186403 11.335312199400505 0 11.335312199400505 32.081693585096218 0 0 0 0 25.924905849911511 33.48741524523939 0 33.48741524523939 23.213548840823933 0 0 0 0 -250.70125811140838 175.80347546362827 0 175.80347546362827 -5.8207624978531385 0 0 0 0 -0.66595539416621985 0.015198969506153848 0 0.015198969506153848 21.6009017566887 0 0 0 0 1.9993702338403272 1.491989579575602 0 1.491989579575602 18.687307105362834 0 0 0 0 -0.31333855512701891 10.022163394394738 0 10.022163394394738 10.963301538766245 0 0 0 0 0.38959534148404484 -0.00063514461180602666 0 -0.00063514461180602666 82.103562147953198 0 0 0 0 298.58648292785762 -1053.2392343242129 0 -1053.2392343242129 1547.1182549655496 0 0 0 0 0.33759563392026426 -1.6108467191728928 0 -1.6108467191728928 10.606916923233939 0 0 0 0 -0.4200703939968301 476.63456630086512 0 476.63456630086512 3457.5531150189345 0 0 0 0 -563.57698685071841 -599.45801081123136 0 -599.45801081123136 3492.4976662607805 0 0 0 0 -417.96162269069555 -270.90242262504762 0 -270.90242262504762 2140.9847873615799 0 0 0 0 265.22516467742315 -298.43523223161537 0 -298.43523223161537 594.65619060644531 0 0 0 0 435.58208245148393 133.95993601642112 0 133.95993601642112 -232.6847816787631 0 0 0 0 -51.418873549193222 449.96656753461139 0 449.96656753461139 474.7452779909072 0 0 0 0 -66.47445536846493 444.865311122805 0 444.865311122805 1503.3110155666363 0 0 0 0 -166.78195427839682 480.02461718655104 0 480.02461718655104 2302.6899696940673 0 0 0 0 333.96782536545356 34.224192195302749 0 34.224192195302749 3500.9287231710696 0 0 0 0 -429.68498160327505 -369.52907317262725 0 -369.52907317262725 3293.4788298578787 0 0 0 0 -141.79459304695445 461.05791268817984 0 461.05791268817984 1575.165606584269 0 0 0 0 -142.51656997637613 429.22057070297888 0 429.22057070297888 3254.4907258915482 0 0 0 0 0.38457205273579503 1.1068388452218016 0 1.1068388452218016 12.49952787162681 0 0 0 0 243.5998900376681 -628.09713405342336 0 -628.09713405342336 2063.4985240268652 0 0 0 0 243.7493011211827 -689.56598874037513 0 -689.56598874037513 1017.4250472540734 0 0 0 0 0.66497986920842322 4.9708471462217858 0 4.9708471462217858 20.98239562753588 0 0 0 0 -2.6455992912255439 0.20856444610679148 0 0.20856444610679148 15.796737394450872 0 0 0 0 -35.267868902255515 -126.23944778148143 0 -126.23944778148143 -233.49138508160831 0 0 0 0 -121.53928160412622 -396.30912694003928 0 -396.30912694003928 -141.76585718273418 0 0 0 0 259.92833130784129 82.921390006020374 0 82.921390006020374 -126.08504531972721 0 0 0 0 -2.3760808729565328 0.7451327712693967 0 0.7451327712693967 11.066713505378431 0 0 0 0 4.8045268851064975 39.83646441953897 0 39.83646441953897 108.4015359340483 0 0 0 0 2.2751573401714893 9.9494406828816864 0 9.9494406828816864 33.515944288257742 0 0 0 0 3.3178461991115888 12.566182116233051 0 12.566182116233051 1.3537954525556621 0 0 0 0 11.582147117193301 47.526569286550512 0 47.526569286550512 56.274418195622275 0 0 0 0 -2.3369971764699637 2.9928859974995703 0 2.9928859974995703 7.6237737331302355 0 0 0 0 -17.467614442508726 -5.3787599831193802 0 -5.3787599831193802 159.65091282551293 0 0 0 0 -0.88074975244743203 11.495864695593269 0 11.495864695593269 14.80633153421849 0 0 0 0 10.122878706720712 15.936718091761577 0 15.936718091761577 90.785787577957308 0 0 0 0 -0.73472454654626063 9.0743157533115664 0 9.0743157533115664 26.048828277838766 0 0 0 0 -0.54410079528372535 5.6589854397716408 0 5.6589854397716408 103.98724343134381 0 0 0 0 -0.20616876314682608 15.220834478382244 0 15.220834478382244 33.357670065078423 0 0 0 0 13.431634511582288 12.014733213691215 0 12.014733213691215 15.180887986420203 0 0 0 0 6.1115966417218717 5.0314911596006198 0 5.0314911596006198 13.694050667615343 0 0 0 0 2.9618155884510315 2.173286545488736 0 2.173286545488736 44.036172809661366 0 0 0 0 3.9455793372112566 3.3738629098515958 0 3.3738629098515958 42.927997948085249 0 0 0 0 4.2357933072435117 -1.1774810151546262 0 -1.1774810151546262 30.859211055678315 0 0 0 0 3.8417854277653798 -1.0483408884151295 0 -1.0483408884151295 28.013629515505897 0 0 0 0 20.46069046834986 -17.348425926251366 0 -17.348425926251366 -100.69470654985344 0 0 0 0 1.412980915083097 8.6582644454217501 0 8.6582644454217501 26.62286943232948 0 0 0 0 -5.1033107638859079 35.50444735860583 0 35.50444735860583 32.025859850051347 0 0 0 0 -186.32198522655878 51.974536912093754 0 51.974536912093754 41.44073771539297 0 0 0 0 0.80512838375144791 -4.9785398464143071 0 -4.9785398464143071 18.603369396936614 0 0 0 0 28.15476090205091 303.79863419361573 0 303.79863419361573 155.01708231001976 0 0 0 0 -284.19659257706525 1117.884293251147 0 1117.884293251147 3500.6529144832748 0 0 0 0 1.038499470346246 -3.485996994571039 0 -3.485996994571039 8.2798602539746753 0 0 0 0 158.80965224123514 511.62710577158214 0 511.62710577158214 3495.760166117776 0 0 0 0 -72.607631576069878 680.96489937067963 0 680.96489937067963 4309.5530353151262 0 0 0 0 -389.17740902627884 -472.33598666774196 0 -472.33598666774196 2528.9383187066705 0 0 0 0 -78.619922607717072 -622.14423953377263 0 -622.14423953377263 110.46651600358018 0 0 0 0 5.3859030236408501 117.25941361661535 0 117.25941361661535 1891.1557960578939 0 0 0 0 -81.651144764101673 -593.73561290468206 0 -593.73561290468206 1695.8591929954709 0 0 0 0 193.65428429451572 -301.75431993208622 0 -301.75431993208622 529.61235609115101 0 0 0 0 197.52891834222288 109.94313942819099 0 109.94313942819099 -147.23400265451346 0 0 0 0 284.18171936721359 381.9853526066654 0 381.9853526066654 287.4968732999896 0 0 0 0 0.55574068471889104 -1.4734617021485015 0 -1.4734617021485015 9.6410623847058901 0 0 0 0 4.0600873714655563 -1.9210867267065623 0 -1.9210867267065623 12.714189526031078 0 0 0 0 -16.398128151708477 94.808727090025059 0 94.808727090025059 992.05835025486886 0 0 0 0 0.6558426045346939 -1.4032018456887627 0 -1.4032018456887627 9.9868911056897218 0 0 0 0 419.50565130816733 -236.59074127237545 0 -236.59074127237545 1239.6320929437352 0 0 0 0 -327.43619681914498 896.38160482360399 0 896.38160482360399 3427.0673293897926 0 0 0 0 1751.3526499685479 2699.393832447965 0 2699.393832447965 -341.05526797365746 0 0 0 0 3.3457188479785316 0.14214999696975372 0 0.14214999696975372 6.0184251835502209 0 0 0 0 -125.14806707503246 -696.41940907563549 0 -696.41940907563549 3497.8833795695973 0 0 0 0 -89.564408607063626 104.10479432800639 0 104.10479432800639 -6.6227107141021406 0 0 0 0 1826.5268172041901 -2834.6882942870038 0 -2834.6882942870038 1043.7178350715985 0 0 0 0 -182.73075401963223 101.83312622427184 0 101.83312622427184 1273.2728162301255 0 0 0 0 221.22584823764777 -201.22576309173178 0 -201.22576309173178 218.08615565003129 0 0 0 0 74.502287208577343 -4.0398295204213355 0 -4.0398295204213355 1.927337583139888 0 0 0 0 36.471721387553941 -22.974618162908882 0 -22.974618162908882 22.487297181767644 0 0 0 0 19.702044261580653 -3.3030528477174812 0 -3.3030528477174812 3.2581858423036465 0 0 0 0 0.73329787520150791 -1.1054032539971272 0 -1.1054032539971272 16.159969031890967 0 0 0 0 5.1304025883548547 -0.71647663928524707 0 -0.71647663928524707 12.84170235228612 0 0 0 0 2.2327840446238927 -3.1286504088878573 0 -3.1286504088878573 13.974592901051722 0 0 0 0 11.21019832228103 -2.8960710485443997 0 -2.8960710485443997 19.647590663676965 0 0 0 0 4.799836728387902 -1.2179498951663845 0 -1.2179498951663845 18.668393409738201 0 0 0 0 4.7518580748255772 -2.6446943306364119 0 -2.6446943306364119 29.898180973905255 0 0 0 0 4.4430123516363977 -0.75281439001571471 0 -0.75281439001571471 16.593675290269907 0 0 0 0 4.8217348753250917 -1.3724567609315272 0 -1.3724567609315272 28.720095090407995 0 0 0 0 2.1850242877555202 1.404944926406273 0 1.404944926406273 17.078296463591439 0 0 0 0 6.5947694827085002 -3.2672222352175595 0 -3.2672222352175595 26.828422354068607 0 0 0 0 5.3953096392526332 -4.6410780948012516 0 -4.6410780948012516 15.012572970586177 0 0 0 0 6.4574225576821078 -3.0695780252271589 0 -3.0695780252271589 12.332464629846982 0 0 0 0 12.712223587390326 -3.5605180549318902 0 -3.5605180549318902 23.881115637312178 0 0 0 0 2.1676302184614542 -1.0666955741762649 0 -1.0666955741762649 12.035643536024509 0 0 0 0 0.99990754845638197 1.3180448962992841 0 1.3180448962992841 16.75693045270496 0 0 0 0 15.099217205773243 -11.918994760846545 0 -11.918994760846545 23.70951250910457 0 0 0 0 39.601266428577219 9.4872469800320687 0 9.4872469800320687 30.190805271497084 0 0 0 0 7.6484089038629834 -11.042564597259755 0 -11.042564597259755 17.764597402156028 0 0 0 0 8.8774632303772023 -1.1176401314733084 0 -1.1176401314733084 18.561259195499588 0 0 0 0 -16.589556020086548 -4.3343332524018479 0 -4.3343332524018479 44.981206640659366 0 0 0 0 9.270591446126673 13.539727815375954 0 13.539727815375954 98.455863709168625 0 0 0 0 0.28851346412938739 -0.44327364670333225 0 -0.44327364670333225 5.4780845602643211 0 0 0 0 14.699039042196091 -2.288879656480276 0 -2.288879656480276 67.032434121341794 0 0 0 0 16.225881938948078 3.3802320698669064 0 3.3802320698669064 86.706673272725311 0 0 0 0 3.7225805020843836 -28.169060978281777 0 -28.169060978281777 71.337504503346281 0 0 0 0 10.301739447249929 24.423295286906068 0 24.423295286906068 82.685641566684353 0 0 0 0 6.6331588717366685 13.247508470754838 0 13.247508470754838 99.613861332822125 0 0 0 0 29.923166917955427 -23.580302659031076 0 -23.580302659031076 -3.9808717644773424 0 0 0 0 2.9177718485038393 -8.9284222312889039 0 -8.9284222312889039 13.267787856200272 0 0 0 0 3.5728887612958182 -1.8728033469469096 0 -1.8728033469469096 15.766060467508169 0 0 0 0 0.70052552121217104 -0.30484384604187653 0 -0.30484384604187653 8.0328622196684591 0 0 0 0 1.1049616857119329 -5.3080384152152504 0 -5.3080384152152504 22.187709686232658 0 0 0 0 1.2564671749523613 -5.3935253196328272 0 -5.3935253196328272 -0.42703456820069619 0 0 0 0 7.6622841116233076 -17.582231154030524 0 -17.582231154030524 64.913116777752293 0 0 0 0 2.1263661021048046 -1.2510588552285355 0 -1.2510588552285355 26.260883484964491 0 0 0 0 2.8875348995905785 -9.644646187444593 0 -9.644646187444593 26.165816057161322 0 0 0 0 2.1628754498888156 -2.886503136898682 0 -2.886503136898682 92.429343651179806 0 0 0 0 3.6679141924496435 -1.6370537962939125 0 -1.6370537962939125 31.533628317090916 0 0 0 0 21.106523768213265 -7.5590711133409059 0 -7.5590711133409059 78.88675259903539 0 0 0 0 22.38722679204875 4.1457755865048966 0 4.1457755865048966 84.358198562302277 0 0 0 0 26.723724977757229 1.2994589349546004 0 1.2994589349546004 76.570728351602156 0 0 0 0 21.466207886003758 -2.2754593844583724 0 -2.2754593844583724 91.924790410877904 0 0 0 0 10.839878063705783 -22.98357498904079 0 -22.98357498904079 129.44911694027542 0 0 0 0 0.9016629743446174 32.125969994354818 0 32.125969994354818 -17.946534737609909 0 0 0 0 15.351018723945515 -5.8954061059812375 0 -5.8954061059812375 70.13824027388182 0 0 0 0 13.808395066615958 2.4711033142084489 0 2.4711033142084489 82.643048495796393 0 0 0 0 -0.0096989061725523129 0.14096190966174049 0 0.14096190966174049 0.073201498534672282 0 0 0 0 -14.541692347672495 -28.848980979527369 0 -28.848980979527369 64.517655935895164 0 0 0 0 17.887072623618678 -28.08195109670487 0 -28.08195109670487 80.304058265442109 0 0 0 0 18.319830108114274 -27.27521177464223 0 -27.27521177464223 44.162529139313847 0 0 0 0 10.716696603175478 6.0497392992328969 0 6.0497392992328969 53.70761459658388 0 0 0 0 -24.370960517424692 -25.416895264540472 0 -25.416895264540472 170.6410849254753 0 0 0 0 0.14312410577230583 -3.8802501123163466 0 -3.8802501123163466 12.567126590080832 0 0 0 0 -5.9116342044362682 11.99787974555511 0 11.99787974555511 15.094297860887309 0 0 0 0 25.965502552741327 -41.496315589392907 0 -41.496315589392907 33.477998838665371 0 0 0 0 11.408479253911537 -34.480538514602813 0 -34.480538514602813 94.387934508558828 0 0 0 0 136.91460280551814 -53.312339258813154 0 -53.312339258813154 17.383634006997454 0 0 0 0 110.89999185009992 -103.37433926759695 0 -103.37433926759695 76.523328899027547 0 0 0 0 1.844041942432793 0.82005025100855278 0 0.82005025100855278 0.036881282675949478 0 0 0 0 51.870821451106167 -3.1994938488933258 0 -3.1994938488933258 -13.407092776105856 0 0 0 0 3.188211000280742 -18.200063799650685 0 -18.200063799650685 102.39750254381869 0 0 0 0 78.835268803780764 -169.85564655334201 0 -169.85564655334201 129.20631582196074 0 0 0 0 -72.952883257417852 -90.89496751855404 0 -90.89496751855404 116.73845300470566 0 0 0 0 -3.7564936520657284 8.575136091800232 0 8.575136091800232 117.16401046513874 0 0 0 0 -172.53820770131915 -89.230549131407315 0 -89.230549131407315 100.80990951581043 0 0 0 0 -41.205528693168695 -12.605013631480688 0 -12.605013631480688 106.99578217533417 0 0 0 0 4.0995191406211857 -22.706193442466137 0 -22.706193442466137 107.39789544163688 0 0 0 0 -99.265137011870479 -25.038759182629292 0 -25.038759182629292 128.79263994404755 0 0 0 0 -37.238948613096454 -1.5707188599044457 0 -1.5707188599044457 112.41757645843609 0 0 0 0 -41.905422730530077 -2.4510769416847324 0 -2.4510769416847324 118.20373140353331 0 0 0 0 7.2186437994549806 -5.9752707264851779 0 -5.9752707264851779 115.13233652517192 0 0 0 0 -36.529087527265389 15.279701418126933 0 15.279701418126933 114.12367399374489 0 0 0 0 -23.628477938390077 -4.7250198409419681 0 -4.7250198409419681 115.16025453234033 0 0 0 0 -23.738789150616853 8.5654899454748374 0 8.5654899454748374 114.14992683081073 0 0 0 0 -23.103390167282441 -3.9777241108968155 0 -3.9777241108968155 126.15839188155951 0 0 0 0 13.307315687531627 -1.3909333958254138 0 -1.3909333958254138 72.541865654158755 0 0 0 0 0.55386100538435734 -11.726079843133661 0 -11.726079843133661 17.981309389888679 0 0 0 0 -0.63299490379974155 -5.7221614512423713 0 -5.7221614512423713 64.005445234286526 0 0 0 0 -15.796219388997088 -7.9919263487317949 0 -7.9919263487317949 36.436830728314817 0 0 0 0 -14.950739672524151 0.80559146497398615 0 0.80559146497398615 137.44959894445492 0 0 0 0 -7.287922520453054 -2.201352108785926 0 -2.201352108785926 16.400580237047535 0 0 0 0 -4.3982902390733303 2.9796256334576299 0 2.9796256334576299 44.025378448296806 0 0 0 0 -0.77102126144382055 -6.5970026179420529 0 -6.5970026179420529 77.005378001966164 0 0 0 0 -1.695191587884727 -6.0318628717903522 0 -6.0318628717903522 50.334015970298481 0 0 0 0 3.525826913286437 -1.3336798204254592 0 -1.3336798204254592 24.203206871054135 0 0 0 0 5.5243269553593466 -7.6361997926388199 0 -7.6361997926388199 24.932352010732927 0 0 0 0 -2.6142489766741286 4.4755471731123322 0 4.4755471731123322 42.22155705912121 0 0 0 0 1.2451659800474317 -3.8007543988442194 0 -3.8007543988442194 49.633300311747007 0 0 0 0 -0.89068519715328875 -6.2907202457572566 0 -6.2907202457572566 47.723662512144074 0 0 0 0 2.3182307264257478 -0.38913685813921006 0 -0.38913685813921006 25.526539455330948 0 0 0 0 -6.9367235495944897 1.2819235659844708 0 1.2819235659844708 82.066486525465734 0 0 0 0 -0.18392857375992056 -1.0876392402155659 0 -1.0876392402155659 12.489572337450777 0 0 0 0 1.4638138200706976 -9.6605863163131289 0 -9.6605863163131289 94.787045717559522 0 0 0 0 -27.373481702390279 3.9339438392198645 0 3.9339438392198645 112.78691104386235 0 0 0 0 -15.736445315039646 -5.3375721874181181 0 -5.3375721874181181 95.217916270485148 0 0 0 0 -0.05187213294641424 -1.6419791406660806 0 -1.6419791406660806 79.903432344843168 0 0 0 0 -2.8583261008511727 -25.891274807683658 0 -25.891274807683658 127.78004404768581 0 0 0 0 40.937237704375661 -37.649121065973304 0 -37.649121065973304 60.496036287717288 0 0 0 0 -29.125693978877166 41.44012491266767 0 41.44012491266767 87.344514395561418 0 0 0 0 -26.617694006901615 18.400177508083289 0 18.400177508083289 93.354985738753385 0 0 0 0 -11.357781513953455 5.6940961080108536 0 5.6940961080108536 94.645900857722154 0 0 0 0 -12.093911437311768 11.024338516304852 0 11.024338516304852 61.930227807693882 0 0 0 0 -24.328527800861735 64.249064326373627 0 64.249064326373627 62.047001107421238 0 0 0 0 -2.9210435448308658 39.763560574116127 0 39.763560574116127 17.748699054674944 0 0 0 0 -0.13395017725447489 0.29660923237156567 0 0.29660923237156567 -0.29794660103809179 0 0 0 0 -29.371146869003216 54.826850760957313 0 54.826850760957313 95.031288104510168 0 0 0 0 -10.00354499018809 59.003024061545148 0 59.003024061545148 69.976046107840375 0 0 0 0 -21.526951574021837 44.51208398208837 0 44.51208398208837 88.85655442281859 0 0 0 0 -28.098649267923065 34.881810786260758 0 34.881810786260758 82.379174102621619 0 0 0 0 -28.577868539527387 53.00394016696373 0 53.00394016696373 113.34967116931512 0 0 0 0 -32.334777033664089 35.021417035903141 0 35.021417035903141 151.26333310267364 0 0 0 0 -40.176559522010194 24.206881753358175 0 24.206881753358175 136.36994166966178 0 0 0 0 -38.595723552929947 19.67088922284529 0 19.67088922284529 130.80391791689908 0 0 0 0 -40.10842380512436 26.357699379514088 0 26.357699379514088 116.62913721955556 0 0 0 0 -27.004445812431925 20.970460788608762 0 20.970460788608762 112.629019608823 0 0 0 0 -51.877575095141374 -7.3674657036899589 0 -7.3674657036899589 124.29911206568067 0 0 0 0 -1.9319550899769595 1.1692677148748771 0 1.1692677148748771 122.29630716529937 0 0 0 0 -46.693675085486547 4.2111410696561506 0 4.2111410696561506 136.40402083769732 0 0 0 0 -49.320390808935962 2.142932527087396 0 2.142932527087396 158.51115278867655 0 0 0 0 -4.3679693443195902 -0.74622840928350342 0 -0.74622840928350342 162.76180884125552 0 0 0 0 57.022700976945075 -6.8594074283173541 0 -6.8594074283173541 163.36689901576938 0 0 0 0 -0.21457971536095338 52.61120814585437 0 52.61120814585437 194.48718546389136 0 0 0 0 151.51263589517703 137.26461883678712 0 137.26461883678712 119.43612423771265 0 0 0 0 -13.860017600272302 25.862098212492583 0 25.862098212492583 186.75513999932446 0 0 0 0 -13.838296580696568 26.309677566459868 0 26.309677566459868 132.53960814018501 0 0 0 0 -5.5326398606880911 56.903401487099472 0 56.903401487099472 271.87928277364699 0 0 0 0 31.117987089220524 108.29115714046929 0 108.29115714046929 162.38994872447438 0 0 0 0 -17.076800147413579 66.220431543741142 0 66.220431543741142 156.40543332209927 0 0 0 0 3.6067891643968011 59.013197263295297 0 59.013197263295297 76.338500066252891 0 0 0 0 -10.383645939882356 39.03512233379297 0 39.03512233379297 58.294696805620333 0 0 0 0 12.343751536075075 59.222696477299905 0 59.222696477299905 76.198301160155097 0 0 0 0 49.123280337767561 52.238548684937996 0 52.238548684937996 38.03447568975389 0 0 0 0 39.097912351218639 16.907681573868103 0 16.907681573868103 14.848200062289834 0 0 0 0 -14.159249418789731 -0.80405105584213743 0 -0.80405105584213743 -1.9174972905311733 0 0 0 0 0.073787547533467945 -0.13418874792831836 0 -0.13418874792831836 0.80796359537390572 0 0 0 0 92.022276267886454 62.374356080930738 0 62.374356080930738 25.170752765785437 0 0 0 0 -0.50586117692704724 144.10532838102517 0 144.10532838102517 -111.46895698594017 0 0 0 0 31.009058337384896 -70.927507258129481 0 -70.927507258129481 143.6951285150426 0 0 0 0 12.699037807118145 -108.08402532549371 0 -108.08402532549371 314.20795408035337 0 0 0 0 -0.85972717701941104 0.41370647549774731 0 0.41370647549774731 0.76977261473663816 0 0 0 0 0.21769785565437044 -19.815444136314493 0 -19.815444136314493 174.39950674638385 0 0 0 0 16.844500149414863 -10.610455086978618 0 -10.610455086978618 126.24143227300374 0 0 0 0 -9.193528761570775 -34.005225061657256 0 -34.005225061657256 208.93920042588434 0 0 0 0 2.3826142939812334 -22.626981148685445 0 -22.626981148685445 77.877128243228071 0 0 0 0 -72.253083769192102 -4.8595963330189988 0 -4.8595963330189988 143.98034904736051 0 0 0 0 -79.610887502323081 -39.626961977147403 0 -39.626961977147403 90.895754685552674 0 0 0 0 -82.528337067365428 70.20590914220702 0 70.20590914220702 -63.77165184012847 0 0 0 0 -85.408434336287684 -208.26158531568944 0 -208.26158531568944 429.76595817338966 0 0 0 0 -35.647627114901226 -65.552011407375176 0 -65.552011407375176 142.8231183263415 0 0 0 0 38.766078648320104 -439.5394928764581 0 -439.5394928764581 -130.55000916821882 0 0 0 0 -5.0720243945891319 -84.898280012261239 0 -84.898280012261239 238.15692515387491 0 0 0 0 4.4205439616006714 -106.24044191332359 0 -106.24044191332359 96.116841776165529 0 0 0 0 -100.03953658252647 60.176025868786382 0 60.176025868786382 -11.091827184442081 0 0 0 0 -15.974359014922854 -23.707794017922424 0 -23.707794017922424 217.58518706073664 0 0 0 0 -2.0998291325105165 0.29421014730795036 0 0.29421014730795036 2.8466194507713851 0 0 0 0 10.254627696247425 61.53943917973811 0 61.53943917973811 445.78168526511172 0 0 0 0 3.5615329251171102 -23.258212068686262 0 -23.258212068686262 111.95086590702903 0 0 0 0 -287.41429481351224 -290.90716799550137 0 -290.90716799550137 -99.332290212420048 0 0 0 0 0.0021766106030804977 -0.9539836593180695 0 -0.9539836593180695 2.4670741887624672 0 0 0 0 -337.81707652036658 -205.72473078028997 0 -205.72473078028997 523.37417118804296 0 0 0 0 -170.09529848846751 -202.8777096150734 0 -202.8777096150734 59.931156050937716 0 0 0 0 -481.53152685736882 -254.30680686304186 0 -254.30680686304186 146.57289911026601 0 0 0 0 52.882644955029264 -110.367118753471 0 -110.367118753471 -8.1179890893254196 0 0 0 0 -225.61147641827938 -95.354739588539815 0 -95.354739588539815 87.765700007901614 0 0 0 0 46.719611755829874 -64.54602796843028 0 -64.54602796843028 21.381248627672903 0 0 0 0 -226.58210996483825 -19.385081013049785 0 -19.385081013049785 124.23279838659801 0 0 0 0 3.8424903986423171 -23.078191657384693 0 -23.078191657384693 112.57640358393454 0 0 0 0 3.5329932987961001 -96.83317485599764 0 -96.83317485599764 17.93874512873299 0 0 0 0 56.722834885157681 -85.616222379450846 0 -85.616222379450846 32.950362166695413 0 0 0 0 77.264740483012247 -39.674779209213739 0 -39.674779209213739 16.626264969836484 0 0 0 0 85.580025520110382 -62.321722254418091 0 -62.321722254418091 12.003669282072224 0 0 0 0 0.96584904732398646 -5.1138528215054029 0 -5.1138528215054029 20.400000696786805 0 0 0 0 154.75051208250079 -64.412522730792261 0 -64.412522730792261 3.3115064327939763 0 0 0 0 0.89344066603734484 -3.2422603105136929 0 -3.2422603105136929 12.362954595597927 0 0 0 0 309.55469791862834 -76.873752412782778 0 -76.873752412782778 -23.05055809521582 0 0 0 0 101.69669311020721 -235.69437606665997 0 -235.69437606665997 258.7486741906323 0 0 0 0 362.58015122260167 -19.427960980330681 0 -19.427960980330681 22.698509838595783 0 0 0 0 736.18082727734145 -169.44378128137032 0 -169.44378128137032 5.1084062014560914 0 0 0 0 17.581596132737673 43.656104134830912 0 43.656104134830912 166.77104357448115 0 0 0 0 0.72134372332725549 -1.1321908095233271 0 -1.1321908095233271 4.2802908773608408 0 0 0 0 163.52325915416054 22.140445527310931 0 22.140445527310931 213.23914518635866 0 0 0 0 207.5638206486833 -228.24702070266721 0 -228.24702070266721 729.84077402927505 0 0 0 0 414.0125195972762 -229.05577133843326 0 -229.05577133843326 466.48555999864038 0 0 0 0 13.550096158365307 119.91183660584511 0 119.91183660584511 467.1533526765561 0 0 0 0 99.77881953600081 322.5318934224124 0 322.5318934224124 66.771275286144373 0 0 0 0 -151.20352641547834 -11.324048423841305 0 -11.324048423841305 362.8337910644841 0 0 0 0 -154.88826728824398 -74.341024609767715 0 -74.341024609767715 4.9888082527977531 0 0 0 0 -1.7457920673866827 0.20098300069211916 0 0.20098300069211916 1.7225362974656377 0 0 0 0 221.83080332060172 394.230453434433 0 394.230453434433 551.86018469756527 0 0 0 0 6.7469142737309085 307.96925203465798 0 307.96925203465798 478.02262874037478 0 0 0 0 -4.0039007173235817 0.30492957831624778 0 0.30492957831624778 6.1847745016964382 0 0 0 0 125.68057351906646 391.49944482227875 0 391.49944482227875 429.25327044109872 0 0 0 0 -55.927572369595509 23.139974733294366 0 23.139974733294366 274.44221459921391 0 0 0 0 -98.086741800751497 117.65251092270773 0 117.65251092270773 67.140539320578682 0 0 0 0 -28.919028732439983 -107.70177163480548 0 -107.70177163480548 332.50304929069353 0 0 0 0 -204.05450931054179 -271.31850988431142 0 -271.31850988431142 49.447551463788841 0 0 0 0 -113.77139924991275 29.025627165550759 0 29.025627165550759 118.42371665101382 0 0 0 0 -167.6176968216088 178.51434518055612 0 178.51434518055612 47.711613316241255 0 0 0 0 -1046.7520008580109 -242.84125143120764 0 -242.84125143120764 3.5659484539282857 0 0 0 0 -1.1061787727245529 -0.37753696575558138 0 -0.37753696575558138 2.4465493800027502 0 0 0 0 -122.03091263168744 15.547438356938073 0 15.547438356938073 -0.43418754839512985 0 0 0 0 0.91830865661413774 -4.1770961612885884 0 -4.1770961612885884 7.6546126658791991 0 0 0 0 -78.357037509768219 -88.590648123485153 0 -88.590648123485153 -82.06138784182258 0 0 0 0 -111.37072209947695 -101.27875380321348 0 -101.27875380321348 -30.361822007391311 0 0 0 0 -123.11417509696238 -44.257408372614009 0 -44.257408372614009 98.489221920266573 0 0 0 0 -526.89775474927364 -266.77256720623518 0 -266.77256720623518 134.33734335325425 0 0 0 0 2.455047389828771 -20.45813464809072 0 -20.45813464809072 108.70520932604171 0 0 0 0 -475.92989500780459 55.519956687174272 0 55.519956687174272 234.8721370142448 0 0 0 0 16.454845831404143 16.934059975560331 0 16.934059975560331 71.754800677241292 0 0 0 0 -713.21192511468109 -365.60420002409592 0 -365.60420002409592 221.12253046645492 0 0 0 0 87.204955853129832 -159.61285237268021 0 -159.61285237268021 -203.12837487430079 0 0 0 0 142.9770908028172 348.18415747270774 0 348.18415747270774 350.53869249272248 0 0 0 0 0.71869731315779406 -16.901801235484939 0 -16.901801235484939 103.98496037101307 0 0 0 0 -218.91960251975485 1.1307870677301253 0 1.1307870677301253 223.03390566047165 0 0 0 0 -59.861981560770516 22.921992592877359 0 22.921992592877359 77.192834106750524 0 0 0 0 8.5486524369176422 153.59392751034102 0 153.59392751034102 298.66288499733491 0 0 0 0 1.2101312202850052 -1.902688443511579 0 -1.902688443511579 2.5055835121281689 0 0 0 0 -67.241676184112066 -5.8459337402309757 0 -5.8459337402309757 -69.643810347719409 0 0 0 0 67.258054427329 -211.15203774409019 0 -211.15203774409019 478.46160460812098 0 0 0 0 -36.640670195162471 6.7098604087877902 0 6.7098604087877902 87.177873384403938 0 0 0 0 74.616494758047452 243.56005596586328 0 243.56005596586328 197.36813307749981 0 0 0 0 246.59425142374255 140.1735094929827 0 140.1735094929827 -13.345375459932256 0 0 0 0 518.96032398579325 14.916236181292334 0 14.916236181292334 110.50103075333755 0 0 0 0 189.67797694986095 125.18745470819704 0 125.18745470819704 386.23559312883299 0 0 0 0 275.02034143282276 -237.67868138675112 0 -237.67868138675112 329.48688433330244 0 0 0 0 338.65432153504224 -192.26846477529034 0 -192.26846477529034 33.516715392906917 0 0 0 0 275.56412664316355 -159.44549590564998 0 -159.44549590564998 37.048034416511655 0 0 0 0 61.912109619793284 -476.65474073628866 0 -476.65474073628866 61.927584469638532 0 0 0 0 1.3074288843231783 15.257350644165854 0 15.257350644165854 -19.963934589963173 0 0 0 0 546.75245846719429 -498.38870719179249 0 -498.38870719179249 50.77786692592781 0 0 0 0 520.74923874235469 -412.95791881704645 0 -412.95791881704645 -42.577445236034691 0 0 0 0 547.31291152985307 -505.09532342027524 0 -505.09532342027524 55.126818405813538 0 0 0 0 336.92457308581078 -442.9679072585277 0 -442.9679072585277 -104.45981357884011 0 0 0 0 183.69470800968975 -246.34072320829728 0 -246.34072320829728 -180.69909838364401 0 0 0 0 0.19597479938946175 -1.2148177915784384 0 -1.2148177915784384 5.0327811697541165 0 0 0 0 318.59730174970753 -422.13582673904182 0 -422.13582673904182 48.351617859618273 0 0 0 0 252.02574095472949 -320.80348230141681 0 -320.80348230141681 43.925257416260138 0 0 0 0 440.92431462398952 -612.15386432966625 0 -612.15386432966625 466.19434601918329 0 0 0 0 319.4196197175981 -503.41650083905552 0 -503.41650083905552 219.47276887332555 0 0 0 0 335.06221289056066 -524.63945091513597 0 -524.63945091513597 332.84845998999663 0 0 0 0 258.8968219598687 -378.29758793767542 0 -378.29758793767542 56.708192676305771 0 0 0 0 367.84111572673487 -372.66099982288142 0 -372.66099982288142 -6.1279014962201472 0 0 0 0 5.4614648663153389 -128.33533150282165 0 -128.33533150282165 564.89923221990466 0 0 0 0 57.966962835315144 -243.84332150589034 0 -243.84332150589034 818.81451386101253 0 0 0 0 -4.3355417591466789 59.051262536944705 0 59.051262536944705 421.09771263046423 0 0 0 0 -9.6833195518152024 135.88924980181037 0 135.88924980181037 130.07969479963504 0 0 0 0 -131.32734686388574 -74.466357764962595 0 -74.466357764962595 236.88249883725075 0 0 0 0 18.21611594233098 -36.786342349630104 0 -36.786342349630104 213.42762097815285 0 0 0 0 50.547171581431257 -235.20913287349686 0 -235.20913287349686 338.42122519190889 0 0 0 0 -367.2065493152985 -149.95608293056284 0 -149.95608293056284 47.315184336868697 0 0 0 0 -283.34617402624485 49.398957510413311 0 49.398957510413311 183.65662725124275 0 0 0 0 1.2995094607706099 -3.6766673992401593 0 -3.6766673992401593 6.7923002922236151 0 0 0 0 -160.29213252698656 53.019592710537836 0 53.019592710537836 87.448457020393107 0 0 0 0 -80.56385195127686 94.815161767053723 0 94.815161767053723 37.969878306306782 0 0 0 0 -116.58941520800295 31.938521045252855 0 31.938521045252855 47.271468246063591 0 0 0 0 -12.11487398763623 56.263676848699106 0 56.263676848699106 -14.122179123893147 0 0 0 0 9.8409008266040807 121.64692042549268 0 121.64692042549268 141.36512467678403 0 0 0 0 -1.103649882622399 5.7682272676376201 0 5.7682272676376201 14.489398379283102 0 0 0 0 12.683608352037481 15.70143535797979 0 15.70143535797979 20.949407439264178 0 0 0 0 30.389723650454869 31.980910130136408 0 31.980910130136408 31.815071873352281 0 0 0 0 29.99178152329722 26.664015971734443 0 26.664015971734443 31.923332671416574 0 0 0 0 36.644561905371233 32.044679986791834 0 32.044679986791834 31.073601948068244 0 0 0 0 -46.711930487828795 110.72320850541291 0 110.72320850541291 -210.50538619711006 0 0 0 0 1.4574363227093698 2.6907321899427288 0 2.6907321899427288 -0.11913778868120062 0 0 0 0 -100.24430240801121 -203.74883032904108 0 -203.74883032904108 -186.70780372447916 0 0 0 0 65.039102768694647 -66.464950328005216 0 -66.464950328005216 -231.75853688211646 0 0 0 0 -37.190018178859646 -51.38059923759829 0 -51.38059923759829 1.5010208692110609 0 0 0 0 12.494082567000419 8.849271268468712 0 8.849271268468712 -4.0622255702531263 0 0 0 0 54.683574398532073 121.69464604264795 0 121.69464604264795 114.01538305464783 0 0 0 0 67.903332498623058 -92.874679465505324 0 -92.874679465505324 -197.56733811461527 0 0 0 0 150.74267725078516 299.38477400344709 0 299.38477400344709 -46.816110630956246 0 0 0 0 20.705164745789578 27.083660590607039 0 27.083660590607039 22.284235690599161 0 0 0 0 -15.408366089141371 52.108236245895569 0 52.108236245895569 39.533508030166558 0 0 0 0 19.382282815397559 9.1372032680519624 0 9.1372032680519624 16.219036210986815 0 0 0 0 1.8358282847898948 5.0661408455881229 0 5.0661408455881229 8.1838043604019006 0 0 0 0 13.063524724732815 15.996443755255314 0 15.996443755255314 16.135917735990006 0 0 0 0 13.088488435472502 13.195076553224382 0 13.195076553224382 4.0620586011227786 0 0 0 0 20.84996989578763 29.149186735815192 0 29.149186735815192 23.154942031978862 0 0 0 0 12.237290526541731 14.721214281838712 0 14.721214281838712 13.607385516272984 0 0 0 0 -10.393752273925315 16.508116898994558 0 16.508116898994558 29.114779906951298 0 0 0 0 35.044621302995324 17.790402310682111 0 17.790402310682111 20.834374597281567 0 0 0 0 95.826259682947125 -33.690697346588422 0 -33.690697346588422 50.299388752828236 0 0 0 0 41.175383377629061 -51.323747365760937 0 -51.323747365760937 101.70253043627599 0 0 0 0 77.044818875226468 -91.966442454242497 0 -91.966442454242497 183.89243059523869 0 0 0 0 83.203976315316339 -84.145868106788839 0 -84.145868106788839 107.62464537329652 0 0 0 0 174.37617373261986 -112.49899770380944 0 -112.49899770380944 90.634086794154427 0 0 0 0 1.0854375742094708 -1.4702391313054406 0 -1.4702391313054406 0.23682921554768654 0 0 0 0 43.289889492851728 42.298748838768006 0 42.298748838768006 -1.2807308575356728 0 0 0 0 173.88894801999595 -41.546552519634133 0 -41.546552519634133 -0.94628717994783074 0 0 0 0 19.260435959938604 41.003201373852789 0 41.003201373852789 24.927199712514266 0 0 0 0 132.24677524076054 157.73350337247575 0 157.73350337247575 74.782818202998897 0 0 0 0 34.588412027160302 40.775948347290978 0 40.775948347290978 22.582828104743385 0 0 0 0 4.9407703186272061 2.2978809412700656 0 2.2978809412700656 6.0856323668986647 0 0 0 0 26.072483776077434 22.520819150146053 0 22.520819150146053 28.147155515907798 0 0 0 0 35.928626860644727 26.537203940140898 0 26.537203940140898 31.006369424052536 0 0 0 0 20.834003003443879 19.870413941828446 0 19.870413941828446 19.983390739740017 0 0 0 0 -15.048340641954383 32.062791910240776 0 32.062791910240776 118.36214080608624 0 0 0 0 5.3964762104425352 6.9193500449489704 0 6.9193500449489704 6.4647980988638096 0 0 0 0 3.5517448585225111 22.717656537673975 0 22.717656537673975 29.431273191366927 0 0 0 0 41.208857418406751 59.561382548694382 0 59.561382548694382 115.85831750518992 0 0 0 0 -27.774086463158937 -14.571280252556335 0 -14.571280252556335 96.458895620737167 0 0 0 0 8.780337470006998 12.262478439613915 0 12.262478439613915 96.758097334335616 0 0 0 0 13.708321597647576 19.777706254508942 0 19.777706254508942 20.035946543718396 0 0 0 0 13.955003164273876 3.2615852100825578 0 3.2615852100825578 36.910236971380073 0 0 0 0 16.799192950065162 10.769990899675577 0 10.769990899675577 30.775633279663452 0 0 0 0 22.856483571177705 14.42114289021265 0 14.42114289021265 31.66774935653666 0 0 0 0 18.106924284559682 7.2355923578506918 0 7.2355923578506918 36.353481991423905 0 0 0 0 6.1420579288122248 -0.97736017610135661 0 -0.97736017610135661 13.692588963197267 0 0 0 0 14.053582839695991 2.6196087429452746 0 2.6196087429452746 25.960068421507458 0 0 0 0 18.719877454253947 10.409653629347304 0 10.409653629347304 29.400092612013395 0 0 0 0 18.500051510700359 8.7993369947544124 0 8.7993369947544124 18.119240765026916 0 0 0 0 16.920596564786138 3.1904694861923417 0 3.1904694861923417 25.956973395528621 0 0 0 0 24.375035217995446 -5.1163127118761622 0 -5.1163127118761622 1.2580340109125245 0 0 0 0 30.696525801639382 4.8114025589311495 0 4.8114025589311495 16.200995340448571 0 0 0 0 51.229517089223918 15.216696149786003 0 15.216696149786003 0.56295069669431541 0 0 0 0 20.614729799107636 41.023977357741387 0 41.023977357741387 22.086409473602544 0 0 0 0 -33.084445750426312 43.690712194453226 0 43.690712194453226 23.144206479795685 0 0 0 0 41.901155177254623 0.61601649385920609 0 0.61601649385920609 -21.950933830972645 0 0 0 0 151.98301476664437 9.0870162933060783 0 9.0870162933060783 -23.455356209107777 0 0 0 0 11.884932136505086 17.365011165937176 0 17.365011165937176 23.491960870887851 0 0 0 0 15.54147465900769 7.1992326589206641 0 7.1992326589206641 24.547087800339796 0 0 0 0 8.3909625954224794 16.107738702425195 0 16.107738702425195 23.200241822036332 0 0 0 0 4.2723019313471013 19.700491430772672 0 19.700491430772672 20.230356105479586 0 0 0 0 1.805932930083145 10.232441985048354 0 10.232441985048354 23.878233056702811 0 0 0 0 -5.3215854821082758 13.442282829579199 0 13.442282829579199 16.234049426071579 0 0 0 0 29.682023330737138 15.550051334183081 0 15.550051334183081 -110.84260164380248 0 0 0 0 1.8862585303799584 0.43273014439404278 0 0.43273014439404278 1.1977251588096252 0 0 0 0 151.15952497447506 -66.846729982702527 0 -66.846729982702527 -26.973027331172489 0 0 0 0 32.451585348300796 55.865842010811321 0 55.865842010811321 69.335906214117131 0 0 0 0 3.1484649852592099 -6.9347334165636454 0 -6.9347334165636454 11.164081507814842 0 0 0 0 149.03138364600409 -115.96879142197304 0 -115.96879142197304 -327.78788653083029 0 0 0 0 25.920911671581052 -16.471278541168431 0 -16.471278541168431 216.81592924869619 0 0 0 0 -60.090190294949934 -195.56642561142507 0 -195.56642561142507 7.5977791395271197 0 0 0 0 72.745190878451467 10.613701944988861 0 10.613701944988861 75.023889484291431 0 0 0 0 133.06516920967988 -30.060294352391793 0 -30.060294352391793 -93.683364734024508 0 0 0 0 69.195913327839662 -78.247061387592112 0 -78.247061387592112 5.669876417494379 0 0 0 0 211.2243716985904 -53.226610118079407 0 -53.226610118079407 -229.28911606236943 0 0 0 0 145.62825270308508 -106.02612571406644 0 -106.02612571406644 -115.11655053743743 0 0 0 0 183.5385028045057 109.07359913878463 0 109.07359913878463 -178.70265495863714 0 0 0 0 -137.51453096862724 -143.37625229286641 0 -143.37625229286641 23.075658060508431 0 0 0 0 -115.86303208098161 -26.050478531196859 0 -26.050478531196859 39.31720499963194 0 0 0 0 3.0313297319071086 -6.6186482041398662 0 -6.6186482041398662 12.832863715917313 0 0 0 0 173.74100795515915 149.71470728779241 0 149.71470728779241 49.638691069092602 0 0 0 0 102.87015338987851 -191.13657593821381 0 -191.13657593821381 -10.028987546385906 0 0 0 0 31.845241288263423 139.931350819199 0 139.931350819199 809.80974566497025 0 0 0 0 115.3651880344114 128.8919407492358 0 128.8919407492358 450.05940915145766 0 0 0 0 -64.374390607074019 54.608981285447953 0 54.608981285447953 892.23948877697694 0 0 0 0 122.61423301576451 4.6351927086689102 0 4.6351927086689102 200.07019055678393 0 0 0 0 34.765146125322644 -17.798859703005292 0 -17.798859703005292 265.34718912970857 0 0 0 0 47.301847929731593 -78.282021060134866 0 -78.282021060134866 319.73598944864352 0 0 0 0 -87.545429014109686 85.054974087397568 0 85.054974087397568 71.048762159607577 0 0 0 0 68.637355198365185 99.463962383975741 0 99.463962383975741 26.201040892250603 0 0 0 0 386.10462549954445 -370.6079462081143 0 -370.6079462081143 156.05667149961118 0 0 0 0 184.04918378446473 74.697426726750564 0 74.697426726750564 -47.89842328173836 0 0 0 0 273.22780657305884 -408.21899212457174 0 -408.21899212457174 429.0962908151123 0 0 0 0 164.69365145175379 -250.97977334338793 0 -250.97977334338793 489.83260026528296 0 0 0 0 60.793167235667624 -123.82718017587831 0 -123.82718017587831 843.82054225249158 0 0 0 0 277.18594852304614 -608.18811249065038 0 -608.18811249065038 861.08117245028552 0 0 0 0 92.087111108428871 48.62035082566581 0 48.62035082566581 1274.5298051137725 0 0 0 0 97.879415556699314 -75.648527024175564 0 -75.648527024175564 1278.2054917950736 0 0 0 0 0.94788465177412462 -2.7991589518301794 0 -2.7991589518301794 6.9891243468096604 0 0 0 0 -85.783216207615624 308.85161730756226 0 308.85161730756226 1166.01850000181 0 0 0 0 818.39107736697406 -292.83749754189921 0 -292.83749754189921 1210.7741784840982 0 0 0 0 222.01786116208405 25.213981750886887 0 25.213981750886887 1397.7095720823418 0 0 0 0 163.46205531136729 -252.22530310709408 0 -252.22530310709408 345.79349718334561 0 0 0 0 5.694059319285131 -1.5783958374412634 0 -1.5783958374412634 3.6104161497591427 0 0 0 0 325.19878475521182 -232.28499001693854 0 -232.28499001693854 -54.37426207777753 0 0 0 0 428.90200991003258 -421.76787740175496 0 -421.76787740175496 164.91824253619416 0 0 0 0 103.98244553646146 16.580845123316976 0 16.580845123316976 889.71773205492354 0 0 0 0 954.55903925574785 -203.47496352849703 0 -203.47496352849703 856.33232068658981 0 0 0 0 716.55838809950728 102.31619936056268 0 102.31619936056268 166.82434383239888 0 0 0 0 -226.17359879908872 -253.53785883558885 0 -253.53785883558885 52.211596563396597 0 0 0 0 84.404469615541529 148.33042582720373 0 148.33042582720373 172.6451472814224 0 0 0 0 235.3102571286654 392.90018992603291 0 392.90018992603291 347.42457188336994 0 0 0 0 -144.86220127730121 156.26021006138399 0 156.26021006138399 1494.9767882219894 0 0 0 0 -61.048040648860479 -78.278843350341049 0 -78.278843350341049 1304.3849460556594 0 0 0 0 177.06471477559535 7.7832636956009082 0 7.7832636956009082 1488.844793814118 0 0 0 0 105.93027646074188 255.47446496195334 0 255.47446496195334 1153.5449633947592 0 0 0 0 50.092124427696035 130.34862775427609 0 130.34862775427609 908.05711721937405 0 0 0 0 -47.093209030175785 102.85982920695824 0 102.85982920695824 1165.6101620350819 0 0 0 0 83.900823588843195 101.76570820530469 0 101.76570820530469 821.03543076525239 0 0 0 0 -69.386069944242763 359.94082874123615 0 359.94082874123615 817.60748645705462 0 0 0 0 -184.34634255211495 27.146436567454657 0 27.146436567454657 1418.1079237571466 0 0 0 0 -10.027313627077092 192.66307497788512 0 192.66307497788512 1051.1476832383487 0 0 0 0 -77.313818115948379 -43.718449406951549 0 -43.718449406951549 1235.0311909455922 0 0 0 0 32.18929072510582 -87.171847027202602 0 -87.171847027202602 1217.8609168638104 0 0 0 0 -108.27506740106855 73.256491298932815 0 73.256491298932815 1145.9443083602819 0 0 0 0 158.43067453147523 -21.024756905433605 0 -21.024756905433605 1164.8203077569597 0 0 0 0 215.28034500132708 97.926326876884559 0 97.926326876884559 1081.607053448799 0 0 0 0 118.73534456689049 -88.973096375855675 0 -88.973096375855675 140.0677128751413 0 0 0 0 8.7991903208476288 45.402484597398143 0 45.402484597398143 -14.316727855938552 0 0 0 0 11.575637140896156 -6.0415431564065898 0 -6.0415431564065898 12.942740220609192 0 0 0 0 2.2747944514254552 -5.4552899939599016 0 -5.4552899939599016 34.996575008818525 0 0 0 0 155.11378420917026 -165.67590785324865 0 -165.67590785324865 273.32299398565374 0 0 0 0 -19.972791717912514 -25.921187387333703 0 -25.921187387333703 37.831791673350381 0 0 0 0 -17.237187530052324 -42.674028911704227 0 -42.674028911704227 -10.896077136822896 0 0 0 0 11.000722448989904 -5.3090757069202965 0 -5.3090757069202965 4.1502136048223903 0 0 0 0 -36.713900339736483 -45.030134642749545 0 -45.030134642749545 50.609245484520216 0 0 0 0 -19.092637325060423 -23.223765160782932 0 -23.223765160782932 -2.577876408227894 0 0 0 0 91.338771350420757 -96.069807220970688 0 -96.069807220970688 -158.30871325868793 0 0 0 0 3.1918157563342007 -1.4458941480027079 0 -1.4458941480027079 0.94277651014357033 0 0 0 0 -37.753230594426441 0.88451338981576555 0 0.88451338981576555 1330.7156723208318 0 0 0 0 140.57540915455115 47.477871767140186 0 47.477871767140186 584.42633841534553 0 0 0 0 118.7780129012317 -97.261282801853667 0 -97.261282801853667 933.5043456624262 0 0 0 0 145.16382232103933 102.90857035283989 0 102.90857035283989 558.77578353685385 0 0 0 0 83.265367818175037 218.15877523038944 0 218.15877523038944 505.3248946058302 0 0 0 0 -108.25203221736956 41.338760585626005 0 41.338760585626005 549.08711538196076 0 0 0 0 170.16954931019609 175.35132458143744 0 175.35132458143744 74.249612161576806 0 0 0 0 40.50833704955221 -82.512717721157969 0 -82.512717721157969 260.75519823970171 0 0 0 0 -38.503296440920167 191.11230241271551 0 191.11230241271551 -106.48334515067108 0 0 0 0 -0.12141971894423875 1.9327674565787731 0 1.9327674565787731 2.6574359828736505 0 0 0 0 74.400607456362195 229.44729082931735 0 229.44729082931735 -88.611368970319745 0 0 0 0 -4.6362435489961626 -204.88983585866526 0 -204.88983585866526 261.23319277773408 0 0 0 0 46.33523099864442 149.18645952160659 0 149.18645952160659 89.994865157423192 0 0 0 0 65.098137944745758 95.89006032900943 0 95.89006032900943 423.90038974982599 0 0 0 0 138.57929378676818 122.44439603924548 0 122.44439603924548 45.869888273497054 0 0 0 0 231.85960094976053 -153.94231701976605 0 -153.94231701976605 401.87769383710292 0 0 0 0 0.78506176064183819 -43.607815180352191 0 -43.607815180352191 -7.3807125876501232 0 0 0 0 -9.1938114426720858 14.719852013386117 0 14.719852013386117 350.99960199469206 0 0 0 0 -64.470541668516489 -144.77806869684355 0 -144.77806869684355 554.48179827918648 0 0 0 0 130.91079440041722 48.786567215429386 0 48.786567215429386 348.35194631234481 0 0 0 0 38.496511845306486 -216.36773268191246 0 -216.36773268191246 431.05385696472149 0 0 0 0 97.775139390521872 -163.33030573224642 0 -163.33030573224642 18.983283951849444 0 0 0 0 16.147701222960677 -84.885002196515416 0 -84.885002196515416 243.57605648249955 0 0 0 0 26.521572616908543 25.722477088259438 0 25.722477088259438 115.56180635394412 0 0 0 0 29.651245397389971 7.6214039993205915 0 7.6214039993205915 151.776312431306 0 0 0 0 -10.663483009684569 32.980954079790536 0 32.980954079790536 328.98562095751549 0 0 0 0 30.152011260887775 125.27669427766523 0 125.27669427766523 105.61998831703386 0 0 0 0 45.761849815452024 20.506346528808535 0 20.506346528808535 32.406070220014954 0 0 0 0 40.476193204254741 21.466298837076465 0 21.466298837076465 51.862702811755298 0 0 0 0 59.464246992747576 69.38461900652328 0 69.38461900652328 101.28819417646446 0 0 0 0 32.832135878033114 35.131483194210887 0 35.131483194210887 88.610539773610071 0 0 0 0 41.916291892205663 25.071331961373289 0 25.071331961373289 60.877485810269718 0 0 0 0 39.156070889222974 11.525069413888559 0 11.525069413888559 45.9929061615112 0 0 0 0 31.614870221137608 11.149776975798886 0 11.149776975798886 64.087328212985994 0 0 0 0 32.165161792296203 12.76010962781038 0 12.76010962781038 67.912505913060158 0 0 0 0 15.539633254866203 2.5794628769872361 0 2.5794628769872361 61.940281543567835 0 0 0 0 42.2827305021965 -4.4486427331357845 0 -4.4486427331357845 50.573113849670335 0 0 0 0 41.355522434459999 21.045977602165294 0 21.045977602165294 30.881808242229454 0 0 0 0 41.247585394399721 16.581105804652907 0 16.581105804652907 57.832473626243882 0 0 0 0 49.152458605163702 -2.3553226414587698 0 -2.3553226414587698 30.877610627023387 0 0 0 0 -1.8106965013084846 14.97967322351542 0 14.97967322351542 84.676136232636054 0 0 0 0 -5.7502863480822271 9.2773080567130819 0 9.2773080567130819 84.497963501868071 0 0 0 0 4.8633051591496042 12.750833017256809 0 12.750833017256809 80.452851857926362 0 0 0 0 5.3874095466253493 12.982989167870983 0 12.982989167870983 76.213005424535368 0 0 0 0 17.08715421306988 7.8565023596092942 0 7.8565023596092942 74.605635950254509 0 0 0 0 15.670173216622061 17.129810054946574 0 17.129810054946574 72.054727117931179 0 0 0 0 15.969221580589874 18.58273663635191 0 18.58273663635191 78.793145967392775 0 0 0 0 1.0453159894022974 21.727102328401088 0 21.727102328401088 91.031675047692261 0 0 0 0 7.9509310839239333 22.631611358647206 0 22.631611358647206 115.55432927281799 0 0 0 0 7.7963517827483884 18.401708229946962 0 18.401708229946962 89.642671993895419 0 0 0 0 -15.338416423206581 3.960143946154858 0 3.960143946154858 84.32651489564887 0 0 0 0 -3.3142305226137978 13.32948657736415 0 13.32948657736415 83.991898257718276 0 0 0 0 -10.577392762694217 14.101109098388406 0 14.101109098388406 90.4565678182189 0 0 0 0 -19.290975592511131 -15.680151039265183 0 -15.680151039265183 72.113537248937064 0 0 0 0 -23.616591972400784 3.3956592382855888 0 3.3956592382855888 91.788227227225434 0 0 0 0 -25.801025035989369 -10.468267349137022 0 -10.468267349137022 107.94020895292908 0 0 0 0 -10.758663221618008 20.973550787568456 0 20.973550787568456 107.20743497066724 0 0 0 0 -9.8475548527503634 19.450507461566303 0 19.450507461566303 164.02603190473747 0 0 0 0 -11.949721282690007 -90.822298198585486 0 -90.822298198585486 178.74292380333281 0 0 0 0 -28.231125518621411 -13.097902793902904 0 -13.097902793902904 71.892121161712566 0 0 0 0 -30.529093552679115 -31.030194855091395 0 -31.030194855091395 44.772026225953596 0 0 0 0 287.50431997384203 9.5516957243962679 0 9.5516957243962679 -202.01926806144184 0 0 0 0 122.11694265584265 36.130507198111445 0 36.130507198111445 461.04415965983935 0 0 0 0 -42.445891466696594 -18.093477668762716 0 -18.093477668762716 72.139310428428871 0 0 0 0 1.9762562104116785 -10.82838246587097 0 -10.82838246587097 59.348705838600779 0 0 0 0 -28.941663431891357 -5.9394383329672564 0 -5.9394383329672564 62.941376246548316 0 0 0 0 -28.948788074254026 -11.522787283330217 0 -11.522787283330217 75.565028105935198 0 0 0 0 -29.32300164240678 -160.91205058605192 0 -160.91205058605192 -456.53602263046196 0 0 0 0 0.6628317109159152 5.5543870261476656 0 5.5543870261476656 -1.4440075795675398 0 0 0 0 4.8883216103804443 168.63835168832884 0 168.63835168832884 -228.59844065926882 0 0 0 0 199.17230394955027 423.98100145261196 0 423.98100145261196 -388.77170279498387 0 0 0 0 506.49567061535163 -177.50733421277255 0 -177.50733421277255 -561.4815907449447 0 0 0 0 437.08431825111984 -155.11489718058147 0 -155.11489718058147 -68.212476491761663 0 0 0 0 362.67672251172309 -84.569245484423845 0 -84.569245484423845 -61.36737731845642 0 0 0 0 422.38493263085184 142.33001025143312 0 142.33001025143312 -187.29551231860751 0 0 0 0 5.5257270051011496 -0.35570456407506867 0 -0.35570456407506867 -0.72109801229747461 0 0 0 0 107.47870827050065 193.38369520368724 0 193.38369520368724 374.64419273797103 0 0 0 0 -0.4274174245295761 2.9706027594863329 0 2.9706027594863329 7.0647844925849199 0 0 0 0 195.10920651443212 135.58755202008342 0 135.58755202008342 56.865262131846976 0 0 0 0 200.62978571722306 166.20835107545645 0 166.20835107545645 66.252576702609076 0 0 0 0 4.3122739489563173 53.947742051659588 0 53.947742051659588 188.94373032922886 0 0 0 0 322.78805793176252 167.14802755424898 0 167.14802755424898 44.046297246823087 0 0 0 0 349.30963106280615 350.10075619800773 0 350.10075619800773 207.36841786668811 0 0 0 0 211.99765198437944 182.34403275694058 0 182.34403275694058 78.574651853792602 0 0 0 0 569.69495917538279 204.89748092139052 0 204.89748092139052 -112.07480665374896 0 0 0 0 292.98481589127937 8.5428747167361507 0 8.5428747167361507 -110.22176098755153 0 0 0 0 0.98300794528589286 -15.173467217994595 0 -15.173467217994595 79.801249811377289 0 0 0 0 128.76512258856746 6.7808782181236893 0 6.7808782181236893 58.710885014996165 0 0 0 0 184.64427478139669 102.18320064940599 0 102.18320064940599 154.70779438200407 0 0 0 0 -2.9250920810600221 -2.1531555547315406 0 -2.1531555547315406 23.289677674532399 0 0 0 0 165.69971103210264 84.754959874058841 0 84.754959874058841 185.68571209596121 0 0 0 0 211.21020474561738 115.68510828891885 0 115.68510828891885 22.836622116708895 0 0 0 0 188.10047779393699 66.959879980515325 0 66.959879980515325 91.340036899666302 0 0 0 0 165.81798846481013 164.62180821681386 0 164.62180821681386 132.0390943854145 0 0 0 0 220.59829630604372 142.13386757116314 0 142.13386757116314 94.780570609262213 0 0 0 0 168.13669910887256 147.09127305950096 0 147.09127305950096 131.83023351554584 0 0 0 0 152.85563482177258 122.23314132452833 0 122.23314132452833 98.626247902939213 0 0 0 0 -14.489162003206729 3.5567851025261916 0 3.5567851025261916 82.068517989242537 0 0 0 0 -15.93079372768716 3.1981411652195675 0 3.1981411652195675 81.917796863112017 0 0 0 0 -17.074927517038304 3.9425194575233036 0 3.9425194575233036 81.56928166171565 0 0 0 0 -26.181095205482052 -6.7143987320159795 0 -6.7143987320159795 79.421255685781944 0 0 0 0 -15.83008553205218 -13.756405026513676 0 -13.756405026513676 64.591915222321404 0 0 0 0 -9.6018105184011802 -5.2475494598256773 0 -5.2475494598256773 70.517838031417341 0 0 0 0 -13.309402465225503 -4.4267431999360269 0 -4.4267431999360269 88.590970032288169 0 0 0 0 -12.805899182487337 -0.68503933625106583 0 -0.68503933625106583 87.481935654701374 0 0 0 0 3.7459580975446443 -1.4958742661692668 0 -1.4958742661692668 85.548883131830735 0 0 0 0 -7.453322943772946 9.8980890935199568 0 9.8980890935199568 85.446524394479638 0 0 0 0 -1.8639523902484143 4.085686168522443 0 4.085686168522443 82.993783502257429 0 0 0 0 4.3286713329889608 1.6844657485598873 0 1.6844657485598873 83.572589210019942 0 0 0 0 1.0073734519028221 -20.262411166608217 0 -20.262411166608217 64.140220745211991 0 0 0 0 -5.4559720616712681 11.926092751853176 0 11.926092751853176 29.458256049973102 0 0 0 0 -8.7608071214081065 -15.771041800651801 0 -15.771041800651801 103.3402396976453 0 0 0 0 -19.861415601529188 0.89090481632592855 0 0.89090481632592855 73.230121974462236 0 0 0 0 14.19614531195657 3.4201996388328553 0 3.4201996388328553 30.255993831437081 0 0 0 0 0.81108757742092763 19.611122420400832 0 19.611122420400832 20.583691513851818 0 0 0 0 8.8913988368335595 -7.8315953218934737 0 -7.8315953218934737 72.295449894219928 0 0 0 0 170.28158400366237 198.51849441484046 0 198.51849441484046 86.315376190090319 0 0 0 0 118.82611489035844 162.52638914489944 0 162.52638914489944 127.80180906121677 0 0 0 0 60.890198402341412 154.87094304558559 0 154.87094304558559 89.834252474145615 0 0 0 0 128.63251091062102 120.95385825785343 0 120.95385825785343 78.464684076432604 0 0 0 0 23.489534753774933 -19.317312705970835 0 -19.317312705970835 16.55237124049745 0 0 0 0 -18.359371383663529 55.677168443784467 0 55.677168443784467 72.003131501468943 0 0 0 0 117.07750687131386 114.14191391940267 0 114.14191391940267 107.67043470731005 0 0 0 0 127.16802540398203 129.82630529152812 0 129.82630529152812 75.089639343605995 0 0 0 0 127.70327880120021 157.44026677255169 0 157.44026677255169 173.89920970737148 0 0 0 0 203.71937190500103 87.389590492974094 0 87.389590492974094 65.079327458981425 0 0 0 0 79.703759585202533 31.652163539176399 0 31.652163539176399 49.019202415947802 0 0 0 0 63.771305526490323 100.7947255121544 0 100.7947255121544 -47.886041979916627 0 0 0 0 -15.48555878791376 18.169580665533431 0 18.169580665533431 141.83263771055499 0 0 0 0 -5.1308452398900126 -6.8998220009245728 0 -6.8998220009245728 7.2764794586408357 0 0 0 0 67.00606564053669 -30.959372597251786 0 -30.959372597251786 88.536503670213278 0 0 0 0 -5.3548364088640987 8.1880368105582892 0 8.1880368105582892 61.420302794317166 0 0 0 0 -5.0658048678569685 11.764005210494361 0 11.764005210494361 25.694980672778911 0 0 0 0 -125.57651469810662 48.368772318910487 0 48.368772318910487 115.00428113283124 0 0 0 0 -0.078476494455310686 2.0086501704070372 0 2.0086501704070372 33.82482746341941 0 0 0 0 -1.4259852699113376 3.0388130864564449 0 3.0388130864564449 26.592128437804377 0 0 0 0 -64.736659331785631 171.57452017436663 0 171.57452017436663 41.282997104775859 0 0 0 0 115.32261079284672 84.499376662548457 0 84.499376662548457 43.709485158353345 0 0 0 0 91.342587783836279 121.49759962026292 0 121.49759962026292 -11.933598276948032 0 0 0 0 67.336238777013932 104.2525399037695 0 104.2525399037695 59.867637615257991 0 0 0 0 77.993675429485734 160.57552372072496 0 160.57552372072496 124.85467392133432 0 0 0 0 -381.43303828276021 36.795119409187464 0 36.795119409187464 119.62297616708383 0 0 0 0 23.304246738896836 16.884898985885229 0 16.884898985885229 21.519545850533177 0 0 0 0 -1.0812466553147448 -1.3928454341031848 0 -1.3928454341031848 23.377918893031676 0 0 0 0 5.5739819810551126 2.0896736614959082 0 2.0896736614959082 30.147102061080659 0 0 0 0 9.4456540999053686 15.898048599912727 0 15.898048599912727 30.495611903090321 0 0 0 0 27.637452613011192 9.3979230514814844 0 9.3979230514814844 27.338699673024166 0 0 0 0 -479.58270015448488 -311.89420969509592 0 -311.89420969509592 328.37723642923993 0 0 0 0 121.09940395674494 347.63873399837757 0 347.63873399837757 78.98783070142963 0 0 0 0 26.794943889536626 10.473693272266246 0 10.473693272266246 35.837044254578359 0 0 0 0 29.425939792832651 -6.2115979094378417 0 -6.2115979094378417 -7.4476990160619607 0 0 0 0 24.10373735376379 19.284081748348399 0 19.284081748348399 82.812862693725037 0 0 0 0 -41.271188032695136 11.254814608008019 0 11.254814608008019 48.499990150776284 0 0 0 0 0.95668678868523926 9.3008493754791246 0 9.3008493754791246 34.9686468009686 0 0 0 0 -10.243740770203658 22.895981758336347 0 22.895981758336347 28.062045630009379 0 0 0 0 -32.163656843992612 32.16650660414598 0 32.16650660414598 41.102947669554851 0 0 0 0 8.7535068976230832 14.086468972112925 0 14.086468972112925 25.949707266034238 0 0 0 0 0.32996858273781982 20.115629145850107 0 20.115629145850107 65.964627809771628 0 0 0 0 -2.1265475120864767 10.485863039366873 0 10.485863039366873 29.784136726557449 0 0 0 0 -25.202392719180352 14.863471994154679 0 14.863471994154679 33.071187584280779 0 0 0 0 -21.678235812200001 73.567951071483549 0 73.567951071483549 68.773936830257298 0 0 0 0 0.0026349029786878475 9.8237015475887759 0 9.8237015475887759 41.703839250091789 0 0 0 0 0.30517481108431355 1.6052793465762392 0 1.6052793465762392 13.035172053464166 0 0 0 0 14.257340798680161 15.21015193686253 0 15.21015193686253 43.259861262071354 0 0 0 0 -2.7282248481936637 -5.8194827147825148 0 -5.8194827147825148 46.705186422827808 0 0 0 0 -6.2676968583255075 0.80562321290926775 0 0.80562321290926775 88.302314295360702 0 0 0 0 4.0251321060179492 14.713057533561326 0 14.713057533561326 1.4362606411309997 0 0 0 0 -11.430028022212355 -9.5437123303308908 0 -9.5437123303308908 108.31917620481545 0 0 0 0 -4.2776898870924924 21.451697576943843 0 21.451697576943843 255.07565908071774 0 0 0 0 15.484535978461281 -19.690219219268329 0 -19.690219219268329 72.273081308485416 0 0 0 0 7.0299053895278121 19.114646935173369 0 19.114646935173369 60.282340753488825 0 0 0 0 -11.203561434885717 -0.10147796577839685 0 -0.10147796577839685 31.26820934794776 0 0 0 0 -52.516150260329596 5.7407056271367765 0 5.7407056271367765 -123.96633067284893 0 0 0 0 -106.66709800930767 -200.20161394940806 0 -200.20161394940806 24.703237012785394 0 0 0 0 -22.864351741472092 -180.67753500115577 0 -180.67753500115577 36.198718551415368 0 0 0 0 17.674795205851296 60.101752627052065 0 60.101752627052065 329.73960333746072 0 0 0 0 -121.79468046704812 -48.81874655208594 0 -48.81874655208594 -124.1521025114198 0 0 0 0 2.6909197151401365 4.7501611235400105 0 4.7501611235400105 5.8516685927283874 0 0 0 0 12.855850801388442 32.007961030532897 0 32.007961030532897 271.71999431286531 0 0 0 0 63.861966984667561 46.298807742226927 0 46.298807742226927 156.92470089680864 0 0 0 0 26.938476787968263 13.181395997333581 0 13.181395997333581 -1.4561628247252258 0 0 0 0 27.138282782278111 35.487043614673894 0 35.487043614673894 48.000531888013938 0 0 0 0 17.280868944336106 11.916368343523899 0 11.916368343523899 -4.9543520584650835 0 0 0 0 -0.50242262080898925 0.41428799416721063 0 0.41428799416721063 0.53171888255407396 0 0 0 0 38.37269020695021 22.66967792561627 0 22.66967792561627 36.53277504460857 0 0 0 0 4.4886282876177575 46.016828576131957 0 46.016828576131957 239.27129986157524 0 0 0 0 -11.467564020589634 55.196880870753375 0 55.196880870753375 157.64089885728026 0 0 0 0 25.250946321270021 4.7647537134762388 0 4.7647537134762388 224.62585721019423 0 0 0 0 7.2254913577626212 -15.359332765574436 0 -15.359332765574436 20.495538699222379 0 0 0 0 4.1845007933306988 74.166466896700513 0 74.166466896700513 1.054036655863456 0 0 0 0 43.572391514324408 25.149725469003897 0 25.149725469003897 81.51314343928243 0 0 0 0 27.096097526427911 -20.176872626529075 0 -20.176872626529075 90.062831269719027 0 0 0 0 43.124262386028022 2.8201845664734719 0 2.8201845664734719 102.83365542860702 0 0 0 0 46.448459871600789 -31.593464540790592 0 -31.593464540790592 83.943305560322187 0 0 0 0 9.7445092784346343 0.9030765003117267 0 0.9030765003117267 73.534633762101294 0 0 0 0 21.09002922930631 -28.327658060072281 0 -28.327658060072281 69.670269034960256 0 0 0 0 10.883803672951217 -55.155770105302508 0 -55.155770105302508 283.78584725160908 0 0 0 0 50.881969778842176 -15.638118948649208 0 -15.638118948649208 128.1761504649694 0 0 0 0 67.882620572270753 20.450906319274509 0 20.450906319274509 159.09470942894404 0 0 0 0 39.118363343809506 35.281829130083679 0 35.281829130083679 165.34192886362143 0 0 0 0 65.283958268993956 -9.5885187603416853 0 -9.5885187603416853 71.568976664180809 0 0 0 0 75.005283669272558 -6.252343100915823 0 -6.252343100915823 78.580135084775975 0 0 0 0 59.057020177791856 -38.54972674101009 0 -38.54972674101009 120.77922431035404 0 0 0 0 65.298747465592669 1.6257484217039746 0 1.6257484217039746 24.440316079213517 0 0 0 0 53.73901777334504 -24.694474129435548 0 -24.694474129435548 63.854078272754123 0 0 0 0 44.378601589812206 -3.8612656809709733 0 -3.8612656809709733 43.475262923180708 0 0 0 0 50.718314972518783 -11.521035515761469 0 -11.521035515761469 40.291239997270168 0 0 0 0 5.1692240614956972 -8.8008145394596795 0 -8.8008145394596795 69.505792063602712 0 0 0 0 31.412833948677871 -16.042157066123764 0 -16.042157066123764 68.155153003885061 0 0 0 0 45.182775731595029 -21.631157602394524 0 -21.631157602394524 60.43172112578759 0 0 0 0 28.423754441301242 -9.8515777032874894 0 -9.8515777032874894 52.444785710351425 0 0 0 0 28.260716161105108 -4.7984239509685267 0 -4.7984239509685267 66.122469342008117 0 0 0 0 8.2802079667162616 -11.044622058048844 0 -11.044622058048844 69.973038822849048 0 0 0 0 1.7843404775267118 3.4196138749466627 0 3.4196138749466627 73.37876683203649 0 0 0 0 9.1211808593000114 0.23672733708190208 0 0.23672733708190208 73.79742013757641 0 0 0 0 -9.1908825218015409 -3.6816896819582325 0 -3.6816896819582325 73.213143567430961 0 0 0 0 4.2553831006243854 -10.419813295167842 0 -10.419813295167842 66.934765349287773 0 0 0 0 -2.812901875739044 5.460195576728438 0 5.460195576728438 74.106066946667852 0 0 0 0 -4.8033545579837664 6.1782744089359767 0 6.1782744089359767 75.724421849430655 0 0 0 0 4.7565384501531298 9.2196404828864615 0 9.2196404828864615 76.580585069008521 0 0 0 0 0.73161227488162694 9.7987244054602343 0 9.7987244054602343 79.618977117341274 0 0 0 0 0.93077072989945009 9.6314580944672343 0 9.6314580944672343 78.167444451100891 0 0 0 0 1.827219899125339 7.3603543369754334 0 7.3603543369754334 83.906444581312826 0 0 0 0 7.2479374837166688 3.9323791234855889 0 3.9323791234855889 75.941659235017141 0 0 0 0 3.0297723082840093 7.6426104984420817 0 7.6426104984420817 79.219889972890087 0 0 0 0 6.6240973159547138 7.364306928771839 0 7.364306928771839 69.632177577317634 0 0 0 0 0.29196543179205037 11.262898074004625 0 11.262898074004625 74.872695072001079 0 0 0 0 4.6308827013781411 9.684395107698947 0 9.684395107698947 46.554673766004271 0 0 0 0 5.8410186660880754 1.7677855664114759 0 1.7677855664114759 34.755781380874396 0 0 0 0 -2.5379995383802676 6.5701499910450956 0 6.5701499910450956 6.0200451461092825 0 0 0 0 7.4216556132159894 7.0706845093372976 0 7.0706845093372976 85.408874967048177 0 0 0 0 -3.0906315181899089 0.063561901543039312 0 0.063561901543039312 10.084759370937746 0 0 0 0 -23.40996794088278 -20.522225206928852 0 -20.522225206928852 63.275146305793896 0 0 0 0 -28.038097993370684 0.080797257949598134 0 0.080797257949598134 72.970592362893512 0 0 0 0 -14.969878405256168 13.682287922143587 0 13.682287922143587 67.965920958151401 0 0 0 0 -1.2603003100105583 1.7001905139259179 0 1.7001905139259179 16.814023138591438 0 0 0 0 -13.61734215474263 10.289488199006882 0 10.289488199006882 46.463774335948983 0 0 0 0 -1.1467828255398054 1.2992054555064083 0 1.2992054555064083 19.783766554986528 0 0 0 0 1.5206585999125091 12.21357858919049 0 12.21357858919049 2.1328445381002723 0 0 0 0 -16.06816305695088 10.380592711182544 0 10.380592711182544 60.486013866846406 0 0 0 0 -3.9039298513983454 -12.096794737502933 0 -12.096794737502933 53.433960590235074 0 0 0 0 -3.0267097381912436 -21.166331259915751 0 -21.166331259915751 23.802732013660716 0 0 0 0 4.0256003449317461 -19.489270522770312 0 -19.489270522770312 13.325372766252258 0 0 0 0 6.0410028952864394 -16.398027811970678 0 -16.398027811970678 15.409418202656525 0 0 0 0 -0.0012186994111572089 0.03972291842001141 0 0.03972291842001141 18.672096834598051 0 0 0 0 -4.3164686771882543 -3.3865527311827464 0 -3.3865527311827464 12.12357980167144 0 0 0 0 -0.096950623669642008 -0.98725442241266137 0 -0.98725442241266137 12.887906640477013 0 0 0 0 -6.1440422327019064 -2.0688659682491561 0 -2.0688659682491561 0.27793106641911436 0 0 0 0 -0.1057325445298839 -0.81914929486120514 0 -0.81914929486120514 16.609303423717051 0 0 0 0 59.226282697527324 -35.092715795501135 0 -35.092715795501135 -68.477732100327557 0 0 0 0 32.529416663148453 -7.439433508534421 0 -7.439433508534421 -61.099401776125887 0 0 0 0 -8.8442956561473292 -19.001096022544516 0 -19.001096022544516 48.028112153435359 0 0 0 0 -0.0033175146772701507 -0.14544511659392229 0 -0.14544511659392229 11.432799230446108 0 0 0 0 -68.467786578924489 75.470195227737349 0 75.470195227737349 148.11848699481925 0 0 0 0 -0.22584619017005042 -0.98552596709050988 0 -0.98552596709050988 12.340136246766804 0 0 0 0 25.346923319067457 -67.664076188622857 0 -67.664076188622857 -14.677718539533089 0 0 0 0 38.682586261289373 -28.490723009512294 0 -28.490723009512294 86.448463563690893 0 0 0 0 174.30983584901389 -78.647886518861924 0 -78.647886518861924 103.93290693641757 0 0 0 0 10.316304208603015 -194.68307831251877 0 -194.68307831251877 130.76301377572236 0 0 0 0 44.948406203327551 -63.988009264667198 0 -63.988009264667198 -11.09656597598223 0 0 0 0 98.820579331865787 -52.179098852335301 0 -52.179098852335301 -8.5511545825866051 0 0 0 0 32.600906052718528 -56.908775638476072 0 -56.908775638476072 25.540272841011756 0 0 0 0 24.852999887498768 -34.602699380506238 0 -34.602699380506238 -31.184952458163025 0 0 0 0 -177.8544150460109 -44.65269630048715 0 -44.65269630048715 233.98043070612039 0 0 0 0 -3.9984497821385245 1.5101944654196586 0 1.5101944654196586 0.3382570489006298 0 0 0 0 -426.14808883829915 -15.512861025052189 0 -15.512861025052189 238.13071717260755 0 0 0 0 -148.03704960030745 -104.73946372292266 0 -104.73946372292266 92.626019546441967 0 0 0 0 -0.86232397967084295 -11.637282141559581 0 -11.637282141559581 90.26207808182437 0 0 0 0 -139.49832857222168 361.51886300902697 0 361.51886300902697 415.55725409434672 0 0 0 0 1.5624643746845326 1.4824049237664241 0 1.4824049237664241 0.36691529936521761 0 0 0 0 -7.433055412719713 6.1986322454084188 0 6.1986322454084188 0.35843151080862867 0 0 0 0 76.366109442559491 40.632758992900563 0 40.632758992900563 12.725120723014697 0 0 0 0 19.223073317054684 17.902331336719726 0 17.902331336719726 -47.094859094620915 0 0 0 0 -9.5602794492692738 33.940182528625883 0 33.940182528625883 17.73060784620975 0 0 0 0 -22.093363473562704 -0.88922366701444844 0 -0.88922366701444844 24.758209171210183 0 0 0 0 -8.4988787168745148 12.334244792946265 0 12.334244792946265 -49.491807825186697 0 0 0 0 -168.42983044154857 37.046420844046224 0 37.046420844046224 -3.9335762613482075 0 0 0 0 -52.6216858233729 16.832231674838113 0 16.832231674838113 -4.2963143785891589 0 0 0 0 -52.706588866192078 -41.888383220648393 0 -41.888383220648393 -18.03971680877703 0 0 0 0 -136.41765355576325 -70.055124459531726 0 -70.055124459531726 -17.586037074725027 0 0 0 0 -1.2523640144152974 -0.014037463822205609 0 -0.014037463822205609 0.36888797947577245 0 0 0 0 -1.2738625104398009 -4.9989887092569631 0 -4.9989887092569631 70.733718012811323 0 0 0 0 -270.09061886616172 99.557518789675669 0 99.557518789675669 427.00389682123205 0 0 0 0 290.05424516373421 345.07871365935716 0 345.07871365935716 -178.88906592394414 0 0 0 0 -84.370420022323174 61.748297241058026 0 61.748297241058026 -195.01692539901705 0 0 0 0 -40.301089058814995 -12.126002635770419 0 -12.126002635770419 42.048220723139821 0 0 0 0 -50.977680732133194 -38.80489639013831 0 -38.80489639013831 46.848632141740381 0 0 0 0 -2.010348511484199 6.3212158155326961 0 6.3212158155326961 20.355872134575037 0 0 0 0 -53.639052042695425 -12.331903533624427 0 -12.331903533624427 56.824037570317159 0 0 0 0 -43.746626652279616 -22.095070850320553 0 -22.095070850320553 32.150079242695938 0 0 0 0 -116.47425949990719 -5.9394055204174947 0 -5.9394055204174947 28.809990328605636 0 0 0 0 -48.785167122972695 20.869959315958113 0 20.869959315958113 19.9722102102387 0 0 0 0 -3.9045276674237357 -13.035058500914602 0 -13.035058500914602 45.518083050905261 0 0 0 0 -13.224971420702332 29.330001961279777 0 29.330001961279777 20.484769605871406 0 0 0 0 3.0798575392641396 15.497954725047748 0 15.497954725047748 6.8469833505514544 0 0 0 0 7.3527810422033326 13.107859332598309 0 13.107859332598309 -4.1821663912705844 0 0 0 0 13.96344642044096 25.747372919126065 0 25.747372919126065 -2.4281817189184949 0 0 0 0 -13.983825212696956 34.789153926380095 0 34.789153926380095 -14.767683003097773 0 0 0 0 -1.5705869354719653 7.3932774714703555 0 7.3932774714703555 -22.704328528061524 0 0 0 0 -47.371914536763143 6.8258287488424685 0 6.8258287488424685 14.587284517896478 0 0 0 0 -22.569574963171817 45.685049672261812 0 45.685049672261812 -65.541179201449268 0 0 0 0 -29.016469881482294 25.35182915716905 0 25.35182915716905 -22.608637625948177 0 0 0 0 -19.730370117163602 -5.2122047587181441 0 -5.2122047587181441 -8.8131175668895594 0 0 0 0 -3.6472583342788312 11.346751357756148 0 11.346751357756148 3.2399894532572944 0 0 0 0 0.60171460264213295 8.4562691452946694 0 8.4562691452946694 2.7662052179707786 0 0 0 0 -5.1681601947029776 2.7543362698379497 0 2.7543362698379497 14.637698464372079 0 0 0 0 4.046028102744458 5.1018004266661592 0 5.1018004266661592 6.6167325812130002 0 0 0 0 98.772095371047726 172.30407987484796 0 172.30407987484796 743.9656110090873 0 0 0 0 -37.941560851298163 33.337967455951002 0 33.337967455951002 66.225190089233365 0 0 0 0 -42.771633411821767 11.491982106857904 0 11.491982106857904 16.562654641595145 0 0 0 0 -7.6155700492627147 6.1959963041463197 0 6.1959963041463197 12.876279829419218 0 0 0 0 7.1944784097022421 6.8704424603420193 0 6.8704424603420193 -9.3370173261500895 0 0 0 0 4.0378630321674791 16.768237048374431 0 16.768237048374431 -7.2229773221333744 0 0 0 0 5.3764832463450603 6.1736222014114901 0 6.1736222014114901 8.5096151343968813 0 0 0 0 6.4161374777868332 13.672647103776399 0 13.672647103776399 -0.99181113563827239 0 0 0 0 -7.9314706844488683 89.631292213274719 0 89.631292213274719 -56.079256957455073 0 0 0 0 4.4036413133072294 8.3092993646183686 0 8.3092993646183686 3.4616968377973478 0 0 0 0 -17.264971185114064 65.907743352463513 0 65.907743352463513 -95.861787451285636 0 0 0 0 98.433535934759675 58.043081034855277 0 58.043081034855277 -169.18276843831336 0 0 0 0 4.2622258115770819 10.252438548817736 0 10.252438548817736 10.987943737058231 0 0 0 0 7.5809853427926726 8.9028811871689868 0 8.9028811871689868 2.5550695199348681 0 0 0 0 6.5918208224306909 11.949259346820327 0 11.949259346820327 9.5598989097343292 0 0 0 0 -1.1280762817409595 30.483924448486505 0 30.483924448486505 24.430919187507243 0 0 0 0 -18.24216681667167 12.242888393957401 0 12.242888393957401 9.5636717065535777 0 0 0 0 210.11936148283348 188.94149152713726 0 188.94149152713726 110.09856848372874 0 0 0 0 -1.8442706387357646 1.5808179880218702 0 1.5808179880218702 4.3728264006955442 0 0 0 0 235.84754650584546 133.71279313755804 0 133.71279313755804 102.34052117678948 0 0 0 0 -1.2398984825749491 1.5059461323241337 0 1.5059461323241337 2.2608667400547802 0 0 0 0 342.45047003776199 292.23158615195644 0 292.23158615195644 154.59884757982218 0 0 0 0 -42.337660603184304 -10.907370104563597 0 -10.907370104563597 18.838030475124469 0 0 0 0 -8.8297217963431649 42.499930542198854 0 42.499930542198854 103.54540702125814 0 0 0 0 114.87295275206907 95.037266435741913 0 95.037266435741913 119.67543025086343 0 0 0 0 221.55112091051069 56.190450972617327 0 56.190450972617327 91.592862593213795 0 0 0 0 190.98752479581253 168.80247303457872 0 168.80247303457872 19.126139756306657 0 0 0 0 242.65310000068803 108.90095987905079 0 108.90095987905079 85.782371616793171 0 0 0 0 379.94975802293175 15.216330582014052 0 15.216330582014052 10.725527581172855 0 0 0 0 232.10663115144416 3.0495367115727277 0 3.0495367115727277 402.85241229375242 0 0 0 0 143.68716316329437 48.974746979118208 0 48.974746979118208 316.41106137420866 0 0 0 0 232.19536705256314 37.668426096366602 0 37.668426096366602 122.21567402778601 0 0 0 0 160.55880754174177 66.206489403040905 0 66.206489403040905 113.44943262576999 0 0 0 0 61.906539035315291 37.082556674045918 0 37.082556674045918 172.00279249108644 0 0 0 0 152.74040230432911 12.423505125734664 0 12.423505125734664 130.86413696387172 0 0 0 0 154.62467247298446 43.782838372724655 0 43.782838372724655 117.83221588435845 0 0 0 0 20.130277575069613 59.795672383501369 0 59.795672383501369 145.32251819427347 0 0 0 0 10.291472498690609 -0.89080370532610686 0 -0.89080370532610686 142.14162788755493 0 0 0 0 66.9234721412667 25.9539726237781 0 25.9539726237781 127.42582105066685 0 0 0 0 3.1162435103369717 7.0250441116004367 0 7.0250441116004367 154.10053584803973 0 0 0 0 3.6101276613632365 8.887652334276936 0 8.887652334276936 116.17397261869337 0 0 0 0 4.0433772053413009 7.4927733261174581 0 7.4927733261174581 90.226773560410948 0 0 0 0 1.7652476547496008 4.6785332857361936 0 4.6785332857361936 121.50507400708739 0 0 0 0 52.501068623802439 4.3039057896530721 0 4.3039057896530721 115.27127789740916 0 0 0 0 37.510714119123804 9.9765788851509569 0 9.9765788851509569 120.7617151393606 0 0 0 0 49.882464478146801 43.568150801557294 0 43.568150801557294 140.96483514126157 0 0 0 0 42.471109697825796 12.096211454147124 0 12.096211454147124 86.101763565020519 0 0 0 0 32.26602730505499 -4.1054045934633905 0 -4.1054045934633905 36.350006536304136 0 0 0 0 -30.032321689280252 5.5279716175791691 0 5.5279716175791691 55.928422599405167 0 0 0 0 -10.60414954504003 -17.34545531477761 0 -17.34545531477761 82.441093333341996 0 0 0 0 -2.7975516370393052 17.260930458323855 0 17.260930458323855 87.264364796264999 0 0 0 0 -49.497355728479306 -23.758966597124527 0 -23.758966597124527 82.559887384850299 0 0 0 0 -29.545532308040187 -23.870662389859035 0 -23.870662389859035 61.417049210591358 0 0 0 0 -39.497033869054121 -27.185783856461057 0 -27.185783856461057 55.986749601288466 0 0 0 0 -37.141062332330193 -1.7592157358303666 0 -1.7592157358303666 112.841219222988 0 0 0 0 -35.365263947154318 -10.425412357453297 0 -10.425412357453297 53.468087044326239 0 0 0 0 -27.645286673264053 -9.4243222398108628 0 -9.4243222398108628 120.9235917305632 0 0 0 0 -24.0143125907328 -8.4268533844588092 0 -8.4268533844588092 79.881057010715267 0 0 0 0 -32.990794447136068 8.5435199698404176 0 8.5435199698404176 106.36800711523392 0 0 0 0 -29.239852954226109 -2.6565241283096839 0 -2.6565241283096839 135.43877752548724 0 0 0 0 -14.41086955751598 26.696082879294408 0 26.696082879294408 130.77176416951261 0 0 0 0 -39.940741892924166 7.0318159560047206 0 7.0318159560047206 121.42625364424021 0 0 0 0 -37.530002884254031 36.166708757824381 0 36.166708757824381 111.35387693637313 0 0 0 0 -45.353270429581698 10.209778153475781 0 10.209778153475781 69.270704345632112 0 0 0 0 -56.037735871938366 0.36035386781441048 0 0.36035386781441048 109.80087366062799 0 0 0 0 -52.722376154779681 23.829134688239719 0 23.829134688239719 121.47467314571259 0 0 0 0 -53.414612021555058 23.822581709682709 0 23.822581709682709 123.99739948967181 0 0 0 0 -55.797554168229908 28.993414126067364 0 28.993414126067364 114.8072150402586 0 0 0 0 -48.734289880465781 13.855443356197611 0 13.855443356197611 102.21645852339861 0 0 0 0 -48.556687052265488 10.872859504299413 0 10.872859504299413 126.25687563061001 0 0 0 0 -90.649163369043436 -72.551468910554831 0 -72.551468910554831 59.932377574030397 0 0 0 0 -4.4630950049262657 -1.05949199762577 0 -1.05949199762577 66.99874851150156 0 0 0 0 -34.623672368672942 15.466397416057589 0 15.466397416057589 92.818907357024727 0 0 0 0 -36.852150326673382 67.285007487687835 0 67.285007487687835 190.39633587525168 0 0 0 0 237.76778444681077 -0.41041647475503851 0 -0.41041647475503851 -9.6140332622308051 0 0 0 0 -52.257720884776973 -9.8490623880788917 0 -9.8490623880788917 146.52748999826144 0 0 0 0 -99.656099557406378 116.06469345212099 0 116.06469345212099 184.89595935657781 0 0 0 0 -37.919886533268887 -12.099675121517066 0 -12.099675121517066 74.318454826367088 0 0 0 0 -0.12175927816609664 -12.198685654868314 0 -12.198685654868314 9.5469329939878662 0 0 0 0 -4.7829407109544659 3.4105905095264504 0 3.4105905095264504 54.965792759697877 0 0 0 0 -42.89189266416993 -8.0437908097519539 0 -8.0437908097519539 32.345459166936052 0 0 0 0 0.21516578617298979 -62.709006775410671 0 -62.709006775410671 92.308344369041151 0 0 0 0 -102.19511781072447 -112.22627680623737 0 -112.22627680623737 71.363360346338595 0 0 0 0 -1.4949631938943895 -12.955739674682263 0 -12.955739674682263 270.00426719090319 0 0 0 0 43.741838275941689 -95.105222511525426 0 -95.105222511525426 13.421009242214495 0 0 0 0 -49.195994772163431 -33.758693920430233 0 -33.758693920430233 62.300548974715639 0 0 0 0 -3.760198645165663 -2.3433630393134877 0 -2.3433630393134877 76.130789137406055 0 0 0 0 -94.065535215945332 64.783047562643333 0 64.783047562643333 186.53370948007796 0 0 0 0 -0.0011717601488409025 2.0764696909391205 0 2.0764696909391205 11.339639727462782 0 0 0 0 1.0577008604450571 1.6586747686578462 0 1.6586747686578462 3.8452665081998134 0 0 0 0 74.313316165405894 244.19602428096823 0 244.19602428096823 431.94771737794508 0 0 0 0 53.838918974660643 110.74860717460979 0 110.74860717460979 118.16608202705538 0 0 0 0 0.043579263433427003 -0.068088809148321161 0 -0.068088809148321161 -7.5201309628610034 0 0 0 0 19.734633442825469 -28.1994344341947 0 -28.1994344341947 -20.431523644121626 0 0 0 0 -59.832311528170067 -34.955274920241209 0 -34.955274920241209 58.638693568587769 0 0 0 0 11.226177120429838 7.5685967489407631 0 7.5685967489407631 -13.89477990155865 0 0 0 0 7.9924495598534122 -2.8593555962434039 0 -2.8593555962434039 23.144698280171724 0 0 0 0 -25.809288486409173 -18.533947512092709 0 -18.533947512092709 52.079845052823657 0 0 0 0 -85.221952554401469 5.2270712377849122 0 5.2270712377849122 70.309298984910129 0 0 0 0 -43.767879990527945 -4.5326467310114822 0 -4.5326467310114822 107.88696449791314 0 0 0 0 5.3999550514265167 72.174488375465444 0 72.174488375465444 23.802178483208991 0 0 0 0 5.0295282952990332 12.741343316489171 0 12.741343316489171 32.268738412962705 0 0 0 0 -15.683893190759052 -15.213300146366237 0 -15.213300146366237 57.936479650234105 0 0 0 0 2.9803056313212295 4.5852378871816484 0 4.5852378871816484 2.5154910164783928 0 0 0 0 2.0806297532747919 2.4143689159499857 0 2.4143689159499857 1.391968885387314 0 0 0 0 49.865280276527557 21.693107309081824 0 21.693107309081824 -2.280064168269746 0 0 0 0 19.458343960791645 52.508003126567928 0 52.508003126567928 9.592154632868187 0 0 0 0 0.0026759479160520126 3.8155152159379213 0 3.8155152159379213 11.866210932959802 0 0 0 0 2.2956525077524614 8.1709854224694425 0 8.1709854224694425 19.986819303271602 0 0 0 0 -8.6415384640129105 12.057407840209635 0 12.057407840209635 17.182302714994876 0 0 0 0 5.8687550268921047 12.367204834648653 0 12.367204834648653 25.169096170375099 0 0 0 0 -4.0176508772842361 3.5210450363233008 0 3.5210450363233008 30.203191891963939 0 0 0 0 -2.4642608035201192 10.028829273214797 0 10.028829273214797 26.295468370488379 0 0 0 0 -3.215160268829095 10.233018582715886 0 10.233018582715886 29.207888520584675 0 0 0 0 -1.0513447032782581 5.988490526006025 0 5.988490526006025 22.509810102164124 0 0 0 0 0.4822728465366235 4.4978946237760056 0 4.4978946237760056 27.031797869157714 0 0 0 0 -3.6321319664830298 10.122247099046945 0 10.122247099046945 27.711996413650922 0 0 0 0 -11.487943860602734 3.2912450654839631 0 3.2912450654839631 26.214806406176649 0 0 0 0 1.3992887297800589 4.9459111417595949 0 4.9459111417595949 15.804370500953212 0 0 0 0 4.6786325674774378 10.155707865543775 0 10.155707865543775 15.242872864995888 0 0 0 0 -7.8542482090279009 6.7141022209543735 0 6.7141022209543735 6.8659669835178647 0 0 0 0 -11.268976507335601 7.6838071169040632 0 7.6838071169040632 47.590004074852914 0 0 0 0 -2.943774041502663 0.6077636757383118 0 0.6077636757383118 15.138599340792723 0 0 0 0 64.031872106324045 41.031406640438945 0 41.031406640438945 15.86201145342784 0 0 0 0 -2.8410690003034742 10.120755126263248 0 10.120755126263248 16.712697872251738 0 0 0 0 -0.012245476578649273 15.039040446165018 0 15.039040446165018 25.12873359178775 0 0 0 0 -0.02171880151738069 2.2787407200521557 0 2.2787407200521557 17.840935290209018 0 0 0 0 -9.2726550294618857 -6.825564206315903 0 -6.825564206315903 -6.8326909437819268 0 0 0 0 -8.6861886019291923 14.502374814939685 0 14.502374814939685 30.958596594136907 0 0 0 0 -1.6574960506641836 -0.12714589359779893 0 -0.12714589359779893 24.83876042738332 0 0 0 0 -0.78645888448409096 5.8010536067886278 0 5.8010536067886278 25.1957473687944 0 0 0 0 -15.544579399895387 -2.449665380764344 0 -2.449665380764344 46.245983817312549 0 0 0 0 9.6220825601807967 12.300816253716633 0 12.300816253716633 15.150252944697343 0 0 0 0 -15.933534933683404 9.5410684748494532 0 9.5410684748494532 12.612349227420054 0 0 0 0 -4.8450666265948978 3.6702360489417813 0 3.6702360489417813 19.296087339012672 0 0 0 0 -3.6938081263124332 6.9606433532899246 0 6.9606433532899246 31.484155963960802 0 0 0 0 4.912327134065082 11.399661311591387 0 11.399661311591387 29.098681209656789 0 0 0 0 -2.1438936988939647 -3.8520911023118174 0 -3.8520911023118174 3.1957003537499986 0 0 0 0 -0.77667264525261004 3.0577391851183577 0 3.0577391851183577 4.0164580887725947 0 0 0 0 -14.733069742786029 11.566055843686627 0 11.566055843686627 -14.073131028068019 0 0 0 0 -24.29032907771284 -11.534265697926458 0 -11.534265697926458 45.380063175834948 0 0 0 0 -22.577045053952133 46.570838286555954 0 46.570838286555954 -37.239735758514144 0 0 0 0 2.6069328428923608 -0.03713826002370979 0 -0.03713826002370979 3.8376563951130009 0 0 0 0 -44.145726257894694 -0.036707237726659514 0 -0.036707237726659514 68.905538919527316 0 0 0 0 -27.005473084461755 28.180394704657374 0 28.180394704657374 19.65748956832249 0 0 0 0 -1.1084160084321457 -1.0983142788160194 0 -1.0983142788160194 2.2813908438865695 0 0 0 0 34.548309297354535 -16.402616148061497 0 -16.402616148061497 15.01775344357884 0 0 0 0 -80.57090330387382 32.208312722912524 0 32.208312722912524 65.341924249178192 0 0 0 0 22.569117695084969 -102.53342495838297 0 -102.53342495838297 -23.542056897524162 0 0 0 0 -72.0077721603177 38.73116681130341 0 38.73116681130341 23.060181138964253 0 0 0 0 -69.818210556858944 -6.1646308105050593 0 -6.1646308105050593 10.850814596196869 0 0 0 0 -57.089928092682158 29.035013681070268 0 29.035013681070268 77.736551229376346 0 0 0 0 -43.512056464923944 8.676723263306485 0 8.676723263306485 69.215077183704125 0 0 0 0 -36.75300816455092 13.929975398335955 0 13.929975398335955 28.077156892231869 0 0 0 0 3.4320295756092492 24.669861669819511 0 24.669861669819511 71.544497260460048 0 0 0 0 -23.842023013695353 14.788027419819628 0 14.788027419819628 68.026154665334616 0 0 0 0 -48.412099281498627 8.9477102299752005 0 8.9477102299752005 80.6828797183407 0 0 0 0 -28.197354953920552 38.992254437311203 0 38.992254437311203 37.175756544413161 0 0 0 0 38.767847431460268 77.825448234390933 0 77.825448234390933 6.1463258929288713 0 0 0 0 80.186419351443419 120.80314864571847 0 120.80314864571847 -153.09403438990557 0 0 0 0 47.606918295544801 21.385193332476774 0 21.385193332476774 169.30932941433275 0 0 0 0 0.46066798588335711 -1.5899802635630351 0 -1.5899802635630351 -1.3506595718384062 0 0 0 0 2.2201821710727927 -3.7724662881810218 0 -3.7724662881810218 -82.865692806808511 0 0 0 0 2.5821470830341178 -0.82308561276036585 0 -0.82308561276036585 -1.6076920797174665 0 0 0 0 128.23093373292613 104.1609665753931 0 104.1609665753931 -41.558339066475128 0 0 0 0 44.998472496338536 35.820575009445747 0 35.820575009445747 301.73216550116194 0 0 0 0 13.216871165598604 -32.367660654716019 0 -32.367660654716019 56.723109928389022 0 0 0 0 11.929252851722097 -39.629145931308813 0 -39.629145931308813 156.6890664067032 0 0 0 0 91.815559608811213 98.946578524934012 0 98.946578524934012 152.52609062503325 0 0 0 0 35.949063917300919 46.735920992505271 0 46.735920992505271 45.62890774513653 0 0 0 0 32.901361151378921 45.277810785450129 0 45.277810785450129 104.74271101757768 0 0 0 0 121.20615556743178 111.73534606526664 0 111.73534606526664 61.274483198591042 0 0 0 0 184.76928901662859 159.33069493071525 0 159.33069493071525 119.1772368558959 0 0 0 0 158.63358933713926 181.9812467576412 0 181.9812467576412 252.52949489546882 0 0 0 0 196.07329915178536 151.32386124837649 0 151.32386124837649 92.114313154845149 0 0 0 0 99.676145255450479 90.525583646332962 0 90.525583646332962 139.36813170869573 0 0 0 0 188.64495409474898 99.754352056632342 0 99.754352056632342 220.504544091149 0 0 0 0 181.59747561083987 126.24966994261194 0 126.24966994261194 152.22626005565689 0 0 0 0 254.87842947650097 154.25926139093644 0 154.25926139093644 139.32679284028563 0 0 0 0 202.10338866228494 130.92563970734773 0 130.92563970734773 97.966929731046548 0 0 0 0 166.47172527667999 153.67238802656357 0 153.67238802656357 140.8266338677422 0 0 0 0 157.42631671967683 110.1731459699804 0 110.1731459699804 154.92392276038299 0 0 0 0 255.22707108158829 102.09724827777245 0 102.09724827777245 -58.423735177639173 0 0 0 0 192.11180275601691 188.8755490058611 0 188.8755490058611 225.40416037408795 0 0 0 0 0.27586995037203543 -1.0311588990499843 0 -1.0311588990499843 3.7539761204036317 0 0 0 0 0.78475332958135269 -8.1815719462364669 0 -8.1815719462364669 27.541124933925914 0 0 0 0 201.22932585092281 184.0482500329108 0 184.0482500329108 128.41751567840402 0 0 0 0 202.77168336812997 155.01858124724822 0 155.01858124724822 189.68958772841142 0 0 0 0 155.39333433871343 203.23024779009575 0 203.23024779009575 141.9989819121256 0 0 0 0 138.46607596040189 182.93979531487275 0 182.93979531487275 113.17996933488757 0 0 0 0 130.78384604116127 171.04191538981104 0 171.04191538981104 221.85208440842132 0 0 0 0 79.329307304916711 192.52847312496669 0 192.52847312496669 63.107599109076546 0 0 0 0 50.369938046580046 47.449455022082475 0 47.449455022082475 69.085815175843891 0 0 0 0 98.341403767388783 58.508258526278951 0 58.508258526278951 60.13275309499295 0 0 0 0 113.65463065958784 116.89499465999688 0 116.89499465999688 202.43453426611813 0 0 0 0 187.11285178009939 86.155205175775336 0 86.155205175775336 101.5736429670942 0 0 0 0 181.78649278207649 136.30338720545114 0 136.30338720545114 29.121723624535662 0 0 0 0 184.77118382875761 162.21456856964915 0 162.21456856964915 144.39692952707992 0 0 0 0 284.7359449816131 169.53880910480075 0 169.53880910480075 79.554923160891121 0 0 0 0 298.38552050669114 214.30543399926682 0 214.30543399926682 130.60051666291838 0 0 0 0 2.2656085596288946 -5.9154697910159797 0 -5.9154697910159797 15.240849851312703 0 0 0 0 -86.876386451845633 -111.34664337773756 0 -111.34664337773756 21.808345329744043 0 0 0 0 275.01914552993594 144.18570661678314 0 144.18570661678314 153.1632904203725 0 0 0 0 242.41438627011303 177.1949951951683 0 177.1949951951683 184.94903693177184 0 0 0 0 141.74874032109301 -68.447067254694048 0 -68.447067254694048 -133.73089229714969 0 0 0 0 350.04370375565122 289.87166345622973 0 289.87166345622973 340.25817428519258 0 0 0 0 0.26198706500206548 -1.4370255299139743 0 -1.4370255299139743 5.9813324891777881 0 0 0 0 -2.9081883906565054 -169.10969731454315 0 -169.10969731454315 -129.24485840186389 0 0 0 0 -86.318781053260864 -105.26036559355271 0 -105.26036559355271 86.108772209816379 0 0 0 0 -143.71750187051202 -67.261348127088695 0 -67.261348127088695 592.01620587430079 0 0 0 0 -8.3154754920306004 80.605874375658459 0 80.605874375658459 6.6585467076802161 0 0 0 0 -141.20946105745884 -81.954996229202152 0 -81.954996229202152 95.568792801117525 0 0 0 0 -57.953786847462652 70.572510745871114 0 70.572510745871114 178.43067614201937 0 0 0 0 -81.79332954214442 10.509463278962357 0 10.509463278962357 64.843448669969803 0 0 0 0 -77.617836053015708 23.949991518966272 0 23.949991518966272 66.198219750229327 0 0 0 0 -56.917452108961697 18.219335968220548 0 18.219335968220548 58.310498706923681 0 0 0 0 19.832306140466244 36.144625210479717 0 36.144625210479717 -2.9340558284220606 0 0 0 0 -72.63466827663251 12.956848675654328 0 12.956848675654328 59.40137956894614 0 0 0 0 15.02644567450352 68.631081770523451 0 68.631081770523451 45.54054195106437 0 0 0 0 -10.829821222195813 18.421901081034662 0 18.421901081034662 4.1827457717053953 0 0 0 0 -6.6433675160626642 19.857134256509028 0 19.857134256509028 1.4761433815318856 0 0 0 0 -19.207819896682963 47.087024815682526 0 47.087024815682526 101.23540301568573 0 0 0 0 -21.55803891683388 31.29698840322726 0 31.29698840322726 71.225344426755328 0 0 0 0 -27.560431717685788 37.680667265587545 0 37.680667265587545 105.78825846119435 0 0 0 0 8.0151384096207039 36.51671190471825 0 36.51671190471825 68.4995071861631 0 0 0 0 -9.7306015844524154 61.083171616941399 0 61.083171616941399 115.55774298230244 0 0 0 0 -17.108891474357733 35.200645742297638 0 35.200645742297638 135.43828393829608 0 0 0 0 -9.2345638392929743 49.845321251489167 0 49.845321251489167 154.0323872055742 0 0 0 0 -10.718372716897193 22.432822121925938 0 22.432822121925938 225.91339291690383 0 0 0 0 -21.242268623349446 2.4792043922498124 0 2.4792043922498124 196.99558616020659 0 0 0 0 -21.192036087833685 48.343762708516806 0 48.343762708516806 120.4066918190947 0 0 0 0 -34.60103343414994 13.987781691888813 0 13.987781691888813 137.20710691749264 0 0 0 0 -26.024265203527648 20.493710687151179 0 20.493710687151179 140.59662279079203 0 0 0 0 -7.4860962085058418 -26.605172015406424 0 -26.605172015406424 136.57700269267661 0 0 0 0 -26.564639005060826 -10.576551623645173 0 -10.576551623645173 123.11107777533471 0 0 0 0 -27.774798020972298 -18.963896114314593 0 -18.963896114314593 84.485822626171284 0 0 0 0 -16.948323206017449 -27.049923792830668 0 -27.049923792830668 63.244995718589053 0 0 0 0 6.0411066589858819 -57.535283168755996 0 -57.535283168755996 103.10444778058445 0 0 0 0 -45.280411219185225 -48.364237778143433 0 -48.364237778143433 67.784294593628147 0 0 0 0 42.777317855830006 -36.338786692005669 0 -36.338786692005669 64.571187784807989 0 0 0 0 60.555368801532723 -62.087601285293204 0 -62.087601285293204 56.988203964108834 0 0 0 0 99.555933180728061 -91.852281997635146 0 -91.852281997635146 110.31335488083278 0 0 0 0 -9.0351980198875026 -22.985457741844584 0 -22.985457741844584 177.9565812400906 0 0 0 0 20.5142619499793 -17.124596043722704 0 -17.124596043722704 163.18957015790511 0 0 0 0 39.907084333645344 -68.913692248665029 0 -68.913692248665029 253.45095351786586 0 0 0 0 0.25020400977971491 0.34859915884626957 0 0.34859915884626957 0.85213513695407528 0 0 0 0 -12.953689710795061 -79.414906871636049 0 -79.414906871636049 338.23715425285627 0 0 0 0 148.93874660433812 -184.69144493885688 0 -184.69144493885688 220.56777943515044 0 0 0 0 -160.0137123245745 84.765287390975573 0 84.765287390975573 1.7570951951056486 0 0 0 0 -94.696978314857006 57.715488193091005 0 57.715488193091005 -20.095488507336995 0 0 0 0 -64.063605582124069 0.17824279925662267 0 0.17824279925662267 3.897969746220042 0 0 0 0 -0.86902161817492107 -1.0762482988292277 0 -1.0762482988292277 4.5586433154344945 0 0 0 0 -128.00755669941145 29.427310938217488 0 29.427310938217488 21.985949310459546 0 0 0 0 -160.60829075747654 -145.43699160637334 0 -145.43699160637334 204.34975773168844 0 0 0 0 -93.917918761930423 232.99241604322015 0 232.99241604322015 507.33696576627568 0 0 0 0 -102.189660030656 -73.195452168154588 0 -73.195452168154588 505.14906913082814 0 0 0 0 124.3476144130068 149.78473012681934 0 149.78473012681934 90.600973016422358 0 0 0 0 187.89730856520418 244.52780803712812 0 244.52780803712812 79.518567107355921 0 0 0 0 -62.751551827032017 -4.4421856062544975 0 -4.4421856062544975 398.7254872462654 0 0 0 0 13.881901658826791 5.9310892713110661 0 5.9310892713110661 206.04405113156827 0 0 0 0 -26.849593666755936 -10.380405879535829 0 -10.380405879535829 313.67548809850632 0 0 0 0 27.147994783125796 77.865293581024162 0 77.865293581024162 132.07512610510457 0 0 0 0 32.297943033214324 218.37593539161026 0 218.37593539161026 378.70360077205078 0 0 0 0 158.19413050713774 68.568499687564326 0 68.568499687564326 -32.09636647177831 0 0 0 0 28.830284300301173 90.000916239849175 0 90.000916239849175 206.80559847016411 0 0 0 0 5.9891379199507355 63.90555776995825 0 63.90555776995825 73.787985968199791 0 0 0 0 -2.8102606244463733 4.6208219547913956 0 4.6208219547913956 0.91234739274108279 0 0 0 0 99.684435482598019 46.675984298301046 0 46.675984298301046 83.071920726331882 0 0 0 0 23.678466953037514 3.5680590479605598 0 3.5680590479605598 39.751000200340059 0 0 0 0 -1.5038236986333686 39.962307620473439 0 39.962307620473439 115.49448753468459 0 0 0 0 79.388177065764808 141.24377770324645 0 141.24377770324645 128.95518890320091 0 0 0 0 171.63028503763258 163.48070129229018 0 163.48070129229018 97.626915358647238 0 0 0 0 122.90530433079766 122.76984038155933 0 122.76984038155933 101.97002486155543 0 0 0 0 109.27596487635356 173.16121990637475 0 173.16121990637475 114.4525928251096 0 0 0 0 262.33095486030669 143.02621726272628 0 143.02621726272628 36.847186039522057 0 0 0 0 230.28409214399602 212.72358671719849 0 212.72358671719849 96.17709867094527 0 0 0 0 167.3797521383797 173.2125468535487 0 173.2125468535487 82.993476804869715 0 0 0 0 124.53062661544641 104.03457843494107 0 104.03457843494107 70.354167614292237 0 0 0 0 7.3861698894288565 69.848803592132754 0 69.848803592132754 88.620000953269482 0 0 0 0 131.44094445342398 58.804889179195015 0 58.804889179195015 25.699929456124664 0 0 0 0 2.3355738659098999 4.2037432685962628 0 4.2037432685962628 7.7204152316844556 0 0 0 0 334.74070634450334 169.5406116329159 0 169.5406116329159 16.84076437400654 0 0 0 0 732.92979672101922 382.98428165206496 0 382.98428165206496 123.51603511073336 0 0 0 0 248.64089843938882 368.67894921553125 0 368.67894921553125 328.34071881324053 0 0 0 0 123.17246239383212 190.49890124886588 0 190.49890124886588 140.75081482689711 0 0 0 0 -107.69366557760031 331.217058719958 0 331.217058719958 456.03031106891285 0 0 0 0 113.8159402215241 489.38519411656307 0 489.38519411656307 529.43381769045664 0 0 0 0 0.48540100927584762 -2.9593478146616121 0 -2.9593478146616121 6.5728031418430533 0 0 0 0 -31.009348746652677 44.557447949860943 0 44.557447949860943 63.338284681045479 0 0 0 0 -14.870900427923516 -395.28646016891071 0 -395.28646016891071 326.01534573460231 0 0 0 0 472.32015159773164 300.01406287342252 0 300.01406287342252 -36.730978538173986 0 0 0 0 -97.364365856423149 -66.34161727479659 0 -66.34161727479659 478.48728071639744 0 0 0 0 87.278878437825867 327.42965641729097 0 327.42965641729097 631.34234445578477 0 0 0 0 22.272165522221556 123.50453103691962 0 123.50453103691962 288.6823906043428 0 0 0 0 -0.1639672877418116 86.522625947418419 0 86.522625947418419 406.73238346855214 0 0 0 0 0.40275298155836731 72.893162923537602 0 72.893162923537602 79.558444890222745 0 0 0 0 -21.010542753270883 -49.553830423181353 0 -49.553830423181353 274.84737565943942 0 0 0 0 9.0525929399118752 -32.810675125123453 0 -32.810675125123453 35.508644079018268 0 0 0 0 -9.4806841528265977 109.86846289839741 0 109.86846289839741 49.502067445206194 0 0 0 0 7.2372206478847261 98.79800908100151 0 98.79800908100151 -8.8188741864651092 0 0 0 0 -109.45316797799235 89.855479476660548 0 89.855479476660548 49.66436414065538 0 0 0 0 4.5952909445903121 10.41777804653038 0 10.41777804653038 21.283306009745047 0 0 0 0 0.026685353820813204 -0.6426839991013793 0 -0.6426839991013793 -0.34793621015103326 0 0 0 0 128.26889356684362 77.389397639413801 0 77.389397639413801 -20.842251258043689 0 0 0 0 -0.036328433938041825 -0.14999257364252117 0 -0.14999257364252117 -6.9064342968631536 0 0 0 0 19.595999742699338 44.222199368085057 0 44.222199368085057 25.589204259507824 0 0 0 0 -87.818627199668299 18.222767206876597 0 18.222767206876597 187.45930029158694 0 0 0 0 -3.8221212496656563 22.433225363962904 0 22.433225363962904 23.222823208602602 0 0 0 0 -14.358356576192818 12.568689588566485 0 12.568689588566485 108.65289800344181 0 0 0 0 -69.574882264525513 14.666994928054919 0 14.666994928054919 170.89450522992411 0 0 0 0 -6.686232788641064 12.750347514185705 0 12.750347514185705 105.6579324747363 0 0 0 0 -17.298347730627484 15.169623034713368 0 15.169623034713368 62.926095703587634 0 0 0 0 -12.147969409144551 4.1803313758766336 0 4.1803313758766336 34.766374334588036 0 0 0 0 -5.7375005476029663 13.284874306335261 0 13.284874306335261 51.405891684775014 0 0 0 0 -27.081724856474466 -1.687730270648899 0 -1.687730270648899 148.90620957696228 0 0 0 0 -9.6929686648197286 1.6784025008632142 0 1.6784025008632142 55.958487311387557 0 0 0 0 -9.3802373666594576 1.9691537264734507 0 1.9691537264734507 64.064319230309138 0 0 0 0 0.054218508334088256 24.436189114763692 0 24.436189114763692 96.927312984651508 0 0 0 0 -5.3207480054688325 8.9766145998233355 0 8.9766145998233355 13.578751956404817 0 0 0 0 -4.6473728861301424 8.0116998971620887 0 8.0116998971620887 79.288950453905272 0 0 0 0 -7.4662334364020353 3.5050534343608888 0 3.5050534343608888 84.432097506833088 0 0 0 0 3.180452729751778 5.7220546395692509 0 5.7220546395692509 63.63304100408277 0 0 0 0 -2.0454730559207803 10.154725303106474 0 10.154725303106474 10.478666739679756 0 0 0 0 3.0579197934785043 12.506867495685583 0 12.506867495685583 58.314772207168971 0 0 0 0 6.6752323326181795 29.090744609973626 0 29.090744609973626 77.419147820590297 0 0 0 0 -7.5924433368127211 8.0074496449888102 0 8.0074496449888102 61.482174173317617 0 0 0 0 1.4994676571720635 5.4869535570947825 0 5.4869535570947825 33.144267390947192 0 0 0 0 9.6974865748052252 17.000162580690812 0 17.000162580690812 29.054294967761962 0 0 0 0 -3.4317120615442036 21.988688613520935 0 21.988688613520935 105.97101655498409 0 0 0 0 -3.9628586933580685 9.569221516291087 0 9.569221516291087 47.274432322845314 0 0 0 0 -1.4298420227296127 2.3116467503326277 0 2.3116467503326277 12.387159381576119 0 0 0 0 -1.6179391228262148 19.264861066275216 0 19.264861066275216 109.3901806025242 0 0 0 0 35.553333544610723 75.352552836069663 0 75.352552836069663 93.887224444546774 0 0 0 0 -10.557152878052875 11.00609213142161 0 11.00609213142161 100.80889766407563 0 0 0 0 -0.20247059136226397 21.250959010290359 0 21.250959010290359 3.4391772718203448 0 0 0 0 -19.841381660426123 77.521463251909154 0 77.521463251909154 136.9801408409985 0 0 0 0 -69.294705275222896 -19.185945836691189 0 -19.185945836691189 61.951002840345609 0 0 0 0 165.56060217341656 152.96220457738855 0 152.96220457738855 127.47291875613882 0 0 0 0 1.0615095233789189 1.6719225168465499 0 1.6719225168465499 2.6702634897202984 0 0 0 0 -27.240272183069465 129.24497017926478 0 129.24497017926478 312.74442639464542 0 0 0 0 9.7926710412175453 -125.06505433966959 0 -125.06505433966959 147.40002413465845 0 0 0 0 112.59879525923998 55.171349352287507 0 55.171349352287507 79.690126009110827 0 0 0 0 -180.85234674050889 -137.84909679823249 0 -137.84909679823249 144.74844507328817 0 0 0 0 29.140064085158883 23.869232768516667 0 23.869232768516667 58.801088801451442 0 0 0 0 -7.714813026531985 -10.147714641777497 0 -10.147714641777497 40.65482316018155 0 0 0 0 1.7343400417158286 14.325896921689306 0 14.325896921689306 68.571727721932064 0 0 0 0 -4.9312930575514038 -8.1183217588574621 0 -8.1183217588574621 63.938821350438388 0 0 0 0 -3.2928937335600494 20.093082926412535 0 20.093082926412535 67.029871606900997 0 0 0 0 0.22476128894777503 14.418719659122871 0 14.418719659122871 66.990507611847534 0 0 0 0 7.8448994549999043 7.7486880694996216 0 7.7486880694996216 69.509333093286841 0 0 0 0 5.4560010287073304 19.135509928149496 0 19.135509928149496 61.21899517215752 0 0 0 0 -0.59195640269974703 7.9327430462287936 0 7.9327430462287936 7.5327326924051476 0 0 0 0 8.2148224569154991 38.674903579965758 0 38.674903579965758 38.765591141789628 0 0 0 0 -56.005449401504393 -8.356516910764185 0 -8.356516910764185 74.683553399809171 0 0 0 0 41.652205121333282 114.73213568236679 0 114.73213568236679 74.716904348344542 0 0 0 0 -61.33338768010799 -10.329239156439144 0 -10.329239156439144 172.0967984627423 0 0 0 0 -0.89919437585307271 -1.1026355798671119 0 -1.1026355798671119 18.021917423997252 0 0 0 0 61.518730066536591 34.057537857086572 0 34.057537857086572 33.826577859843383 0 0 0 0 42.708574597371808 23.960714365743115 0 23.960714365743115 39.125507944496349 0 0 0 0 -48.411525900883134 12.04497682821966 0 12.04497682821966 183.06300304247634 0 0 0 0 -8.5551921158103141 67.177363087463164 0 67.177363087463164 194.7529859222559 0 0 0 0 -0.25464398603554805 -0.34052567989277094 0 -0.34052567989277094 6.9084510256968201 0 0 0 0 173.90900073371267 166.31693088695465 0 166.31693088695465 189.46002596028848 0 0 0 0 -95.16691349310986 -250.54489193892368 0 -250.54489193892368 88.001492164839874 0 0 0 0 -57.163311442658596 -56.336717087004217 0 -56.336717087004217 202.15181928948851 0 0 0 0 253.81871816248395 -357.92761333812723 0 -357.92761333812723 130.77742291144386 0 0 0 0 128.67513013265125 537.96193972264882 0 537.96193972264882 235.81768393733364 0 0 0 0 -12.121077863592291 94.378040701049031 0 94.378040701049031 352.13976339163492 0 0 0 0 -2.8341167309222683 -1.012757545975802 0 -1.012757545975802 0.40971543071313388 0 0 0 0 -26.18152608294622 17.51742889637535 0 17.51742889637535 126.29026977338799 0 0 0 0 46.051922832160017 14.57711485456457 0 14.57711485456457 -13.883339778076333 0 0 0 0 -3.5755253500678386 18.691263978400798 0 18.691263978400798 0.68814222747653808 0 0 0 0 86.112641335011176 84.96267227253702 0 84.96267227253702 -50.58361300505203 0 0 0 0 -14.705655443118303 39.862380305188708 0 39.862380305188708 84.379941014774886 0 0 0 0 -13.541806998363199 -0.72790306981536901 0 -0.72790306981536901 31.329899869374607 0 0 0 0 -58.253206854727978 7.070214737286733 0 7.070214737286733 155.8447780290735 0 0 0 0 -27.081724856492656 -1.6877302706998307 0 -1.6877302706998307 148.9062095769923 0 0 0 0 -0.26430350048758555 -15.971991910017096 0 -15.971991910017096 161.62541306862113 0 0 0 0 8.676732130243181 -5.4230043813586235 0 -5.4230043813586235 170.09245091212506 0 0 0 0 -40.203012530573687 -19.48479142018914 0 -19.48479142018914 178.19470078678336 0 0 0 0 -8.4038799270780409 -1.819750294050607 0 -1.819750294050607 -1.8498103917467625 0 0 0 0 -2.1486451110503886 20.344268666381282 0 20.344268666381282 11.591681791991542 0 0 0 0 -27.081724856481742 -1.687730270656175 0 -1.687730270656175 148.90620957699139 0 0 0 0 18.169087939240853 2.1147151874574774 0 2.1147151874574774 48.969429212891555 0 0 0 0 -14.726643874555975 -8.1027970078102953 0 -8.1027970078102953 54.028843978696386 0 0 0 0 -12.129800999409966 -11.097534126578438 0 -11.097534126578438 59.706821513704256 0 0 0 0 1.4940481230464684 24.252922553914686 0 24.252922553914686 94.561120702564949 0 0 0 0 -13.496192350105048 5.1527896182451514 0 5.1527896182451514 106.94439942406279 0 0 0 0 -11.617061821177863 -10.78917315331941 0 -10.78917315331941 56.76776860752932 0 0 0 0 -0.60480790723704558 -16.627057122226688 0 -16.627057122226688 58.625612376134086 0 0 0 0 -5.5420875818811055 -0.67059286372023053 0 -0.67059286372023053 69.096613850095309 0 0 0 0 -30.019200687943339 29.000362800339644 0 29.000362800339644 102.78572676799376 0 0 0 0 -0.56378516923177813 19.797278281144827 0 19.797278281144827 105.04598902966245 0 0 0 0 -11.321462236271145 2.4080626308932551 0 2.4080626308932551 72.208337470328843 0 0 0 0 -52.718028273469827 -13.229381997814926 0 -13.229381997814926 76.845957695875768 0 0 0 0 -30.559939156570636 7.8071872788095789 0 7.8071872788095789 74.872927609256294 0 0 0 0 -48.763197667278291 8.4570649781526299 0 8.4570649781526299 102.12105176537625 0 0 0 0 -22.793799259436582 30.550351147710899 0 30.550351147710899 98.874068891978823 0 0 0 0 -32.589665696149495 18.208261629697517 0 18.208261629697517 103.11736596674018 0 0 0 0 -46.920363320704581 -31.660094438653346 0 -31.660094438653346 43.998696447888506 0 0 0 0 -47.790353898312787 -6.1463498508383054 0 -6.1463498508383054 115.6086251849847 0 0 0 0 -86.251575467581461 -60.703636077108968 0 -60.703636077108968 64.77727028933441 0 0 0 0 -0.88350673078957698 6.0458290014466911 0 6.0458290014466911 76.205019530447316 0 0 0 0 1.857230143198076 -0.20709401216979018 0 -0.20709401216979018 10.592072799455778 0 0 0 0 -13.866805370019037 -11.882540604377468 0 -11.882540604377468 52.279555491028589 0 0 0 0 -70.699911775321652 -23.546451780850475 0 -23.546451780850475 62.792037037113914 0 0 0 0 -39.24346261768369 -39.862514436244965 0 -39.862514436244965 13.726085130372667 0 0 0 0 -63.412973482405505 -37.920855878328439 0 -37.920855878328439 91.058355008321087 0 0 0 0 -14.501221554162839 -8.5734775982637075 0 -8.5734775982637075 98.106583888240493 0 0 0 0 -0.62679131470395077 20.03683981560971 0 20.03683981560971 95.316422198964574 0 0 0 0 7.1491462009289535 10.940877599219675 0 10.940877599219675 67.982924608359099 0 0 0 0 -11.245009051348916 -10.835138197133347 0 -10.835138197133347 69.140309544345655 0 0 0 0 0.5274402486949743 -2.1046064194183316 0 -2.1046064194183316 -1.0586532534953861 0 0 0 0 -36.356088224964878 -12.381807618621679 0 -12.381807618621679 107.60498182525043 0 0 0 0 -7.8063029619652298 14.764512199973979 0 14.764512199973979 91.903443547766074 0 0 0 0 80.476796584212934 -54.354502690504887 0 -54.354502690504887 0.10273092121497029 0 0 0 0 -1.0026280307369468 -1.9722571055129379 0 -1.9722571055129379 8.1086230018201348 0 0 0 0 -36.551447487257064 -13.946300163945125 0 -13.946300163945125 141.91340453776274 0 0 0 0 -150.98367808728744 155.3641444350942 0 155.3641444350942 264.72885266638332 0 0 0 0 -0.84615382995639665 -6.6349640193728234 0 -6.6349640193728234 63.558187269699488 0 0 0 0 -75.414226326045764 -45.066452548874167 0 -45.066452548874167 122.65491821698379 0 0 0 0 2.1554053954288093 -4.9741911623959219 0 -4.9741911623959219 1.984363909394574 0 0 0 0 32.107910653681074 -22.389318543608169 0 -22.389318543608169 -18.606402347708354 0 0 0 0 60.391221094950197 71.997163582927897 0 71.997163582927897 121.24455501602642 0 0 0 0 -29.778158130402744 56.293725312561946 0 56.293725312561946 269.50555210986931 0 0 0 0 16.22754254929896 15.579358017312188 0 15.579358017312188 68.989398756635637 0 0 0 0 12.016741722871302 -38.643200746220828 0 -38.643200746220828 80.908476868835351 0 0 0 0 -15.331333328022083 -13.172931756547769 0 -13.172931756547769 85.505616908121738 0 0 0 0 -33.614292336164908 -15.460720885490446 0 -15.460720885490446 238.25616498051386 0 0 0 0 28.085441193590668 -164.76076698295947 0 -164.76076698295947 59.131939185637748 0 0 0 0 38.482985249358535 -21.668609770938929 0 -21.668609770938929 -47.630288655593176 0 0 0 0 -2.052401132250063 12.680752108983611 0 12.680752108983611 48.355588927571148 0 0 0 0 -13.863236118653276 35.089181288640248 0 35.089181288640248 7.3721561051206663 0 0 0 0 -4.6800019193042317 13.805369054549374 0 13.805369054549374 58.930295076200082 0 0 0 0 -4.7892553696110554 7.2612789878330659 0 7.2612789878330659 49.528329147797194 0 0 0 0 -0.53713161239067375 -6.4312631886225233 0 -6.4312631886225233 34.313866603173665 0 0 0 0 -13.915173957941079 9.1199597394734155 0 9.1199597394734155 75.997915099999773 0 0 0 0 -16.469913773657026 17.188667460944998 0 17.188667460944998 60.695141217940545 0 0 0 0 -0.62009039919074249 2.1345543384648007 0 2.1345543384648007 58.197038374684695 0 0 0 0 -1.4259283991809752 11.085483444614511 0 11.085483444614511 53.738534122887359 0 0 0 0 -5.6273564675284433 14.984716032115102 0 14.984716032115102 50.968434493934183 0 0 0 0 -4.7676622676842726 14.145902608241158 0 14.145902608241158 38.043092019841424 0 0 0 0 -0.19695146470723762 0.94934971484073394 0 0.94934971484073394 63.945127186065747 0 0 0 0 -94.742859952876643 61.66496423884746 0 61.66496423884746 90.118441332706425 0 0 0 0 -7.668465645851029 6.6299144790937135 0 6.6299144790937135 43.16805670532267 0 0 0 0 -120.99469887131079 29.521484190760702 0 29.521484190760702 306.98342735764163 0 0 0 0 -6.9131864100727398 9.5039505300028395 0 9.5039505300028395 51.834854177359375 0 0 0 0 -6.5107948836102878 9.7904925709008239 0 9.7904925709008239 45.787492326118809 0 0 0 0 -1.0918580486890956 9.4324644491297747 0 9.4324644491297747 56.002368178242193 0 0 0 0 -0.8353707286166312 -1.6348727696192782 0 -1.6348727696192782 12.179659609723103 0 0 0 0 6.2652778116100833 -25.358121751264463 0 -25.358121751264463 32.190598671666748 0 0 0 0 68.589679815905583 -105.08958942022582 0 -105.08958942022582 78.679786346823676 0 0 0 0 61.450046045105182 -8.3358657461626535 0 -8.3358657461626535 31.866480307042366 0 0 0 0 1.2560374459364247 -4.6793169654112461 0 -4.6793169654112461 6.881481225741652 0 0 0 0 23.217636396715534 -17.668584349245066 0 -17.668584349245066 25.327170863711217 0 0 0 0 59.895711680585805 -24.271277989009377 0 -24.271277989009377 -65.351079169326113 0 0 0 0 11.456244451129521 -5.2467426186335047 0 -5.2467426186335047 37.088093180194846 0 0 0 0 10.64312838382466 15.655165341529937 0 15.655165341529937 -27.821076884909417 0 0 0 0 21.30111579799518 -7.1722462036809702 0 -7.1722462036809702 43.809210769832134 0 0 0 0 2.3696119369602968 0.47464143098627432 0 0.47464143098627432 9.9929708201998722 0 0 0 0 6.6711327233078919 3.2655422417010413 0 3.2655422417010413 60.105982503751875 0 0 0 0 21.69124098300199 -7.2982481763792748 0 -7.2982481763792748 27.078233697233372 0 0 0 0 -0.58524715331382993 -20.121036691073158 0 -20.121036691073158 93.741586460120743 0 0 0 0 1.1523326179297335 0.86720744547433526 0 0.86720744547433526 0.3318446287053689 0 0 0 0 16.660440106965325 -47.764953307687392 0 -47.764953307687392 34.237219236245437 0 0 0 0 -0.84969593514840369 -39.916823221940035 0 -39.916823221940035 220.20876698107168 0 0 0 0 26.335419250279301 -39.63960962550118 0 -39.63960962550118 3.9566662703509792 0 0 0 0 -6.0471396554219936 -13.414458511963403 0 -13.414458511963403 36.374998676059477 0 0 0 0 -4.8063233698762815 -3.8719439064188919 0 -3.8719439064188919 45.255723832060539 0 0 0 0 -79.394057906583839 -82.111965125062852 0 -82.111965125062852 -45.702914512206917 0 0 0 0 4.5290378611344639 -7.0911630190977988 0 -7.0911630190977988 3.3727547416619927 0 0 0 0 -8.5050058909046236 -13.713242205765386 0 -13.713242205765386 33.728119187635798 0 0 0 0 -27.01661784246296 -26.012303117797465 0 -26.012303117797465 87.893283591003609 0 0 0 0 8.657156420634692 -7.8481199533507606 0 -7.8481199533507606 53.993767210398801 0 0 0 0 4.2932338871446518 -2.4523106463038857 0 -2.4523106463038857 66.96988602518104 0 0 0 0 14.255685706162694 27.789275622344576 0 27.789275622344576 84.312076149562927 0 0 0 0 -104.61644841541784 -48.769095608673524 0 -48.769095608673524 -84.944876361361821 0 0 0 0 17.496599792651068 21.592305979695084 0 21.592305979695084 40.192955553755382 0 0 0 0 -71.473059944575084 -179.00131978083073 0 -179.00131978083073 5.8034057540498907 0 0 0 0 -4.6664887846277869 -14.785350618872847 0 -14.785350618872847 35.80665557366158 0 0 0 0 38.929648657799362 124.44543910080392 0 124.44543910080392 216.60885301515373 0 0 0 0 64.284381700822451 95.278521245902084 0 95.278521245902084 122.53190669397009 0 0 0 0 3.4652956313693721 63.914704546332359 0 63.914704546332359 203.67994760548027 0 0 0 0 -8.0357578991606715 -12.894702277604665 0 -12.894702277604665 134.72063363567941 0 0 0 0 58.224670931944729 68.935603827934756 0 68.935603827934756 92.487674441494164 0 0 0 0 -9.3721408628600784 19.742807452730631 0 19.742807452730631 126.32153384105186 0 0 0 0 -16.115518846876057 25.403831883719249 0 25.403831883719249 124.30005189422809 0 0 0 0 -24.58443258313946 6.0408384126030796 0 6.0408384126030796 93.371081193297869 0 0 0 0 -12.124926024045635 24.81975683564815 0 24.81975683564815 108.32958678033174 0 0 0 0 -28.535930224767981 -13.24519494888591 0 -13.24519494888591 85.861047128557402 0 0 0 0 -1.5540530996258894 -22.326506322857313 0 -22.326506322857313 13.413276685172605 0 0 0 0 -8.8447281681683307 19.574665476420705 0 19.574665476420705 80.263174141851778 0 0 0 0 74.930604368410513 -41.31138975335125 0 -41.31138975335125 -69.944594735490682 0 0 0 0 88.673430209878006 77.73986766323651 0 77.73986766323651 -25.615403871954186 0 0 0 0 11.080971357807357 62.114965639033471 0 62.114965639033471 181.93994215587009 0 0 0 0 -15.292798037931789 20.210491835303401 0 20.210491835303401 128.03437779053638 0 0 0 0 14.033172329216995 33.934249733260003 0 33.934249733260003 65.490006472842651 0 0 0 0 1.6695078960315186 8.3923355064634961 0 8.3923355064634961 57.066406680500222 0 0 0 0 -2.945547828456256 2.7436203250781546 0 2.7436203250781546 59.45044157735083 0 0 0 0 -34.670675782978336 -41.40342647015359 0 -41.40342647015359 28.895315440924605 0 0 0 0 7.9826125636714096 -10.673979718141709 0 -10.673979718141709 35.769968670581875 0 0 0 0 -0.48649892765066483 1.6841152853094741 0 1.6841152853094741 10.562956804901422 0 0 0 0 0.93390632686404729 5.2924843244441604 0 5.2924843244441604 55.125949274133745 0 0 0 0 2.4949935643016943 7.0211736112032668 0 7.0211736112032668 53.847712983070778 0 0 0 0 1.8296900921211403 9.2437006340168182 0 9.2437006340168182 10.844812234183884 0 0 0 0 47.942368386413364 4.4816027247907186 0 4.4816027247907186 -0.77012773382219279 0 0 0 0 -25.830996055642572 19.183035523121362 0 19.183035523121362 75.665022660082428 0 0 0 0 -0.75974231459741048 2.5600131216935864 0 2.5600131216935864 5.2373061871049567 0 0 0 0 5.3354390265362213 5.9630198271135555 0 5.9630198271135555 56.796641372744489 0 0 0 0 -53.791931040848795 65.51859284760576 0 65.51859284760576 147.14142238926433 0 0 0 0 -3.3070019465776568 11.849113921924072 0 11.849113921924072 3.9594037672868581 0 0 0 0 1.8371617708967776 -8.3657286305027583 0 -8.3657286305027583 69.349045180370013 0 0 0 0 41.393789772368109 50.257066409030813 0 50.257066409030813 -28.847581452988379 0 0 0 0 2.5228979134487659 1.4457266928718866 0 1.4457266928718866 -1.4511061688650155 0 0 0 0 41.651082550513138 71.377181760448821 0 71.377181760448821 6.7582633770580287 0 0 0 0 8.9933253264607629 9.1581840740254847 0 9.1581840740254847 63.473476040249807 0 0 0 0 2.7243642385215701 10.014967941748566 0 10.014967941748566 3.033550881107292 0 0 0 0 16.36903165427475 -43.354532902278152 0 -43.354532902278152 16.025086742629355 0 0 0 0 3.4781053247186904 8.4250847146785048 0 8.4250847146785048 5.5862112562238799 0 0 0 0 4.7313673378117436 2.0564432737219107 0 2.0564432737219107 5.8988203331092484 0 0 0 0 3.0931655062391883 -16.387377242855109 0 -16.387377242855109 87.665813693143718 0 0 0 0 24.684887854600788 -0.9247400318763539 0 -0.9247400318763539 -38.071313513824862 0 0 0 0 55.710942992697312 4.7525827869853856 0 4.7525827869853856 63.205394672724651 0 0 0 0 8.8202720436893287 50.184309629781637 0 50.184309629781637 61.210052919564077 0 0 0 0 16.164248467628568 -3.7773188802930235 0 -3.7773188802930235 66.302918237123322 0 0 0 0 -33.547737720205987 -39.554903853681026 0 -39.554903853681026 374.68475170712918 0 0 0 0 78.032093516076088 106.77600563529813 0 106.77600563529813 255.09021110622052 0 0 0 0 -35.371546374631862 -20.384794100392355 0 -20.384794100392355 231.66453966427798 0 0 0 0 241.73213546831767 -38.021387301636423 0 -38.021387301636423 72.417749475076562 0 0 0 0 64.28460833650945 -147.06135959243329 0 -147.06135959243329 356.45977170317929 0 0 0 0 0.42620031521075274 -1.3880435009574441 0 -1.3880435009574441 3.7004476699102611 0 0 0 0 180.57045249099383 162.33213023287317 0 162.33213023287317 150.22528508675168 0 0 0 0 -12.406569275397487 127.58949530695463 0 127.58949530695463 406.26580114351964 0 0 0 0 -13.730319536132242 -203.45057690658905 0 -203.45057690658905 135.56130848656903 0 0 0 0 10.731629009370408 -139.1483058891572 0 -139.1483058891572 291.79704576991571 0 0 0 0 29.124271759711746 -53.261338760633407 0 -53.261338760633407 236.54246235707251 0 0 0 0 27.346685398274531 -73.630975703319564 0 -73.630975703319564 112.47434596363746 0 0 0 0 -6.8993097883549126 -7.6996952199442603 0 -7.6996952199442603 178.99141441976826 0 0 0 0 -0.17567453749961714 16.478094775942736 0 16.478094775942736 241.18512581823234 0 0 0 0 91.428476218817195 71.91667912155026 0 71.91667912155026 210.59697622884414 0 0 0 0 6.7666757353211864 -63.077636297865638 0 -63.077636297865638 125.11288172112836 0 0 0 0 -19.068752507827412 -17.305309216259047 0 -17.305309216259047 215.43956861059087 0 0 0 0 -15.461815183274666 35.744742791528552 0 35.744742791528552 296.86957318963323 0 0 0 0 -68.466821639725822 36.081713360203139 0 36.081713360203139 195.5522136704094 0 0 0 0 -27.80752570756249 -23.530019734596863 0 -23.530019734596863 215.12385163189174 0 0 0 0 -29.035091725680104 13.919767790655897 0 13.919767790655897 156.58404927912488 0 0 0 0 54.913648647298615 73.185606791503233 0 73.185606791503233 135.45298337574059 0 0 0 0 -3.332432328138935 -5.2152349786742604 0 -5.2152349786742604 5.3667602658721734 0 0 0 0 -272.52699141985408 101.28601820307813 0 101.28601820307813 376.90445530763827 0 0 0 0 3.0609320661969832 4.1130756694692536 0 4.1130756694692536 54.563513516221576 0 0 0 0 -8.8606617884208845 -8.6155416376159337 0 -8.6155416376159337 54.835506111303403 0 0 0 0 -6.2037230249853828 -17.775812994789447 0 -17.775812994789447 21.002078080955314 0 0 0 0 9.3299089325586237 103.02012296395151 0 103.02012296395151 283.3782174045773 0 0 0 0 -21.210014115483546 -12.688386551628355 0 -12.688386551628355 -7.5115192833545734 0 0 0 0 0.86716520318731671 -0.53997169437644743 0 -0.53997169437644743 0.55302957680044074 0 0 0 0 17.44915489531121 78.96634217558676 0 78.96634217558676 341.58053922314502 0 0 0 0 -66.451671554715404 -78.629229741327435 0 -78.629229741327435 26.786971633853682 0 0 0 0 -53.824995824601729 110.63154597498215 0 110.63154597498215 367.65633551802057 0 0 0 0 -66.56423578277014 -54.767510761540251 0 -54.767510761540251 152.11119338611024 0 0 0 0 -47.180372724442122 -8.9478902235787245 0 -8.9478902235787245 52.147930012797588 0 0 0 0 -36.633390996387504 19.014546622864145 0 19.014546622864145 102.16023023234266 0 0 0 0 -36.821930718813746 23.256137145341199 0 23.256137145341199 85.120691785494273 0 0 0 0 -24.516538054983016 59.702159785083495 0 59.702159785083495 150.06393786288572 0 0 0 0 -93.198282608435719 -28.400726251085871 0 -28.400726251085871 165.28466534672771 0 0 0 0 -98.761903867427932 -4.9628552507783752 0 -4.9628552507783752 184.35627920302068 0 0 0 0 -67.904954532091665 -40.613752357639896 0 -40.613752357639896 122.36773793724205 0 0 0 0 -22.0391708389526 77.303945607771311 0 77.303945607771311 207.27582566404089 0 0 0 0 -38.651144917047986 44.457187362178956 0 44.457187362178956 183.157302304935 0 0 0 0 -12.127528924221764 -1.9194917900422297 0 -1.9194917900422297 89.974771854096616 0 0 0 0 -63.208175743376287 43.107876476951787 0 43.107876476951787 249.13990818978345 0 0 0 0 -130.05765199285452 -51.902172644535312 0 -51.902172644535312 257.66695279175201 0 0 0 0 -1.1461247925458848 1.7671588131747384 0 1.7671588131747384 4.6453069243856078 0 0 0 0 -63.056844147050128 -85.700106804710231 0 -85.700106804710231 95.612121472700892 0 0 0 0 -94.216105365976631 -39.384216246555297 0 -39.384216246555297 189.74938250962441 0 0 0 0 -13.173910222946688 14.917878461543296 0 14.917878461543296 119.49622049491882 0 0 0 0 -36.680820682077638 -7.0290087511639285 0 -7.0290087511639285 107.29124354253145 0 0 0 0 -14.391841124967527 -117.06389181314444 0 -117.06389181314444 98.643975430387627 0 0 0 0 -66.369661556292783 -42.572995470496608 0 -42.572995470496608 92.613007707324869 0 0 0 0 80.409064546073125 -85.728493860243361 0 -85.728493860243361 43.892486634613306 0 0 0 0 22.319357666369001 -53.222038287214673 0 -53.222038287214673 39.492682227324167 0 0 0 0 5.0375198459822457 -31.038606162486758 0 -31.038606162486758 94.035200510988943 0 0 0 0 14.41991330882729 -17.949165089961753 0 -17.949165089961753 63.545582394101075 0 0 0 0 3.9844670065869341 -5.0801357662771238 0 -5.0801357662771238 20.071133271289874 0 0 0 0 1.6598232268641144 -0.40997111655188689 0 -0.40997111655188689 -0.93592201833132549 0 0 0 0 -2.0640416911210195 -6.1062732500140555 0 -6.1062732500140555 86.880719724784285 0 0 0 0 -8.6191926636215612 -14.31555854450562 0 -14.31555854450562 76.795497349303332 0 0 0 0 -4.4930386291936983 -6.6035883676086939 0 -6.6035883676086939 49.923368112267781 0 0 0 0 -2.1723204348144236 -5.3087594980388531 0 -5.3087594980388531 85.43246956378789 0 0 0 0 -2.9571034057258547 -11.272319591866946 0 -11.272319591866946 41.841919902788938 0 0 0 0 -0.52223089884614637 4.9083470828418285 0 4.9083470828418285 89.839108731976012 0 0 0 0 -4.1685515031965821 3.8365095819533508 0 3.8365095819533508 50.765855419576766 0 0 0 0 -9.7473834750105937 -10.464061504251866 0 -10.464061504251866 50.756259705555813 0 0 0 0 -1.1316567756698008 8.8418145637326866 0 8.8418145637326866 57.764655138186768 0 0 0 0 -32.395124259381646 -14.651289778923683 0 -14.651289778923683 83.715887004925207 0 0 0 0 -3.1926024467829848 29.537435622067278 0 29.537435622067278 75.988453982303326 0 0 0 0 7.3959086518216282 -17.442072873323923 0 -17.442072873323923 66.762017324050248 0 0 0 0 26.85377062776206 -9.2265503126800468 0 -9.2265503126800468 51.924618429224211 0 0 0 0 24.241050759651102 12.148405211244835 0 12.148405211244835 91.647326420221361 0 0 0 0 6.1527266323419099 5.2488969956320943 0 5.2488969956320943 107.31440720705359 0 0 0 0 0.064499121158352324 2.1490873850690093 0 2.1490873850690093 14.187814017618038 0 0 0 0 -1.387779186524309 2.0913112400275438 0 2.0913112400275438 13.005701620034394 0 0 0 0 0.71952012412884869 -2.300884711483377 0 -2.300884711483377 76.803512320264417 0 0 0 0 4.5168551604747336 -11.373565440095263 0 -11.373565440095263 92.199115286821325 0 0 0 0 7.4130944248736341 3.9478279792365356 0 3.9478279792365356 65.788815835079731 0 0 0 0 9.6605149507604438 -9.2658604747484787 0 -9.2658604747484787 71.159403477864544 0 0 0 0 -5.9671246981758941 -15.797522278493943 0 -15.797522278493943 59.772705904812028 0 0 0 0 2.8660340736132639 4.6116641622375028 0 4.6116641622375028 68.498083753001993 0 0 0 0 -16.8195986311448 5.2036733212262334 0 5.2036733212262334 73.447928576961203 0 0 0 0 -0.60378096996416009 1.3414782635827738 0 1.3414782635827738 -1.6209267753912684 0 0 0 0 18.162390932821381 -28.096949181389846 0 -28.096949181389846 55.48269577391693 0 0 0 0 13.912624510890055 -7.036177147858325 0 -7.036177147858325 63.594955605341966 0 0 0 0 83.063128545071322 161.08084421362582 0 161.08084421362582 -136.22865220023959 0 0 0 0 44.772005314647686 -97.90415894126636 0 -97.90415894126636 115.23960802303191 0 0 0 0 0.094908677545609166 9.4648593545403017 0 9.4648593545403017 37.374262250333857 0 0 0 0 2.3257990069618302 -3.0520997660569265 0 -3.0520997660569265 39.934803512660437 0 0 0 0 1.2620533230074216 -4.7318489227764076 0 -4.7318489227764076 58.448171246946004 0 0 0 0 -0.84962409556922602 -7.2522556076604019 0 -7.2522556076604019 10.323702722972872 0 0 0 0 -1.0029500050884508 -5.2008940154646552 0 -5.2008940154646552 41.930065576358174 0 0 0 0 -0.50224921676944256 3.4798770286732719 0 3.4798770286732719 17.143936143877255 0 0 0 0 2.3152914820996195 -7.8745440784111196 0 -7.8745440784111196 31.100549255435254 0 0 0 0 6.2046809502640246 -13.974615960997042 0 -13.974615960997042 11.099485149530153 0 0 0 0 0.68096101909031859 -8.1303188469792076 0 -8.1303188469792076 55.018518923284887 0 0 0 0 1.8631586714915613 9.1785578424214691 0 9.1785578424214691 54.568642792273749 0 0 0 0 3.0949453697975287 -19.635679701856134 0 -19.635679701856134 50.098190137410711 0 0 0 0 2.9050871068772608 -21.470679194524564 0 -21.470679194524564 35.817193637034507 0 0 0 0 -1.603891384615963 13.43574772951979 0 13.43574772951979 64.62340931246581 0 0 0 0 -0.50811073523654748 5.0596088139335684 0 5.0596088139335684 24.576295879038788 0 0 0 0 2.2486090166025443 -1.6087320114341566 0 -1.6087320114341566 1.6387973972638008 0 0 0 0 -143.53637028760022 -2.3548911473189946 0 -2.3548911473189946 -213.61817513481947 0 0 0 0 -3.3782763347265679 -13.039937791078309 0 -13.039937791078309 43.325442496067097 0 0 0 0 -3.6714772777195321 -312.1712227652024 0 -312.1712227652024 368.9546507320847 0 0 0 0 -16.197896178302585 8.0267323230714283 0 8.0267323230714283 291.29379650426563 0 0 0 0 -11.520574736799858 -9.4513909385341321 0 -9.4513909385341321 43.785078945265923 0 0 0 0 -13.644033661945002 -16.803632006697626 0 -16.803632006697626 48.170626001026903 0 0 0 0 5.5836762571168208 -23.933776880274308 0 -23.933776880274308 32.356829950578685 0 0 0 0 -1.7332798924595636 -22.361731227291784 0 -22.361731227291784 32.536999295112764 0 0 0 0 7.5813482479921959 -19.945968211276522 0 -19.945968211276522 38.218877020961372 0 0 0 0 -12.799172048285754 -9.0668901732656195 0 -9.0668901732656195 71.178483694679016 0 0 0 0 -9.8611407298130871 15.747154812243025 0 15.747154812243025 21.544510176236145 0 0 0 0 -37.702254987034394 56.402390362229198 0 56.402390362229198 1.596716501750052 0 0 0 0 -3.1178273869864714 3.288783338531589 0 3.288783338531589 10.4479306838818 0 0 0 0 36.279099591876275 -12.069087454614419 0 -12.069087454614419 36.717886861944862 0 0 0 0 5.1097277330660935 8.9956166941866957 0 8.9956166941866957 9.8803761428685419 0 0 0 0 40.478668671492926 -33.773940857005755 0 -33.773940857005755 33.4606831731071 0 0 0 0 31.168251583756273 -23.313610524462092 0 -23.313610524462092 39.748525923205307 0 0 0 0 32.278059915021458 -25.51395647834579 0 -25.51395647834579 23.391550533830014 0 0 0 0 24.088982447012313 -25.628593826957513 0 -25.628593826957513 23.832038581193046 0 0 0 0 51.996837476104247 -17.342528195391424 0 -17.342528195391424 7.8810595674729029 0 0 0 0 1.4702542421668774 7.2925300850660779 0 7.2925300850660779 13.390039471993248 0 0 0 0 -33.302294613233244 7.2500252152094617 0 7.2500252152094617 -40.386983314558165 0 0 0 0 50.460987175955779 -12.610881419186626 0 -12.610881419186626 18.519283269994048 0 0 0 0 3.825131803610347 6.3685370720792189 0 6.3685370720792189 10.747174347267887 0 0 0 0 -30.913111164377369 38.367296718305624 0 38.367296718305624 39.750458805176095 0 0 0 0 -0.089305549086246216 9.3535362205513231 0 9.3535362205513231 40.134492280940712 0 0 0 0 55.665225177583125 -30.637077000502359 0 -30.637077000502359 21.684319066068383 0 0 0 0 -337.20499557793391 132.93192232256536 0 132.93192232256536 80.119919544801178 0 0 0 0 -214.89867670000422 -80.296570594365903 0 -80.296570594365903 208.6524943720292 0 0 0 0 -364.42329663574856 212.55419105576721 0 212.55419105576721 48.045971600210123 0 0 0 0 35.476443626241235 117.52504969504071 0 117.52504969504071 -107.21420831955834 0 0 0 0 85.894138490446494 -9.6035267737870527 0 -9.6035267737870527 -17.396956873604722 0 0 0 0 -0.72978513740100048 6.830285039310775 0 6.830285039310775 31.238331075354644 0 0 0 0 50.295108892279131 205.35540851433768 0 205.35540851433768 291.56490674753604 0 0 0 0 273.86330703931708 -1.4116342865345359 0 -1.4116342865345359 -116.684140885754 0 0 0 0 -127.9236987479735 -74.362254956721586 0 -74.362254956721586 349.70188294132822 0 0 0 0 0.34568560137885385 0.89476811688421876 0 0.89476811688421876 2.2396911074847345 0 0 0 0 -168.63247111732016 57.885964586428713 0 57.885964586428713 229.45197921545923 0 0 0 0 91.819930605930267 -55.494354254884058 0 -55.494354254884058 61.067582662289624 0 0 0 0 99.166603472661791 -5.5622222632179898 0 -5.5622222632179898 166.87971882864804 0 0 0 0 237.34929974302941 -31.59072105871428 0 -31.59072105871428 110.95787680411649 0 0 0 0 180.2260711563431 -83.145934734314778 0 -83.145934734314778 217.22194550962956 0 0 0 0 -46.288848687105201 -76.225400208337305 0 -76.225400208337305 347.43840241697353 0 0 0 0 -66.935745714497898 20.949347731095486 0 20.949347731095486 109.82947642903309 0 0 0 0 -36.799791059505878 -91.556487595974659 0 -91.556487595974659 67.012265794669474 0 0 0 0 74.745292994932242 -131.78027409114657 0 -131.78027409114657 74.704944416933358 0 0 0 0 100.6034380361034 -167.88694586108659 0 -167.88694586108659 101.66062029776913 0 0 0 0 103.62006953568925 -96.496929174524666 0 -96.496929174524666 295.36166099912407 0 0 0 0 164.03797064035371 -33.131865008562443 0 -33.131865008562443 3.0876963625541975 0 0 0 0 1.4447636363457654 -1.0644143356356643 0 -1.0644143356356643 0.14626792690997803 0 0 0 0 113.21447454782083 -36.704470139348572 0 -36.704470139348572 153.85694979027448 0 0 0 0 114.86046154225551 -17.578228172390027 0 -17.578228172390027 109.94236017673114 0 0 0 0 55.263631334146339 0.81920195823249742 0 0.81920195823249742 -2.6141974716401819 0 0 0 0 8.0956145822947292 16.525325056756628 0 16.525325056756628 11.447198565626422 0 0 0 0 -10.525745649349119 -34.815669159277604 0 -34.815669159277604 23.741023275229054 0 0 0 0 81.602293743959763 -54.1534270997862 0 -54.1534270997862 25.602829388459213 0 0 0 0 -10.840436318298089 -32.813947032976102 0 -32.813947032976102 59.375763455391734 0 0 0 0 -85.031034782399729 -49.612856726507744 0 -49.612856726507744 63.97856576503591 0 0 0 0 -79.646775737550342 14.011362797662059 0 14.011362797662059 56.208191737519883 0 0 0 0 -178.60908118873158 9.4389041759370684 0 9.4389041759370684 81.800247107623363 0 0 0 0 1.4981004293176525 12.532726751753007 0 12.532726751753007 45.804761305417976 0 0 0 0 -104.96300706267721 -58.648974876727038 0 -58.648974876727038 74.395705181778794 0 0 0 0 -58.20928216529137 -37.099903398611332 0 -37.099903398611332 53.755872572553017 0 0 0 0 -53.964223726827186 -20.969708968750979 0 -20.969708968750979 115.73062677680315 0 0 0 0 77.4119141651463 201.18132910248141 0 201.18132910248141 281.92083542368334 0 0 0 0 3.024719356893911 -7.1139717090433976 0 -7.1139717090433976 208.43812842302179 0 0 0 0 -36.199862538691377 34.624960992432761 0 34.624960992432761 164.08204892129925 0 0 0 0 -83.117053268077143 -50.354471840352971 0 -50.354471840352971 89.64844954220257 0 0 0 0 -6.0254884524601948 60.908248852946883 0 60.908248852946883 123.13294337501384 0 0 0 0 -1.7473810440460511 -33.072410309608927 0 -33.072410309608927 75.918209817894876 0 0 0 0 -2.5491553645567322 1.4602833889935507 0 1.4602833889935507 9.0535288552055597 0 0 0 0 -79.560754125122912 -3.2840748495794969 0 -3.2840748495794969 26.439026700194063 0 0 0 0 -2.7314746487709272 30.797474845355225 0 30.797474845355225 39.783210978227999 0 0 0 0 -29.384736163166053 68.16137400816433 0 68.16137400816433 24.810689649252936 0 0 0 0 -3.6771039367657501 -4.0896877691501778 0 -4.0896877691501778 8.7698621911992944 0 0 0 0 -201.74405767689132 -36.875691940621664 0 -36.875691940621664 97.645698646458186 0 0 0 0 -100.29934144055733 -98.662295327594165 0 -98.662295327594165 -21.097498159529323 0 0 0 0 49.666701698904944 80.262706139257716 0 80.262706139257716 -7.5214319785461612 0 0 0 0 -136.10173089777163 122.40081052456196 0 122.40081052456196 141.51716462396303 0 0 0 0 9.3826590411190409 114.42348042471934 0 114.42348042471934 254.7003245707823 0 0 0 0 3.4935711792337045 -1.31690985501975 0 -1.31690985501975 9.5700301191440129 0 0 0 0 18.253267405551924 203.14619398072665 0 203.14619398072665 259.32785787445926 0 0 0 0 76.680286934511969 147.10969167039309 0 147.10969167039309 298.95821788568014 0 0 0 0 -43.785349470706933 -187.26004691552225 0 -187.26004691552225 -10.250294044442398 0 0 0 0 40.250531191231858 134.6439866189811 0 134.6439866189811 122.18672011605122 0 0 0 0 -83.613145913244807 96.437585459475713 0 96.437585459475713 171.5986420385608 0 0 0 0 137.59302824821498 126.72754937274931 0 126.72754937274931 153.4097039290445 0 0 0 0 167.69754223371274 198.81275688222104 0 198.81275688222104 -60.460450735247491 0 0 0 0 -174.99973929961561 -204.90738182693565 0 -204.90738182693565 308.09512001056646 0 0 0 0 137.76850775295861 97.208208917743036 0 97.208208917743036 153.43169880770893 0 0 0 0 103.30842937660327 153.38530201033541 0 153.38530201033541 365.0681453486186 0 0 0 0 50.658294051924713 38.585331990817451 0 38.585331990817451 202.88590749046989 0 0 0 0 117.93864640309766 33.906798049604731 0 33.906798049604731 130.83388442331415 0 0 0 0 83.560124437775812 1.5200508745467687 0 1.5200508745467687 372.94250990221622 0 0 0 0 1.6773114469952333 -1.682214411029463 0 -1.682214411029463 0.56736694103153962 0 0 0 0 136.06645357683738 -106.56671869518209 0 -106.56671869518209 -156.64469787395547 0 0 0 0 105.40830950166492 -90.800990869247471 0 -90.800990869247471 100.82262204680046 0 0 0 0 34.863522072686806 16.675188548935864 0 16.675188548935864 233.72457271031953 0 0 0 0 34.949168191044009 15.257585468957586 0 15.257585468957586 121.23947272549276 0 0 0 0 -13.097627245004333 -38.056252576376778 0 -38.056252576376778 213.92319948314525 0 0 0 0 32.689253633992848 -57.715687218320227 0 -57.715687218320227 156.32581901360368 0 0 0 0 1.9245729394148015 0.40259658129267173 0 0.40259658129267173 -0.6274969830309427 0 0 0 0 54.043856164962563 5.7653069777056771 0 5.7653069777056771 -37.218483604088306 0 0 0 0 -21.466341185604506 214.92466073038798 0 214.92466073038798 40.900016606319241 0 0 0 0 70.336553647579422 -2.8506524225936118 0 -2.8506524225936118 -75.392937808839179 0 0 0 0 4.4308780313506944 0.4561819627871273 0 0.4561819627871273 3.2380854662343266 0 0 0 0 23.171420733174728 -1.4375209886258062 0 -1.4375209886258062 17.647788897431383 0 0 0 0 3.2949939701658977 -0.73793796390469879 0 -0.73793796390469879 3.9059439393213893 0 0 0 0 -92.983317079051631 71.60761088368622 0 71.60761088368622 268.51603925636039 0 0 0 0 103.06858621030187 161.49435517353277 0 161.49435517353277 103.19810166251887 0 0 0 0 29.270073708165 76.424079882964406 0 76.424079882964406 -19.885335324096104 0 0 0 0 0.022269895536592088 3.5905837336483657 0 3.5905837336483657 3.1656050474056463 0 0 0 0 -104.13765693374808 1.1929383096137371 0 1.1929383096137371 71.059229300559537 0 0 0 0 44.218889145573939 -10.322478494160293 0 -10.322478494160293 58.872814708049191 0 0 0 0 -19.659081716086803 24.854774295080347 0 24.854774295080347 118.53436950011553 0 0 0 0 8.7793277973040134 5.9313048791528367 0 5.9313048791528367 11.55714447153678 0 0 0 0 -3.050391424062731 -7.5293360629805157 0 -7.5293360629805157 57.862974819831038 0 0 0 0 -167.23232615777306 -150.15443923255953 0 -150.15443923255953 257.93888106535815 0 0 0 0 -14.793052640419774 52.973981547047345 0 52.973981547047345 150.38071376633852 0 0 0 0 -14.315329796165315 90.730002521380811 0 90.730002521380811 87.196007950617513 0 0 0 0 5.3275105200431128 19.627735604798605 0 19.627735604798605 -13.205784649245656 0 0 0 0 -4.1833014512700224 -3.2088759899039569 0 -3.2088759899039569 55.230847737276008 0 0 0 0 3.957928607852871 -14.888314696409589 0 -14.888314696409589 45.261778007015316 0 0 0 0 -164.72442641896487 -178.81181852533109 0 -178.81181852533109 153.68035744447297 0 0 0 0 14.005324529493009 2.2716338522513979 0 2.2716338522513979 43.04870179363661 0 0 0 0 8.4419690048034681 -5.5945710998159939 0 -5.5945710998159939 42.030434509627412 0 0 0 0 -33.430043157981345 -145.63298820745104 0 -145.63298820745104 -48.088714409353088 0 0 0 0 -27.524601216469307 -7.2660744825512893 0 -7.2660744825512893 -45.866393494471595 0 0 0 0 1.1266639234044753 -8.4793999114346583 0 -8.4793999114346583 26.006274326226176 0 0 0 0 51.280619289986134 -27.339465607943112 0 -27.339465607943112 -118.15353877352641 0 0 0 0 33.429085048611341 -41.716719948278751 0 -41.716719948278751 71.556064644979415 0 0 0 0 153.4674806598905 35.983790430292174 0 35.983790430292174 46.020136927319982 0 0 0 0 1.4235331549681511 -0.78047435342629967 0 -0.78047435342629967 -0.23842430548534921 0 0 0 0 90.875844805473207 65.167133432831292 0 65.167133432831292 32.488406992481941 0 0 0 0 147.07169930597956 -21.175740729371 0 -21.175740729371 -85.524663955814503 0 0 0 0 72.227110395442651 17.925303878458635 0 17.925303878458635 -51.650064256088172 0 0 0 0 1.9337906406026413 -1.6004003023511082 0 -1.6004003023511082 0.58507743757040487 0 0 0 0 2.4292554517469398 1.2497414895665315 0 1.2497414895665315 28.382285314304681 0 0 0 0 15.960015834309161 3.3211944203785606 0 3.3211944203785606 21.359295322274193 0 0 0 0 33.806974439356054 38.680063097953052 0 38.680063097953052 30.985988975457985 0 0 0 0 47.536065410885385 95.093968666238197 0 95.093968666238197 213.32480935823787 0 0 0 0 -14.273238512075295 -6.295495841494585 0 -6.295495841494585 157.95037931395746 0 0 0 0 -0.042105464199266862 -54.729492104811698 0 -54.729492104811698 304.98596485735379 0 0 0 0 57.604869482922368 -85.75039902025128 0 -85.75039902025128 99.451356928890164 0 0 0 0 70.41536320927662 -58.196567710926502 0 -58.196567710926502 56.770040763465659 0 0 0 0 155.93561002740353 -91.497518669112651 0 -91.497518669112651 391.14710894189921 0 0 0 0 136.63567804535887 -157.26232755558021 0 -157.26232755558021 172.41073034678902 0 0 0 0 0.097283109629703546 0.90076538877731238 0 0.90076538877731238 4.1204297982850484 0 0 0 0 156.55460652023794 73.530066231464389 0 73.530066231464389 449.33092559028591 0 0 0 0 336.87087313341908 -127.27510159900521 0 -127.27510159900521 85.078960919796373 0 0 0 0 -22.255605485767774 30.446678970094126 0 30.446678970094126 561.96057739406569 0 0 0 0 232.6968831904378 193.23280082562269 0 193.23280082562269 197.15915152830166 0 0 0 0 267.85023990648551 83.904523111168601 0 83.904523111168601 35.554737060756452 0 0 0 0 220.01783552158668 44.532368570288781 0 44.532368570288781 5.0226460025296547 0 0 0 0 69.464822507554345 63.338750808707118 0 63.338750808707118 94.018370553766545 0 0 0 0 40.808691435929632 151.65141621498947 0 151.65141621498947 197.09225367373256 0 0 0 0 -58.213526507995994 31.42646563728249 0 31.42646563728249 59.312641302984048 0 0 0 0 -73.603858596950886 -7.9887460512100006 0 -7.9887460512100006 68.79840640880002 0 0 0 0 -46.55865271546736 -67.843781915593581 0 -67.843781915593581 197.70218759723321 0 0 0 0 -33.677678894753626 -11.205968215973371 0 -11.205968215973371 77.754287785346605 0 0 0 0 -27.79809249635764 10.091661194742301 0 10.091661194742301 91.114541110161781 0 0 0 0 -32.089450438246786 -10.136042586597341 0 -10.136042586597341 75.02185009943787 0 0 0 0 -38.430548567326696 -2.5960140118440904 0 -2.5960140118440904 60.83725441595243 0 0 0 0 -52.010214922811429 -27.316260378201491 0 -27.316260378201491 69.549368489650078 0 0 0 0 -6.8784562089931569 -0.20729189784242408 0 -0.20729189784242408 48.446105613155396 0 0 0 0 18.097247395604427 -8.1497439179338471 0 -8.1497439179338471 47.981106689228909 0 0 0 0 13.93475861060233 3.7633911065149732 0 3.7633911065149732 27.464307078815182 0 0 0 0 12.190542980679311 20.545542216320428 0 20.545542216320428 39.075349029094014 0 0 0 0 -4.3019585350630223 16.854188295661061 0 16.854188295661061 57.057939104471188 0 0 0 0 4.0399701005262614 47.312105239261882 0 47.312105239261882 96.831619352669804 0 0 0 0 -28.010096701450493 -0.23635535390462792 0 -0.23635535390462792 85.352110489719962 0 0 0 0 -41.662925799231743 -17.529904207974141 0 -17.529904207974141 85.959755630619213 0 0 0 0 -26.078110634238328 -2.2127720533389947 0 -2.2127720533389947 88.264370797553966 0 0 0 0 -21.404164304776714 -18.584727932882743 0 -18.584727932882743 138.20402046627669 0 0 0 0 -54.52870125424306 -28.022761707874452 0 -28.022761707874452 108.79527014330142 0 0 0 0 -44.627234187733848 -20.630502878781954 0 -20.630502878781954 67.513905587526096 0 0 0 0 -52.27695303317887 -34.601728532763445 0 -34.601728532763445 71.220630003050701 0 0 0 0 -46.204373876141744 -33.368261529067013 0 -33.368261529067013 56.322148545419623 0 0 0 0 -53.107339649022833 -38.870095142658556 0 -38.870095142658556 67.858362225092606 0 0 0 0 -102.38849304277392 -98.236891800705052 0 -98.236891800705052 -9.2533955934341066 0 0 0 0 -12.22004367417896 -17.727483267136584 0 -17.727483267136584 35.832136078365679 0 0 0 0 -0.11252116703239068 2.135940095300267 0 2.135940095300267 10.303756871342095 0 0 0 0 -32.138994483524129 -21.877065502997084 0 -21.877065502997084 57.743612673276402 0 0 0 0 -6.4358311143232676 -13.609747470514705 0 -13.609747470514705 28.701333440125296 0 0 0 0 -3.6179803534250823 -1.8298640595585312 0 -1.8298640595585312 60.753184978741047 0 0 0 0 41.859847157181434 -19.360461676711566 0 -19.360461676711566 76.433053024007677 0 0 0 0 -16.578871325111777 84.711667104023945 0 84.711667104023945 218.1722448600849 0 0 0 0 11.431967794604361 24.2946808782267 0 24.2946808782267 49.520348287675006 0 0 0 0 13.604939771026238 13.806781086885167 0 13.806781086885167 74.831950375759334 0 0 0 0 1.6925150256453296 -1.4841854127162648 0 -1.4841854127162648 1.3941708506687291 0 0 0 0 18.833315627858155 -36.850105986803101 0 -36.850105986803101 11.828409584541077 0 0 0 0 -18.416999192241764 -25.292860897363386 0 -25.292860897363386 70.579351887410553 0 0 0 0 -62.741553011310316 -61.661423369640033 0 -61.661423369640033 49.868778031117472 0 0 0 0 -42.216195817365588 -71.948835619034071 0 -71.948835619034071 46.638120416184847 0 0 0 0 -43.953784350007481 -68.062845976991412 0 -68.062845976991412 85.354921736645338 0 0 0 0 -1.3441426752697225 -29.755574891951483 0 -29.755574891951483 43.586662987625459 0 0 0 0 69.984379250215852 9.6153246671947272 0 9.6153246671947272 100.15142160501273 0 0 0 0 7.6128053286520299 -67.318830959105071 0 -67.318830959105071 30.000750849325868 0 0 0 0 -13.279166787947446 -17.149697880271226 0 -17.149697880271226 78.181052998618512 0 0 0 0 18.865460085436158 90.109772734279346 0 90.109772734279346 116.05869749983685 0 0 0 0 89.148902147900571 -7.2995359547494445 0 -7.2995359547494445 -46.002582850869658 0 0 0 0 1.3076995905355311 -0.49858241053232177 0 -0.49858241053232177 0.12425890147986252 0 0 0 0 -79.507161266622461 81.959728868234379 0 81.959728868234379 341.2693909847585 0 0 0 0 53.692907192723396 -110.55048433612319 0 -110.55048433612319 -4.3895946356515196 0 0 0 0 10.235500091433021 6.5037989693055849 0 6.5037989693055849 15.528920249957686 0 0 0 0 243.00050884784287 17.497481386351865 0 17.497481386351865 177.21797915564093 0 0 0 0 -80.82187232808792 -46.207901432644576 0 -46.207901432644576 128.16086531734618 0 0 0 0 49.604150366146087 -104.32018113358026 0 -104.32018113358026 130.5442536408882 0 0 0 0 -20.70909879599769 7.9683331732767293 0 7.9683331732767293 94.028893922789223 0 0 0 0 1.1886718664252012 -6.4402074978413246 0 -6.4402074978413246 7.3937975731485039 0 0 0 0 17.197705717020654 -11.932847582871545 0 -11.932847582871545 42.412226980653941 0 0 0 0 21.856589398405049 -98.653802394370359 0 -98.653802394370359 98.593491256033303 0 0 0 0 18.980236582801808 -50.319910690548568 0 -50.319910690548568 91.212986813741736 0 0 0 0 13.133783285184109 -16.675699886101938 0 -16.675699886101938 137.20566162434625 0 0 0 0 30.615965526312721 6.0712668628548272 0 6.0712668628548272 30.781503657537542 0 0 0 0 8.0157699034044025 7.5065578069206325 0 7.5065578069206325 3.5980259972272037 0 0 0 0 17.239073425547303 -15.97322674145471 0 -15.97322674145471 87.888147895027942 0 0 0 0 5.2371256829437698 -7.2053767556499224 0 -7.2053767556499224 83.341573707613861 0 0 0 0 9.5543581659512711 -22.289392240272718 0 -22.289392240272718 89.592072808594821 0 0 0 0 10.290578726772765 9.6265349595851148 0 9.6265349595851148 84.460101706834394 0 0 0 0 4.4719645143561593 0.14344455711761839 0 0.14344455711761839 71.935691650069202 0 0 0 0 29.232388839920077 2.8998515251041681 0 2.8998515251041681 71.197040279088469 0 0 0 0 30.125679931641798 14.861203056212617 0 14.861203056212617 108.06432327232324 0 0 0 0 24.620324780407827 10.731874161895576 0 10.731874161895576 60.315059537309935 0 0 0 0 4.880508617376222 20.202735771981008 0 20.202735771981008 26.599680456423183 0 0 0 0 28.863912974895356 35.87957969413128 0 35.87957969413128 51.202358336528505 0 0 0 0 35.354048360350021 -7.6327651210349359 0 -7.6327651210349359 67.112845918396488 0 0 0 0 37.402262350544333 1.4104272652712098 0 1.4104272652712098 63.056302859408788 0 0 0 0 -2.2752755258516117 0.33071615611106608 0 0.33071615611106608 92.927560223863111 0 0 0 0 13.916529246838763 90.166917324899259 0 90.166917324899259 64.175145649215722 0 0 0 0 -78.720517829496657 46.695243644326979 0 46.695243644326979 64.166245206522944 0 0 0 0 44.428808576871234 0.34244272798787279 0 0.34244272798787279 3.197977906177556 0 0 0 0 71.965866306467433 23.820713967726078 0 23.820713967726078 17.815735833715735 0 0 0 0 15.688594401293528 26.620013570691114 0 26.620013570691114 15.231883957407641 0 0 0 0 19.239484345751407 17.573728043258598 0 17.573728043258598 17.08545027131504 0 0 0 0 33.706641687604133 -5.2901685480928791 0 -5.2901685480928791 47.566841418793956 0 0 0 0 41.893691618564844 -3.731149722693317 0 -3.731149722693317 11.888428473504973 0 0 0 0 27.489856260431225 12.04521675623073 0 12.04521675623073 17.556325707109863 0 0 0 0 2.774310095063381 5.0507505775789383 0 5.0507505775789383 7.5874701103655831 0 0 0 0 63.683457327824726 -29.161493664831141 0 -29.161493664831141 36.607214160183503 0 0 0 0 76.917156453941061 -58.417844407756093 0 -58.417844407756093 56.249441280935116 0 0 0 0 8.2904794152095747 -57.899063988675834 0 -57.899063988675834 83.993604890467395 0 0 0 0 1.19269243142924 -0.47117040422912027 0 -0.47117040422912027 22.467820506923221 0 0 0 0 4.7361423286911304 -45.09769594140198 0 -45.09769594140198 41.616522273574901 0 0 0 0 6.9219925899669761 7.392276024073908 0 7.392276024073908 64.190392349875765 0 0 0 0 -3.9263942529842097 -3.4443534260487922 0 -3.4443534260487922 87.975657506322023 0 0 0 0 -33.001463884345867 -31.205901989251288 0 -31.205901989251288 66.460860482893622 0 0 0 0 22.60826410771309 30.752114801857118 0 30.752114801857118 42.950749376191006 0 0 0 0 38.344013937798081 42.614043273428706 0 42.614043273428706 172.55348301565391 0 0 0 0 11.526394437231609 12.388753689963877 0 12.388753689963877 65.268139963248686 0 0 0 0 -30.60100214092019 -21.040687510842737 0 -21.040687510842737 72.9049341768483 0 0 0 0 -32.910490937145369 3.7309833830404386 0 3.7309833830404386 81.258897715029889 0 0 0 0 -32.290844018977879 -120.22984577948903 0 -120.22984577948903 90.56536191048508 0 0 0 0 -34.149325695773292 -41.304281752907002 0 -41.304281752907002 125.31020746779342 0 0 0 0 24.837625747198217 3.006393308055749 0 3.006393308055749 192.3846376332931 0 0 0 0 26.489363990109268 20.969825679350834 0 20.969825679350834 120.27670946305898 0 0 0 0 15.558052103244336 0.10004128283685532 0 0.10004128283685532 97.807209665284972 0 0 0 0 21.558275524737837 25.540263867565955 0 25.540263867565955 117.18306397027482 0 0 0 0 21.33730533203925 56.786197264751536 0 56.786197264751536 188.64768745924266 0 0 0 0 18.820856668118722 19.202977030970942 0 19.202977030970942 168.01601109013609 0 0 0 0 41.293039337854452 59.920046478129393 0 59.920046478129393 149.4277487883046 0 0 0 0 16.575718452175352 45.085105576530623 0 45.085105576530623 204.07717580037752 0 0 0 0 31.926152012125385 15.784872098261985 0 15.784872098261985 108.53867451984115 0 0 0 0 36.745442612984334 33.988780330848385 0 33.988780330848385 115.12709646112671 0 0 0 0 39.240896191138688 24.219526828715018 0 24.219526828715018 87.749175573535467 0 0 0 0 32.571005178244377 -4.7318541916511094 0 -4.7318541916511094 64.093869821588669 0 0 0 0 -52.489467053230328 -127.99845680975614 0 -127.99845680975614 325.67127099650861 0 0 0 0 -131.62618941167966 177.74665740607816 0 177.74665740607816 219.15341507562334 0 0 0 0 -19.474508782286954 -19.857640166506727 0 -19.857640166506727 36.029646754770113 0 0 0 0 -0.90736577226016379 67.329748289133931 0 67.329748289133931 270.30203314781284 0 0 0 0 32.437911835150317 73.050447333238935 0 73.050447333238935 214.60283845659433 0 0 0 0 -0.60329969999656896 35.654772265273095 0 35.654772265273095 227.52273813481952 0 0 0 0 -47.244076442225378 -28.193545946402082 0 -28.193545946402082 215.67898549458914 0 0 0 0 -23.816626897464069 -59.992218258496237 0 -59.992218258496237 153.13187537513545 0 0 0 0 -66.923773830130813 -57.72627617704984 0 -57.72627617704984 173.48936998854697 0 0 0 0 -90.496300043658266 -98.390750440614283 0 -98.390750440614283 176.33027772053538 0 0 0 0 -0.40698442838402116 38.534342415144238 0 38.534342415144238 197.51243330315367 0 0 0 0 -24.886032825697079 -50.659955632875111 0 -50.659955632875111 136.08051592157634 0 0 0 0 -37.232349494168375 -56.984700266290019 0 -56.984700266290019 89.863712430671313 0 0 0 0 -8.1686497222603975 -109.5784148670009 0 -109.5784148670009 184.98672774477382 0 0 0 0 -40.454333167256209 -66.742234810146329 0 -66.742234810146329 197.26005251198148 0 0 0 0 -66.048202935814516 -88.173358480462412 0 -88.173358480462412 252.3617192841848 0 0 0 0 -86.83436947958171 -64.569799677794435 0 -64.569799677794435 354.51882700494025 0 0 0 0 -85.483156104564387 21.670273733811882 0 21.670273733811882 211.81762291712948 0 0 0 0 -26.37469382468953 78.334791192817647 0 78.334791192817647 255.13878674040643 0 0 0 0 -117.5863409957833 85.856129699895064 0 85.856129699895064 148.36741546158009 0 0 0 0 -74.727211739960694 -27.798930098930214 0 -27.798930098930214 196.15076442033387 0 0 0 0 -95.708321609095947 -28.078975850985444 0 -28.078975850985444 242.58077240519788 0 0 0 0 -50.103429299982167 14.80725024031085 0 14.80725024031085 106.6182501397343 0 0 0 0 -66.370107166873538 -3.6541443759765571 0 -3.6541443759765571 102.86553699788328 0 0 0 0 -76.203805761248077 -31.334540379881219 0 -31.334540379881219 215.61332174730256 0 0 0 0 -28.916599736977904 6.2737141494078088 0 6.2737141494078088 117.57411806414295 0 0 0 0 -44.046109315641232 -5.3367383753890945 0 -5.3367383753890945 86.207811599462644 0 0 0 0 -25.203284951477372 -22.244209196523116 0 -22.244209196523116 59.701320019987179 0 0 0 0 3.8897229657816084 -1.4222209011790596 0 -1.4222209011790596 1.1571169735627365 0 0 0 0 128.33079168415861 -12.028593884429938 0 -12.028593884429938 -61.992798392660916 0 0 0 0 10.023353911121902 -5.256781720929709 0 -5.256781720929709 2.6244744070727464 0 0 0 0 -4.2204743630094299 -42.653891517349621 0 -42.653891517349621 -21.075734930418548 0 0 0 0 -11.496583317448312 -8.8288528874054464 0 -8.8288528874054464 45.058371596969664 0 0 0 0 4.0539803320180043 6.7102596510911354 0 6.7102596510911354 4.4595999730254476 0 0 0 0 9.1600327482387911 15.193896037981176 0 15.193896037981176 51.039799437334295 0 0 0 0 73.562036900668318 -39.639472074946752 0 -39.639472074946752 52.884541555518808 0 0 0 0 34.716069303545737 -45.690295177504595 0 -45.690295177504595 101.64220697052588 0 0 0 0 74.636802535533207 -50.510794269470352 0 -50.510794269470352 81.432108895382044 0 0 0 0 79.08010592595474 -82.99373157689115 0 -82.99373157689115 100.82199403105142 0 0 0 0 -8.576084898728368 -111.87276043803649 0 -111.87276043803649 248.3110861436835 0 0 0 0 236.00123504575731 -196.40832633449463 0 -196.40832633449463 104.12875471709322 0 0 0 0 -5.782755110337348 -141.08884349477739 0 -141.08884349477739 544.30025254657448 0 0 0 0 142.12246601247352 127.63126035143796 0 127.63126035143796 429.05115750010191 0 0 0 0 -0.98987575559431207 10.062094233083371 0 10.062094233083371 333.64782001652929 0 0 0 0 59.234519584243571 138.52354215447849 0 138.52354215447849 248.72016076463478 0 0 0 0 117.26150561376744 -14.024077323418169 0 -14.024077323418169 177.14476984706198 0 0 0 0 62.507158359262576 53.406424751501618 0 53.406424751501618 347.96319151060743 0 0 0 0 107.92783144706868 -71.107639958581785 0 -71.107639958581785 320.52711306512356 0 0 0 0 338.38651345693961 -195.9963259341439 0 -195.9963259341439 500.11238186774426 0 0 0 0 -85.145822666087952 -43.97055579352309 0 -43.97055579352309 1097.4790537773406 0 0 0 0 -101.9141971087779 -30.065069586804384 0 -30.065069586804384 585.87000802607508 0 0 0 0 -62.357326248174559 41.63044581156646 0 41.63044581156646 649.80276179681823 0 0 0 0 -115.36633964433463 -57.278651155227635 0 -57.278651155227635 521.86843443918042 0 0 0 0 -115.3473864976304 -72.865630189917283 0 -72.865630189917283 650.7011847538414 0 0 0 0 -170.16668106866928 125.56203644188645 0 125.56203644188645 453.66017364854633 0 0 0 0 -33.546562203698159 289.18099865912882 0 289.18099865912882 640.85143372942548 0 0 0 0 -168.94545380243108 -162.13105517282747 0 -162.13105517282747 1081.7675048173805 0 0 0 0 105.13869331942851 39.488152440430895 0 39.488152440430895 -24.729123469478509 0 0 0 0 158.22435280424725 183.62330141383063 0 183.62330141383063 224.58946145990922 0 0 0 0 305.70025306799801 234.83428284433148 0 234.83428284433148 644.43005191579869 0 0 0 0 432.79762380482771 -288.37155443759912 0 -288.37155443759912 488.85764904724419 0 0 0 0 -195.01503284322825 -39.324527181950543 0 -39.324527181950543 622.38457461504004 0 0 0 0 -35.01921485476214 -223.97670038384967 0 -223.97670038384967 375.09943992785338 0 0 0 0 -44.26842419444975 42.420900694520128 0 42.420900694520128 290.43910664287978 0 0 0 0 6.4353251601739885 122.03206280161521 0 122.03206280161521 97.368930750002619 0 0 0 0 15.353352799522185 -5.5183384554268429 0 -5.5183384554268429 3.2539733066443048 0 0 0 0 200.53540040502685 -198.83006887371448 0 -198.83006887371448 -154.27266903758209 0 0 0 0 9.4425143920479968 -15.576250896832789 0 -15.576250896832789 72.203317342271475 0 0 0 0 21.109593893620392 -3.0599959117080289 0 -3.0599959117080289 64.994095862690301 0 0 0 0 1.5961220983689719 4.0505690306209488 0 4.0505690306209488 4.9958467727307365 0 0 0 0 8.5407971331028421 6.1253157798491884 0 6.1253157798491884 21.903079111511033 0 0 0 0 3.8036030047551321 -21.554743890450482 0 -21.554743890450482 20.875696084536685 0 0 0 0 171.78519972830327 153.6876551884161 0 153.6876551884161 35.879841966169806 0 0 0 0 -84.958441207088129 -67.337800744840024 0 -67.337800744840024 125.57315392917371 0 0 0 0 0.1829118787091758 -0.56499063131335703 0 -0.56499063131335703 2.7227035436562801 0 0 0 0 -74.949657662225718 -28.137440830731066 0 -28.137440830731066 3.9966594067809638 0 0 0 0 -59.969384865560187 -21.078723406768404 0 -21.078723406768404 -13.464547350582961 0 0 0 0 -22.296569500617139 9.5136755207313399 0 9.5136755207313399 136.8713912852254 0 0 0 0 -60.559134404453062 -28.49854346329812 0 -28.49854346329812 -13.711921918489679 0 0 0 0 1.8184109429391404 1.3377534333187526 0 1.3377534333187526 0.57980987201199952 0 0 0 0 13.362014445783194 1.7391835816611234 0 1.7391835816611234 2.1290189414358522 0 0 0 0 151.90374762122246 97.888005883614824 0 97.888005883614824 -273.02411310124808 0 0 0 0 -119.21089622132422 -42.63310923910467 0 -42.63310923910467 146.85984506074328 0 0 0 0 -116.74698754824976 155.10618864188655 0 155.10618864188655 150.25170484514092 0 0 0 0 -119.11092176099282 -16.90119483514718 0 -16.90119483514718 2.7602259689701896 0 0 0 0 -88.236203805286777 103.85756111160299 0 103.85756111160299 -68.630839640914928 0 0 0 0 229.88317998806724 166.55576356047823 0 166.55576356047823 -22.380783149095805 0 0 0 0 9.4737995661994585 2.9522042488590614 0 2.9522042488590614 1.5346969796582357 0 0 0 0 -65.273994743727258 -14.358662873626599 0 -14.358662873626599 14.268634777647094 0 0 0 0 -233.2147556922414 -149.57059100959304 0 -149.57059100959304 166.62116311865975 0 0 0 0 16.52363534166728 78.415142330939489 0 78.415142330939489 -136.77296788487001 0 0 0 0 47.277074137339696 -41.552425896103159 0 -41.552425896103159 258.45753771622549 0 0 0 0 3.541070314603274 1.3208227703977329 0 1.3208227703977329 -2.4224377447967811 0 0 0 0 5.0249486112074919 -124.24745678844192 0 -124.24745678844192 351.17901662729128 0 0 0 0 -197.81925818794667 59.426769023848067 0 59.426769023848067 511.43062418901536 0 0 0 0 -21.348291232117845 -61.606466774152068 0 -61.606466774152068 1383.9345856953078 0 0 0 0 147.84760739605917 -39.558691919824923 0 -39.558691919824923 421.59362674558815 0 0 0 0 -54.652488898785123 153.4230527865293 0 153.4230527865293 450.21281383718451 0 0 0 0 258.66972829392398 -150.1588511187656 0 -150.1588511187656 196.54826619199957 0 0 0 0 -203.73683833384348 -226.44088560409 0 -226.44088560409 850.17748518954613 0 0 0 0 4.2502631395667265 4.6261637436611807 0 4.6261637436611807 5.8609923136764195 0 0 0 0 103.5471162521535 -685.6059970589522 0 -685.6059970589522 1489.2055147395913 0 0 0 0 289.28097763059736 -376.99866862624549 0 -376.99866862624549 760.48206380198826 0 0 0 0 -100.04056244713468 -169.43565682553526 0 -169.43565682553526 733.03700015694631 0 0 0 0 -56.217367182755879 -142.79229383525671 0 -142.79229383525671 743.72629605560178 0 0 0 0 -146.41664499709941 -92.046132812720316 0 -92.046132812720316 768.99325017486262 0 0 0 0 -120.62868866564332 -123.55179594338188 0 -123.55179594338188 796.54688132534648 0 0 0 0 -149.48653531360202 -93.857363909367905 0 -93.857363909367905 1017.5773355486672 0 0 0 0 -6.1669153513385027 -316.42326671375486 0 -316.42326671375486 849.02175230140347 0 0 0 0 273.95769522290846 -299.29969182758578 0 -299.29969182758578 324.55691063104314 0 0 0 0 -0.18102279150610945 -1.9939395661939461 0 -1.9939395661939461 8.00750479600066 0 0 0 0 181.25274017971554 207.70903977072112 0 207.70903977072112 249.08717820973834 0 0 0 0 -98.172809669535496 -83.098779661428125 0 -83.098779661428125 371.46930624292662 0 0 0 0 2.4410686149161838 -0.98596634027044772 0 -0.98596634027044772 -0.30024550622869128 0 0 0 0 51.713739865933633 -99.803681169229094 0 -99.803681169229094 218.78007119963877 0 0 0 0 123.7329827268133 36.28090990302735 0 36.28090990302735 -87.390972261724528 0 0 0 0 -26.397464104929895 -195.97228972190351 0 -195.97228972190351 372.87209914831328 0 0 0 0 19.525728698951298 -35.982382182664878 0 -35.982382182664878 539.678400219389 0 0 0 0 -77.552444331665811 37.962787427624789 0 37.962787427624789 572.82175216746691 0 0 0 0 19.518410879717521 -281.1371570098745 0 -281.1371570098745 869.82153992285021 0 0 0 0 -116.88206133908261 -15.294767333914933 0 -15.294767333914933 870.22651751597346 0 0 0 0 -125.1767885418476 26.489585968509346 0 26.489585968509346 673.8252996743704 0 0 0 0 -0.6489948756904429 2.1931797576814347 0 2.1931797576814347 5.4081974879180876 0 0 0 0 -42.537654751901755 24.424685191268509 0 24.424685191268509 16.402264049891528 0 0 0 0 -36.309098957181959 33.876189426173369 0 33.876189426173369 -8.065043166076066 0 0 0 0 -0.2041549528364861 1.5681662340266627 0 1.5681662340266627 1.2672364026847518 0 0 0 0 24.03833617122018 84.222978391313518 0 84.222978391313518 -89.10359992938902 0 0 0 0 -3.4272348405881985 25.149883976188903 0 25.149883976188903 9.7083061974335578 0 0 0 0 -3.7438175463094012 28.462492100916279 0 28.462492100916279 45.409967055944435 0 0 0 0 -41.296589996364787 16.297890442725475 0 16.297890442725475 1.4106483260547975 0 0 0 0 -40.798435474336657 12.31870261718359 0 12.31870261718359 33.019944909832702 0 0 0 0 28.003699586534822 5.06742273173586 0 5.06742273173586 25.313471923571342 0 0 0 0 -9.8214269897744089 30.723216744958336 0 30.723216744958336 25.928745719938888 0 0 0 0 -0.22620303743454073 5.8264344512810169 0 5.8264344512810169 8.3769590178702913 0 0 0 0 -0.33186192348330223 4.1014083748523262 0 4.1014083748523262 12.150694931864564 0 0 0 0 5.9055260388395254 4.4940148968307767 0 4.4940148968307767 10.559852560152649 0 0 0 0 1.5504692505248556 3.6407447720590653 0 3.6407447720590653 11.103843542325194 0 0 0 0 1.1449141947488997 2.6168314850345258 0 2.6168314850345258 7.2762106107563795 0 0 0 0 4.2182892843767927 0.57848190695666801 0 0.57848190695666801 6.4663836887995672 0 0 0 0 4.2286943981371223 3.9752921341932961 0 3.9752921341932961 3.7475613641217933 0 0 0 0 2.4271254025107072 4.3283073332539601 0 4.3283073332539601 6.2063974386336866 0 0 0 0 -3.4859763481113077 1.6618922474481224 0 1.6618922474481224 12.129974666037015 0 0 0 0 -0.58927359025013415 1.3394559271834359 0 1.3394559271834359 9.7438801704726927 0 0 0 0 -47.879035347654735 19.199418296120712 0 19.199418296120712 16.162630015838658 0 0 0 0 1.6495823921838024 1.1382601926950429 0 1.1382601926950429 7.142607978254091 0 0 0 0 4.8343083629633838 4.2047290122136474 0 4.2047290122136474 6.0700142296354898 0 0 0 0 -20.339923860518411 13.17509111905747 0 13.17509111905747 29.631916915059264 0 0 0 0 -0.008060736077937225 -0.57832962509673358 0 -0.57832962509673358 10.85663445556861 0 0 0 0 1.0980298387555054 1.7230000369111522 0 1.7230000369111522 1.0166387112096515 0 0 0 0 4.5850694171406303 6.4332459245915743 0 6.4332459245915743 8.9788027876929846 0 0 0 0 91.778336328877572 35.437704724725336 0 35.437704724725336 27.76517438236624 0 0 0 0 131.503053667215 -9.123156307008685 0 -9.123156307008685 30.562565762142185 0 0 0 0 1.9547171105149879 -0.56806601583851801 0 -0.56806601583851801 0.88675246920482209 0 0 0 0 34.139228288658387 33.129733529933219 0 33.129733529933219 -8.962129386178276 0 0 0 0 -0.11294129542629139 0.42609442945767251 0 0.42609442945767251 4.9611919078182609 0 0 0 0 3.3611337523116163 2.646134277463716 0 2.646134277463716 4.4222994418814778 0 0 0 0 -3.4620676503063805 -17.592500363694853 0 -17.592500363694853 28.195983015215461 0 0 0 0 0.3150408385116561 -1.6319731303084954 0 -1.6319731303084954 1.9911724618960989 0 0 0 0 91.773923466033011 34.93345912336008 0 34.93345912336008 -49.508828882557282 0 0 0 0 39.948969429918634 61.176936920212029 0 61.176936920212029 -37.145244900973921 0 0 0 0 0.0096615490666616122 -0.069017274743652379 0 -0.069017274743652379 6.0334440899817139 0 0 0 0 -0.026443816375443352 -0.69002555883498751 0 -0.69002555883498751 7.3378683361748074 0 0 0 0 12.439708237430978 67.882622663992152 0 67.882622663992152 67.754148643347435 0 0 0 0 199.13371176265252 112.6426271827786 0 112.6426271827786 -14.391116751736263 0 0 0 0 -77.129731151817396 30.748022654111992 0 30.748022654111992 25.58883335905557 0 0 0 0 97.541758986752711 170.76557213674823 0 170.76557213674823 26.544391098388587 0 0 0 0 15.556530568368544 5.7330658992141252 0 5.7330658992141252 16.663058996286054 0 0 0 0 49.726265483641328 -26.466148732768488 0 -26.466148732768488 65.020549416309223 0 0 0 0 19.445679339282833 14.224360456209979 0 14.224360456209979 34.816264905042772 0 0 0 0 -53.181032322345345 -22.24830925760034 0 -22.24830925760034 21.852300441055377 0 0 0 0 -96.964546547674217 3.6560712721802702 0 3.6560712721802702 28.596236556768417 0 0 0 0 -43.397816907501692 -12.562858414406946 0 -12.562858414406946 -21.516848053965077 0 0 0 0 -51.26364193635618 11.884732937585795 0 11.884732937585795 -9.2238046422571642 0 0 0 0 -49.161640730204454 22.35279061917754 0 22.35279061917754 31.300182280654553 0 0 0 0 1.6110766809130279 -0.64800069269352178 0 -0.64800069269352178 0.65848742521257009 0 0 0 0 -164.28623666307976 -81.894615750330559 0 -81.894615750330559 44.060196088481462 0 0 0 0 1.3176012986609749 1.0681786309723975 0 1.0681786309723975 -8.0471896128583467 0 0 0 0 20.009245014805856 40.64912602358163 0 40.64912602358163 45.072880029780208 0 0 0 0 95.030827908001811 -65.176465906311932 0 -65.176465906311932 45.785114652773046 0 0 0 0 -54.01063165083724 78.954360360214196 0 78.954360360214196 -6.0746486903954064 0 0 0 0 63.603843230260281 -100.85706047613348 0 -100.85706047613348 185.98464398336728 0 0 0 0 1.7190135754333937 -1.0545911472852865 0 -1.0545911472852865 -0.73113247661015635 0 0 0 0 75.229466259668698 -219.50070234218947 0 -219.50070234218947 -69.769063655723585 0 0 0 0 22.216664389260131 32.641064795177044 0 32.641064795177044 133.4800288376282 0 0 0 0 -7.5058511606403044 -133.39174978406299 0 -133.39174978406299 -130.62438628697055 0 0 0 0 20.176158069112716 -123.20571566040599 0 -123.20571566040599 -236.12546779664262 0 0 0 0 -32.368627156155071 3.5693457285415207 0 3.5693457285415207 108.13810515944351 0 0 0 0 23.82992341820534 18.547148250637292 0 18.547148250637292 -16.538936218166782 0 0 0 0 23.574781444787732 1.8578405856840163 0 1.8578405856840163 164.0541529324255 0 0 0 0 15.389019284725237 49.066938079452939 0 49.066938079452939 130.40033956988191 0 0 0 0 60.791207031724298 2.0399622507757158 0 2.0399622507757158 178.54264003947537 0 0 0 0 54.024731813610742 20.632419337809552 0 20.632419337809552 172.11478957760119 0 0 0 0 -184.2810182403357 11.547836311510764 0 11.547836311510764 175.75369265738118 0 0 0 0 0.039020649024639642 -1.2489772203337459 0 -1.2489772203337459 8.4034801517542519 0 0 0 0 -28.898403452064628 5.7543069180446764 0 5.7543069180446764 24.153622011450352 0 0 0 0 366.90345662754703 150.06050053987929 0 150.06050053987929 -54.847354197700042 0 0 0 0 173.64945253605117 -156.80955572165294 0 -156.80955572165294 -55.156339738357929 0 0 0 0 -153.75866653568301 -30.292981712664186 0 -30.292981712664186 138.88580530633044 0 0 0 0 26.444428079655154 -71.147068966703955 0 -71.147068966703955 -26.969802483193234 0 0 0 0 0.24774817222057099 -1.2371948755558155 0 -1.2371948755558155 0.45295423793149325 0 0 0 0 0.39301531227010211 -0.71486611808276201 0 -0.71486611808276201 1.5090007482608314 0 0 0 0 155.31944039547534 49.74325629273153 0 49.74325629273153 20.30381056934857 0 0 0 0 -66.93083378962865 97.152424461170085 0 97.152424461170085 183.79384480440058 0 0 0 0 63.727245548965584 23.655928847161704 0 23.655928847161704 106.13484085820528 0 0 0 0 160.28328534284901 -32.053141605490964 0 -32.053141605490964 124.47507477738509 0 0 0 0 157.19037067867939 -130.09816621961164 0 -130.09816621961164 -88.853809162166726 0 0 0 0 -7.799776268872165 303.63899256930017 0 303.63899256930017 160.64553268947202 0 0 0 0 72.787052679949213 96.049856826142559 0 96.049856826142559 66.818610160000389 0 0 0 0 75.141331898834324 38.467079513837234 0 38.467079513837234 5.5198265285580419 0 0 0 0 14.357751864577892 40.135629514177708 0 40.135629514177708 24.006354892560921 0 0 0 0 27.775595615054272 -5.4952116781205405 0 -5.4952116781205405 4.0945489395642198 0 0 0 0 9.6578700766503971 40.739558328772546 0 40.739558328772546 40.30358745241756 0 0 0 0 -15.820508885003392 32.971743343041453 0 32.971743343041453 29.500622523595666 0 0 0 0 -5.2679456622584553 30.88649370319763 0 30.88649370319763 10.542365029905341 0 0 0 0 -9.0166768561282424 22.73055679697427 0 22.73055679697427 7.5354745819786331 0 0 0 0 -4.259471323331681 32.635534318302234 0 32.635534318302234 25.221767570954398 0 0 0 0 -3.8767463148844286 32.262904941853776 0 32.262904941853776 17.162693677986681 0 0 0 0 -9.1666473224204097 40.399146529453901 0 40.399146529453901 30.71536387213564 0 0 0 0 -6.5825734406460867 41.863459741056431 0 41.863459741056431 29.365503104261734 0 0 0 0 -11.978511070686181 43.231159223192662 0 43.231159223192662 49.07826559314708 0 0 0 0 2.2415086144764302 61.021103083798153 0 61.021103083798153 58.713056407679687 0 0 0 0 -21.447416606213039 45.280515472739353 0 45.280515472739353 89.353049801262387 0 0 0 0 -26.845948892537706 30.335067917834749 0 30.335067917834749 49.186054250909365 0 0 0 0 -34.831184104271074 14.860136955961934 0 14.860136955961934 36.017347113840515 0 0 0 0 -25.527949619242918 28.333813614328392 0 28.333813614328392 52.081993661971381 0 0 0 0 -16.457398199144336 15.753440665677772 0 15.753440665677772 4.7939802615583176 0 0 0 0 -14.831542573755314 30.521314891891961 0 30.521314891891961 39.595122301932861 0 0 0 0 -22.588108525101916 16.56517636139688 0 16.56517636139688 34.6521804586082 0 0 0 0 1.4643561250470567 -1.4923659664843925 0 -1.4923659664843925 1.5887109364931291 0 0 0 0 -18.890703591298461 22.91989796442067 0 22.91989796442067 26.235199995084258 0 0 0 0 -14.090704934139239 3.3552085776136664 0 3.3552085776136664 22.342703522233933 0 0 0 0 -4.0596937019045072 21.69488190455013 0 21.69488190455013 35.989317493269482 0 0 0 0 -10.247753362802769 16.4582219329277 0 16.4582219329277 54.954269943846157 0 0 0 0 6.757477648119675 10.713139307343226 0 10.713139307343226 23.039602453175121 0 0 0 0 -3.4721430629599581 29.647821476159152 0 29.647821476159152 35.123398366100446 0 0 0 0 -10.738490943510669 23.168533733944059 0 23.168533733944059 46.53923639417917 0 0 0 0 -18.282386717088571 33.730984846091815 0 33.730984846091815 37.252819928587996 0 0 0 0 4.0086604288896979 14.054267313516903 0 14.054267313516903 39.053515809049713 0 0 0 0 0.26720596381403539 7.7694650849007303 0 7.7694650849007303 51.037149251096707 0 0 0 0 11.574531656434829 -6.9625204990516067 0 -6.9625204990516067 62.572513018259997 0 0 0 0 -3.2125127146518935 5.5738589240318106 0 5.5738589240318106 66.170033826294457 0 0 0 0 1.1584967873395158 13.965392312833501 0 13.965392312833501 51.740386229430442 0 0 0 0 3.4765384007170042 -8.6719870411543525 0 -8.6719870411543525 70.767952794805751 0 0 0 0 10.357251095706658 -12.060168335526782 0 -12.060168335526782 68.200062339259603 0 0 0 0 0.96063226824082903 -5.3872958874489996 0 -5.3872958874489996 64.979842752980375 0 0 0 0 9.186727587194838 -1.2875890283012268 0 -1.2875890283012268 45.933437597675947 0 0 0 0 14.227061849954481 -6.8940148789770319 0 -6.8940148789770319 27.283591583007365 0 0 0 0 -3.2498038828245512 12.175905450734717 0 12.175905450734717 22.789572339170263 0 0 0 0 -31.073559168213933 -66.790988729153469 0 -66.790988729153469 81.82820408034604 0 0 0 0 -13.288603205290087 -80.976116282701696 0 -80.976116282701696 -54.535181064682547 0 0 0 0 -44.795918131818894 44.669268184628891 0 44.669268184628891 -40.071878920971812 0 0 0 0 -31.150138978859445 5.9105811745939718 0 5.9105811745939718 26.40080852693427 0 0 0 0 -103.49834700664297 8.9009361304497361 0 8.9009361304497361 24.072386755156913 0 0 0 0 -31.522841191756015 -5.2955873589089606 0 -5.2955873589089606 -11.82589822603768 0 0 0 0 -36.713942217678664 22.604756491957232 0 22.604756491957232 20.059344017212425 0 0 0 0 -15.531528598839976 34.404570748702099 0 34.404570748702099 10.247005060227821 0 0 0 0 -7.7967930644757075 24.113965777760313 0 24.113965777760313 22.062121141203534 0 0 0 0 -8.0050508219285632 25.817315954125661 0 25.817315954125661 33.292353817116236 0 0 0 0 -6.299468786250543 14.138768008771876 0 14.138768008771876 34.488900167440079 0 0 0 0 4.6425829661089111 13.32307926208523 0 13.32307926208523 24.536467613448622 0 0 0 0 -6.0560600754288174 9.6948244341147074 0 9.6948244341147074 3.7671757380012423 0 0 0 0 
</DataArray>
<DataArray type="Float64" Name="cross_section_updated" format="ascii">
1 0.010486073965512514 1 1 1 1 1 0.0099032340760701765 1 1 0.010148147437618073 1 0.0078125141456688724 1 0.013154630181363168 1 1 1 1 0.0092529543413833841 1 1 0.0074343472924957854 1 1 0.013109529925398156 1 0.012878716363482378 1 1 1 1 1 0.010485457844447165 1 0.011355261905869246 1 1 0.011375736859247483 1 1 1 1 1 1 1 1 1 1 1 1 1 1 1 1 1 1 1 1 1 1 0.010598547152795396 1 1 1 1 1 0.011093685643628724 1 1 1 1 1 1 1 0.010570530909299223 1 1 1 1 1 1 1 1 1 1 1 1 1 1 1 1 1 1 1 1 1 1 1 1 1 1 1 1 1 1 1 1 1 1 1 1 0.013009530440746792 1 0.01024727596558437 1 0.01024628964367736 1 1 0.011400175412314532 1 1 0.010084192727428679 1 1 1 1 0.016140248472048199 1 1 0.0099502222106760616 1 1 1 1 1 1 1 1 1 1 1 1 1 1 0.010275790622001752 1 1 1 1 1 0.011013174267738788 1 1 1 1 1 1 1 1 0.013236412638668543 0.0099603259029114218 1 1 1 1 0.011763631773150925 1 1 1 1 1 1 0.011448405110374933 1 1 1 1 1 1 1 1 1 1 1 1 0.010711796721912144 1 1 1 1 1 0.010479633658380935 1 1 1 1 1 1 1 1 1 1 1 1 1 1 1 1 1 1 1 1 1 1 1 1 1 1 1 1 1 1 1 1 1 1 1 1 1 1 1 1 1 0.0093428699720818648 1 1 0.011740861000654322 1 1 0.010599308763024382 1 1 1 1 1 1 1 1 1 1 1 1 1 1 1 1 1 1 0.014576695340399327 1 1 1 0.015313602751415661 1 1 1 1 1 1 1 1 1 1 1 1 1 1 1 0.012216829175850139 1 1 1 1 1 0.010836575713516879 1 1 1 1 0.010129773667909386 1 1 1 1 1 1 1 1 1 1 1 1 1 1 0.010060716607176654 1 1 1 0.0099809995287290718 1 1 1 1 1 1 1 1 1 1 1 1 1 1 0.011279786773501464 0.010287485403975808 1 1 1 1 1 0.011270590832218076 1 1 0.0111482782964289 0.0086965233169115086 1 1 0.010023723706983477 1 1 1 1 1 1 1 1 1 1 1 1 1 1 1 0.006221426502998402 1 0.0086683277780494148 0.01035824298711454 1 1 1 1 1 1 1 0.0099785787017719913 1 1 1 1 1 0.011204902192895043 1 1 1 1 0.0096321927178325516 1 1 1 1 1 1 1 1 1 0.010887722733276635 1 1 1 1 1 1 0.010720387742116014 1 1 1 1 1 1 1 0.010344105712777656 1 1 1 1 1 1 1 1 1 1 1 1 1 0.010263053228164249 1 1 0.010535436707685142 1 1 1 1 1 1 1 0.010402157147430278 1 1 1 1 1 1 0.010079717078447587 1 1 0.010602298401696504 1 1 1 1 0.010226016372358147 1 1 1 1 1 1 1 1 1 1 1 1 1 1 1 1 1 1 1 1 1 1 1 1 1 1 1 1 1 1 0.010438747997866624 1 1 1 1 1 1 1 1 1 1 0.010072615084564014 1 1 1 0.010246737508906822 1 1 1 1 1 1 1 1 1 1 1 1 1 1 1 1 1 1 1 1 1 1 1 1 1 1 1 1 1 1 1 1 1 1 1 1 1 1 1 1 1 1 1 0.010043901147347593 0.010410558342811557 1 1 1 1 0.010197028873403527 0.012314149765193884 1 0.009991029771410094 1 1 1 1 1 0.011795745785814264 1 1 1 1 1 1 1 1 1 1 1 0.010121676709996419 1 1 1 0.0099162321639178347 1 0.010816886849755517 0.011411944900164728 1 1 1 1 1 0.01113309958044632 1 1 1 0.010308316752219165 1 1 0.010542746233777735 1 1 1 0.010637995893396958 0.010007021761684234 1 1 1 1 1 0.010687659249898122 1 1 1 1 1 1 0.010598234561725386 1 1 1 1 1 1 1 1 1 1 1 1 1 1 1 1 1 1 1 0.011075115313876935 1 1 1 1 1 1 1 1 1 1 1 1 1 1 1 1 0.0097999595112156883 1 1 1 1 1 0.0093139976163856206 0.013090309980304212 1 1 1 0.011157319478945125 1 1 1 1 1 1 1 0.015955905430362936 1 1 0.011235478808963362 1 0.012052809145887499 1 1 1 1 1 1 1 1 1 1 1 1 1 1 1 1 1 1 1 1 1 1 1 1 1 0.011760339107079982 1 1 1 1 0.010782756969146517 0.011404311042104319 1 1 1 1 0.011579205619986861 1 1 1 1 1 1 1 1 1 1 1 1 1 1 1 0.010566941158656862 1 1 1 1 1 1 1 1 1 0.010365944250332156 1 1 1 1 1 1 1 1 1 1 1 0.010619430836320047 1 1 1 1 1 0.010043544614393732 1 1 0.00990458716285934 1 1 1 1 1 1 1 1 1 1 1 0.010721581327418335 1 0.012491068146294072 1 1 1 1 1 1 1 1 1 1 1 1 1 1 1 1 0.010238232640654535 1 0.009943364945942999 1 1 1 1 0.011316606757106579 1 1 1 1 1 1 0.010636437708406027 1 1 1 0.011879764386664618 1 1 1 0.0093787121280340668 0.01002371311999883 1 1 0.010001981017022224 1 0.010323764484759084 0.0097480547756097144 1 1 0.009967618946392422 0.01078332450212173 1 1 1 0.0097872109470749664 1 1 1 1 1 1 1 1 1 1 1 0.010396882993788594 0.01009529752096593 1 1 1 1 0.011401837283064271 0.0099125469422927954 0.0099245219384628391 1 1 1 1 1 1 1 1 0.010008419722099534 1 1 1 1 1 1 1 1 1 1 0.010151597541824211 1 1 1 1 1 1 1 1 0.010352522775007139 1 1 1 0.010002130984014646 1 0.010305044663944378 1 1 1 0.0095704924603455376 1 1 0.01148702810488049 0.011111271264630728 1 0.014862156577245279 0.011144669948521892 0.010003198775556572 1 0.010734132079634459 1 1 1 1 1 0.014367607049270063 1 0.015552740194153905 1 1 1 0.010069161286959654 1 1 0.0098738803737049886 1 1 0.010383233723512492 1 0.010017085712714313 1 1 1 1 1 1 1 0.011330114470683919 1 1 1 1 0.010003432833932202 1 1 1 1 1 1 0.0096561852873716797 0.014712695927224316 1 1 0.011024903716159849 0.010000216675095368 1 0.012722936973882378 1 1 1 0.0096176255329048273 1 1 1 1 0.014104391749884766 0.0084681258674673045 0.010431675413032609 0.013634644602990621 1 0.011659430749535757 1 1 1 1 1 0.010993753060955512 0.0089916572995850843 0.01017019026745291 0.011872029887535615 1 1 1 0.012000713937024244 0.010849846025460458 1 0.0119865016500814 0.009242351225461137 0.0087341291566235268 1 0.015476272984398897 0.010998919017260876 1 0.0090239835432023054 0.012406734984583554 0.012535040279281392 1 1 1 0.0087578095037519031 1 0.010108116045871012 0.01044883473976254 1 1 1 1 1 0.013469841440171933 1 0.015124997693091745 1 0.012520771259998485 1 1 0.011387001976275733 1 0.01216613060734777 1 1 1 0.013677415377874595 1 1 0.014073889957806835 1 0.014676342334730152 1 1 0.010034468884225215 0.011807044481291664 1 1 0.011968905804750303 1 0.010657520878364765 1 1 0.012612361750250316 0.013057448203282222 1 1 0.010214275980715446 1 1 1 0.013715461461141387 0.013713948953310134 1 1 0.015034417987372461 1 1 1 1 1 0.010074969335933128 1 1 1 0.016808680213027331 1 1 1 0.0103054596854406 1 1 1 1 1 1 0.016587212470718003 1 1 0.016258536365532185 1 1 1 1 1 1 1 1 0.010012759731996255 0.010025724650382324 1 1 1 1 1 1 1 0.0098897645144872919 1 1 1 1 0.01015757224552833 1 1 1 1 1 1 1 0.01008260290959522 1 1 1 1 1 1 1 0.014194368708161329 1 1 1 0.01026249937016965 1 1 1 1 0.010399415608592019 1 0.013931014886945713 0.01245683487852243 1 1 1 0.012400646674310163 0.0088253487055318311 0.014157318301242568 1 1 0.0098594660473118115 0.0098675734776096161 1 1 1 1 0.0096339361623995964 1 1 1 1 1 1 1 1 1 1 1 1 1 0.010358778848391557 1 1 1 1 1 1 0.010008595162902591 1 1 1 1 1 1 0.0098538104651498225 1 1 1 0.0099868594077161307 1 1 1 1 1 1 1 1 1 0.010009219320219734 0.0099099127888830352 0.0095496928872998484 1 1 1 1 1 1 1 1 1 1 1 1 1 1 1 1 0.010049653848776825 1 1 0.010093554996124424 1 1 1 1 1 1 1 1 1 1 1 1 1 1 0.010048471151922124 1 1 1 1 1 1 1 1 1 1 1 1 1 0.010773153746887405 1 1 0.011089800722656834 0.011525664183138197 1 1 0.0097435449178382288 1 1 0.012525093464159982 1 1 0.010008736207596137 1 1 1 1 0.01012115826323165 1 1 1 1 1 1 1 1 1 1 1 1 1 0.0090842048607073754 0.010013610368164385 0.010000145048932318 1 0.0131196005364566 1 0.013720707663045534 1 1 1 1 1 1 1 1 0.013079565517261508 1 0.01024566609246152 1 1 1 1 1 1 1 1 1 1 1 1 1 1 1 1 1 1 1 1 1 1 1 1 1 1 1 0.011203881762003643 1 1 1 1 1 1 1 1 1 1 1 1 1 0.0099702165940715997 1 1 1 1 1 1 1 1 1 0.010229542545171538 0.0098191340591377973 1 1 1 1 0.011032671742185354 1 0.010366705510959364 1 1 1 1 1 1 0.01013912129521748 0.011005637588685883 1 1 1 1 1 1 1 1 1 1 1 1 1 1 1 1 1 1 1 1 1 1 1 1 0.011887810799517845 1 0.012952674772951341 1 0.01051492978791293 1 1 1 1 1 1 0.0099926676324683158 1 1 0.014181740758713783 1 1 1 1 1 1 1 1 1 1 0.010725934105270452 1 1 1 1 1 1 0.011136840518060305 1 1 1 1 1 1 1 0.012236634033480813 1 1 1 1 1 1 1 1 1 1 1 1 1 1 1 1 1 1 1 1 1 1 0.0099052146220617934 1 1 1 1 1 1 1 1 1 1 1 1 1 1 1 1 1 1 1 1 1 1 0.012188266603618068 1 1 1 0.014002094938061985 1 1 1 1 1 1 0.012029289861121997 1 0.0096424913612205912 1 1 1 1 1 1 1 1 0.01028213127371288 1 0.010801065258014816 1 1 1 0.013087345764148189 1 1 1 0.011110482353833107 1 1 1 1 0.011274236762244934 0.0099788635295702793 1 1 1 1 1 1 1 1 1 1 1 1 1 1 1 1 1 1 1 1 1 0.0098365167974732957 1 1 1 1 1 1 0.02045732202091868 1 0.0095665545742699698 1 1 1 1 1 1 1 1 1 1 1 1 1 1 1 1 1 1 1 1 1 1 1 1 1 1 1 1 1 1 1 1 0.0098080279820916758 0.0097825058862688746 1 0.0098457352421416969 1 1 1 0.010491096641677421 1 1 1 0.0097290178831209526 1 0.011275752624939035 1 1 1 1 1 1 1 0.010447729166312709 1 0.010499416527575026 1 1 1 1 1 0.010593561138321519 1 0.010866592965971412 1 1 1 0.030764706541993203 1 1 1 1 1 1 1 1 1 1 1 1 1 1 1 1 1 0.0099603854787065956 1 0.030749674269449905 1 1 0.030881338814633411 1 1 1 1 1 1 1 1 1 1 1 1 1 1 0.030644684777788936 1 1 1 1 1 1 1 0.030565191299975137 1 1 1 1 1 1 1 0.010422909240517661 1 1 1 1 1 1 1 1 1 0.010584358188746628 1 0.0099791031167703222 1 1 1 1 1 1 1 1 1 1 1 1 1 1 1 1 1 1 1 1 1 1 1 1 1 1 1 1 0.010777014403306315 1 1 1 1 1 1 1 1 1 1 1 1 1 1 1 1 1 1 1 0.010886224171750652 1 1 1 1 0.012210903356689742 1 1 0.0099966001741958899 1 1 1 1 1 1 1 1 1 1 1 1 1 1 1 1 1 0.012106600865998029 1 1 0.01060990954457479 1 1 1 1 1 1 1 1 1 1 1 1 1 1 1 0.010195556299419586 1 1 1 1 1 1 1 1 1 1 1 1 1 1 1 1 1 1 1 1 1 1 1 1 1 1 0.011936598306581225 1 0.010796371105026115 1 1 1 1 1 1 1 1 1 0.010875156742318167 1 1 1 1 0.010438347822246057 1 1 0.01048076569735347 1 1 0.0113326762044358 1 1 1 1 1 1 0.010158746212162815 1 1 1 1 1 1 1 1 1 1 1 1 1 1 1 1 1 1 1 1 1 1 1 1 1 1 1 1 1 1 1 1 1 1 1 1 1 1 1 1 1 1 1 1 1 1 1 1 1 1 1 1 1 1 1 1 1 1 1 1 1 1 1 1 1 1 1 1 0.010408543584217724 1 1 1 1 1 1 1 1 1 1 0.011032304924022303 1 1 1 0.010141447744467727 1 0.0099121837902961651 0.011377317710867278 1 1 1 1 1 1 1 1 1 1 1 1 1 1 1 1 1 1 1 0.012080182566349846 1 1 0.0096328279643225472 1 1 0.010420435454678436 1 0.0097808074983514494 1 0.01095133072845968 1 1 1 1 1 0.0098742893121417201 1 1 1 1 1 1 1 1 1 1 1 1 1 1 1 1 1 1 1 1 1 1 1 1 1 1 1 1 1 1 1 0.010386667841216956 1 1 1 0.010858885338739127 1 1 1 1 1 1 1 1 1 1 1 1 1 1 1 1 1 1 1 1 1 1 0.012763083351350827 1 0.013284298504597636 1 1 1 0.0099785060484424946 1 1 1 1 1 1 1 1 1 1 1 1 1 1 1 1 1 1 1 1 1 1 1 1 1 1 1 1 1 1 1 1 1 1 1 0.010075401268843178 1 1 1 1 1 1 1 1 1 0.015900215708161261 1 1 1 1 0.010001187035517679 1 1 1 1 1 1 0.010897308925543041 1 0.010432705114594553 1 1 1 1 1 0.0099983198257870241 1 1 1 1 1 0.015927639415855788 1 1 1 0.010633538756857158 1 1 1 0.010012599416558066 1 1 1 0.010788512988659325 1 1 1 1 0.023113340569082097 1 1 0.023418677845233622 1 1 0.030378763869045963 1 1 0.010304261245501031 1 1 0.010105319164683765 1 1 1 1 1 1 1 1 1 1 1 0.0099020069106886596 1 1 1 1 1 1 0.01925743060227594 1 1 1 0.018710051182550758 1 1 1 0.016948137349646886 1 0.017703614608689262 1 1 1 0.010658622392478919 1 1 1 1 1 1 1 1 1 1 1 1 1 1 1 1 1 1 1 1 1 1 1 1 1 1 0.010866725510622999 1 1 1 0.012189995141810035 1 1 0.019710935063123138 1 0.016813790561528808 1 1 1 1 0.013025324178634914 0.005821707531481337 1 1 0.010164801974750205 1 1 1 1 1 1 1 1 0.010823128847404937 0.01210128468569817 1 1 1 1 1 0.010274489095049064 1 1 1 1 1 1 0.0099037284124708896 1 1 1 1 1 1 0.010096677952663929 1 1 1 1 1 1 1 1 1 1 1 1 1 0.013384443032604547 0.009515538577828879 1 1 1 1 0.015842890445583485 1 0.01443198377758154 1 1 1 1 1 1 1 1 0.0083472035618178189 1 1 1 1 1 1 1 1 1 0.0091930533877530099 1 1 1 0.011529873222138522 1 1 0.01645085042181434 0.0099997421859669734 1 0.017973888305779485 1 0.012512041474426545 1 1 1 1 1 1 1 1 1 1 1 1 1 1 0.010587382125184445 1 1 1 1 0.010713835956980212 1 1 1 0.0096769205297195082 1 1 1 1 1 0.013235184625087439 0.010003649804234491 1 1 1 1 1 1 1 1 1 1 1 1 1 1 1 1 1 1 1 1 1 1 1 1 1 1 1 1 1 1 1 1 1 1 1 1 1 1 1 1 1 1 1 1 1 1 1 1 1 1 0.009929847151909062 1 1 1 1 1 1 1 1 1 1 1 1 1 0.010099890792766991 1 1 1 1 1 1 1 1 1 1 1 1 1 1 1 1 1 1 1 1 0.012108644179574406 1 1 1 0.018339349525976344 1 0.014461465538084247 1 1 1 0.013587225546286335 1 1 1 1 1 1 1 1 1 1 1 1 1 1 1 1 1 1 1 1 0.012602359182785064 1 0.010256626734913893 1 1 1 0.012592721930297019 1 1 0.012168288290022226 1 1 1 0.011088604143884391 0.010002450689251289 1 1 0.011634940839169675 0.010186174443494608 1 1 1 1 1 1 1 1 1 1 1 1 1 1 0.012880079089657135 1 1 1 1 0.01860505159798017 1 1 1 1 1 1 1 1 1 1 1 0.016821290973534658 1 1 1 0.012816000030416165 1 1 1 1 1 1 1 1 1 1 1 1 1 1 1 1 1 1 1 1 1 1 1 1 0.010401947071877872 1 1 0.0099551059566009396 1 0.017247081724759368 0.0099298661598975595 1 1 1 0.013143009383939541 1 1 1 1 1 1 1 1 1 1 1 1 1 1 1 0.014974255359475773 1 1 1 1 1 1 1 1 1 1 1 1 1 1 0.011751730938274516 1 1 0.012829471210015396 1 1 0.011591419337141813 1 1 0.010921182533281051 1 1 0.010635989235608446 1 1 1 1 1 1 1 1 1 1 1 1 1 1 0.010472217497522173 0.010102411591517237 1 1 1 1 0.017855150887441433 1 1 1 1 1 0.015425980582034208 1 1 1 0.014736854215502292 1 1 1 1 1 1 1 0.010147584897486022 0.0099302975599188503 1 1 0.0067573329665667498 1 1 1 0.010237531938195895 1 0.01100469316241702 1 0.0096080132569919714 1 0.0093873549624546165 1 1 1 1 1 1 1 1 1 0.011126972677940342 1 1 0.010047667686303635 0.01000314470706073 1 1 1 1 1 1 1 1 1 1 1 0.011555075688889398 1 1 1 1 0.016391190820613893 1 1 1 0.011561146962622828 0.016043556631469599 1 1 1 0.010477459954797257 0.012472119007987547 1 1 1 1 0.01181806422919668 1 0.01184098144190459 1 1 1 1 0.012817187646297095 1 0.010064493740171839 0.010579611428190321 1 1 1 1 1 1 1 1 0.012687381607908513 1 1 1 0.010503524892394358 1 1 0.010146517258682293 1 1 0.013349403338522749 0.011353944886189883 1 0.010222436110836206 0.011959055749247363 1 1 1 1 0.012584793395213584 1 0.01069149610030614 1 1 1 1 1 0.016778381496549741 0.010031975803690096 1 1 0.017011619102853606 1 1 1 0.0086355855821119865 1 1 1 0.011434470450358405 1 0.01243398424822568 1 1 1 1 1 0.01014173761509952 0.010522771659069651 1 1 1 1 1 1 1 1 1 0.0095875732137379963 1 1 1 1 1 1 1 1 1 0.011654138275719886 1 1 1 1 1 1 1 1 0.0092310841168417295 1 1 1 1 0.009336273409348575 1 1 0.013050379911042215 0.01053215635662489 1 1 1 0.010583788167089603 0.012058600776605949 1 1 1 1 0.010005504682602565 1 1 1 1 1 1 1 1 1 1 1 1 1 1 1 0.014301062827106116 0.011770575572568632 0.0085403719503850672 0.011195575731093083 1 1 0.01003418807612861 1 1 0.0099044327542459169 0.011429279246484713 1 1 1 1 0.010421453332125767 0.011004259123240972 1 1 1 0.010203458795789315 1 1 1 0.010292680907867242 1 1 1 0.0099485389587457007 1 1 1 1 1 1 1 1 0.01036913130021491 1 0.010002494760240132 1 1 0.010335037026633839 1 1 1 1 1 1 1 0.010820113152587227 1 1 1 1 0.011277171753241291 1 1 1 1 0.010047092360057828 0.012178050504936422 1 1 1 1 0.010806472436030432 1 1 1 1 1 0.010183787007949363 1 1 1 1 0.010405151219605802 1 1 1 1 1 1 1 0.010724624752479662 1 1 1 1 1 0.010277183331407456 1 1 0.010100661216508511 1 1 1 1 1 1 0.010369871399075485 1 1 1 1 1 0.0099268043548786447 1 1 1 0.010069164344195648 1 1 1 1 1 1 1 0.0096002102931661386 1 1 0.01140334772068702 1 0.010503916846260855 1 1 1 1 1 1 1 1 1 1 1 0.0097520610232680275 1 1 1 1 1 1 1 1 0.0097554665703532863 1 1 1 1 1 1 1 1 1 0.011233043285579915 1 1 1 0.0099598888787771622 1 0.011715852542856155 1 1 1 1 0.010050111507319633 1 1 1 1 1 1 1 1 1 0.010250199087072486 1 1 1 0.010341687866769088 1 1 1 0.010823636279062401 1 1 1 1 0.011000188194170481 1 1 1 1 0.011750451737001956 1 1 1 1 1 1 1 1 1 1 1 1 1 1 1 1 1 1 1 0.012450236529199606 1 0.0094257562253340001 1 1 1 1 1 1 1 1 1 1 1 1 0.013740636734650159 1 0.011573232749090362 1 1 1 1 1 1 0.0089708527940202919 0.010002427111386037 0.010028225228108334 1 1 1 1 1 1 1 1 1 1 0.018424368052918486 1 1 0.011046703147691897 1 1 1 0.010184033813019938 1 1 1 1 1 1 1 1 1 1 0.010052237882580575 1 1 1 0.01000484706187181 0.011411151834040976 1 0.018159643393462786 1 1 1 1 1 1 1 1 0.010614484763321597 1 0.0097237321099066659 1 1 1 1 1 1 1 1 1 0.020706072681286533 1 1 1 1 0.020893114449515922 1 1 1 1 1 1 0.011222745693453424 1 1 1 1 1 1 1 1 0.0097174619494482112 1 0.010089720121190977 1 0.0098864884489623193 1 0.012477941057718541 1 1 1 1 1 1 1 1 0.013848096635289842 1 1 1 1 1 0.011007271853756414 1 1 1 1 0.010417746914356135 1 1 1 0.010438465955499403 1 1 1 1 1 1 1 0.01269796500065715 1 1 1 1 1 1 0.011042708292298198 1 1 1 0.010194369424680045 1 1 1 1 1 1 1 1 1 1 1 1 1 1 1 0.010301228362219641 1 1 1 1 1 1 1 1 0.020399011642588016 1 1 1 1 1 1 1 1 1 1 1 1 1 1 0.019158991719124777 1 1 0.01328245885910549 1 1 1 0.014495540281471601 1 0.0090877653118596139 0.017547483408887333 1 1 1 1 0.011307375351324962 1 0.010011185506769568 1 1 1 1 1 1 1 1 1 0.0099899136329326208 0.010088408545853224 1 1 1 0.0099523007153372745 0.010245122115170617 1 1 0.010297060761185741 0.010609324354451184 1 0.010255787883723739 1 1 0.0099932820021323525 1 0.010406441999152284 1 1 1 1 1 1 1 1 1 1 0.010810854251921461 1 0.01107419410872725 1 1 1 0.014426341031077369 1 0.011729815951908 1 1 0.012892281527604705 1 0.013433069282821187 0.0098265960393243042 1 0.010693550292695295 1 1 0.012380717550615284 1 1 1 0.010009555357597818 0.010046544740089588 0.0093944523655879637 0.012536187101260476 1 0.011066596460058167 1 0.013324486525909817 1 1 1 1 1 1 1 1 0.010069073971473722 1 1 1 1 1 1 1 1 1 1 0.010994462506521129 0.011399200627470851 1 0.010127274681102173 1 1 1 1 1 1 1 0.011403450548321821 1 0.011769345554744666 1 1 1 1 1 1 0.012465270772976463 1 0.010003264286453699 1 1 0.01293084451281927 1 1 0.012541245369266173 1 1 1 0.016149871983307699 1 1 1 1 0.0099460629712512186 0.01421324079667001 1 0.013252949490729186 1 1 1 1 0.010418284226385216 0.010333499700833654 1 1 1 1 1 1 1 1 1 1 1 1 1 0.010190969796947374 1 1 1 1 1 1 1 1 0.010086969816814367 1 1 1 1 1 1 1 1 1 1 0.010176928473729797 1 1 0.01594645918966138 0.011295267122057558 1 1 1 0.0097031750036533308 1 1 1 1 1 1 1 0.018888331567531412 1 1 1 1 0.010676278394341572 1 1 0.010305203976698537 1 1 1 1 1 1 1 1 1 1 0.016633898368164007 1 1 1 1 0.014118809001641012 0.010692750644333593 1 1 0.012874840282791185 0.0099095664118144956 1 1 1 1 1 0.012096040855413596 1 1 1 1 1 0.011466384146628957 0.011737765721367005 1 1 0.010001138028468963 1 1 1 0.012018500166119559 0.010681342551197152 1 1 1 0.011856594634120574 0.011782332444372242 0.010738148541393709 1 1 1 0.012047017402950864 1 0.010798705744227791 1 1 1 1 1 1 1 1 1 1 1 1 1 1 1 1 0.010005337011100551 0.010408186210684768 0.0106238670558318 1 1 1 1 1 1 1 1 1 1 1 1 1 1 1 1 1 1 1 1 0.011303930398984906 1 0.010991591048752974 1 1 1 1 1 1 0.011765553843334173 1 1 1 1 1 1 1 1 1 1 1 1 0.010279203163560284 1 1 1 1 1 1 1 1 1 1 0.0098651481971695678 0.010278214878686399 1 1 1 1 1 1 0.010827698477727236 1 1 1 0.011287012934934327 1 1 1 0.011358933200790906 1 1 1 1 1 1 0.0099992521390067056 1 0.0099867468494378425 1 0.010004943278396499 1 1 1 0.0096951662103191769 0.010409475655357363 1 1 1 0.0099846201662139727 1 1 1 1 1 1 0.0099642152656543876 1 1 1 1 0.012383889159842832 1 0.010815233401347796 1 1 1 0.0094691043030284815 1 1 0.015156381621442115 1 1 1 0.011525135642133873 1 1 1 1 1 0.010039510257236262 1 1 0.0096825301864232188 0.011953674279877665 0.011826396775577305 1 1 1 1 1 1 1 1 0.01000898685900186 1 0.013555019040458381 1 1 1 1 1 1 1 1 1 1 1 0.016105878814787325 1 1 0.0099478946328743888 1 1 1 1 1 1 1 1 1 1 0.010918539463195218 1 1 1 1 1 1 0.010729739700199865 1 1 0.011127658885287967 1 1 1 1 1 0.010045604292397857 1 1 1 1 1 1 0.010258403372624911 1 1 1 1 1 1 0.01348484477733322 0.010537458507744041 0.014063496388758192 1 1 1 0.012207294901444976 1 1 1 1 0.013766743464652344 1 1 0.0095073774976809702 1 0.011664950153086037 1 1 0.009387301549323105 1 1 1 1 1 1 0.015785750295800829 1 1 1 1 0.010593361939421717 0.010025659803085545 0.016048558991425182 1 1 1 1 1 1 1 1 1 1 0.010217617257800642 1 1 1 1 1 1 1 1 1 1 1 1 1 0.010300998078315263 1 1 1 1 1 1 1 1 1 1 1 1 1 1 1 1 1 1 1 1 1 1 1 1 1 1 1 1 1 0.011680598570790608 1 1 1 1 1 1 1 1 1 1 1 1 1 1 1 1 1 1 1 1 1 1 0.011086787233206104 1 1 1 1 1 1 1 1 1 0.010894195628789103 1 1 0.012024843493628623 1 1 1 0.012557966482101097 1 1 0.012160115924725703 1 1 1 1 1 1 1 1 1 1 0.010557457600513586 1 1 1 1 1 1 1 0.010430656257464274 1 1 1 0.010938038550593741 1 1 1 1 1 1 1 0.0099936569390247174 1 0.007628382338456665 0.008500640225481684 1 1 1 1 0.0089052920552074658 0.010054545730343712 1 1 1 1 1 1 1 1 1 1 1 1 1 1 1 1 1 1 1 1 1 1 1 1 1 1 1 1 0.01436783818034823 1 1 1 0.010037109666446491 1 1 1 0.0086665648715670493 1 1 1 0.0083624304552771429 1 1 1 0.010026913563090403 1 1 1 1 1 1 1 1 1 1 1 1 0.013206397555257468 1 1 0.012140079114951031 0.012596784857558455 1 1 1 1 1 1 1 1 1 1 1 0.011597057677128956 1 1 1 0.010021166780080519 0.01430087231423789 0.010624079681000403 0.010425715721788303 1 1 1 1 1 1 1 1 1 0.012360721815589506 1 0.010008934270861585 1 1 1 0.0095901796465567291 1 1 0.0099464707580721647 1 0.013759180081531588 1 1 1 1 1 1 1 1 0.010036713650181018 1 1 1 0.010190234975341567 1 1 0.010351326244672027 1 1 1 0.0098046477125101339 1 0.010629016188555829 1 1 1 1 1 1 1 1 1 1 1 1 1 1 1 1 0.011673696736149514 1 1 1 1 1 1 1 1 1 1 1 1 1 1 1 1 1 1 0.01495536420041298 0.0078944377763404266 0.0099978906257299719 1 1 1 1 1 1 1 1 1 1 1 0.014492400511388052 1 1 1 0.014550865832234083 0.006823189872030927 1 0.009985578048655375 1 1 1 0.010043132730199734 1 0.0080579767898947274 0.010805241797877655 1 1 1 1 1 1 1 1 1 1 1 1 0.011495497925183994 1 1 1 1 1 0.011476056476725362 1 1 1 1 1 1 0.011265814521673632 0.010173136512371849 1 1 1 0.010125892121326197 1 1 1 1 1 1 1 1 1 1 1 1 1 1 1 1 1 1 1 0.0099815110384075187 1 1 1 0.011226128143579726 1 1 1 1 0.010834633478451334 0.010430376641048851 1 1 1 1 1 1 1 1 1 1 1 1 1 1 1 1 1 1 1 0.013278182735265265 1 1 1 0.0097578703368364911 1 1 1 1 0.010047571486669252 1 1 1 1 0.011444928455262137 1 0.0090320189600606449 0.011834108681399558 1 0.0089541792634897123 1 1 1 1 1 1 1 1 0.0089149170900631753 1 0.011453326951364929 1 1 0.0097495066981935809 1 1 0.012241551675537117 1 1 1 1 1 1 0.0099535835970775369 1 1 1 1 0.011049951765005325 1 1 1 1 1 1 1 1 0.011285974949946841 1 1 0.0097037997523972963 1 0.0099180246860280097 1 1 0.010751444244111376 0.011296967405223422 0.011759602245886095 1 1 1 0.010050707350735634 1 1 1 1 0.010579599317281231 1 1 1 1 0.01004485140624177 0.0099657298938050295 1 1 1 1 1 1 1 1 1 1 1 0.01044456084765092 1 1 1 1 1 1 1 1 1 1 1 1 1 1 1 1 1 1 1 1 1 1 1 1 1 1 1 1 1 1 1 0.010022975774583186 0.012066536937111273 1 0.012285312401134903 1 1 1 1 0.010000047454769664 1 1 1 1 0.010808888737932489 0.011324368603287213 0.010468111908245394 0.0099540324661363758 1 1 1 1 1 0.010037546631875194 1 1 0.010014589063665216 1 0.010006802210551988 1 1 1 1 1 1 1 0.010212921725813371 1 1 1 1 1 1 1 1 1 0.010014043648787933 1 1 1 0.012280971636596555 1 0.011268494605369737 1 1 1 1 0.011745432078298458 1 1 0.012312323783536167 1 0.010488046308645613 1 1 0.010035882332638274 1 1 0.012355477556963167 1 0.012027567778769392 1 1 1 0.010839381930338794 1 1 1 1 1 1 1 1 1 1 1 1 1 1 1 1 1 1 1 1 1 1 1 1 1 1 1 1 1 1 1 1 1 1 1 1 1 1 1 1 1 1 1 1 1 1 1 1 1 1 1 1 1 1 1 1 1 1 1 1 1 1 1 1 1 1 1 0.0098549262835959366 1 1 1 1 1 1 1 1 1 1 1 0.010671915104951926 1 1 1 0.010475998336406264 1 1 1 1 1 1 1 1 1 1 1 1 1 1 1 1 1 1 1 1 1 1 1 1 1 1 1 1 1 1 1 1 1 1 1 1 1 1 1 0.012890158373340357 0.010087189713588064 1 1 1 1 1 1 1 1 0.010618126638139392 1 0.010105153326070405 0.010055311671379071 1 1 1 1 1 1 1 1 1 1 1 1 1 1 1 1 1 1 1 1 1 1 1 1 1 1 1 1 1 1 1 1 1 1 1 1 1 0.012985259290467514 1 1 1 0.010214383421408851 0.013188368670109462 1 1 0.0091529338294613037 1 1 1 1 1 1 0.010078391166037082 1 1 1 1 1 1 1 0.015820195961129623 1 1 1 1 1 1 1 0.016186633897592402 1 1 1 1 0.0099985811472778179 1 1 1 0.010776433130817406 0.0091106756231373875 0.013738573245473269 1 1 1 1 1 1 0.0090809213902590374 1 0.010840972579189296 1 1 1 0.010000139111140909 0.011289779679585813 0.0098431679493288012 1 1 1 1 1 0.010090738594423601 1 1 1 1 1 0.0099975493535465892 0.0098924481656904525 1 1 1 1 1 1 1 1 1 1 1 1 1 1 1 1 1 1 1 1 1 1 1 1 1 0.010449624856493478 1 1 1 1 1 1 1 0.010598895330374293 1 0.011081232907740211 0.010005560902932949 1 1 1 0.010702296854663101 1 1 1 1 1 1 1 1 1 1 1 1 1 0.010242200663530415 1 1 1 1 1 1 1 1 1 1 1 1 1 1 1 1 1 1 1 1 1 1 1 1 1 1 0.010283550667130395 1 1 1 1 1 1 1 1 1 1 1 1 1 1 1 1 1 1 0.01020768755299957 1 1 1 1 0.010480663169022108 1 1 1 1 1 1 1 1 1 1 1 1 1 1 1 1 1 1 1 1 1 1 1 1 1 1 1 1 1 1 1 1 1 1 1 1 1 0.0099847507671161108 1 1 1 1 0.010776519811979282 1 1 1 1 1 1 0.010047722051211593 1 1 1 1 1 1 0.0099930959137922472 1 1 1 1 1 1 0.014729426266918533 1 0.013979968650616639 0.015756639270603251 1 1 1 0.010420886032932484 1 1 1 1 1 1 0.010002825715756706 1 0.011225899987799829 1 1 1 1 1 1 1 1 0.015176404731398196 1 0.016403382545173994 1 1 1 0.009979632797267643 1 1 1 0.011610022659663656 1 1 1 1 1 1 1 1 1 1 0.01409628431273411 1 1 1 1 1 0.011373178450396308 1 1 1 0.015591894217630492 1 1 1 1 1 1 1 1 1 0.015134806906755739 1 1 1 1 1 1 1 1 1 1 1 1 1 1 1 1 1 1 1 1 1 1 1 1 1 1 1 1 1 1 1 1 1 1 1 1 1 1 1 1 1 1 1 0.013811781518790358 1 1 1 1 1 1 1 1 1 1 1 0.011153808301121544 0.01136059066368633 1 1 1 0.01223353449146187 0.011445016954669616 1 1 0.012997417089141884 1 1 1 1 1 0.012369763135383741 0.014616706670668653 1 1 1 1 1 0.010337141762154854 1 1 1 1 1 0.010114745350083217 1 1 1 0.011799285053205523 1 1 1 1 1 1 1 1 1 1 1 1 1 1 0.01002473467509679 1 0.011360972578454668 1 1 1 1 1 1 1 1 1 0.010101400157383634 1 1 1 1 0.011219011744784976 1 1 1 0.011152474613429988 1 1 1 1 1 1 0.0099327526516058071 1 1 1 1 1 1 0.011313377517753881 1 1 1 1 1 1 1 1 1 1 0.0097813840028448222 1 0.0099401944203006531 1 1 1 1 1 1 1 0.0099925950417655701 1 1 1 1 1 1 1 1 1 1 0.01169822295719852 1 1 1 0.010590539640271688 1 1 1 1 1 1 1 1 1 1 1 1 1 1 1 1 1 1 1 1 0.014434838002558507 1 1 1 1 1 1 1 1 1 1 1 1 1 1 0.017338710770242224 1 1 0.014848858347544729 1 1 1 0.014160017045544945 1 1 1 1 1 1 1 1 1 1 1 1 1 1 1 1 0.017875299129975049 0.01278271629422246 1 1 1 0.012548528813353449 1 1 1 1 1 1 1 1 0.010788780734272238 1 1 1 1 1 0.0093404833104534235 1 1 1 1 0.010536002984450288 1 1 1 0.01246227586782824 1 1 1 0.016817843395630305 0.013307702060450483 1 1 1 1 1 1 1 0.0093914803636737532 1 1 1 0.020677926866939589 1 1 1 1 0.010997595856139726 1 1 1 1 1 1 1 1 0.0098131484681938351 1 1 1 1 1 1 1 1 1 1 1 1 1 1 1 1 1 1 1 1 0.010006668227015686 1 1 1 1 1 0.010017494986445006 1 1 1 1 0.010010837543204554 1 1 1 1 1 1 1 1 1 1 0.013675161939203026 1 1 1 1 1 1 1 0.013236266375339286 1 1 1 1 1 1 0.011911829535321517 1 1 1 1 1 1 1 1 1 1 1 1 1 1 1 0.012434005000529734 1 1 1 1 1 1 1 1 1 1 0.010298422764327518 1 1 1 0.010139676552164707 1 1 1 1 1 1 1 1 1 1 1 1 1 1 1 1 1 1 1 1 1 1 1 1 1 0.011375794893209536 1 1 0.010142529903886283 1 1 1 1 1 1 0.011167913498402404 1 1 1 1 1 1 1 1 1 1 1 0.014799237712936005 0.013578745816158767 1 1 1 1 1 0.014591697072088322 1 0.012531035198204813 1 1 1 1 1 1 1 0.010047938118092875 1 1 1 1 1 1 1 1 1 1 1 1 1 1 1 1 1 1 0.018418140079452781 1 1 0.018346466855318391 1 1 1 0.01045679127981948 1 0.015595118937968997 1 1 1 1 1 0.012309500816477831 0.0090682623446902942 1 1 1 0.0099811835039071463 1 0.014354794502837666 1 1 1 1 1 1 1 1 1 1 1 1 1 1 1 1 1 1 1 1 1 1 1 0.011181629820431863 1 1 0.013472863431132132 1 1 1 1 1 0.011661777359772099 1 1 1 1 1 1 1 1 1 1 1 1 1 1 0.017483339839789086 1 0.010381408241400896 1 0.016800521899709615 0.010709835937694704 1 1 1 1 1 0.010622940232217217 0.009925156294543238 1 1 1 1 1 1 1 1 1 1 1 1 1 1 1 1 1 0.017994302790509349 1 1 1 1 1 1 1 0.010114716432114071 1 1 1 1 1 1 1 1 1 1 1 1 1 1 1 1 1 1 0.010267552649393325 1 1 1 1 1 1 1 1 1 1 1 1 1 1 1 1 1 1 1 1 1 1 0.010646295225581947 1 0.010619695277605366 0.010717805294648348 1 0.011551840574516491 0.009990521818115633 1 1 1 1 1 0.013500594509569003 1 1 0.010081468962219418 1 1 1 1 0.012993764338371839 0.011660602125350266 1 1 0.01017759637972775 0.013621455331248899 1 1 1 1 0.0099923509946736062 0.015319914204862712 1 1 1 1 1 1 1 1 0.016328441289836501 0.013365674179729272 1 1 1 1 1 1 1 1 1 1 1 1 1 0.011616244096551966 1 0.012813870208065476 1 1 0.013066171343636222 1 1 0.0099995400271115122 0.011296982942096833 1 1 1 0.013408911319874726 0.010389582800169998 1 1 0.010117170295300251 1 1 1 0.0136763994223388 1 1 0.011927117188682029 1 1 1 1 1 1 1 1 1 1 1 0.0101445151219014 1 1 1 1 1 1 0.010040040424516112 1 0.010099427574115289 0.011411322813669099 1 1 1 1 1 0.010970359172551824 1 1 1 1 1 1 1 1 1 0.010024524288434917 1 1 1 1 1 0.010062696157876016 1 1 1 1 1 1 1 1 1 1 1 1 1 1 1 1 1 1 1 1 0.020131021496914394 1 1 1 1 1 1 1 1 1 0.0098043784791341793 1 1 1 0.020997979127685702 1 1 1 0.011569668791452114 1 1 1 1 0.0098690746813711698 1 1 1 1 0.010005260182177554 0.027465974500094595 1 1 0.010015904962207096 0.026212232016524641 1 1 1 1 1 1 1 1 1 1 0.011913204378647877 1 1 1 1 0.01787911831024026 1 1 1 0.025709472514306182 1 1 1 1 1 0.0077786639245506963 1 1 1 1 1 1 1 1 0.0098209575932017342 1 0.015532429115843094 1 1 1 1 1 1 1 0.01264005535196642 1 1 0.015423255599080386 1 1 1 0.010170767120625999 1 1 1 1 1 1 1 1 1 0.010827195938263586 1 1 1 1 1 1 1 1 0.0093563516241029175 1 1 1 1 1 1 1 0.0099177222591120637 0.010199904213528999 1 1 0.010827243538389085 1 1 0.010259210461800386 1 1 0.010396595676607296 1 1 1 0.010084602634085124 1 0.010429617007333809 1 1 1 0.012411304121247173 1 0.014814269755706762 1 0.010173612514130893 0.010686888246426232 1 1 1 1 1 1 0.010225032163408063 1 1 1 1 0.010135851609186515 1 1 1 1 1 1 1 1 1 1 1 0.016753796468894917 1 1 1 1 1 1 0.017006108695199806 1 1 1 0.012784139044778283 0.010702563386877339 1 0.012559918308107465 1 1 1 1 1 1 1 1 0.010450268832157293 1 0.010375301772904567 0.012650701621132373 1 1 1 1 1 1 0.010341738112293466 1 1 1 1 1 1 1 0.011051581732591286 1 1 1 1 1 1 1 1 1 0.0094564413749601926 0.010188745054877556 1 1 1 1 0.010078725086981152 1 1 1 1 1 0.013984104694142054 1 1 0.010162836920979159 1 1 1 1 0.010090264485363558 1 1 1 1 1 0.0098412416031222437 0.013994915170161286 1 1 1 1 0.010029208571568554 1 1 1 1 1 1 1 1 1 1 1 1 1 1 1 1 1 1 1 1 1 1 1 1 1 1 1 1 1 1 1 1 1 1 1 1 1 1 1 1 1 1 1 1 1 1 1 1 1 1 1 1 1 0.017057564866461521 1 1 1 1 0.011968602229171271 0.013384211025501431 1 0.010056474042528456 1 1 1 1 1 1 1 1 1 1 1 1 1 1 1 1 1 1 1 1 1 1 1 1 1 1 1 1 1 1 1 1 0.011067072226197065 1 0.01087419833751041 1 1 1 0.011570429562209919 1 1 1 1 0.010597050314210606 1 1 1 0.010072011551874888 1 1 0.0099816202202873301 1 1 1 1 0.010047183132934198 0.012285263925164604 1 1 1 0.016699422620398245 1 1 1 1 0.0078565920690941982 1 0.0090541188602770439 1 1 1 1 1 0.010345759720157839 1 1 1 1 1 1 0.010013551074284591 1 1 1 1 0.0099257795735596208 1 1 0.015053077670183759 1 1 0.016066285810298897 1 1 1 1 1 1 1 1 1 1 1 1 1 1 1 0.010037362451816894 1 1 1 1 0.010119181415842282 1 1 1 0.0099679636597771806 1 1 1 0.0098201284093612645 1 1 1 1 1 1 1 1 1 1 1 1 0.010592619143235477 1 1 1 1 1 1 1 1 1 1 1 1 1 1 1 1 1 1 0.011419932385445858 1 1 1 1 0.017999074151272467 1 0.010139519104081975 1 1 0.010125020178292969 1 0.011570206213481192 0.016935132606888462 1 1 1 0.015502693412791676 1 0.010000966420310795 1 0.012905019763432574 0.012467385210974145 1 1 0.0087458050907715506 1 1 1 1 0.009405624047147924 1 1 1 0.010685205461811599 1 1 1 1 1 1 1 1 1 1 0.011647937368579532 1 0.0099196683905131266 0.0099812813922025984 1 1 0.017595371003068679 1 1 1 1 0.011985834675546911 1 1 0.016761960552768768 1 1 1 1 1 0.018151132331528763 1 0.018362424735114562 1 1 1 1 0.0099178689050079712 1 1 1 1 1 1 1 0.016019998756447842 1 1 1 1 0.0099961892784760573 0.01143384397136785 1 1 1 1 1 0.0063276095934444452 0.0099800514057078373 1 1 1 1 1 1 1 1 0.0090333191486406169 1 1 1 1 1 1 1 0.018655547966297752 1 0.009672655835582359 1 1 1 0.010595922362288762 1 1 0.011746800818761886 1 1 0.011915269202125482 1 1 1 1 1 0.014081912483911468 1 1 0.013110014884220502 1 1 1 1 1 1 1 1 0.0081126006632227608 0.010036837144084132 1 1 0.0079235393666389053 1 1 1 0.0076431521959787335 1 1 0.0071168425642365984 1 0.0099999749054409028 1 1 1 0.012446038366514051 1 1 0.0080263950542701027 1 0.012841292782971218 1 0.012774578813967361 0.0078415322856390472 0.012146632849415039 1 0.0083489351455783116 1 0.011887458551501336 1 1 0.0097753657632905673 1 1 0.01148410493126052 1 1 1 1 1 1 1 1 0.013345052444002648 0.010012050191849196 1 1 1 1 1 1 1 0.011130208083806657 0.009686785254099356 1 1 1 1 1 1 1 1 0.010032905498555077 1 1 1 1 0.011153797367113447 1 1 1 1 1 0.011039496399957065 1 1 1 1 1 1 0.0087227553235640909 1 1 1 1 1 1 0.0077302567459698289 1 1 1 1 1 1 1 1 1 1 1 1 0.0092543307504853196 1 1 1 1 0.010435961252212439 1 1 1 0.011215169029976766 1 1 1 1 0.010612161752598194 1 1 0.0097901515798357718 1 1 1 1 1 1 1 1 1 1 1 1 0.0099603344367476341 1 1 1 1 1 1 1 0.023359822344053489 1 1 1 1 1 1 1 0.023511180222506381 1 1 1 0.0099219089603640141 1 0.023543849701644741 1 1 1 1 1 1 1 1 1 1 1 1 1 1 1 1 1 1 1 1 1 1 0.013814895573638067 1 1 1 1 1 1 1 1 1 1 1 1 1 1 1 0.011014459898862572 1 1 1 1 1 1 1 1 1 0.012775414208188713 1 1 1 1 1 1 1 1 0.010006649677164366 1 1 1 1 0.013911935505065047 1 1 0.011062233353722799 1 1 0.010219789245834764 1 0.0099038886831663876 0.0087902553725595009 0.018109803883488349 1 1 1 1 1 1 1 0.01026425161090805 1 1 1 1 1 1 1 1 1 1 1 1 1 1 1 1 1 1 1 1 1 0.010017255483497765 1 0.02286882937233788 1 1 1 1 1 1 1 1 1 0.01002306722737252 1 1 1 1 1 1 1 1 0.011381188476607587 1 1 0.011466468309650403 0.011263295303521069 1 1 1 1 1 1 1 1 1 1 1 1 1 1 0.010047748910408659 1 1 1 1 1 1 1 1 1 1 1 0.010009015869598957 1 1 1 0.0099803038994893418 1 1 1 1 1 1 0.010059363123859225 1 1 1 1 1 1 1 0.010069249555618826 0.010167118468399383 1 1 1 1 0.010010778237049446 0.010693762849023486 0.010400521736989306 0.010699233519909862 1 1 0.010029748651036383 1 1 0.010024681683036135 1 1 1 1 1 0.01146662239948789 1 1 1 0.012575856660029796 0.010545421712393088 1 1 1 0.010565665910033849 1 0.011656398214597269 1 0.011459687599484486 1 0.011256938485741167 1 1 1 1 1 1 0.010010297796853857 1 1 0.0099893928443423961 0.010384300776407436 0.010007838914285479 1 1 0.0098807462971507876 1 0.0098187941592353771 1 0.010011203774737177 0.012209576416284895 1 1 1 1 1 1 1 1 1 0.010431633411512958 1 0.01003023453981901 1 1 1 1 0.014958304606448418 0.014048734479890865 1 1 1 0.013686731881251239 0.0097535103561116211 0.010506649433044871 1 1 0.013368176188419484 1 0.010555642019023722 1 1 1 1 0.010064472648727479 1 0.010212202697424167 1 0.010126134251453988 0.012129778622660757 1 1 0.013410980394102547 1 0.010002829727694902 1 1 1 1 1 1 1 1 1 1 1 0.012737111450053955 1 1 0.01206599773760463 1 0.009893043598636542 1 1 1 0.012290149652861342 1 0.010007113923885334 1 1 0.010437540187807218 1 0.013525134041271057 1 1 1 0.0099704957268297 0.016329789520126918 1 1 1 1 1 1 0.0096510801532252305 1 1 1 1 1 1 1 1 1 1 1 0.011456519933370331 1 0.010932737674249356 1 1 1 1 1 1 1 0.011628105998673505 1 1 1 1 1 1 1 0.014418928810510642 1 1 1 1 0.010479801107819599 1 1 1 1 1 1 1 1 1 1 1 1 1 1 1 1 1 1 1 1 1 1 1 1 1 0.011343998026943946 1 1 1 1 1 1 1 1 1 1 0.01210190909347484 1 0.010970999524819433 1 1 0.010330251067396431 1 1 1 0.010049017400986286 1 1 1 0.010058829972405594 1 1 1 0.011962198935469187 1 1 0.010207816972316186 1 1 0.011056590268637423 0.010100550370002464 0.010059022223799726 1 1 0.01035984423162961 0.011410614712811545 1 1 1 1 0.010222590206135987 1 1 1 1 1 1 1 1 1 0.01002108804105422 1 1 1 1 1 1 1 1 1 1 1 1 1 1 0.010937672183866914 1 1 1 1 1 1 1 1 1 1 0.011015817388339802 1 1 1 1 1 0.010253849525861447 0.010307462023629825 1 1 1 1 1 1 1 1 1 1 1 1 0.010759039081287475 0.01086374661851954 1 1 1 1 1 1 1 1 1 1 0.011166478937049661 1 1 1 1 1 1 1 1 1 1 1 1 1 1 1 1 1 1 1 0.010418937714538837 1 1 1 1 1 1 1 1 1 1 1 1 1 0.010190234306784 1 1 1 1 1 0.0093520058561543939 1 1 1 1 1 1 1 1 1 1 1 1 1 1 1 1 1 1 0.011415109469391151 1 1 1 0.0078682496952483943 1 1 1 1 1 1 1 1 0.01405573913717671 1 1 1 1 1 1 1 1 0.016347821238768122 0.013993933405071594 0.0098430109404631198 1 1 0.0095643004225519166 1 1 1 1 1 1 1 1 1 1 1 1 1 1 1 1 1 1 1 0.010455311470765586 1 1 1 1 1 1 1 0.0098876723184293143 1 1 1 1 1 1 1 1 1 0.0094462211737922439 1 1 1 1 0.0085226943990269807 1 1 1 0.011260726739526251 1 1 1 1 1 1 1 1 1 1 1 1 1 1 1 1 1 1 0.011678462802098683 1 1 1 1 1 1 1 1 0.014263707124221321 1 1 1 1 1 0.015724724407070956 1 1 0.016429013507170652 1 1 1 1 1 1 1 0.01121819758880103 0.013381372551863994 1 1 1 0.011423773791362252 1 1 1 0.011214796197704957 1 0.010012807564373886 1 1 0.011509508650428948 1 1 1 1 1 1 1 1 1 1 1 1 1 1 1 1 1 1 0.009498076544342593 1 1 1 1 1 1 1 0.0099609958488677073 1 1 1 1 1 1 1 1 0.010101235381714849 1 1 1 1 1 1 1 1 1 1 1 1 1 1 1 1 0.010483417430470855 1 0.0095918515464984682 1 1 1 1 0.0098812126718804613 1 1 1 1 1 1 1 1 0.013772585893244121 1 1 0.010009659486370955 1 0.0099453035962676281 1 0.011039157433780953 1 1 1 1 0.010239930251274551 1 0.012660071399464942 1 1 1 1 0.011914980759039774 1 1 1 1 0.010734906344465799 1 1 1 1 1 1 1 1 1 1 1 1 1 1 1 1 1 1 1 1 1 1 1 0.010471271061615113 1 0.011062379657873669 1 1 1 0.0096814383609259945 1 1 1 0.011837133518167162 1 1 0.012410210033320041 1 1 1 1 1 1 1 1 1 1 1 1 1 1 1 1 1 1 0.010117499294006623 1 1 0.011040287479094449 1 1 0.010851105304993273 1 1 0.010340220593102269 1 1 1 1 1 1 1 1 1 1 1 1 1 1 1 1 1 1 1 1 1 1 1 1 0.0096669686343366194 1 1 1 1 0.010626307196831761 1 1 1 1 0.01026508144508935 1 0.0097202583017070819 1 1 1 0.0089599328749504388 1 1 1 0.010466148949472065 1 1 1 0.011428824389317478 1 1 1 1 1 1 1 1 1 1 1 0.010251149380581321 1 1 0.010098278143680549 0.0092110774887615831 1 1 1 1 1 1 0.011017435542419372 1 1 1 0.0089589165864296695 0.01031193659090248 1 1 0.0060970847331113746 1 1 1 1 1 1 1 1 1 0.0099887762701549969 1 0.010437341020201038 1 1 0.010589497623753092 1 1 1 1 1 1 1 1 1 1 0.013645329003559872 1 1 1 1 1 1 1 1 0.0099645660181072772 1 0.010032130999313105 1 1 1 0.010501501016086046 1 1 1 1 1 1 1 1 1 1 1 1 1 0.0084871878702372696 1 1 1 1 1 1 1 1 1 1 1 1 1 1 1 1 0.013922126498807761 1 1 1 1 1 1 0.011397872716683544 1 1 1 1 1 1 1 1 1 1 1 1 1 0.012874476316570554 1 1 1 0.0099457130248319578 1 1 0.011638335447195816 0.0091567043730898454 0.0089942923218393183 1 1 0.0097173793119102458 1 0.01243702384188153 0.0093661088039534088 1 0.010018514972271656 1 0.011874102239419603 1 1 1 1 1 1 1 1 1 1 1 1 1 1 1 1 0.0099412104675694266 1 1 1 1 1 0.0092359173175372272 0.011665847486751056 1 0.013126150273067691 1 1 1 0.012962195993712412 0.01282332744954285 1 1 1 1 1 1 0.011566449187895707 1 0.012523459568582947 1 1 1 0.011458198556392995 1 1 0.010021785571141438 1 0.010114502269037812 1 1 1 1 1 1 1 1 0.0090753176216379645 1 0.010003505744236583 1 1 1 1 1 1 0.0085460182959007994 1 1 1 1 0.009980290481095333 1 1 1 1 1 1 0.013411766260996466 1 0.013724543561232299 1 1 0.0098629113158466494 1 1 1 0.010452088865986817 1 0.011841665296497 1 1 0.010842992958047972 0.0091266847968097531 1 1 0.0091442833644120279 1 1 1 1 1 1 1 1 1 1 1 1 1 1 1 1 1 1 0.010056785306578999 1 1 1 1 1 1 0.0099600094304827507 1 1 1 0.0097310619117439434 1 1 1 1 1 1 1 1 1 1 1 0.011000877415336452 1 1 1 1 0.012250151692484048 1 0.010360809119516182 1 1 1 1 1 1 1 1 1 1 1 1 0.011308528115637519 0.012060698147651594 1 1 1 1 1 1 1 1 1 1 1 1 1 1 1 1 1 1 1 1 1 1 1 1 1 1 1 1 1 1 1 1 1 1 1 1 1 1 1 1 1 1 1 1 1 1 1 1 1 1 1 1 1 1 1 1 1 1 1 1 1 1 1 0.0095172072362558913 1 1 0.0086790384728889017 1 1 0.015932008986346793 1 1 1 1 0.0096993897650162978 1 1 1 0.008765165166507688 0.012584046825674038 1 1 1 0.0099212239031042961 1 0.010081163808015237 1 1 1 1 1 1 0.016073719928350057 1 1 0.010012321299263369 1 0.010056118124161594 1 1 1 1 0.0099971795121465024 1 1 1 1 0.015007959316396251 0.011023741919961472 1 1 1 0.013049844048779763 1 0.012582414498450455 1 1 1 1 1 1 1 1 1 1 1 1 1 1 1 1 1 1 0.014719244386760755 1 1 0.010004561179790088 1 1 1 1 0.010181548073997453 0.010577291783385644 1 1 1 1 0.0096737751207715116 1 1 0.017030432088716286 0.009452473088473249 1 1 1 0.017926897311208681 1 1 1 0.016046754903568567 1 1 1 1 1 1 1 1 0.019031041896399235 1 0.010156878931864401 0.010452501434047726 1 1 0.015802919103884656 1 0.011068448985963764 1 1 1 0.014658728682856111 0.0094001460910761621 1 1 1 0.010018852687699101 1 1 1 0.0137522616610916 0.01354805615862811 1 1 0.012388538203072915 1 1 1 0.012924152317739988 1 1 1 1 1 1 1 1 0.015936327834387899 0.011972115354852932 1 1 1 1 1 1 1 1 1 1 1 1 1 1 1 1 1 1 1 1 1 1 1 1 1 1 1 1 0.010658772156115128 1 1 1 1 1 1 1 1 1 1 1 1 1 1 0.014362334925251984 1 1 1 1 1 1 1 1 0.011369339834373873 1 1 1 0.013962114332841826 1 1 1 1 1 1 0.010099177902593374 1 1 1 0.01600426790100944 1 1 0.016320401072104418 1 1 0.014620910950001582 1 1 0.0087087585841952777 1 0.019740619729715712 1 1 1 1 1 1 1 1 0.010001315199920348 0.016025422661888892 1 1 1 1 1 1 1 1 1 1 1 1 0.023207449738635734 1 1 1 1 1 1 1 1 1 1 1 1 1 1 1 1 1 0.0099531830034023314 0.0099863119967539098 1 0.0099868324964343218 1 1 0.01393687245144247 1 1 0.014163881810915907 1 1 0.011357074328133113 1 1 1 0.016648848202670256 1 0.009997561619411224 0.010120384536499234 1 1 0.0092899985117261222 1 1 1 1 1 1 1 1 1 0.0099802374617548907 1 1 1 0.0095481406003954106 1 1 1 1 1 1 0.0099325626331634304 1 0.010783524704047486 1 1 1 1 1 1 0.010202737892867419 1 1 1 1 1 1 0.010602944800722765 1 1 1 1 0.011115554283846758 1 1 1 1 1 1 1 1 1 1 1 1 0.0099806108019623932 1 1 0.01004816630739571 1 1 1 1 1 1 0.013013320115660877 1 1 1 1 1 0.016404720213098925 1 1 1 1 1 1 0.009994459480153095 1 1 1 1 1 1 1 1 1 1 1 1 1 0.0096945328876833579 1 1 1 1 1 1 1 1 1 1 1 0.015157545100310053 1 0.013854645177658265 0.010265646732989797 1 1 0.015352089746684007 1 1 0.013748718102917281 1 1 0.013647852583250535 0.010148644440858003 1 1 1 1 1 1 0.015598891765947528 1 1 0.014507518058550866 0.013640469346112591 1 1 1 1 1 1 1 0.0098439194754775319 0.016475582126091293 1 1 0.011316419108893394 0.015118822667443426 1 1 0.016031179852420807 1 0.010480851709077836 1 1 1 0.015494380699497681 0.01311497464354785 1 0.013291299975024718 1 1 1 1 1 1 1 1 1 1 1 1 1 1 0.0094762793110002436 1 1 1 0.0098134156469571639 1 1 1 1 1 1 0.010496589338337404 1 1 1 0.014336529562142207 1 1 0.015097469155430244 1 1 1 1 1 0.013819444953062955 1 1 1 1 1 1 1 0.0084913362554859401 1 1 0.0099774546987483042 1 1 0.010240438442449516 1 0.014361775990880824 1 1 1 1 0.014592924630867565 1 1 1 1 0.014091692795016273 1 1 1 1 1 0.014913335174099762 1 0.010003259116391921 1 1 1 1 1 1 1 1 1 1 1 0.011162128020415133 1 1 1 1 1 0.012757280827912299 1 1 1 0.012988086935665137 1 1 1 1 0.010006281059302694 1 1 1 1 1 1 0.010329924807381562 1 1 1 0.011153834488329158 1 1 1 1 1 1 0.012738316150238564 1 0.011267051932433792 1 1 1 1 1 0.011588018973552074 1 1 1 1 1 1 1 1 1 1 1 1 1 1 1 1 1 1 1 1 1 1 1 1 0.014439557056613393 0.01029751443119398 1 0.0094868533596645897 1 1 1 1 1 1 1 0.010082436408743069 1 1 1 1 1 1 1 1 0.0099001487350347528 1 1 0.013562194468404103 1 1 1 1 1 1 1 1 1 1 1 1 1 0.010029810621129436 1 1 0.0099999272679127012 1 1 0.010031530604642748 1 1 0.0090025853858871855 1 0.010194853235842323 1 1 1 1 1 1 0.0097936462857772886 1 1 1 1 1 1 1 1 1 1 1 1 1 1 1 1 1 1 1 1 0.013194783310160571 1 1 1 1 0.012406470662412065 1 1 0.010268524787143038 1 1 0.014518790569684539 1 1 1 1 1 0.014290213438942913 1 1 1 1 1 1 1 1 1 1 1 1 1 1 1 1 1 1 1 1 1 1 0.011742949527302652 1 1 1 1 1 1 1 1 1 1 1 1 1 1 1 1 1 1 0.011772490044251738 1 1 1 1 0.0095825769031876937 1 1 1 1 1 0.018663991327063506 1 1 1 1 1 1 1 1 1 1 1 1 1 1 1 1 1 0.011192282431901989 1 1 1 1 0.012944218902398859 1 1 1 1 1 0.012830951891513545 1 0.011003132724587059 1 1 1 1 1 0.011762906192615 1 1 0.010512755652608837 1 1 1 1 1 1 1 1 1 1 1 1 1 1 1 1 1 1 0.010730525954766992 1 1 1 0.016064027948468292 1 1 1 1 1 0.011810005794316392 0.010806873069729335 1 1 1 1 0.0092930141654220359 1 1 0.020910284503981559 1 1 1 1 0.010040496793222598 1 1 1 1 1 1 1 0.010217770302158157 1 1 1 1 1 1 1 1 1 1 1 1 1 1 1 1 1 1 1 1 1 1 1 1 1 1 1 1 1 1 1 1 1 1 0.01637417570214637 1 1 0.013708734960301845 1 1 1 1 1 1 1 1 1 1 0.011177400398498939 1 1 1 1 1 1 1 1 1 1 1 1 1 1 1 1 1 1 1 1 1 1 0.013809304761907323 1 0.016213808753481506 1 1 1 0.023002586352621382 1 1 1 1 1 1 1 1 1 1 1 1 1 1 1 1 1 1 1 1 1 1 1 1 1 1 1 1 1 1 1 1 1 1 1 0.011400262043920023 1 1 0.010002582797864723 1 1 1 1 1 1 1 1 1 1 1 1 0.0099976034582117332 1 1 1 1 1 1 1 1 1 1 1 1 0.012382933316305557 0.013753356650136784 1 0.01608078996747625 1 0.010764976078782533 1 1 1 1 1 1 1 1 1 1 0.0091394821497803331 1 1 1 1 1 1 1 1 0.0076325869577355456 1 1 0.0084498536756345381 1 1 1 1 0.020152147873833921 0.019059431783809255 1 1 1 1 1 1 0.010862829152600751 1 0.010296982804349665 1 1 1 1 1 1 0.017646032123204779 1 0.0098369822609823566 1 1 1 0.012736848935563753 1 1 1 0.013827116812731868 1 1 1 0.010706182619709056 1 1 1 1 1 1 1 1 1 1 1 1 1 1 1 0.011093987962041666 1 0.011259099661628887 1 1 1 1 0.0099750904266532932 0.012781059637462271 1 1 1 1 1 1 1 1 1 1 1 1 1 1 1 1 0.010006100288880359 1 0.010756273988220827 1 1 1 1 0.0099303643743518175 1 1 1 1 1 1 1 1 1 1 1 0.013678303731997311 1 1 1 0.009938896969396498 1 1 1 1 0.0097750866705098513 1 1 1 0.013652628801231807 1 1 0.011509432113826035 1 1 0.0092833806945599433 1 1 1 0.010074397772732085 1 1 1 1 1 1 1 1 1 1 0.010344824919521222 1 1 1 1 1 1 0.014687783708607925 1 0.010002691121063821 1 0.010231294293477362 1 1 0.0098743780316161295 1 1 1 1 1 0.0091718450529194393 0.011354411009910685 1 0.011614815142346545 1 1 0.0099776221517505637 1 1 1 1 1 1 1 1 1 1 1 1 1 1 1 1 1 1 1 1 1 1 1 1 1 1 1 1 1 1 1 1 1 1 1 1 0.010362273961994383 1 1 1 1 1 1 1 0.010462528593005151 1 1 1 1 1 1 1 1 1 1 1 1 1 1 1 0.010165711281619697 1 1 1 1 1 1 1 1 1 1 1 1 1 1 1 1 1 1 1 1 1 1 1 1 1 1 1 1 1 1 1 1 0.0099627478275054714 1 1 1 1 1 1 1 0.010065605814553402 1 1 1 1 1 1 1 1 0.0106030848912421 1 1 1 0.010240810929247715 1 1 1 1 1 0.013967629272770257 1 1 1 0.0070609872496740726 1 1 1 1 1 1 1 0.01336206646938389 0.011201137774438928 1 1 1 1 0.013063201700190914 1 1 1 1 1 1 0.0077232918833575904 1 1 1 1 1 1 1 1 1 1 1 1 1 1 1 1 1 1 1 1 1 1 1 1 1 0.010440377066393457 0.011219967661622985 0.012113976783803625 0.010888771741907754 1 1 1 1 1 0.010701158538929277 1 1 1 1 1 1 1 1 1 1 1 1 1 1 1 1 1 1 1 1 1 1 1 1 1 1 1 1 1 1 1 1 1 1 1 1 1 1 1 1 1 1 1 1 1 0.010295497666212019 1 1 0.0094936495183319397 1 1 1 1 1 1 1 1 1 1 1 1 1 1 1 1 0.008573731738354979 0.0085867252940612683 1 1 1 1 1 1 1 1 1 1 1 1 0.0093930313773752609 1 1 1 1 1 1 1 1 1 1 0.0095773767508793087 1 1 0.015166859380118509 0.009552397277460007 1 1 1 0.010158864358243227 1 1 1 1 1 1 1 1 0.012220929946348959 1 1 1 1 1 0.0082569954547374712 1 1 1 1 1 0.010884198386877373 1 1 1 1 1 1 1 1 1 1 1 1 1 0.0093800378216689732 1 1 1 1 1 1 1 1 1 1 1 1 1 1 0.015379152346105677 1 1 1 1 1 1 1 0.012243894288601799 1 1 1 1 1 1 1 1 1 1 1 1 1 1 1 1 1 1 1 1 1 1 1 1 1 1 1 1 1 1 1 1 1 1 1 1 1 1 1 0.010733373696048772 1 1 1 1 1 1 1 0.010376012807489662 1 1 1 1 1 1 1 1 1 1 1 1 1 1 0.010420835039470253 0.0097011823947834273 0.011326223824375575 1 1 1 0.010054928752706476 1 1 0.010088224250995349 1 1 1 0.010352302694409052 1 1 0.012971373247725222 1 1 1 1 0.01280507602248609 1 0.012239648045831199 1 0.010109681670036695 1 1 0.013523228011269275 1 1 1 1 0.01204041845430767 1 1 1 1 1 1 1 0.010610753444633017 1 1 1 1 0.015082183744330235 1 1 0.015527189327619274 1 1 1 0.012967741743781238 0.011335995719699659 1 1 1 1 1 0.010253392556073914 1 0.012398601784039053 1 1 1 1 1 1 1 1 1 1 1 1 1 1 1 1 1 1 1 1 1 1 1 1 1 1 1 1 0.010324510737472885 1 1 1 0.010846618282213068 1 1 1 1 1 1 1 1 1 1 1 1 1 1 1 1 0.010211333971349011 1 0.0099987473317022929 0.010085218707100189 1 1 1 1 1 0.012159337491614082 1 1 1 1 0.011066075967322279 1 1 1 1 1 1 1 1 1 1 1 1 0.011049194589536619 1 1 1 0.010692945238816256 1 1 1 0.010401125988742814 1 1 0.010467111025380879 1 0.0099959637756864075 1 0.010040852513663462 1 1 1 0.013823929426829525 1 0.010667798578316547 1 1 1 0.012697405412467756 1 0.01279058189074344 1 1 0.011521596188321818 1 1 0.010835938723513135 1 1 1 1 1 1 1 1 1 0.010975496309931887 1 1 0.011007535996419057 1 1 1 0.010600027654604709 1 1 1 1 1 1 1 1 0.011622804669309504 1 0.011475443838230369 1 1 1 0.010439722986533206 1 0.010238064515477197 1 0.011540966501564366 0.011040974317603465 1 1 0.010118866333191354 1 1 0.011931255305497735 1 1 1 0.010027056931870684 1 1 1 1 1 1 0.011404815139295097 0.010797965484846805 1 0.010086746566532948 0.010006038113483244 1 0.01020809492152263 0.011642271143636159 1 1 1 1 1 1 1 1 1 1 0.010013770123642121 1 1 1 1 1 0.010004691954614446 1 1 1 1 1 0.010118283058903917 1 0.020494746079117047 1 1 1 1 1 0.021189528667127061 1 1 1 1 1 1 1 1 1 0.010364981656559094 0.014330324774785144 1 1 0.010006058968964967 0.010431103933401258 1 0.014994818607957178 1 0.012743038488935585 0.013511766669718855 1 1 0.010231275436157726 1 0.0099772009738200215 1 1 1 1 1 1 1 1 1 1 1 1 0.0099879879618610164 1 1 1 1 1 1 1 1 1 1 1 1 1 1 1 1 1 1 1 1 1 1 1 1 1 1 1 1 1 0.010081248693791733 1 1 1 1 0.0099929844583220226 1 1 1 1 1 1 1 1 1 1 1 1 1 1 0.0099451868379899638 1 0.021639177327485631 1 0.010256004542264954 1 1 1 1 1 1 1 0.021690685985189737 1 1 1 1 0.012122625236207104 1 0.011289541258547281 1 1 1 1 1 0.010447072869379678 1 1 1 1 1 1 1 0.0099602681670511381 1 1 0.010024126021465445 1 1 1 1 1 1 1 1 0.0099490813726468615 1 0.010937907172798519 1 1 1 1 0.021191017004495851 1 1 1 1 1 0.020563732633788509 1 1 1 0.010386687384869392 1 1 1 1 1 1 1 1 1 1 1 1 1 1 1 1 1 0.010482005636472162 1 1 1 1 1 1 1 1 1 1 1 1 1 1 1 1 0.01084519166705912 1 1 1 1 1 0.010513123184061888 1 1 1 1 1 0.0097915916828572452 1 1 1 0.010712637027785177 1 1 1 0.014516073381414831 1 1 0.0099767963278094857 1 0.010607931675256577 1 0.012566787621115356 1 1 1 1 1 1 1 0.010177429799209541 1 1 1 1 1 0.010373189029571142 1 1 0.01382350836075414 1 0.009981913297780318 1 1 1 1 0.013296070721815045 1 1 1 1 0.011233865701815339 1 1 1 1 1 1 1 1 1 1 1 1 1 1 1 1 1 1 0.010163146602038993 1 1 0.011511962297403699 1 1 1 1 1 1 1 1 1 1 1 0.01159677016464815 1 1 1 1 1 1 1 1 1 1 1 1 1 1 1 1 1 1 0.01077504987325046 1 1 1 1 0.010590258221901029 1 1 1 1 1 1 1 1 1 1 1 1 1 1 1 1 1 1 1 1 1 1 1 1 1 0.011241878888341361 0.013574390404158691 1 1 1 0.011170286897202304 1 1 1 0.010338119461870094 1 1 1 1 1 1 1 1 1 0.010245343462943516 1 1 1 1 1 1 1 1 1 1 1 1 1 1 1 1 1 1 1 1 1 1 1 1 1 1 1 1 1 1 1 1 1 1 1 1 1 1 1 1 1 1 1 1 1 1 1 1 1 1 1 1 1 1 0.016118563853673794 1 1 1 0.0094942840567713294 1 1 1 1 1 1 0.010508974959296424 1 0.010387576580795662 1 1 1 1 1 1 1 1 0.018245583858301002 1 1 0.010029929462853705 1 1 1 1 1 1 1 1 1 1 1 1 1 1 1 1 1 1 1 1 0.011037633076396061 1 1 1 0.011980470914098566 1 1 1 1 1 1 1 1 1 1 1 1 1 1 0.01000300249800589 1 0.015440060271742556 1 1 0.012962755788087961 0.012382151373995358 1 1 1 1 1 1 1 0.012274119729250035 1 1 1 1 1 1 1 1 1 0.013620719692757211 1 1 1 1 0.011746189290280712 1 1 0.014204078157557018 0.010015314547901584 1 0.014341182236042659 1 0.0098657583162706855 1 1 1 1 0.011808190171572839 1 1 1 1 1 0.010109116200266955 1 1 0.012126082101615438 1 0.011226254164957337 0.010001413061196526 1 1 1 1 1 1 1 1 1 1 1 1 1 1 1 1 1 1 1 1 1 1 1 1 1 1 1 1 1 1 1 1 1 1 1 1 1 1 1 1 1 1 1 1 1 0.010002502186427056 1 0.0099423495026112318 1 1 1 1 1 0.011985964995931631 0.0089838866836482664 1 1 1 1 1 1 1 1 1 0.011638771983101891 1 1 1 1 1 0.011211736566900048 1 1 1 1 1 1 1 1 1 0.0096436007295004275 1 1 0.019011265783465417 1 0.010212827975064002 0.008988222119890199 1 1 1 1 1 1 1 1 1 0.0099388451844779884 0.016855702511654649 1 1 1 1 1 0.010048433251542286 1 1 1 1 1 1 1 1 1 1 1 1 1 1 1 1 0.010424218100643895 1 1 1 1 1 1 1 1 1 1 1 0.010783983095183584 1 1 1 0.011107808412324633 1 1 1 1 0.010235063488389255 1 0.010068755561065302 1 1 1 1 1 1 1 1 1 1 1 1 1 1 1 1 1 1 1 1 1 1 1 1 1 1 1 1 1 1 1 1 1 1 1 1 1 1 1 1 1 1 1 1 1 1 1 1 1 1 0.016292478919473108 1 1 1 1 1 1 1 0.014945216260036899 1 1 1 1 1 1 0.017214474160144037 1 1 0.010050039872324383 1 1 1 1 1 1 1 1 1 1 1 0.013727222625540075 1 0.010042420205203496 0.010025197419144503 1 1 1 0.012316949281286609 1 0.011836694032009674 0.010324212022054221 1 1 0.011841268303261376 0.010734252039906876 1 1 0.011729855615411663 0.010958235555562315 1 1 0.010002133586641603 1 1 1 1 1 1 0.0099991981589410261 1 0.008724341501083914 0.010876127113641706 1 0.011883181907865498 1 0.011208008172069088 0.010009550826496842 0.010233345552700744 1 1 1 0.010275416539850974 1 1 0.0098570586780444003 1 1 1 1 1 1 1 1 1 1 1 1 1 1 1 0.0099561868354070132 1 0.010142077153458761 1 1 1 1 1 1 1 1 1 1 1 1 1 1 1 1 1 1 1 1 0.01001988618246993 0.012806053474955642 1 1 1 1 1 1 1 1 1 1 1 1 1 1 0.011716318671402819 1 1 1 1 1 0.010582493747798913 1 1 1 1 1 1 1 1 1 1 1 1 0.009066989554625756 0.0094960237374783294 1 1 1 1 1 1 1 1 1 1 1 1 1 1 1 1 1 1 1 1 1 1 1 1 0.010100030897132184 1 1 1 1 1 0.010359776116723472 1 1 1 1 1 1 1 1 1 1 1 1 1 1 0.0096045772082839868 1 1 1 1 1 1 1 1 1 1 1 1 1 0.010979246350009332 1 1 1 1 1 1 0.010718554965115021 1 1 1 1 1 1 1 1 1 1 1 1 1 0.012602731828985102 0.0099987814803933553 1 1 1 1 0.0095154394423514147 1 1 1 1 0.0088262248080889609 0.015173552149988201 1 0.01332128445467586 1 1 0.0095428644266417582 1 1 1 0.0098788043506064429 1 1 1 0.013300078892803869 1 1 0.014702483547015911 0.010003257630692271 1 1 1 0.0099659335357996301 1 1 1 0.010262782312604884 1 1 1 1 1 0.013453996202324342 0.016805028119060143 0.014931403871330533 1 1 1 0.016615658009560975 0.010062761595296517 1 1 1 1 0.011754044406006643 1 1 1 1 0.01066923018684602 1 1 1 1 1 1 0.0097172505336266882 1 1 0.0097928498350517736 1 1 0.0086447186643122866 1 1 1 1 1 0.0091608026457331258 0.0099503009689853664 1 1 1 0.014691046351657423 1 1 0.014479652796489884 1 1 1 1 1 1 1 1 1 1 1 1 1 1 0.010223735332197791 0.014205255552984977 1 1 1 1 1 1 1 0.010124390308879369 1 1 1 0.01000378374268707 1 1 0.016263005899331533 1 0.010143632725653561 1 1 1 1 1 1 1 1 1 0.014936568801658036 1 1 1 1 1 1 0.015813381912916959 1 1 1 0.016391096424073742 1 1 1 1 1 0.01534589138061887 0.010021733344359554 0.011646620403147409 1 1 0.01024359454667537 1 1 1 1 1 0.010502016020444815 1 1 1 0.010170137992077725 1 1 1 1 1 1 0.011087551908529097 0.012757539265052019 0.0082802248238290771 1 1 1 1 1 1 0.013155091012909584 1 1 1 1 1 1 1 1 1 1 1 1 1 1 1 1 1 1 1 1 1 0.009966615097803241 1 1 0.010582105915027326 1 1 0.0099223668829722736 1 1 1 1 1 0.010263231629154093 1 1 0.010666899341683267 1 0.010687072385640387 0.010474325139977611 1 1 1 1 1 1 1 1 1 1 0.010404856397824539 1 1 1 1 1 1 1 1 1 1 1 1 1 1 1 1 0.0099949547671939337 1 1 1 0.011114665598859302 1 1 0.010127032179328784 1 1 1 1 1 1 1 1 1 1 1 1 1 1 1 1 0.0098483303262191929 1 1 1 1 1 1 1 1 1 1 0.010263575477251954 0.009990635917265487 1 1 1 1 0.013204728169176207 1 0.014425430202610705 0.013277688279313866 0.015434536769549994 1 1 1 1 1 1 0.010025933181350765 0.010001127509771272 1 1 1 1 1 1 1 0.010003002175155647 1 1 1 1 0.012885239547397275 1 1 0.0098587419845286538 1 0.010157260724315191 0.012543753286691356 0.01227490230162038 1 1 1 1 1 0.011753387469942768 0.010348863440119257 1 0.013440037723607185 1 1 1 1 1 1 1 1 1 1 0.010719153738031272 1 0.011679787293699404 1 1 1 1 1 0.011492878683838583 1 1 0.011437440113856702 1 0.014029627063495989 1 1 1 1 1 1 0.013091231450483444 1 1 1 0.010255603836812994 1 1 1 1 1 1 1 1 1 1 1 1 0.010147375403612529 1 1 1 1 1 1 1 1 1 1 0.014766256282569558 1 1 1 1 1 1 1 1 1 0.0098348631594742733 1 1 1 0.0099925990868519679 1 1 1 1 1 0.010614140273831903 1 1 1 1 1 1 1 1 1 1 1 1 1 0.010285536562899093 1 1 1 1 1 1 0.010147702642302976 1 1 1 0.010407092855809739 1 0.010439710943299709 1 1 1 0.010017328904197743 1 1 1 0.010568324420199039 0.015429723031524381 1 1 1 0.0083759936322477333 0.014883443773268522 0.014525733912047416 1 1 1 1 1 0.012553993727055835 1 1 1 0.010093615776448243 1 1 1 0.010240991180060773 1 1 1 1 1 1 1 1 1 1 0.010387951043676047 1 1 1 1 1 1 1 1 1 1 1 1 1 1 1 1 1 1 1 1 1 1 1 1 1 1 1 1 1 1 1 1 0.013095255474701282 0.0099984133277303752 1 0.010912884205640128 1 1 1 1 1 0.010302815408640103 1 0.015401595180312177 1 1 1 1 1 1 0.015233184791252062 1 1 0.010132027886335901 1 1 0.011509168672903683 1 1 1 0.017170864655574946 0.010019637071331503 1 1 1 1 1 0.011236048375325675 1 1 1 1 1 1 1 1 0.012059687689506198 1 1 1 1 1 1 1 1 0.013291668318003571 1 1 1 1 0.011076303412274564 1 1 1 0.011663023576809707 1 1 1 1 0.014500890420839935 1 0.012765439208116841 0.0068129036140490706 1 1 0.0191625713942387 1 1 1 1 1 1 1 1 1 1 1 1 1 1 0.010105955654865202 1 1 1 1 0.022988495265884562 1 1 1 0.021102662102206109 1 1 1 1 1 1 1 1 1 1 1 1 1 0.017914612943591906 0.013034212237351562 1 0.010448476006416121 1 0.011254081463853462 1 1 0.010845910091496287 1 1 1 1 1 1 1 1 1 1 1 1 1 1 1 1 1 1 1 1 1 1 1 1 1 1 1 1 1 1 1 0.011748590912392911 1 1 1 0.010463288493838837 1 1 1 1 0.010283501962748794 1 1 1 1 0.010081018972675805 0.011314648230601245 1 1 1 1 1 1 0.011044011327621553 1 1 1 1 0.0098466526674170461 1 1 1 1 1 1 1 0.010893495850915029 1 1 1 1 1 1 1 1 1 0.010823840148070566 1 1 0.010012446229121411 1 1 1 1 1 1 1 1 0.010149999767891712 1 1 0.010099009749862626 1 1 1 1 1 1 1 0.010458641422596266 1 1 1 0.010618418923472567 0.010509671322113884 1 0.010568964170803673 1 0.01095168997994928 1 1 1 1 0.011072225060274027 0.0099390081169272153 1 1 1 0.010181927452202194 1 0.010488087547354677 1 1 0.010220296701897736 1 1 0.010587205787058084 0.010737128455320398 1 1 1 1 1 1 1 1 1 1 1 1 0.010162607750510803 1 1 1 1 1 1 0.010116926870506381 1 1 1 1 1 1 1 1 1 1 1 0.010858482890396136 1 1 1 1 1 0.010061835147897573 0.01017215053335942 1 1 1 1 1 1 1 1 1 1 1 1 1 1 1 1 1 1 1 1 1 1 1 1 1 1 1 0.010297819701632979 1 1 1 1 1 1 1 1 1 1 1 1 1 1 1 1 1 1 1 1 1 1 1 1 1 1 1 1 1 1 1 1 
</DataArray>
</CellData>
</Piece>
</UnstructuredGrid>
</VTKFile>
